<?xml version="1.0"?>
<VTKFile type="UnstructuredGrid" version="0.1" byte_order="LittleEndian">
<UnstructuredGrid>
<Piece NumberOfPoints="29934" NumberOfCells="10516">
<Points>
<DataArray type="Float64" NumberOfComponents="3" format="ascii">
-0.5 -0.5 0 -0.46762736676955269 -0.47409617252917879 0 -0.43560460907974868 -0.50000000000000056 0 -0.5 -0.5 0 -0.46762736676955269 -0.47409617252917879 0 -0.49999999999999961 -0.44826748862051452 0 -0.46762736676955269 -0.47409617252917879 0 -0.43772196989477707 -0.47257531725526558 0 -0.43560460907974868 -0.50000000000000056 0 -0.46762736676955269 -0.47409617252917879 0 -0.43772196989477707 -0.47257531725526558 0 -0.45377708318226001 -0.4596327964651245 0 -0.43772196989477707 -0.47257531725526558 0 -0.43983933070980669 -0.44515063451053072 0 -0.45377708318226001 -0.4596327964651245 0 -0.43772196989477707 -0.47257531725526558 0 -0.43983933070980669 -0.44515063451053072 0 -0.46762736676955269 -0.47409617252917879 0 -0.45377708318226001 -0.4596327964651245 0 -0.46991966535490309 -0.44670906156552259 0 -0.43983933070980669 -0.44515063451053072 0 -0.46991966535490309 -0.44670906156552259 0 -0.43983933070980669 -0.44515063451053072 0 -0.45377708318226001 -0.4596327964651245 0 -0.46991966535490309 -0.44670906156552259 0 -0.43983933070980669 -0.44515063451053072 0 -0.46991966535490309 -0.44670906156552259 0 -0.45684144257326009 -0.43007718344363638 0 -0.46762736676955269 -0.47409617252917879 0 -0.46991966535490309 -0.44670906156552259 0 -0.49999999999999961 -0.44826748862051452 0 -0.46991966535490309 -0.44670906156552259 0 -0.49999999999999961 -0.44826748862051452 0 -0.46991966535490309 -0.44670906156552259 0 -0.49999999999999961 -0.44826748862051452 0 -0.48625309581259402 -0.43464866171576733 0 -0.5 -0.42476393632784593 0 -0.48625309581259402 -0.43464866171576733 0 -0.47509271789547319 -0.41885416034918632 0 -0.49999999999999961 -0.44826748862051452 0 -0.5 -0.42476393632784593 0 -0.48625309581259402 -0.43464866171576733 0 -0.5 -0.42476393632784593 0 -0.47509271789547319 -0.41885416034918632 0 -0.5 -0.40126038403517739 0 -0.46991966535490309 -0.44670906156552259 0 -0.48625309581259402 -0.43464866171576733 0 -0.47509271789547319 -0.41885416034918632 0 -0.5 -0.37775683174250879 0 -0.5 -0.40126038403517739 0 -0.48264375600015208 -0.37810847329754932 0 -0.5 -0.40126038403517739 0 -0.47437189542094338 -0.39359097651992597 0 -0.48264375600015208 -0.37810847329754932 0 -0.47509271789547319 -0.41885416034918632 0 -0.5 -0.40126038403517739 0 -0.47437189542094338 -0.39359097651992597 0 -0.47509271789547319 -0.41885416034918632 0 -0.47437189542094338 -0.39359097651992597 0 -0.45913213784758039 -0.4046238603719049 0 -0.47437189542094338 -0.39359097651992597 0 -0.48264375600015208 -0.37810847329754932 0 -0.46232592600273609 -0.3813298561100994 0 -0.47437189542094338 -0.39359097651992597 0 -0.46232592600273609 -0.3813298561100994 0 -0.45913213784758039 -0.4046238603719049 0 -0.46232592600273609 -0.3813298561100994 0 -0.45913213784758039 -0.4046238603719049 0 -0.44412567168299771 -0.38963268004040857 0 -0.44412567168299771 -0.38963268004040857 0 -0.44198250119640148 -0.41739165727546951 0 -0.44412567168299771 -0.38963268004040857 0 -0.44198250119640148 -0.41739165727546951 0 -0.43218985944351013 -0.40342574304108619 0 -0.45913213784758039 -0.4046238603719049 0 -0.44412567168299771 -0.38963268004040857 0 -0.44198250119640148 -0.41739165727546951 0 -0.44412567168299771 -0.38963268004040857 0 -0.44626884216959378 -0.36187370280534759 0 -0.46232592600273609 -0.3813298561100994 0 -0.44412567168299771 -0.38963268004040857 0 -0.44626884216959378 -0.36187370280534759 0 -0.44412567168299771 -0.38963268004040857 0 -0.43791474735390912 -0.38332244439929392 0 -0.44626884216959378 -0.36187370280534759 0 -0.46991966535490309 -0.44670906156552259 0 -0.47509271789547319 -0.41885416034918632 0 -0.45684144257326009 -0.43007718344363638 0 -0.47509271789547319 -0.41885416034918632 0 -0.45913213784758039 -0.4046238603719049 0 -0.45684144257326009 -0.43007718344363638 0 -0.45913213784758039 -0.4046238603719049 0 -0.45684144257326009 -0.43007718344363638 0 -0.44198250119640148 -0.41739165727546951 0 -0.43983933070980669 -0.44515063451053072 0 -0.45684144257326009 -0.43007718344363638 0 -0.44198250119640148 -0.41739165727546951 0 -0.43983933070980669 -0.44515063451053072 0 -0.44198250119640148 -0.41739165727546951 0 -0.43983933070980669 -0.44515063451053072 0 -0.44198250119640148 -0.41739165727546951 0 -0.42702082230643101 -0.42877332507398619 0 -0.44198250119640148 -0.41739165727546951 0 -0.42702082230643101 -0.42877332507398619 0 -0.42662463509224258 -0.41514759188608569 0 -0.44198250119640148 -0.41739165727546951 0 -0.42662463509224258 -0.41514759188608569 0 -0.43218985944351013 -0.40342574304108619 0 -0.42662463509224258 -0.41514759188608569 0 -0.43218985944351013 -0.40342574304108619 0 -0.41902822484986341 -0.40383216776077019 0 -0.41056900679878189 -0.42194665790661928 0 -0.41902822484986341 -0.40383216776077019 0 -0.40532883761082872 -0.40142899444776797 0 -0.42662463509224258 -0.41514759188608569 0 -0.41056900679878189 -0.42194665790661928 0 -0.41902822484986341 -0.40383216776077019 0 -0.41056900679878189 -0.42194665790661928 0 -0.39727600112878991 -0.44294547804694051 0 -0.41855766591929838 -0.44404805627873573 0 -0.42702082230643101 -0.42877332507398619 0 -0.42662463509224258 -0.41514759188608569 0 -0.41056900679878189 -0.42194665790661928 0 -0.42702082230643101 -0.42877332507398619 0 -0.41056900679878189 -0.42194665790661928 0 -0.41855766591929838 -0.44404805627873573 0 -0.42742859016246981 -0.37678441008047658 0 -0.42918826439604529 -0.3911246182426969 0 -0.41343349607248392 -0.39041141666690432 0 -0.43791474735390912 -0.38332244439929392 0 -0.42742859016246981 -0.37678441008047658 0 -0.42918826439604529 -0.3911246182426969 0 -0.44412567168299771 -0.38963268004040857 0 -0.43791474735390912 -0.38332244439929392 0 -0.42918826439604529 -0.3911246182426969 0 -0.44412567168299771 -0.38963268004040857 0 -0.42918826439604529 -0.3911246182426969 0 -0.43218985944351013 -0.40342574304108619 0 -0.42918826439604529 -0.3911246182426969 0 -0.43218985944351013 -0.40342574304108619 0 -0.41902822484986341 -0.40383216776077019 0 -0.42918826439604529 -0.3911246182426969 0 -0.41902822484986341 -0.40383216776077019 0 -0.41343349607248392 -0.39041141666690432 0 -0.41902822484986341 -0.40383216776077019 0 -0.41343349607248392 -0.39041141666690432 0 -0.40532883761082872 -0.40142899444776797 0 -0.42742859016246981 -0.37678441008047658 0 -0.40468887922437252 -0.37724770059752027 0 -0.42742859016246981 -0.37678441008047658 0 -0.41343349607248392 -0.39041141666690432 0 -0.40468887922437252 -0.37724770059752027 0 -0.40468887922437252 -0.37724770059752027 0 -0.38194916828627518 -0.37771099111456408 0 -0.40468887922437252 -0.37724770059752027 0 -0.39493818019132387 -0.39205060887219378 0 -0.38194916828627518 -0.37771099111456408 0 -0.41343349607248392 -0.39041141666690432 0 -0.40468887922437252 -0.37724770059752027 0 -0.39493818019132387 -0.39205060887219378 0 -0.39493818019132387 -0.39205060887219378 0 -0.40532883761082872 -0.40142899444776797 0 -0.39277456519772042 -0.4099560525308672 0 -0.41343349607248392 -0.39041141666690432 0 -0.39493818019132387 -0.39205060887219378 0 -0.40532883761082872 -0.40142899444776797 0 -0.39493818019132387 -0.39205060887219378 0 -0.37598509500569272 -0.39823253503515998 0 -0.39277456519772042 -0.4099560525308672 0 -0.39493818019132387 -0.39205060887219378 0 -0.37598509500569272 -0.39823253503515998 0 -0.38194916828627518 -0.37771099111456408 0 -0.37598509500569272 -0.39823253503515998 0 -0.38194916828627518 -0.37771099111456408 0 -0.36794806572274641 -0.38789943445554981 0 -0.41056900679878189 -0.42194665790661928 0 -0.39030060063932043 -0.42731579243036771 0 -0.39727600112878991 -0.44294547804694051 0 -0.41056900679878189 -0.42194665790661928 0 -0.40532883761082872 -0.40142899444776797 0 -0.39277456519772042 -0.4099560525308672 0 -0.41056900679878189 -0.42194665790661928 0 -0.39277456519772042 -0.4099560525308672 0 -0.39030060063932043 -0.42731579243036771 0 -0.39277456519772042 -0.4099560525308672 0 -0.39030060063932043 -0.42731579243036771 0 -0.37488909373302781 -0.41988787385226561 0 -0.37598509500569272 -0.39823253503515998 0 -0.39277456519772042 -0.4099560525308672 0 -0.37488909373302781 -0.41988787385226561 0 -0.39030060063932043 -0.42731579243036771 0 -0.3759943363382815 -0.44184289981514541 0 -0.39727600112878991 -0.44294547804694051 0 -0.39030060063932043 -0.42731579243036771 0 -0.3759943363382815 -0.44184289981514541 0 -0.37488909373302781 -0.41988787385226561 0 -0.3759943363382815 -0.44184289981514541 0 -0.39727600112878991 -0.44294547804694051 0 -0.3759943363382815 -0.44184289981514541 0 -0.39727600112878991 -0.44294547804694051 0 -0.38920447147529519 -0.46172994394109163 0 -0.39727600112878991 -0.44294547804694051 0 -0.40597569155464153 -0.45637079042433382 0 -0.38920447147529519 -0.46172994394109163 0 -0.40597569155464153 -0.45637079042433382 0 -0.38920447147529519 -0.46172994394109163 0 -0.4135995120771444 -0.47043496429189152 0 -0.3759943363382815 -0.44184289981514541 0 -0.38920447147529519 -0.46172994394109163 0 -0.37310865864376852 -0.45653282154445002 0 -0.38920447147529519 -0.46172994394109163 0 -0.37427480159930482 -0.46751936413266731 0 -0.37310865864376852 -0.45653282154445002 0 -0.38920447147529519 -0.46172994394109163 0 -0.38007567615417798 -0.47700737555269518 0 -0.39219890587423079 -0.48177022503521377 0 -0.38920447147529519 -0.46172994394109163 0 -0.38007567615417798 -0.47700737555269518 0 -0.37427480159930482 -0.46751936413266731 0 -0.38007567615417798 -0.47700737555269518 0 -0.39219890587423079 -0.48177022503521377 0 -0.37266329855325669 -0.48748192881742952 0 -0.38054789694558239 -0.5 0 -0.39219890587423079 -0.48177022503521377 0 -0.37266329855325669 -0.48748192881742952 0 -0.39219890587423079 -0.48177022503521377 0 -0.37266329855325669 -0.48748192881742952 0 -0.38054789694558239 -0.5 0 -0.39219890587423079 -0.48177022503521377 0 -0.40807625301266559 -0.5 0 -0.38920447147529519 -0.46172994394109163 0 -0.39219890587423079 -0.48177022503521377 0 -0.4135995120771444 -0.47043496429189152 0 -0.39219890587423079 -0.48177022503521377 0 -0.4135995120771444 -0.47043496429189152 0 -0.42184043104620728 -0.48727294814781918 0 -0.39219890587423079 -0.48177022503521377 0 -0.42184043104620728 -0.48727294814781918 0 -0.40807625301266559 -0.5 0 -0.42184043104620728 -0.48727294814781918 0 -0.40807625301266559 -0.5 0 -0.43560460907974868 -0.50000000000000056 0 -0.43772196989477707 -0.47257531725526558 0 -0.43560460907974868 -0.50000000000000056 0 -0.43772196989477707 -0.47257531725526558 0 -0.42184043104620728 -0.48727294814781918 0 -0.43560460907974868 -0.50000000000000056 0 -0.43772196989477707 -0.47257531725526558 0 -0.4135995120771444 -0.47043496429189152 0 -0.42184043104620728 -0.48727294814781918 0 -0.43772196989477707 -0.47257531725526558 0 -0.43983933070980669 -0.44515063451053072 0 -0.42576502276806111 -0.45788901729483128 0 -0.43772196989477707 -0.47257531725526558 0 -0.4135995120771444 -0.47043496429189152 0 -0.42576502276806111 -0.45788901729483128 0 -0.43983933070980669 -0.44515063451053072 0 -0.42576502276806111 -0.45788901729483128 0 -0.41855766591929838 -0.44404805627873573 0 -0.43983933070980669 -0.44515063451053072 0 -0.42702082230643101 -0.42877332507398619 0 -0.41855766591929838 -0.44404805627873573 0 -0.43983933070980669 -0.44515063451053072 0 -0.41855766591929838 -0.44404805627873573 0 -0.40597569155464153 -0.45637079042433382 0 -0.42576502276806111 -0.45788901729483128 0 -0.41855766591929838 -0.44404805627873573 0 -0.39727600112878991 -0.44294547804694051 0 -0.41855766591929838 -0.44404805627873573 0 -0.39727600112878991 -0.44294547804694051 0 -0.40597569155464153 -0.45637079042433382 0 -0.41855766591929838 -0.44404805627873573 0 -0.40597569155464153 -0.45637079042433382 0 -0.4135995120771444 -0.47043496429189152 0 -0.42576502276806111 -0.45788901729483128 0 -0.45462712384395731 -0.25361476952217549 0 -0.43193696180114138 -0.26239194143137751 0 -0.43534344162737859 -0.24047631527095989 0 -0.45253755342536639 -0.28067950284296861 0 -0.45462712384395731 -0.25361476952217549 0 -0.43193696180114138 -0.26239194143137751 0 -0.45253755342536639 -0.28067950284296861 0 -0.43007187623913462 -0.28321138058685241 0 -0.43193696180114138 -0.26239194143137751 0 -0.45253755342536639 -0.28067950284296861 0 -0.45462712384395731 -0.25361476952217549 0 -0.45253755342536639 -0.28067950284296861 0 -0.46894235272216578 -0.26490046219189928 0 -0.47290563571084188 -0.27763288487760102 0 -0.45253755342536639 -0.28067950284296861 0 -0.45462712384395731 -0.25361476952217549 0 -0.46894235272216578 -0.26490046219189928 0 -0.45462712384395731 -0.25361476952217549 0 -0.46894235272216578 -0.26490046219189928 0 -0.47835834713127418 -0.24540240771098509 0 -0.46894235272216578 -0.26490046219189928 0 -0.48317427297311188 -0.26799484265998752 0 -0.47835834713127418 -0.24540240771098509 0 -0.50000000000000089 -0.2642547792205876 0 -0.48317427297311188 -0.26799484265998752 0 -0.47835834713127418 -0.24540240771098509 0 -0.50000000000000089 -0.2642547792205876 0 -0.47835834713127418 -0.24540240771098509 0 -0.50000000000000089 -0.2642547792205876 0 -0.49295224504147628 -0.27473077950044222 0 -0.48317427297311188 -0.26799484265998752 0 -0.50000000000000089 -0.2642547792205876 0 -0.49295224504147628 -0.27473077950044222 0 -0.50000000000000067 -0.28221430152839228 0 -0.49295224504147628 -0.27473077950044222 0 -0.50000000000000067 -0.28221430152839228 0 -0.49371030253098858 -0.28144126851717882 0 -0.49295224504147628 -0.27473077950044222 0 -0.48538206319343552 -0.28115610139215891 0 -0.49371030253098858 -0.28144126851717882 0 -0.49295224504147628 -0.27473077950044222 0 -0.48538206319343552 -0.28115610139215891 0 -0.48317427297311188 -0.26799484265998752 0 -0.48538206319343552 -0.28115610139215891 0 -0.48317427297311188 -0.26799484265998752 0 -0.47290563571084188 -0.27763288487760102 0 -0.46894235272216578 -0.26490046219189928 0 -0.48317427297311188 -0.26799484265998752 0 -0.47290563571084188 -0.27763288487760102 0 -0.48538206319343552 -0.28115610139215891 0 -0.47290563571084188 -0.27763288487760102 0 -0.47109253045449428 -0.29035816410203502 0 -0.48538206319343552 -0.28115610139215891 0 -0.47109253045449428 -0.29035816410203502 0 -0.48782200501787748 -0.29335706137385043 0 -0.48538206319343552 -0.28115610139215891 0 -0.49139083793147709 -0.28512692703917369 0 -0.48782200501787748 -0.29335706137385043 0 -0.48782200501787748 -0.29335706137385043 0 -0.49847159547866338 -0.28512832062128951 0 -0.48957028302047589 -0.30209934765823121 0 -0.48538206319343552 -0.28115610139215891 0 -0.48782200501787748 -0.29335706137385043 0 -0.49847159547866338 -0.28512832062128951 0 -0.48957028302047589 -0.30209934765823121 0 -0.48538206319343552 -0.28115610139215891 0 -0.49139083793147709 -0.28512692703917369 0 -0.49371030253098858 -0.28144126851717882 0 -0.50000000000000044 -0.28394735083494432 0 -0.49847159547866338 -0.28512832062128951 0 -0.5 -0.30738266037324291 0 -0.48782200501787748 -0.29335706137385043 0 -0.49847159547866338 -0.28512832062128951 0 -0.49139083793147709 -0.28512692703917369 0 -0.48782200501787748 -0.29335706137385043 0 -0.49847159547866338 -0.28512832062128951 0 -0.50000000000000044 -0.28394735083494432 0 -0.49847159547866338 -0.28512832062128951 0 -0.49847159547866338 -0.28512832062128951 0 -0.50000000000000067 -0.28221430152839228 0 -0.50000000000000044 -0.28394735083494432 0 -0.49847159547866338 -0.28512832062128951 0 -0.50000000000000067 -0.28221430152839228 0 -0.49847159547866338 -0.28512832062128951 0 -0.50000000000000067 -0.28221430152839228 0 -0.49371030253098858 -0.28144126851717882 0 -0.49139083793147709 -0.28512692703917369 0 -0.49847159547866338 -0.28512832062128951 0 -0.49371030253098858 -0.28144126851717882 0 -0.49847159547866338 -0.28512832062128951 0 -0.5 -0.30738266037324291 0 -0.48957028302047589 -0.30209934765823121 0 -0.48782200501787748 -0.29335706137385043 0 -0.48957028302047589 -0.30209934765823121 0 -0.48162704183627469 -0.30564918228004501 0 -0.48782200501787748 -0.29335706137385043 0 -0.48957028302047589 -0.30209934765823121 0 -0.48957028302047589 -0.30209934765823121 0 -0.48146960534982441 -0.31754390377419778 0 -0.48782200501787748 -0.29335706137385043 0 -0.46977322335036498 -0.30730301974552587 0 -0.48782200501787748 -0.29335706137385043 0 -0.48162704183627469 -0.30564918228004501 0 -0.46977322335036498 -0.30730301974552587 0 -0.48957028302047589 -0.30209934765823121 0 -0.48162704183627469 -0.30564918228004501 0 -0.48146960534982441 -0.31754390377419778 0 -0.47109253045449428 -0.29035816410203502 0 -0.48782200501787748 -0.29335706137385043 0 -0.46977322335036498 -0.30730301974552587 0 -0.48162704183627469 -0.30564918228004501 0 -0.46977322335036498 -0.30730301974552587 0 -0.48146960534982441 -0.31754390377419778 0 -0.47109253045449428 -0.29035816410203502 0 -0.46977322335036498 -0.30730301974552587 0 -0.46096282255925031 -0.29652123071357278 0 -0.46977322335036498 -0.30730301974552587 0 -0.46096282255925031 -0.29652123071357278 0 -0.45044798300677558 -0.30774423616376162 0 -0.46977322335036498 -0.30730301974552587 0 -0.45044798300677558 -0.30774423616376162 0 -0.45172444168285297 -0.32124897811720232 0 -0.45253755342536639 -0.28067950284296861 0 -0.46096282255925031 -0.29652123071357278 0 -0.45044798300677558 -0.30774423616376162 0 -0.45253755342536639 -0.28067950284296861 0 -0.47109253045449428 -0.29035816410203502 0 -0.46096282255925031 -0.29652123071357278 0 -0.45253755342536639 -0.28067950284296861 0 -0.47290563571084188 -0.27763288487760102 0 -0.47109253045449428 -0.29035816410203502 0 -0.45253755342536639 -0.28067950284296861 0 -0.45044798300677558 -0.30774423616376162 0 -0.45253755342536639 -0.28067950284296861 0 -0.43722289379486279 -0.29900432221361373 0 -0.43007187623913462 -0.28321138058685241 0 -0.45253755342536639 -0.28067950284296861 0 -0.45044798300677558 -0.30774423616376162 0 -0.43722289379486279 -0.29900432221361373 0 -0.45044798300677558 -0.30774423616376162 0 -0.43846014752285439 -0.31291573011853863 0 -0.43722289379486279 -0.29900432221361373 0 -0.45044798300677558 -0.30774423616376162 0 -0.44835841258818482 -0.33480896948455457 0 -0.45044798300677558 -0.30774423616376162 0 -0.45172444168285297 -0.32124897811720232 0 -0.44835841258818482 -0.33480896948455457 0 -0.45044798300677558 -0.30774423616376162 0 -0.43846014752285439 -0.31291573011853863 0 -0.44470045775542749 -0.32636555832019198 0 -0.45044798300677558 -0.30774423616376162 0 -0.44470045775542749 -0.32636555832019198 0 -0.44835841258818482 -0.33480896948455457 0 -0.43846014752285439 -0.31291573011853863 0 -0.44470045775542749 -0.32636555832019198 0 -0.43160087037746492 -0.32079554726749349 0 -0.44835841258818482 -0.33480896948455457 0 -0.43370168970333328 -0.35119207997395052 0 -0.4319620785306067 -0.34252641260057459 0 -0.44470045775542749 -0.32636555832019198 0 -0.44835841258818482 -0.33480896948455457 0 -0.43746893959405508 -0.33524328474539539 0 -0.44835841258818482 -0.33480896948455457 0 -0.4319620785306067 -0.34252641260057459 0 -0.43746893959405508 -0.33524328474539539 0 -0.45172444168285297 -0.32124897811720232 0 -0.44835841258818482 -0.33480896948455457 0 -0.46044855845169758 -0.33131985269495212 0 -0.44835841258818482 -0.33480896948455457 0 -0.46044855845169758 -0.33131985269495212 0 -0.4617215826786773 -0.34568488418603088 0 -0.46044855845169758 -0.33131985269495212 0 -0.47336892767917138 -0.33298845989016351 0 -0.4617215826786773 -0.34568488418603088 0 -0.46044855845169758 -0.33131985269495212 0 -0.46706942762960119 -0.32186797179680932 0 -0.47336892767917138 -0.33298845989016351 0 -0.46977322335036498 -0.30730301974552587 0 -0.45172444168285297 -0.32124897811720232 0 -0.46706942762960119 -0.32186797179680932 0 -0.46977322335036498 -0.30730301974552587 0 -0.45172444168285297 -0.32124897811720232 0 -0.45172444168285297 -0.32124897811720232 0 -0.46044855845169758 -0.33131985269495212 0 -0.46706942762960119 -0.32186797179680932 0 -0.46977322335036498 -0.30730301974552587 0 -0.46706942762960119 -0.32186797179680932 0 -0.48146960534982441 -0.31754390377419778 0 -0.48146960534982441 -0.31754390377419778 0 -0.49478514151023772 -0.32817631355403593 0 -0.47336892767917138 -0.33298845989016351 0 -0.46706942762960119 -0.32186797179680932 0 -0.48146960534982441 -0.31754390377419778 0 -0.47336892767917138 -0.33298845989016351 0 -0.48146960534982441 -0.31754390377419778 0 -0.47336892767917138 -0.33298845989016351 0 -0.48957028302047589 -0.30209934765823121 0 -0.48146960534982441 -0.31754390377419778 0 -0.49478514151023772 -0.32817631355403593 0 -0.5 -0.30738266037324291 0 -0.48957028302047589 -0.30209934765823121 0 -0.49478514151023772 -0.32817631355403593 0 -0.5 -0.30738266037324291 0 -0.49478514151023772 -0.32817631355403593 0 -0.5 -0.33081796991154172 0 -0.48957028302047589 -0.30209934765823121 0 -0.49478514151023772 -0.32817631355403593 0 -0.49478514151023772 -0.32817631355403593 0 -0.47336892767917138 -0.33298845989016351 0 -0.48544344367290942 -0.34517506568458001 0 -0.49478514151023772 -0.32817631355403593 0 -0.48544344367290942 -0.34517506568458001 0 -0.50000000000000044 -0.35425327944984031 0 -0.49478514151023772 -0.32817631355403593 0 -0.50000000000000044 -0.35425327944984031 0 -0.49478514151023772 -0.32817631355403593 0 -0.5 -0.33081796991154172 0 -0.50000000000000044 -0.35425327944984031 0 -0.47336892767917138 -0.33298845989016351 0 -0.47426424023603109 -0.35027086433491839 0 -0.4617215826786773 -0.34568488418603088 0 -0.47336892767917138 -0.33298845989016351 0 -0.47426424023603109 -0.35027086433491839 0 -0.48544344367290942 -0.34517506568458001 0 -0.47426424023603109 -0.35027086433491839 0 -0.48841059223073141 -0.36207190937526279 0 -0.4673397172001626 -0.36197280609030519 0 -0.47426424023603109 -0.35027086433491839 0 -0.48544344367290942 -0.34517506568458001 0 -0.48841059223073141 -0.36207190937526279 0 -0.48544344367290942 -0.34517506568458001 0 -0.50000000000000044 -0.35425327944984031 0 -0.48841059223073141 -0.36207190937526279 0 -0.5 -0.37775683174250879 0 -0.50000000000000044 -0.35425327944984031 0 -0.48841059223073141 -0.36207190937526279 0 -0.5 -0.37775683174250879 0 -0.48264375600015208 -0.37810847329754932 0 -0.48841059223073141 -0.36207190937526279 0 -0.48264375600015208 -0.37810847329754932 0 -0.48841059223073141 -0.36207190937526279 0 -0.4673397172001626 -0.36197280609030519 0 -0.48841059223073141 -0.36207190937526279 0 -0.4673397172001626 -0.36197280609030519 0 -0.48264375600015208 -0.37810847329754932 0 -0.46232592600273609 -0.3813298561100994 0 -0.4673397172001626 -0.36197280609030519 0 -0.4673397172001626 -0.36197280609030519 0 -0.44626884216959378 -0.36187370280534759 0 -0.46232592600273609 -0.3813298561100994 0 -0.4673397172001626 -0.36197280609030519 0 -0.44626884216959378 -0.36187370280534759 0 -0.47426424023603109 -0.35027086433491839 0 -0.4673397172001626 -0.36197280609030519 0 -0.4617215826786773 -0.34568488418603088 0 -0.4673397172001626 -0.36197280609030519 0 -0.4617215826786773 -0.34568488418603088 0 -0.44626884216959378 -0.36187370280534759 0 -0.44835841258818482 -0.33480896948455457 0 -0.44626884216959378 -0.36187370280534759 0 -0.44835841258818482 -0.33480896948455457 0 -0.44626884216959378 -0.36187370280534759 0 -0.43370168970333328 -0.35119207997395052 0 -0.44835841258818482 -0.33480896948455457 0 -0.4617215826786773 -0.34568488418603088 0 -0.44626884216959378 -0.36187370280534759 0 -0.43791474735390912 -0.38332244439929392 0 -0.41770612233537169 -0.3617393628997318 0 -0.44626884216959378 -0.36187370280534759 0 -0.41770612233537169 -0.3617393628997318 0 -0.43791474735390912 -0.38332244439929392 0 -0.42742859016246981 -0.37678441008047658 0 -0.41770612233537169 -0.3617393628997318 0 -0.43791474735390912 -0.38332244439929392 0 -0.44626884216959378 -0.36187370280534759 0 -0.41770612233537169 -0.3617393628997318 0 -0.44626884216959378 -0.36187370280534759 0 -0.43370168970333328 -0.35119207997395052 0 -0.41770612233537169 -0.3617393628997318 0 -0.43370168970333328 -0.35119207997395052 0 -0.41815663964893668 -0.34859307763639891 0 -0.41770612233537169 -0.3617393628997318 0 -0.43370168970333328 -0.35119207997395052 0 -0.41815663964893668 -0.34859307763639891 0 -0.4319620785306067 -0.34252641260057459 0 -0.41770612233537169 -0.3617393628997318 0 -0.40197462921503258 -0.36166537249148822 0 -0.40500916124857461 -0.34817883883232759 0 -0.41815663964893668 -0.34859307763639891 0 -0.40500916124857461 -0.34817883883232759 0 -0.42485480950200161 -0.33727219857626062 0 -0.41815663964893668 -0.34859307763639891 0 -0.41770612233537169 -0.3617393628997318 0 -0.40500916124857461 -0.34817883883232759 0 -0.41770612233537169 -0.3617393628997318 0 -0.40500916124857461 -0.34817883883232759 0 -0.42742859016246981 -0.37678441008047658 0 -0.40468887922437252 -0.37724770059752027 0 -0.41770612233537169 -0.3617393628997318 0 -0.41770612233537169 -0.3617393628997318 0 -0.40197462921503258 -0.36166537249148822 0 -0.40468887922437252 -0.37724770059752027 0 -0.41770612233537169 -0.3617393628997318 0 -0.40197462921503258 -0.36166537249148822 0 -0.40197462921503258 -0.36166537249148822 0 -0.38624313609469341 -0.36159138208324682 0 -0.40468887922437252 -0.37724770059752027 0 -0.38194916828627518 -0.37771099111456408 0 -0.38624313609469341 -0.36159138208324682 0 -0.40468887922437252 -0.37724770059752027 0 -0.40197462921503258 -0.36166537249148822 0 -0.38624313609469341 -0.36159138208324682 0 -0.40197462921503258 -0.36166537249148822 0 -0.38624313609469341 -0.36159138208324682 0 -0.39903616067961822 -0.35598827356021262 0 -0.38194916828627518 -0.37771099111456408 0 -0.38624313609469341 -0.36159138208324682 0 -0.36045921166592071 -0.37288426483861847 0 -0.38624313609469341 -0.36159138208324682 0 -0.38065164182393091 -0.36156508343882499 0 -0.36045921166592071 -0.37288426483861847 0 -0.38624313609469341 -0.36159138208324682 0 -0.38065164182393091 -0.36156508343882499 0 -0.39903616067961822 -0.35598827356021262 0 -0.38624313609469341 -0.36159138208324682 0 -0.38065164182393091 -0.36156508343882499 0 -0.38065164182393091 -0.36156508343882499 0 -0.38309395679338121 -0.34819032032250952 0 -0.40500916124857461 -0.34817883883232759 0 -0.38309395679338121 -0.34819032032250952 0 -0.37409302773807718 -0.33685317060424669 0 -0.36940070244839862 -0.35157087958641953 0 -0.38065164182393091 -0.36156508343882499 0 -0.37680448164090752 -0.35604321335415662 0 -0.36976846171362449 -0.36047886139672591 0 -0.38065164182393091 -0.36156508343882499 0 -0.37680448164090752 -0.35604321335415662 0 -0.38309395679338121 -0.34819032032250952 0 -0.37680448164090752 -0.35604321335415662 0 -0.38309395679338121 -0.34819032032250952 0 -0.36940070244839862 -0.35157087958641953 0 -0.38065164182393091 -0.36156508343882499 0 -0.39903616067961822 -0.35598827356021262 0 -0.40500916124857461 -0.34817883883232759 0 -0.38309395679338121 -0.34819032032250952 0 -0.40500916124857461 -0.34817883883232759 0 -0.39260472586039907 -0.33493073611908258 0 -0.38065164182393091 -0.36156508343882499 0 -0.40500916124857461 -0.34817883883232759 0 -0.38624313609469341 -0.36159138208324682 0 -0.39903616067961822 -0.35598827356021262 0 -0.40197462921503258 -0.36166537249148822 0 -0.39903616067961822 -0.35598827356021262 0 -0.40500916124857461 -0.34817883883232759 0 -0.39260472586039907 -0.33493073611908258 0 -0.419481026829647 -0.33213964005239321 0 -0.40500916124857461 -0.34817883883232759 0 -0.39260472586039907 -0.33493073611908258 0 -0.40500916124857461 -0.34817883883232759 0 -0.39260472586039907 -0.33493073611908258 0 -0.419481026829647 -0.33213964005239321 0 -0.39260472586039907 -0.33493073611908258 0 -0.37409302773807718 -0.33685317060424669 0 -0.38309395679338121 -0.34819032032250952 0 -0.39260472586039907 -0.33493073611908258 0 -0.37409302773807718 -0.33685317060424669 0 -0.39260472586039907 -0.33493073611908258 0 -0.3793630942468702 -0.32078849665252951 0 -0.37409302773807718 -0.33685317060424669 0 -0.39260472586039907 -0.33493073611908258 0 -0.3793630942468702 -0.32078849665252951 0 -0.39195290163037078 -0.31996453082138271 0 -0.39260472586039907 -0.33493073611908258 0 -0.3793630942468702 -0.32078849665252951 0 -0.3793630942468702 -0.32078849665252951 0 -0.39195290163037078 -0.31996453082138271 0 -0.39367097997620842 -0.30790623422665131 0 -0.39260472586039907 -0.33493073611908258 0 -0.39195290163037078 -0.31996453082138271 0 -0.40482628951040578 -0.31660172100658268 0 -0.39260472586039907 -0.33493073611908258 0 -0.40482628951040578 -0.31660172100658268 0 -0.40914352357005862 -0.32609976007668462 0 -0.39195290163037078 -0.31996453082138271 0 -0.40482628951040578 -0.31660172100658268 0 -0.39367097997620842 -0.30790623422665131 0 -0.40482628951040578 -0.31660172100658268 0 -0.41966205207978269 -0.32072694312867939 0 -0.41609994148604579 -0.3089116191166682 0 -0.41966205207978269 -0.32072694312867939 0 -0.42790829728903151 -0.31098495287319228 0 -0.41609994148604579 -0.3089116191166682 0 -0.41966205207978269 -0.32072694312867939 0 -0.40914352357005862 -0.32609976007668462 0 -0.419481026829647 -0.33213964005239321 0 -0.40482628951040578 -0.31660172100658268 0 -0.41966205207978269 -0.32072694312867939 0 -0.40914352357005862 -0.32609976007668462 0 -0.40500916124857461 -0.34817883883232759 0 -0.42485480950200161 -0.33727219857626062 0 -0.40500916124857461 -0.34817883883232759 0 -0.419481026829647 -0.33213964005239321 0 -0.42485480950200161 -0.33727219857626062 0 -0.39260472586039907 -0.33493073611908258 0 -0.40914352357005862 -0.32609976007668462 0 -0.419481026829647 -0.33213964005239321 0 -0.419481026829647 -0.33213964005239321 0 -0.42485480950200161 -0.33727219857626062 0 -0.42805984330886471 -0.32745997746900368 0 -0.44470045775542749 -0.32636555832019198 0 -0.42485480950200161 -0.33727219857626062 0 -0.43746893959405508 -0.33524328474539539 0 -0.44470045775542749 -0.32636555832019198 0 -0.42485480950200161 -0.33727219857626062 0 -0.42805984330886471 -0.32745997746900368 0 -0.44470045775542749 -0.32636555832019198 0 -0.42485480950200161 -0.33727219857626062 0 -0.41815663964893668 -0.34859307763639891 0 -0.42485480950200161 -0.33727219857626062 0 -0.4319620785306067 -0.34252641260057459 0 -0.42485480950200161 -0.33727219857626062 0 -0.4319620785306067 -0.34252641260057459 0 -0.43746893959405508 -0.33524328474539539 0 -0.44470045775542749 -0.32636555832019198 0 -0.43160087037746492 -0.32079554726749349 0 -0.42805984330886471 -0.32745997746900368 0 -0.43846014752285439 -0.31291573011853863 0 -0.43160087037746492 -0.32079554726749349 0 -0.42790829728903151 -0.31098495287319228 0 -0.41966205207978269 -0.32072694312867939 0 -0.43160087037746492 -0.32079554726749349 0 -0.42790829728903151 -0.31098495287319228 0 -0.41966205207978269 -0.32072694312867939 0 -0.43160087037746492 -0.32079554726749349 0 -0.42805984330886471 -0.32745997746900368 0 -0.41966205207978269 -0.32072694312867939 0 -0.419481026829647 -0.33213964005239321 0 -0.42805984330886471 -0.32745997746900368 0 -0.42270877929522749 -0.29814111275426958 0 -0.42790829728903151 -0.31098495287319228 0 -0.43722289379486279 -0.29900432221361373 0 -0.42270877929522749 -0.29814111275426958 0 -0.42790829728903151 -0.31098495287319228 0 -0.41609994148604579 -0.3089116191166682 0 -0.43846014752285439 -0.31291573011853863 0 -0.42790829728903151 -0.31098495287319228 0 -0.43722289379486279 -0.29900432221361373 0 -0.42270877929522749 -0.29814111275426958 0 -0.43722289379486279 -0.29900432221361373 0 -0.43007187623913462 -0.28321138058685241 0 -0.42270877929522749 -0.29814111275426958 0 -0.43007187623913462 -0.28321138058685241 0 -0.41520226856227499 -0.286615204890588 0 -0.41520226856227499 -0.286615204890588 0 -0.40686085602212763 -0.29928155378366489 0 -0.40139305265833741 -0.28073041008758781 0 -0.42270877929522749 -0.29814111275426958 0 -0.41520226856227499 -0.286615204890588 0 -0.40686085602212763 -0.29928155378366489 0 -0.42270877929522749 -0.29814111275426958 0 -0.40686085602212763 -0.29928155378366489 0 -0.41609994148604579 -0.3089116191166682 0 -0.40482628951040578 -0.31660172100658268 0 -0.40686085602212763 -0.29928155378366489 0 -0.41609994148604579 -0.3089116191166682 0 -0.40482628951040578 -0.31660172100658268 0 -0.40686085602212763 -0.29928155378366489 0 -0.39367097997620842 -0.30790623422665131 0 -0.40686085602212763 -0.29928155378366489 0 -0.39367097997620842 -0.30790623422665131 0 -0.39564092306455101 -0.29349650365164193 0 -0.39367097997620842 -0.30790623422665131 0 -0.38338181538292532 -0.29730459944410631 0 -0.39564092306455101 -0.29349650365164193 0 -0.3793630942468702 -0.32078849665252951 0 -0.39367097997620842 -0.30790623422665131 0 -0.38338181538292532 -0.29730459944410631 0 -0.3793630942468702 -0.32078849665252951 0 -0.38338181538292532 -0.29730459944410631 0 -0.36957666524677207 -0.3081180742335311 0 -0.38338181538292532 -0.29730459944410631 0 -0.39564092306455101 -0.29349650365164193 0 -0.38613848606343798 -0.27859917209195267 0 -0.38338181538292532 -0.29730459944410631 0 -0.38613848606343798 -0.27859917209195267 0 -0.37045229634498528 -0.27843053984746069 0 -0.39564092306455101 -0.29349650365164193 0 -0.40139305265833741 -0.28073041008758781 0 -0.38613848606343798 -0.27859917209195267 0 -0.40686085602212763 -0.29928155378366489 0 -0.39564092306455101 -0.29349650365164193 0 -0.40139305265833741 -0.28073041008758781 0 -0.40139305265833741 -0.28073041008758781 0 -0.38613848606343798 -0.27859917209195267 0 -0.3936967805223085 -0.26231697603154452 0 -0.40139305265833741 -0.28073041008758781 0 -0.3936967805223085 -0.26231697603154452 0 -0.40924335478419149 -0.26343195862580282 0 -0.38613848606343798 -0.27859917209195267 0 -0.37559939495059241 -0.25759382415502369 0 -0.37045229634498528 -0.27843053984746069 0 -0.38613848606343798 -0.27859917209195267 0 -0.37559939495059241 -0.25759382415502369 0 -0.3936967805223085 -0.26231697603154452 0 -0.37559939495059241 -0.25759382415502369 0 -0.3936967805223085 -0.26231697603154452 0 -0.39148266415987848 -0.24724731724582799 0 -0.3936967805223085 -0.26231697603154452 0 -0.40924335478419149 -0.26343195862580282 0 -0.4060172103153033 -0.2466409140486745 0 -0.3936967805223085 -0.26231697603154452 0 -0.4060172103153033 -0.2466409140486745 0 -0.39148266415987848 -0.24724731724582799 0 -0.40924335478419149 -0.26343195862580282 0 -0.42066567285705447 -0.24747213920793271 0 -0.4060172103153033 -0.2466409140486745 0 -0.40924335478419149 -0.26343195862580282 0 -0.43193696180114138 -0.26239194143137751 0 -0.42066567285705447 -0.24747213920793271 0 -0.40139305265833741 -0.28073041008758781 0 -0.40924335478419149 -0.26343195862580282 0 -0.42062767774514181 -0.27267698937420282 0 -0.40924335478419149 -0.26343195862580282 0 -0.42062767774514181 -0.27267698937420282 0 -0.43193696180114138 -0.26239194143137751 0 -0.41520226856227499 -0.286615204890588 0 -0.40139305265833741 -0.28073041008758781 0 -0.42062767774514181 -0.27267698937420282 0 -0.43007187623913462 -0.28321138058685241 0 -0.42062767774514181 -0.27267698937420282 0 -0.43193696180114138 -0.26239194143137751 0 -0.43007187623913462 -0.28321138058685241 0 -0.41520226856227499 -0.286615204890588 0 -0.42062767774514181 -0.27267698937420282 0 -0.43193696180114138 -0.26239194143137751 0 -0.43534344162737859 -0.24047631527095989 0 -0.42066567285705447 -0.24747213920793271 0 -0.32469646731104851 -0.26129928047468121 0 -0.31382319645809431 -0.25537883115472171 0 -0.328202492380054 -0.24702697275665519 0 -0.32469646731104851 -0.26129928047468121 0 -0.31382319645809431 -0.25537883115472171 0 -0.31691249014711381 -0.26761334401921538 0 -0.31691249014711381 -0.26761334401921538 0 -0.32636936396155469 -0.2734419554959519 0 -0.3145639343146851 -0.28384861204504341 0 -0.32636936396155469 -0.2734419554959519 0 -0.3145639343146851 -0.28384861204504341 0 -0.32469646731104851 -0.26129928047468121 0 -0.31691249014711381 -0.26761334401921538 0 -0.32636936396155469 -0.2734419554959519 0 -0.32636936396155469 -0.2734419554959519 0 -0.3381747936084249 -0.26303529894686117 0 -0.32636936396155469 -0.2734419554959519 0 -0.3381747936084249 -0.26303529894686117 0 -0.32863094035026852 -0.28684108062397751 0 -0.32469646731104851 -0.26129928047468121 0 -0.32636936396155469 -0.2734419554959519 0 -0.3381747936084249 -0.26303529894686117 0 -0.3381747936084249 -0.26303529894686117 0 -0.32863094035026852 -0.28684108062397751 0 -0.34283830894515172 -0.27708735094451009 0 -0.3381747936084249 -0.26303529894686117 0 -0.32863094035026852 -0.28684108062397751 0 -0.3381747936084249 -0.26303529894686117 0 -0.34531969915818922 -0.24521335040884201 0 -0.32469646731104851 -0.26129928047468121 0 -0.3381747936084249 -0.26303529894686117 0 -0.328202492380054 -0.24702697275665519 0 -0.3381747936084249 -0.26303529894686117 0 -0.34531969915818922 -0.24521335040884201 0 -0.328202492380054 -0.24702697275665519 0 -0.36198061697463252 -0.25210628865026241 0 -0.35672506682219768 -0.26679529837497379 0 -0.35704918331323882 -0.2463972521237382 0 -0.3381747936084249 -0.26303529894686117 0 -0.35704918331323882 -0.2463972521237382 0 -0.3381747936084249 -0.26303529894686117 0 -0.35672506682219768 -0.26679529837497379 0 -0.35704918331323882 -0.2463972521237382 0 -0.3381747936084249 -0.26303529894686117 0 -0.35704918331323882 -0.2463972521237382 0 -0.34531969915818922 -0.24521335040884201 0 -0.35672506682219768 -0.26679529837497379 0 -0.35704918331323882 -0.2463972521237382 0 -0.36198061697463252 -0.25210628865026241 0 -0.35672506682219768 -0.26679529837497379 0 -0.37559939495059241 -0.25759382415502369 0 -0.36198061697463252 -0.25210628865026241 0 -0.35672506682219768 -0.26679529837497379 0 -0.37045229634498528 -0.27843053984746069 0 -0.35672506682219768 -0.26679529837497379 0 -0.35634382108671869 -0.2907887339464556 0 -0.37559939495059241 -0.25759382415502369 0 -0.37045229634498528 -0.27843053984746069 0 -0.35672506682219768 -0.26679529837497379 0 -0.35672506682219768 -0.26679529837497379 0 -0.35634382108671869 -0.2907887339464556 0 -0.35672506682219768 -0.26679529837497379 0 -0.34782243499971333 -0.29167772583222767 0 -0.34283830894515172 -0.27708735094451009 0 -0.3381747936084249 -0.26303529894686117 0 -0.35672506682219768 -0.26679529837497379 0 -0.34283830894515172 -0.27708735094451009 0 -0.35672506682219768 -0.26679529837497379 0 -0.34782243499971333 -0.29167772583222767 0 -0.35672506682219768 -0.26679529837497379 0 -0.35634382108671869 -0.2907887339464556 0 -0.34782243499971333 -0.29167772583222767 0 -0.38338181538292532 -0.29730459944410631 0 -0.37045229634498528 -0.27843053984746069 0 -0.35634382108671869 -0.2907887339464556 0 -0.38338181538292532 -0.29730459944410631 0 -0.35634382108671869 -0.2907887339464556 0 -0.36957666524677207 -0.3081180742335311 0 -0.35634382108671869 -0.2907887339464556 0 -0.36957666524677207 -0.3081180742335311 0 -0.35596257535123788 -0.31478216951793708 0 -0.35634382108671869 -0.2907887339464556 0 -0.35596257535123788 -0.31478216951793708 0 -0.35634382108671869 -0.2907887339464556 0 -0.34782243499971333 -0.29167772583222767 0 -0.35596257535123788 -0.31478216951793708 0 -0.34782243499971333 -0.29167772583222767 0 -0.33891980317723069 -0.31656015328948212 0 -0.35596257535123788 -0.31478216951793708 0 -0.34782243499971333 -0.29167772583222767 0 -0.33361506640483102 -0.30143145551169509 0 -0.33891980317723069 -0.31656015328948212 0 -0.34782243499971333 -0.29167772583222767 0 -0.33891980317723069 -0.31656015328948212 0 -0.33361506640483102 -0.30143145551169509 0 -0.31908708709211142 -0.31064686230109329 0 -0.33891980317723069 -0.31656015328948212 0 -0.34782243499971333 -0.29167772583222767 0 -0.33361506640483102 -0.30143145551169509 0 -0.32863094035026852 -0.28684108062397751 0 -0.34283830894515172 -0.27708735094451009 0 -0.34782243499971333 -0.29167772583222767 0 -0.32863094035026852 -0.28684108062397751 0 -0.32863094035026852 -0.28684108062397751 0 -0.3145639343146851 -0.28384861204504341 0 -0.30922739227757789 -0.29536371661931282 0 -0.32636936396155469 -0.2734419554959519 0 -0.32863094035026852 -0.28684108062397751 0 -0.3145639343146851 -0.28384861204504341 0 -0.33361506640483102 -0.30143145551169509 0 -0.32863094035026852 -0.28684108062397751 0 -0.31908708709211142 -0.31064686230109329 0 -0.32863094035026852 -0.28684108062397751 0 -0.31908708709211142 -0.31064686230109329 0 -0.32863094035026852 -0.28684108062397751 0 -0.31908708709211142 -0.31064686230109329 0 -0.30922739227757789 -0.29536371661931282 0 -0.31908708709211142 -0.31064686230109329 0 -0.32328108118025278 -0.3276684626083195 0 -0.30954323383395338 -0.33445264397820879 0 -0.31908708709211142 -0.31064686230109329 0 -0.30954323383395338 -0.33445264397820879 0 -0.31908708709211142 -0.31064686230109329 0 -0.32328108118025278 -0.3276684626083195 0 -0.33891980317723069 -0.31656015328948212 0 -0.32328108118025278 -0.3276684626083195 0 -0.31984903266371612 -0.34278868037607652 0 -0.30954323383395338 -0.33445264397820879 0 -0.31984903266371612 -0.34278868037607652 0 -0.3070719954881424 -0.34381328538016998 0 -0.31984903266371612 -0.34278868037607652 0 -0.30954323383395338 -0.33445264397820879 0 -0.31984903266371612 -0.34278868037607652 0 -0.3055244578539994 -0.34466809001270682 0 -0.31984903266371612 -0.34278868037607652 0 -0.33001717135475173 -0.34144258074673772 0 -0.32328108118025278 -0.3276684626083195 0 -0.31984903266371612 -0.34278868037607652 0 -0.33001717135475173 -0.34144258074673772 0 -0.33001717135475173 -0.34144258074673772 0 -0.33891980317723069 -0.31656015328948212 0 -0.33001717135475173 -0.34144258074673772 0 -0.35029869855848877 -0.33932671450958768 0 -0.33001717135475173 -0.34144258074673772 0 -0.35029869855848877 -0.33932671450958768 0 -0.34207596480696922 -0.34881473103841432 0 -0.33001717135475173 -0.34144258074673772 0 -0.3397155789189803 -0.33354010544749929 0 -0.33891980317723069 -0.31656015328948212 0 -0.32328108118025278 -0.3276684626083195 0 -0.33001717135475173 -0.34144258074673772 0 -0.33891980317723069 -0.31656015328948212 0 -0.33001717135475173 -0.34144258074673772 0 -0.3397155789189803 -0.33354010544749929 0 -0.35029869855848877 -0.33932671450958768 0 -0.3397155789189803 -0.33354010544749929 0 -0.33891980317723069 -0.31656015328948212 0 -0.34848664413771779 -0.32569231542779742 0 -0.35596257535123788 -0.31478216951793708 0 -0.35558132961575611 -0.33877560508941879 0 -0.33891980317723069 -0.31656015328948212 0 -0.35596257535123788 -0.31478216951793708 0 -0.34848664413771779 -0.32569231542779742 0 -0.35596257535123788 -0.31478216951793708 0 -0.34848664413771779 -0.32569231542779742 0 -0.35558132961575611 -0.33877560508941879 0 -0.3793630942468702 -0.32078849665252951 0 -0.36957666524677207 -0.3081180742335311 0 -0.36691533843974278 -0.32386350321953272 0 -0.35596257535123788 -0.31478216951793708 0 -0.36691533843974278 -0.32386350321953272 0 -0.35558132961575611 -0.33877560508941879 0 -0.3793630942468702 -0.32078849665252951 0 -0.36691533843974278 -0.32386350321953272 0 -0.37409302773807718 -0.33685317060424669 0 -0.36957666524677207 -0.3081180742335311 0 -0.35596257535123788 -0.31478216951793708 0 -0.36691533843974278 -0.32386350321953272 0 -0.36691533843974278 -0.32386350321953272 0 -0.37409302773807718 -0.33685317060424669 0 -0.35558132961575611 -0.33877560508941879 0 -0.37409302773807718 -0.33685317060424669 0 -0.35558132961575611 -0.33877560508941879 0 -0.37409302773807718 -0.33685317060424669 0 -0.35558132961575611 -0.33877560508941879 0 -0.36132399924571967 -0.34906722561270209 0 -0.35558132961575611 -0.33877560508941879 0 -0.35029869855848877 -0.33932671450958768 0 -0.3397155789189803 -0.33354010544749929 0 -0.34848664413771779 -0.32569231542779742 0 -0.34765433670401852 -0.33341498641516681 0 -0.3397155789189803 -0.33354010544749929 0 -0.34765433670401852 -0.33341498641516681 0 -0.35029869855848877 -0.33932671450958768 0 -0.34848664413771779 -0.32569231542779742 0 -0.35558132961575611 -0.33877560508941879 0 -0.34765433670401852 -0.33341498641516681 0 -0.35558132961575611 -0.33877560508941879 0 -0.34765433670401852 -0.33341498641516681 0 -0.35029869855848877 -0.33932671450958768 0 -0.35558132961575611 -0.33877560508941879 0 -0.35029869855848877 -0.33932671450958768 0 -0.34207596480696922 -0.34881473103841432 0 -0.35558132961575611 -0.33877560508941879 0 -0.35532313878605642 -0.35502466563236817 0 -0.34207596480696922 -0.34881473103841432 0 -0.35558132961575611 -0.33877560508941879 0 -0.35532313878605642 -0.35502466563236817 0 -0.36132399924571967 -0.34906722561270209 0 -0.35558132961575611 -0.33877560508941879 0 -0.35532313878605642 -0.35502466563236817 0 -0.35532313878605642 -0.35502466563236817 0 -0.3412131928366286 -0.36006947730924671 0 -0.34207596480696922 -0.34881473103841432 0 -0.35532313878605642 -0.35502466563236817 0 -0.36132399924571967 -0.34906722561270209 0 -0.36366024534045222 -0.35609027356304662 0 -0.35532313878605642 -0.35502466563236817 0 -0.36366024534045222 -0.35609027356304662 0 -0.36248492450846181 -0.36430973558701668 0 -0.36132399924571967 -0.34906722561270209 0 -0.36366024534045222 -0.35609027356304662 0 -0.36940070244839862 -0.35157087958641953 0 -0.37680448164090752 -0.35604321335415662 0 -0.36940070244839862 -0.35157087958641953 0 -0.36976846171362449 -0.36047886139672591 0 -0.36366024534045222 -0.35609027356304662 0 -0.36940070244839862 -0.35157087958641953 0 -0.36976846171362449 -0.36047886139672591 0 -0.37409302773807718 -0.33685317060424669 0 -0.36132399924571967 -0.34906722561270209 0 -0.36940070244839862 -0.35157087958641953 0 -0.38065164182393091 -0.36156508343882499 0 -0.36976846171362449 -0.36047886139672591 0 -0.36045921166592071 -0.37288426483861847 0 -0.38065164182393091 -0.36156508343882499 0 -0.36045921166592071 -0.37288426483861847 0 -0.38624313609469341 -0.36159138208324682 0 -0.36045921166592071 -0.37288426483861847 0 -0.36976846171362449 -0.36047886139672591 0 -0.36248492450846181 -0.36430973558701668 0 -0.36045921166592071 -0.37288426483861847 0 -0.36366024534045222 -0.35609027356304662 0 -0.36976846171362449 -0.36047886139672591 0 -0.36248492450846181 -0.36430973558701668 0 -0.36248492450846181 -0.36430973558701668 0 -0.36045921166592071 -0.37288426483861847 0 -0.36045921166592071 -0.37288426483861847 0 -0.35826046215167379 -0.37385847705995462 0 -0.359913224415497 -0.37519534445042468 0 -0.36045921166592071 -0.37288426483861847 0 -0.359913224415497 -0.37519534445042468 0 -0.35826046215167379 -0.37385847705995462 0 -0.3550649479563539 -0.37127372617531751 0 -0.35499516928943592 -0.3756651981138408 0 -0.35826046215167379 -0.37385847705995462 0 -0.359913224415497 -0.37519534445042468 0 -0.36045921166592071 -0.37288426483861847 0 -0.35826046215167379 -0.37385847705995462 0 -0.35532313878605642 -0.35502466563236817 0 -0.3550649479563539 -0.37127372617531751 0 -0.3412131928366286 -0.36006947730924671 0 -0.36248492450846181 -0.36430973558701668 0 -0.36045921166592071 -0.37288426483861847 0 -0.3550649479563539 -0.37127372617531751 0 -0.36045921166592071 -0.37288426483861847 0 -0.35826046215167379 -0.37385847705995462 0 -0.3550649479563539 -0.37127372617531751 0 -0.35532313878605642 -0.35502466563236817 0 -0.3550649479563539 -0.37127372617531751 0 -0.35532313878605642 -0.35502466563236817 0 -0.36248492450846181 -0.36430973558701668 0 -0.3550649479563539 -0.37127372617531751 0 -0.35826046215167379 -0.37385847705995462 0 -0.35499516928943592 -0.3756651981138408 0 -0.35826046215167379 -0.37385847705995462 0 -0.3550649479563539 -0.37127372617531751 0 -0.3550649479563539 -0.37127372617531751 0 -0.35499516928943592 -0.3756651981138408 0 -0.3550649479563539 -0.37127372617531751 0 -0.3412131928366286 -0.36006947730924671 0 -0.3550649479563539 -0.37127372617531751 0 -0.34301726708398139 -0.37152460107981161 0 -0.3412131928366286 -0.36006947730924671 0 -0.3550649479563539 -0.37127372617531751 0 -0.34301726708398139 -0.37152460107981161 0 -0.34785275774215357 -0.37840565885741051 0 -0.33298481585286238 -0.36926714917661779 0 -0.3412131928366286 -0.36006947730924671 0 -0.32736143771690529 -0.34886522844317319 0 -0.34301726708398139 -0.37152460107981161 0 -0.33298481585286238 -0.36926714917661779 0 -0.33797062103190628 -0.37860699388046448 0 -0.34301726708398139 -0.37152460107981161 0 -0.33298481585286238 -0.36926714917661779 0 -0.3412131928366286 -0.36006947730924671 0 -0.3412131928366286 -0.36006947730924671 0 -0.34207596480696922 -0.34881473103841432 0 -0.32736143771690529 -0.34886522844317319 0 -0.33001717135475173 -0.34144258074673772 0 -0.34207596480696922 -0.34881473103841432 0 -0.32736143771690529 -0.34886522844317319 0 -0.33001717135475173 -0.34144258074673772 0 -0.32736143771690529 -0.34886522844317319 0 -0.3412131928366286 -0.36006947730924671 0 -0.32736143771690529 -0.34886522844317319 0 -0.32736143771690529 -0.34886522844317319 0 -0.31598506613768951 -0.35583638489618891 0 -0.31919093816007349 -0.37170138145570347 0 -0.31984903266371612 -0.34278868037607652 0 -0.33001717135475173 -0.34144258074673772 0 -0.32736143771690529 -0.34886522844317319 0 -0.31984903266371612 -0.34278868037607652 0 -0.32736143771690529 -0.34886522844317319 0 -0.31598506613768951 -0.35583638489618891 0 -0.31984903266371612 -0.34278868037607652 0 -0.32736143771690529 -0.34886522844317319 0 -0.31984903266371612 -0.34278868037607652 0 -0.31598506613768951 -0.35583638489618891 0 -0.30667905391454442 -0.35266106116154949 0 -0.31598506613768951 -0.35583638489618891 0 -0.31919093816007349 -0.37170138145570347 0 -0.30684486823320789 -0.36316557304444202 0 -0.32736143771690529 -0.34886522844317319 0 -0.31919093816007349 -0.37170138145570347 0 -0.33298481585286238 -0.36926714917661779 0 -0.32736143771690529 -0.34886522844317319 0 -0.31919093816007349 -0.37170138145570347 0 -0.31919093816007349 -0.37170138145570347 0 -0.30684486823320789 -0.36316557304444202 0 -0.30324630136946479 -0.37543300802477558 0 -0.30684486823320789 -0.36316557304444202 0 -0.2957495177922182 -0.35817972744009058 0 -0.2925887299631979 -0.36843304642831443 0 -0.30684486823320789 -0.36316557304444202 0 -0.2925887299631979 -0.36843304642831443 0 -0.30324630136946479 -0.37543300802477558 0 -0.31598506613768951 -0.35583638489618891 0 -0.30684486823320789 -0.36316557304444202 0 -0.30667905391454442 -0.35266106116154949 0 -0.31984903266371612 -0.34278868037607652 0 -0.30667905391454442 -0.35266106116154949 0 -0.3055244578539994 -0.34466809001270682 0 -0.31984903266371612 -0.34278868037607652 0 -0.3055244578539994 -0.34466809001270682 0 -0.3070719954881424 -0.34381328538016998 0 -0.3055244578539994 -0.34466809001270682 0 -0.29214519604090128 -0.34642347290654879 0 -0.30667905391454442 -0.35266106116154949 0 -0.3055244578539994 -0.34466809001270682 0 -0.29214519604090128 -0.34642347290654879 0 -0.30667905391454442 -0.35266106116154949 0 -0.2957495177922182 -0.35817972744009058 0 -0.29214519604090128 -0.34642347290654879 0 -0.30684486823320789 -0.36316557304444202 0 -0.30667905391454442 -0.35266106116154949 0 -0.2957495177922182 -0.35817972744009058 0 -0.2957495177922182 -0.35817972744009058 0 -0.29214519604090128 -0.34642347290654879 0 -0.28048974080923961 -0.36021548365959821 0 -0.2957495177922182 -0.35817972744009058 0 -0.2925887299631979 -0.36843304642831443 0 -0.28048974080923961 -0.36021548365959821 0 -0.2925887299631979 -0.36843304642831443 0 -0.28080488171343909 -0.37323183786172071 0 -0.28782930685319991 -0.3824520109968681 0 -0.2925887299631979 -0.36843304642831443 0 -0.28080488171343909 -0.37323183786172071 0 -0.28048974080923961 -0.36021548365959821 0 -0.28048974080923961 -0.36021548365959821 0 -0.26747550121908192 -0.37327398573877102 0 -0.264441359418086 -0.3500582654370174 0 -0.28080488171343909 -0.37323183786172071 0 -0.28048974080923961 -0.36021548365959821 0 -0.26747550121908192 -0.37327398573877102 0 -0.26747550121908192 -0.37327398573877102 0 -0.264441359418086 -0.3500582654370174 0 -0.26747550121908192 -0.37327398573877102 0 -0.25554226852600281 -0.36435994656900111 0 -0.264441359418086 -0.3500582654370174 0 -0.25554226852600281 -0.36435994656900111 0 -0.25240873419082382 -0.38056695435806998 0 -0.24347343772631699 -0.37146223776518111 0 -0.25554226852600281 -0.36435994656900111 0 -0.25954721898889782 -0.35070038534688242 0 -0.2453369214912712 -0.33698757391685719 0 -0.25554226852600281 -0.36435994656900111 0 -0.2453369214912712 -0.33698757391685719 0 -0.25554226852600281 -0.36435994656900111 0 -0.264441359418086 -0.3500582654370174 0 -0.25954721898889782 -0.35070038534688242 0 -0.264441359418086 -0.3500582654370174 0 -0.25954721898889782 -0.35070038534688242 0 -0.264441359418086 -0.3500582654370174 0 -0.25954721898889782 -0.35070038534688242 0 -0.25747995589395278 -0.34093522817456118 0 -0.29214519604090128 -0.34642347290654879 0 -0.264441359418086 -0.3500582654370174 0 -0.27831379426780078 -0.33638815821971668 0 -0.29214519604090128 -0.34642347290654879 0 -0.264441359418086 -0.3500582654370174 0 -0.29214519604090128 -0.34642347290654879 0 -0.28048974080923961 -0.36021548365959821 0 -0.264441359418086 -0.3500582654370174 0 -0.27831379426780078 -0.33638815821971668 0 -0.26163843948154181 -0.32861173803554211 0 -0.27487334249701612 -0.3226255461781844 0 -0.264441359418086 -0.3500582654370174 0 -0.27831379426780078 -0.33638815821971668 0 -0.26163843948154181 -0.32861173803554211 0 -0.264441359418086 -0.3500582654370174 0 -0.26163843948154181 -0.32861173803554211 0 -0.25747995589395278 -0.34093522817456118 0 -0.26163843948154181 -0.32861173803554211 0 -0.25747995589395278 -0.34093522817456118 0 -0.2453369214912712 -0.33698757391685719 0 -0.264441359418086 -0.3500582654370174 0 -0.26163843948154181 -0.32861173803554211 0 -0.25954721898889782 -0.35070038534688242 0 -0.25747995589395278 -0.34093522817456118 0 -0.2453369214912712 -0.33698757391685719 0 -0.26163843948154181 -0.32861173803554211 0 -0.25883551954499762 -0.30716521063406682 0 -0.2446258083714575 -0.31755415448893948 0 -0.26163843948154181 -0.32861173803554211 0 -0.2453369214912712 -0.33698757391685719 0 -0.2446258083714575 -0.31755415448893948 0 -0.26163843948154181 -0.32861173803554211 0 -0.25883551954499762 -0.30716521063406682 0 -0.26163843948154181 -0.32861173803554211 0 -0.27487334249701612 -0.3226255461781844 0 -0.25883551954499762 -0.30716521063406682 0 -0.27487334249701612 -0.3226255461781844 0 -0.28219973902745932 -0.30955964423906068 0 -0.25883551954499762 -0.30716521063406682 0 -0.27487334249701612 -0.3226255461781844 0 -0.29443433549257991 -0.32223153151659018 0 -0.28219973902745932 -0.30955964423906068 0 -0.29443433549257991 -0.32223153151659018 0 -0.302883982158208 -0.31015749513086399 0 -0.28219973902745932 -0.30955964423906068 0 -0.27831379426780078 -0.33638815821971668 0 -0.27487334249701612 -0.3226255461781844 0 -0.29443433549257991 -0.32223153151659018 0 -0.27831379426780078 -0.33638815821971668 0 -0.29443433549257991 -0.32223153151659018 0 -0.29739723007443453 -0.33542831573555182 0 -0.29214519604090128 -0.34642347290654879 0 -0.27831379426780078 -0.33638815821971668 0 -0.29739723007443453 -0.33542831573555182 0 -0.29443433549257991 -0.32223153151659018 0 -0.30954323383395338 -0.33445264397820879 0 -0.29443433549257991 -0.32223153151659018 0 -0.29739723007443453 -0.33542831573555182 0 -0.30954323383395338 -0.33445264397820879 0 -0.3055244578539994 -0.34466809001270682 0 -0.29739723007443453 -0.33542831573555182 0 -0.30954323383395338 -0.33445264397820879 0 -0.3055244578539994 -0.34466809001270682 0 -0.29214519604090128 -0.34642347290654879 0 -0.29739723007443453 -0.33542831573555182 0 -0.3055244578539994 -0.34466809001270682 0 -0.30954323383395338 -0.33445264397820879 0 -0.31984903266371612 -0.34278868037607652 0 -0.3070719954881424 -0.34381328538016998 0 -0.30954323383395338 -0.33445264397820879 0 -0.3055244578539994 -0.34466809001270682 0 -0.3070719954881424 -0.34381328538016998 0 -0.30954323383395338 -0.33445264397820879 0 -0.29443433549257991 -0.32223153151659018 0 -0.30954323383395338 -0.33445264397820879 0 -0.302883982158208 -0.31015749513086399 0 -0.31908708709211142 -0.31064686230109329 0 -0.30954323383395338 -0.33445264397820879 0 -0.302883982158208 -0.31015749513086399 0 -0.302883982158208 -0.31015749513086399 0 -0.30922739227757789 -0.29536371661931282 0 -0.29120846633987418 -0.2971144232039889 0 -0.31908708709211142 -0.31064686230109329 0 -0.302883982158208 -0.31015749513086399 0 -0.30922739227757789 -0.29536371661931282 0 -0.29830936211306419 -0.28406790551382582 0 -0.30922739227757789 -0.29536371661931282 0 -0.29120846633987418 -0.2971144232039889 0 -0.3145639343146851 -0.28384861204504341 0 -0.29830936211306419 -0.28406790551382582 0 -0.30922739227757789 -0.29536371661931282 0 -0.29830936211306419 -0.28406790551382582 0 -0.29120846633987418 -0.2971144232039889 0 -0.28122417050616638 -0.28561591701616329 0 -0.302883982158208 -0.31015749513086399 0 -0.28219973902745932 -0.30955964423906068 0 -0.29120846633987418 -0.2971144232039889 0 -0.28219973902745932 -0.30955964423906068 0 -0.29120846633987418 -0.2971144232039889 0 -0.27040320629919368 -0.29750596628574771 0 -0.28219973902745932 -0.30955964423906068 0 -0.27040320629919368 -0.29750596628574771 0 -0.25883551954499762 -0.30716521063406682 0 -0.27040320629919368 -0.29750596628574771 0 -0.25883551954499762 -0.30716521063406682 0 -0.24637317120339941 -0.29184799557545432 0 -0.27040320629919368 -0.29750596628574771 0 -0.26515871169400562 -0.28333387620224898 0 -0.24637317120339941 -0.29184799557545432 0 -0.26515871169400562 -0.28333387620224898 0 -0.24861229565321749 -0.26914929626367412 0 -0.24637317120339941 -0.29184799557545432 0 -0.27040320629919368 -0.29750596628574771 0 -0.26515871169400562 -0.28333387620224898 0 -0.28122417050616638 -0.28561591701616329 0 -0.29120846633987418 -0.2971144232039889 0 -0.27040320629919368 -0.29750596628574771 0 -0.28122417050616638 -0.28561591701616329 0 -0.28122417050616638 -0.28561591701616329 0 -0.2721349846924942 -0.26508470386610522 0 -0.2902427995735361 -0.27204399240944921 0 -0.26515871169400562 -0.28333387620224898 0 -0.28122417050616638 -0.28561591701616329 0 -0.2721349846924942 -0.26508470386610522 0 -0.26515871169400562 -0.28333387620224898 0 -0.24861229565321749 -0.26914929626367412 0 -0.26515871169400562 -0.28333387620224898 0 -0.2721349846924942 -0.26508470386610522 0 -0.24861229565321749 -0.26914929626367412 0 -0.25723245459539951 -0.25549634606515792 0 -0.24861229565321749 -0.26914929626367412 0 -0.24420758384304819 -0.24842821958125019 0 -0.25723245459539951 -0.25549634606515792 0 -0.2721349846924942 -0.26508470386610522 0 -0.24861229565321749 -0.26914929626367412 0 -0.25723245459539951 -0.25549634606515792 0 -0.2721349846924942 -0.26508470386610522 0 -0.26800758892227822 -0.2459884927220134 0 -0.2721349846924942 -0.26508470386610522 0 -0.27989972723655071 -0.24951081827475999 0 -0.26800758892227822 -0.2459884927220134 0 -0.2721349846924942 -0.26508470386610522 0 -0.28514751686342821 -0.258956940663783 0 -0.27989972723655071 -0.24951081827475999 0 -0.28514751686342821 -0.258956940663783 0 -0.29199662451381508 -0.24395190857152521 0 -0.27989972723655071 -0.24951081827475999 0 -0.2721349846924942 -0.26508470386610522 0 -0.28514751686342821 -0.258956940663783 0 -0.2902427995735361 -0.27204399240944921 0 -0.28514751686342821 -0.258956940663783 0 -0.2989969812672415 -0.25685767029938761 0 -0.29199662451381508 -0.24395190857152521 0 -0.28514751686342821 -0.258956940663783 0 -0.2902427995735361 -0.27204399240944921 0 -0.2989969812672415 -0.25685767029938761 0 -0.29830936211306419 -0.28406790551382582 0 -0.28122417050616638 -0.28561591701616329 0 -0.2902427995735361 -0.27204399240944921 0 -0.2902427995735361 -0.27204399240944921 0 -0.30588532811350388 -0.26993705797347939 0 -0.2989969812672415 -0.25685767029938761 0 -0.3145639343146851 -0.28384861204504341 0 -0.29830936211306419 -0.28406790551382582 0 -0.30588532811350388 -0.26993705797347939 0 -0.29830936211306419 -0.28406790551382582 0 -0.2902427995735361 -0.27204399240944921 0 -0.30588532811350388 -0.26993705797347939 0 -0.31691249014711381 -0.26761334401921538 0 -0.3145639343146851 -0.28384861204504341 0 -0.30588532811350388 -0.26993705797347939 0 -0.31382319645809431 -0.25537883115472171 0 -0.31691249014711381 -0.26761334401921538 0 -0.30588532811350388 -0.26993705797347939 0 -0.31382319645809431 -0.25537883115472171 0 -0.30588532811350388 -0.26993705797347939 0 -0.2989969812672415 -0.25685767029938761 0 -0.31382319645809431 -0.25537883115472171 0 -0.2989969812672415 -0.25685767029938761 0 -0.30688642208107159 -0.2408772910233668 0 -0.33252098208028658 -0.46369133821388597 0 -0.35371799632172279 -0.45604319178702563 0 -0.33252098208028658 -0.46369133821388597 0 -0.34240361958178978 -0.47166085440889582 0 -0.35371799632172279 -0.45604319178702563 0 -0.33252098208028658 -0.46369133821388597 0 -0.33999503846446028 -0.45950594587891708 0 -0.35371799632172279 -0.45604319178702563 0 -0.33332074727355909 -0.45321257994354502 0 -0.33252098208028658 -0.46369133821388597 0 -0.33999503846446028 -0.45950594587891708 0 -0.33332074727355909 -0.45321257994354502 0 -0.33252098208028658 -0.46369133821388597 0 -0.32082150150408317 -0.45688000142077823 0 -0.33999503846446028 -0.45950594587891708 0 -0.34487953972658619 -0.4388306072662338 0 -0.33332074727355909 -0.45321257994354502 0 -0.32838667459237891 -0.44715500693790999 0 -0.34487953972658619 -0.4388306072662338 0 -0.32838667459237891 -0.44715500693790999 0 -0.34487953972658619 -0.4388306072662338 0 -0.32940201075840259 -0.43595019623835252 0 -0.33332074727355909 -0.45321257994354502 0 -0.33999503846446028 -0.45950594587891708 0 -0.34487953972658619 -0.4388306072662338 0 -0.33332074727355909 -0.45321257994354502 0 -0.32838667459237891 -0.44715500693790999 0 -0.32082150150408317 -0.45688000142077823 0 -0.32838667459237891 -0.44715500693790999 0 -0.3149259106245394 -0.4460342910867629 0 -0.32082150150408317 -0.45688000142077823 0 -0.32838667459237891 -0.44715500693790999 0 -0.3149259106245394 -0.4460342910867629 0 -0.32940201075840259 -0.43595019623835252 0 -0.3149259106245394 -0.4460342910867629 0 -0.32940201075840259 -0.43595019623835252 0 -0.31588096561256779 -0.43260413164560357 0 -0.3149259106245394 -0.4460342910867629 0 -0.32082150150408317 -0.45688000142077823 0 -0.30455476456045721 -0.45647950970019452 0 -0.33252098208028658 -0.46369133821388597 0 -0.31132396783885069 -0.4713394846407476 0 -0.33252098208028658 -0.46369133821388597 0 -0.32082150150408317 -0.45688000142077823 0 -0.31132396783885069 -0.4713394846407476 0 -0.33252098208028658 -0.46369133821388597 0 -0.33227203022408008 -0.47935895037669563 0 -0.31132396783885069 -0.4713394846407476 0 -0.31588142759779508 -0.48725473026988281 0 -0.33227203022408008 -0.47935895037669563 0 -0.31132396783885069 -0.4713394846407476 0 -0.33227203022408008 -0.47935895037669563 0 -0.31132396783885069 -0.4713394846407476 0 -0.31588142759779508 -0.48725473026988281 0 -0.32984803145202019 -0.50000000000000022 0 -0.33227203022408008 -0.47935895037669563 0 -0.31588142759779508 -0.48725473026988281 0 -0.32984803145202019 -0.50000000000000022 0 -0.3043720453642299 -0.5 0 -0.32984803145202019 -0.50000000000000022 0 -0.35312769123228188 -0.49319363259964311 0 -0.32984803145202019 -0.50000000000000022 0 -0.33227203022408008 -0.47935895037669563 0 -0.35312769123228188 -0.49319363259964311 0 -0.33227203022408008 -0.47935895037669563 0 -0.3532200926093122 -0.48737841611263688 0 -0.34240361958178978 -0.47166085440889582 0 -0.33227203022408008 -0.47935895037669563 0 -0.3532200926093122 -0.48737841611263688 0 -0.33252098208028658 -0.46369133821388597 0 -0.34240361958178978 -0.47166085440889582 0 -0.33227203022408008 -0.47935895037669563 0 -0.35346904446551902 -0.47171080394983123 0 -0.3532200926093122 -0.48737841611263688 0 -0.3613651607015323 -0.48242235506221309 0 -0.34240361958178978 -0.47166085440889582 0 -0.35346904446551902 -0.47171080394983123 0 -0.3532200926093122 -0.48737841611263688 0 -0.35346904446551902 -0.47171080394983123 0 -0.3532200926093122 -0.48737841611263688 0 -0.32984803145202019 -0.50000000000000022 0 -0.35312769123228188 -0.49319363259964311 0 -0.35301954087849913 -0.500000000000003 0 -0.33227203022408008 -0.47935895037669563 0 -0.3532200926093122 -0.48737841611263688 0 -0.35312769123228188 -0.49319363259964311 0 -0.3532200926093122 -0.48737841611263688 0 -0.36051894961107639 -0.49017260932062878 0 -0.3613651607015323 -0.48242235506221309 0 -0.3532200926093122 -0.48737841611263688 0 -0.36051894961107639 -0.49017260932062878 0 -0.3532200926093122 -0.48737841611263688 0 -0.35312769123228188 -0.49319363259964311 0 -0.36051894961107639 -0.49017260932062878 0 -0.3532200926093122 -0.48737841611263688 0 -0.35312769123228188 -0.49319363259964311 0 -0.35312769123228188 -0.49319363259964311 0 -0.35301954087849913 -0.500000000000003 0 -0.35312769123228188 -0.49319363259964311 0 -0.37266329855325669 -0.48748192881742952 0 -0.35312769123228188 -0.49319363259964311 0 -0.35301954087849913 -0.500000000000003 0 -0.37266329855325669 -0.48748192881742952 0 -0.35312769123228188 -0.49319363259964311 0 -0.36051894961107639 -0.49017260932062878 0 -0.37266329855325669 -0.48748192881742952 0 -0.38054789694558239 -0.5 0 -0.35301954087849913 -0.500000000000003 0 -0.37266329855325669 -0.48748192881742952 0 -0.36051894961107639 -0.49017260932062878 0 -0.37266329855325669 -0.48748192881742952 0 -0.3613651607015323 -0.48242235506221309 0 -0.35346904446551902 -0.47171080394983123 0 -0.36695441826849451 -0.475368017110539 0 -0.3613651607015323 -0.48242235506221309 0 -0.35346904446551902 -0.47171080394983123 0 -0.36695441826849451 -0.475368017110539 0 -0.36186418518186031 -0.46454916054398371 0 -0.37266329855325669 -0.48748192881742952 0 -0.36695441826849451 -0.475368017110539 0 -0.3613651607015323 -0.48242235506221309 0 -0.38007567615417798 -0.47700737555269518 0 -0.37266329855325669 -0.48748192881742952 0 -0.36695441826849451 -0.475368017110539 0 -0.36695441826849451 -0.475368017110539 0 -0.37427480159930482 -0.46751936413266731 0 -0.36186418518186031 -0.46454916054398371 0 -0.38007567615417798 -0.47700737555269518 0 -0.36695441826849451 -0.475368017110539 0 -0.37427480159930482 -0.46751936413266731 0 -0.37427480159930482 -0.46751936413266731 0 -0.37310865864376852 -0.45653282154445002 0 -0.36186418518186031 -0.46454916054398371 0 -0.37310865864376852 -0.45653282154445002 0 -0.36048804989373973 -0.45360047223951061 0 -0.36186418518186031 -0.46454916054398371 0 -0.35346904446551902 -0.47171080394983123 0 -0.36186418518186031 -0.46454916054398371 0 -0.35371799632172279 -0.45604319178702563 0 -0.35346904446551902 -0.47171080394983123 0 -0.35371799632172279 -0.45604319178702563 0 -0.34240361958178978 -0.47166085440889582 0 -0.35346904446551902 -0.47171080394983123 0 -0.35371799632172279 -0.45604319178702563 0 -0.36048804989373973 -0.45360047223951061 0 -0.36186418518186031 -0.46454916054398371 0 -0.35371799632172279 -0.45604319178702563 0 -0.36048804989373973 -0.45360047223951061 0 -0.35371799632172279 -0.45604319178702563 0 -0.36048804989373973 -0.45360047223951061 0 -0.35371799632172279 -0.45604319178702563 0 -0.35418326928628169 -0.42676156091394662 0 -0.33999503846446028 -0.45950594587891708 0 -0.35371799632172279 -0.45604319178702563 0 -0.34487953972658619 -0.4388306072662338 0 -0.35371799632172279 -0.45604319178702563 0 -0.35418326928628169 -0.42676156091394662 0 -0.35371799632172279 -0.45604319178702563 0 -0.34487953972658619 -0.4388306072662338 0 -0.35418326928628169 -0.42676156091394662 0 -0.3759943363382815 -0.44184289981514541 0 -0.36048804989373973 -0.45360047223951061 0 -0.35418326928628169 -0.42676156091394662 0 -0.3759943363382815 -0.44184289981514541 0 -0.37310865864376852 -0.45653282154445002 0 -0.36048804989373973 -0.45360047223951061 0 -0.3759943363382815 -0.44184289981514541 0 -0.37488909373302781 -0.41988787385226561 0 -0.35418326928628169 -0.42676156091394662 0 -0.37488909373302781 -0.41988787385226561 0 -0.3649265000689606 -0.41059047496055989 0 -0.35418326928628169 -0.42676156091394662 0 -0.37598509500569272 -0.39823253503515998 0 -0.37488909373302781 -0.41988787385226561 0 -0.3649265000689606 -0.41059047496055989 0 -0.34976404098871222 -0.41815526865355063 0 -0.35418326928628169 -0.42676156091394662 0 -0.35464854225083908 -0.39747993004086762 0 -0.35418326928628169 -0.42676156091394662 0 -0.35464854225083908 -0.39747993004086762 0 -0.34976404098871222 -0.41815526865355063 0 -0.35464854225083908 -0.39747993004086762 0 -0.33796828661802109 -0.40679629485128982 0 -0.34976404098871222 -0.41815526865355063 0 -0.35464854225083908 -0.39747993004086762 0 -0.3649265000689606 -0.41059047496055989 0 -0.35418326928628169 -0.42676156091394662 0 -0.35464854225083908 -0.39747993004086762 0 -0.34487953972658619 -0.4388306072662338 0 -0.34976404098871222 -0.41815526865355063 0 -0.33804761336032468 -0.42649018082745133 0 -0.34487953972658619 -0.4388306072662338 0 -0.34976404098871222 -0.41815526865355063 0 -0.34487953972658619 -0.4388306072662338 0 -0.34976404098871222 -0.41815526865355063 0 -0.35418326928628169 -0.42676156091394662 0 -0.38194916828627518 -0.37771099111456408 0 -0.35920945734817789 -0.37817428163160771 0 -0.38194916828627518 -0.37771099111456408 0 -0.36794806572274641 -0.38789943445554981 0 -0.35920945734817789 -0.37817428163160771 0 -0.36794806572274641 -0.38789943445554981 0 -0.35464854225083908 -0.39747993004086762 0 -0.35920945734817789 -0.37817428163160771 0 -0.38194916828627518 -0.37771099111456408 0 -0.36045921166592071 -0.37288426483861847 0 -0.36269195156287809 -0.3774429694063291 0 -0.38194916828627518 -0.37771099111456408 0 -0.36269195156287809 -0.3774429694063291 0 -0.35920945734817789 -0.37817428163160771 0 -0.36045921166592071 -0.37288426483861847 0 -0.36269195156287809 -0.3774429694063291 0 -0.359913224415497 -0.37519534445042468 0 -0.36269195156287809 -0.3774429694063291 0 -0.359913224415497 -0.37519534445042468 0 -0.36269195156287809 -0.3774429694063291 0 -0.359913224415497 -0.37519534445042468 0 -0.35920945734817789 -0.37817428163160771 0 -0.359913224415497 -0.37519534445042468 0 -0.35920945734817789 -0.37817428163160771 0 -0.37598509500569272 -0.39823253503515998 0 -0.3649265000689606 -0.41059047496055989 0 -0.35464854225083908 -0.39747993004086762 0 -0.37598509500569272 -0.39823253503515998 0 -0.36794806572274641 -0.38789943445554981 0 -0.35464854225083908 -0.39747993004086762 0 -0.35464854225083908 -0.39747993004086762 0 -0.35920945734817789 -0.37817428163160771 0 -0.35464854225083908 -0.39747993004086762 0 -0.35495392335551712 -0.37826098231787952 0 -0.35920945734817789 -0.37817428163160771 0 -0.35464854225083908 -0.39747993004086762 0 -0.35495392335551712 -0.37826098231787952 0 -0.35464854225083908 -0.39747993004086762 0 -0.3500916450124999 -0.37836004459063721 0 -0.35495392335551712 -0.37826098231787952 0 -0.35464854225083908 -0.39747993004086762 0 -0.3500916450124999 -0.37836004459063721 0 -0.32937695203048117 -0.38974428870726952 0 -0.34785275774215357 -0.37840565885741051 0 -0.3500916450124999 -0.37836004459063721 0 -0.35499516928943592 -0.3756651981138408 0 -0.34785275774215357 -0.37840565885741051 0 -0.35499516928943592 -0.3756651981138408 0 -0.34785275774215357 -0.37840565885741051 0 -0.3500916450124999 -0.37836004459063721 0 -0.3500916450124999 -0.37836004459063721 0 -0.35499516928943592 -0.3756651981138408 0 -0.35495392335551712 -0.37826098231787952 0 -0.3550649479563539 -0.37127372617531751 0 -0.34785275774215357 -0.37840565885741051 0 -0.35499516928943592 -0.3756651981138408 0 -0.3500916450124999 -0.37836004459063721 0 -0.35499516928943592 -0.3756651981138408 0 -0.3500916450124999 -0.37836004459063721 0 -0.35495392335551712 -0.37826098231787952 0 -0.35499516928943592 -0.3756651981138408 0 -0.35495392335551712 -0.37826098231787952 0 -0.35495392335551712 -0.37826098231787952 0 -0.35920945734817789 -0.37817428163160771 0 -0.35495392335551712 -0.37826098231787952 0 -0.35920945734817789 -0.37817428163160771 0 -0.35746644731206012 -0.37623085671474149 0 -0.359913224415497 -0.37519534445042468 0 -0.35920945734817789 -0.37817428163160771 0 -0.35746644731206012 -0.37623085671474149 0 -0.35826046215167379 -0.37385847705995462 0 -0.359913224415497 -0.37519534445042468 0 -0.35746644731206012 -0.37623085671474149 0 -0.35826046215167379 -0.37385847705995462 0 -0.35499516928943592 -0.3756651981138408 0 -0.35746644731206012 -0.37623085671474149 0 -0.35499516928943592 -0.3756651981138408 0 -0.35495392335551712 -0.37826098231787952 0 -0.35746644731206012 -0.37623085671474149 0 -0.34785275774215357 -0.37840565885741051 0 -0.32943659817270171 -0.38647159666282738 0 -0.3500916450124999 -0.37836004459063721 0 -0.32937695203048117 -0.38974428870726952 0 -0.34785275774215357 -0.37840565885741051 0 -0.32943659817270171 -0.38647159666282738 0 -0.32937695203048117 -0.38974428870726952 0 -0.34785275774215357 -0.37840565885741051 0 -0.32943659817270171 -0.38647159666282738 0 -0.33797062103190628 -0.37860699388046448 0 -0.34785275774215357 -0.37840565885741051 0 -0.3500916450124999 -0.37836004459063721 0 -0.32937695203048117 -0.38974428870726952 0 -0.33298481585286238 -0.36926714917661779 0 -0.32943659817270171 -0.38647159666282738 0 -0.33797062103190628 -0.37860699388046448 0 -0.34301726708398139 -0.37152460107981161 0 -0.34785275774215357 -0.37840565885741051 0 -0.33797062103190628 -0.37860699388046448 0 -0.34785275774215357 -0.37840565885741051 0 -0.33797062103190628 -0.37860699388046448 0 -0.32937695203048117 -0.38974428870726952 0 -0.33796828661802109 -0.40679629485128982 0 -0.32507564401626932 -0.40974371202186632 0 -0.35464854225083908 -0.39747993004086762 0 -0.32937695203048117 -0.38974428870726952 0 -0.33796828661802109 -0.40679629485128982 0 -0.32937695203048117 -0.38974428870726952 0 -0.30866225904846029 -0.40112853282389738 0 -0.32937695203048117 -0.38974428870726952 0 -0.3110204386032458 -0.39453753446823542 0 -0.30866225904846029 -0.40112853282389738 0 -0.32937695203048117 -0.38974428870726952 0 -0.32507564401626932 -0.40974371202186632 0 -0.30866225904846029 -0.40112853282389738 0 -0.31919093816007349 -0.37170138145570347 0 -0.32943659817270171 -0.38647159666282738 0 -0.3110204386032458 -0.39453753446823542 0 -0.32943659817270171 -0.38647159666282738 0 -0.3110204386032458 -0.39453753446823542 0 -0.33298481585286238 -0.36926714917661779 0 -0.31919093816007349 -0.37170138145570347 0 -0.32943659817270171 -0.38647159666282738 0 -0.32943659817270171 -0.38647159666282738 0 -0.32937695203048117 -0.38974428870726952 0 -0.3110204386032458 -0.39453753446823542 0 -0.31919093816007349 -0.37170138145570347 0 -0.3110204386032458 -0.39453753446823542 0 -0.32940201075840259 -0.43595019623835252 0 -0.33804761336032468 -0.42649018082745133 0 -0.32646138579817818 -0.42320228316907021 0 -0.33804761336032468 -0.42649018082745133 0 -0.33546339415630111 -0.4168775479046456 0 -0.32646138579817818 -0.42320228316907021 0 -0.34487953972658619 -0.4388306072662338 0 -0.32940201075840259 -0.43595019623835252 0 -0.33804761336032468 -0.42649018082745133 0 -0.34976404098871222 -0.41815526865355063 0 -0.33804761336032468 -0.42649018082745133 0 -0.33546339415630111 -0.4168775479046456 0 -0.34976404098871222 -0.41815526865355063 0 -0.33796828661802109 -0.40679629485128982 0 -0.33546339415630111 -0.4168775479046456 0 -0.33796828661802109 -0.40679629485128982 0 -0.33546339415630111 -0.4168775479046456 0 -0.32507564401626932 -0.40974371202186632 0 -0.33546339415630111 -0.4168775479046456 0 -0.32507564401626932 -0.40974371202186632 0 -0.32646138579817818 -0.42320228316907021 0 -0.32507564401626932 -0.40974371202186632 0 -0.31376422668471732 -0.41814728059342993 0 -0.32646138579817818 -0.42320228316907021 0 -0.32507564401626932 -0.40974371202186632 0 -0.31376422668471732 -0.41814728059342993 0 -0.30866225904846029 -0.40112853282389738 0 -0.31376422668471732 -0.41814728059342993 0 -0.32646138579817818 -0.42320228316907021 0 -0.31588096561256779 -0.43260413164560357 0 -0.32940201075840259 -0.43595019623835252 0 -0.32646138579817818 -0.42320228316907021 0 -0.31588096561256779 -0.43260413164560357 0 -0.31588096561256779 -0.43260413164560357 0 -0.29964053987654149 -0.42634380369110503 0 -0.30527928961437462 -0.44270052567376289 0 -0.31376422668471732 -0.41814728059342993 0 -0.31588096561256779 -0.43260413164560357 0 -0.29964053987654149 -0.42634380369110503 0 -0.29964053987654149 -0.42634380369110503 0 -0.30866225904846029 -0.40112853282389738 0 -0.29964053987654149 -0.42634380369110503 0 -0.29230761082197382 -0.41011661234859248 0 -0.30866225904846029 -0.40112853282389738 0 -0.31376422668471732 -0.41814728059342993 0 -0.29964053987654149 -0.42634380369110503 0 -0.30866225904846029 -0.40112853282389738 0 -0.29964053987654149 -0.42634380369110503 0 -0.29230761082197382 -0.41011661234859248 0 -0.28687310410320899 -0.42590918062992028 0 -0.29230761082197382 -0.41011661234859248 0 -0.28289017480080242 -0.40685807054009782 0 -0.27595296259548419 -0.41910469187328209 0 -0.29230761082197382 -0.41011661234859248 0 -0.28687310410320899 -0.42590918062992028 0 -0.27595296259548419 -0.41910469187328209 0 -0.29230761082197382 -0.41011661234859248 0 -0.27595296259548419 -0.41910469187328209 0 -0.28687310410320899 -0.42590918062992028 0 -0.28007793289327881 -0.43497343963770219 0 -0.27871683638843697 -0.42651784334841569 0 -0.28687310410320899 -0.42590918062992028 0 -0.28866772051165962 -0.43688500450069401 0 -0.28007793289327881 -0.43497343963770219 0 -0.29964053987654149 -0.42634380369110503 0 -0.28687310410320899 -0.42590918062992028 0 -0.28866772051165962 -0.43688500450069401 0 -0.30324630136946479 -0.37543300802477558 0 -0.2987725933615506 -0.38815014379464241 0 -0.3110204386032458 -0.39453753446823542 0 -0.31919093816007349 -0.37170138145570347 0 -0.30324630136946479 -0.37543300802477558 0 -0.3110204386032458 -0.39453753446823542 0 -0.29230761082197382 -0.41011661234859248 0 -0.30866225904846029 -0.40112853282389738 0 -0.29230761082197382 -0.41011661234859248 0 -0.30866225904846029 -0.40112853282389738 0 -0.29695530670202569 -0.40069780250417047 0 -0.2987725933615506 -0.38815014379464241 0 -0.3110204386032458 -0.39453753446823542 0 -0.29695530670202569 -0.40069780250417047 0 -0.3110204386032458 -0.39453753446823542 0 -0.29695530670202569 -0.40069780250417047 0 -0.3110204386032458 -0.39453753446823542 0 -0.30866225904846029 -0.40112853282389738 0 -0.3110204386032458 -0.39453753446823542 0 -0.30866225904846029 -0.40112853282389738 0 -0.29695530670202569 -0.40069780250417047 0 -0.29230761082197382 -0.41011661234859248 0 -0.28289017480080242 -0.40685807054009782 0 -0.29695530670202569 -0.40069780250417047 0 -0.28289017480080242 -0.40685807054009782 0 -0.29695530670202569 -0.40069780250417047 0 -0.28289017480080242 -0.40685807054009782 0 -0.28323049759964741 -0.39510478190484161 0 -0.2781458195040033 -0.40438931258968708 0 -0.28289017480080242 -0.40685807054009782 0 -0.29695530670202569 -0.40069780250417047 0 -0.28323049759964741 -0.39510478190484161 0 -0.29695530670202569 -0.40069780250417047 0 -0.28323049759964741 -0.39510478190484161 0 -0.29169692612910592 -0.39160118480013062 0 -0.2987725933615506 -0.38815014379464241 0 -0.29695530670202569 -0.40069780250417047 0 -0.29169692612910592 -0.39160118480013062 0 -0.2987725933615506 -0.38815014379464241 0 -0.29169692612910592 -0.39160118480013062 0 -0.28782930685319991 -0.3824520109968681 0 -0.28323049759964741 -0.39510478190484161 0 -0.29169692612910592 -0.39160118480013062 0 -0.28782930685319991 -0.3824520109968681 0 -0.28323049759964741 -0.39510478190484161 0 -0.28782930685319991 -0.3824520109968681 0 -0.27775825368485169 -0.38389902796095488 0 -0.28080488171343909 -0.37323183786172071 0 -0.28782930685319991 -0.3824520109968681 0 -0.27775825368485169 -0.38389902796095488 0 -0.30324630136946479 -0.37543300802477558 0 -0.2987725933615506 -0.38815014379464241 0 -0.28782930685319991 -0.3824520109968681 0 -0.2925887299631979 -0.36843304642831443 0 -0.30324630136946479 -0.37543300802477558 0 -0.28782930685319991 -0.3824520109968681 0 -0.26747550121908192 -0.37327398573877102 0 -0.27050964302007768 -0.39648970604052458 0 -0.26747550121908192 -0.37327398573877102 0 -0.27775825368485169 -0.38389902796095488 0 -0.27050964302007768 -0.39648970604052458 0 -0.26747550121908192 -0.37327398573877102 0 -0.27050964302007768 -0.39648970604052458 0 -0.26574761556073428 -0.39173231922114499 0 -0.28080488171343909 -0.37323183786172071 0 -0.26747550121908192 -0.37327398573877102 0 -0.27775825368485169 -0.38389902796095488 0 -0.27050964302007768 -0.39648970604052458 0 -0.26574761556073428 -0.39173231922114499 0 -0.27595296259548419 -0.41910469187328209 0 -0.26574761556073428 -0.39173231922114499 0 -0.27595296259548419 -0.41910469187328209 0 -0.26489444913517701 -0.40763904427337888 0 -0.26574761556073428 -0.39173231922114499 0 -0.27595296259548419 -0.41910469187328209 0 -0.28323049759964741 -0.39510478190484161 0 -0.27775825368485169 -0.38389902796095488 0 -0.27050964302007768 -0.39648970604052458 0 -0.28323049759964741 -0.39510478190484161 0 -0.27050964302007768 -0.39648970604052458 0 -0.2781458195040033 -0.40438931258968708 0 -0.26574761556073428 -0.39173231922114499 0 -0.25832586692189652 -0.39930461870457118 0 -0.26489444913517701 -0.40763904427337888 0 -0.25832586692189652 -0.39930461870457118 0 -0.25407636969816749 -0.4124580203161039 0 -0.24710417551880079 -0.40231406071222781 0 -0.25832586692189652 -0.39930461870457118 0 -0.25269773307511179 -0.39124555653212539 0 -0.24710417551880079 -0.40231406071222781 0 -0.26574761556073428 -0.39173231922114499 0 -0.25832586692189652 -0.39930461870457118 0 -0.25269773307511179 -0.39124555653212539 0 -0.25554226852600281 -0.36435994656900111 0 -0.26574761556073428 -0.39173231922114499 0 -0.25554226852600281 -0.36435994656900111 0 -0.26574761556073428 -0.39173231922114499 0 -0.25240873419082382 -0.38056695435806998 0 -0.26747550121908192 -0.37327398573877102 0 -0.25554226852600281 -0.36435994656900111 0 -0.26574761556073428 -0.39173231922114499 0 -0.26574761556073428 -0.39173231922114499 0 -0.25269773307511179 -0.39124555653212539 0 -0.25240873419082382 -0.38056695435806998 0 -0.27116853288801579 -0.43254774680616409 0 -0.27595296259548419 -0.41910469187328209 0 -0.25070465155460381 -0.43298049185118082 0 -0.27116853288801579 -0.43254774680616409 0 -0.28007793289327881 -0.43497343963770219 0 -0.27871683638843697 -0.42651784334841569 0 -0.27116853288801579 -0.43254774680616409 0 -0.28007793289327881 -0.43497343963770219 0 -0.27442182134014592 -0.44134301787366531 0 -0.28687310410320899 -0.42590918062992028 0 -0.27871683638843697 -0.42651784334841569 0 -0.27595296259548419 -0.41910469187328209 0 -0.27116853288801579 -0.43254774680616409 0 -0.27871683638843697 -0.42651784334841569 0 -0.27595296259548419 -0.41910469187328209 0 -0.27871683638843697 -0.42651784334841569 0 -0.27595296259548419 -0.41910469187328209 0 -0.27050964302007768 -0.39648970604052458 0 -0.2781458195040033 -0.40438931258968708 0 -0.27595296259548419 -0.41910469187328209 0 -0.28289017480080242 -0.40685807054009782 0 -0.2781458195040033 -0.40438931258968708 0 -0.27595296259548419 -0.41910469187328209 0 -0.27595296259548419 -0.41910469187328209 0 -0.25407636969816749 -0.4124580203161039 0 -0.25070465155460381 -0.43298049185118082 0 -0.27595296259548419 -0.41910469187328209 0 -0.26489444913517701 -0.40763904427337888 0 -0.25407636969816749 -0.4124580203161039 0 -0.25832586692189652 -0.39930461870457118 0 -0.26489444913517701 -0.40763904427337888 0 -0.25407636969816749 -0.4124580203161039 0 -0.27595296259548419 -0.41910469187328209 0 -0.25070465155460381 -0.43298049185118082 0 -0.25070465155460381 -0.43298049185118082 0 -0.26261787018725219 -0.45269351757869819 0 -0.24349644104533871 -0.44659984309034118 0 -0.27116853288801579 -0.43254774680616409 0 -0.25070465155460381 -0.43298049185118082 0 -0.26261787018725219 -0.45269351757869819 0 -0.26261787018725219 -0.45269351757869819 0 -0.27054573956865302 -0.46845314151206768 0 -0.25618757843193068 -0.47495550140067982 0 -0.26261787018725219 -0.45269351757869819 0 -0.24349644104533871 -0.44659984309034118 0 -0.24884546327493129 -0.46100602696864418 0 -0.26261787018725219 -0.45269351757869819 0 -0.25618757843193068 -0.47495550140067982 0 -0.24884546327493129 -0.46100602696864418 0 -0.26261787018725219 -0.45269351757869819 0 -0.28061958212820592 -0.44663784466735451 0 -0.2869709190130515 -0.46201650110972292 0 -0.27054573956865302 -0.46845314151206768 0 -0.2869709190130515 -0.46201650110972292 0 -0.27970635531850091 -0.47382013714226479 0 -0.26261787018725219 -0.45269351757869819 0 -0.2869709190130515 -0.46201650110972292 0 -0.26261787018725219 -0.45269351757869819 0 -0.27054573956865302 -0.46845314151206768 0 -0.2869709190130515 -0.46201650110972292 0 -0.27116853288801579 -0.43254774680616409 0 -0.26261787018725219 -0.45269351757869819 0 -0.27442182134014592 -0.44134301787366531 0 -0.26261787018725219 -0.45269351757869819 0 -0.28061958212820592 -0.44663784466735451 0 -0.27442182134014592 -0.44134301787366531 0 -0.28007793289327881 -0.43497343963770219 0 -0.28061958212820592 -0.44663784466735451 0 -0.27442182134014592 -0.44134301787366531 0 -0.29964053987654149 -0.42634380369110503 0 -0.28866772051165962 -0.43688500450069401 0 -0.29061882070462519 -0.4515590745583134 0 -0.29964053987654149 -0.42634380369110503 0 -0.29061882070462519 -0.4515590745583134 0 -0.28866772051165962 -0.43688500450069401 0 -0.28061958212820592 -0.44663784466735451 0 -0.29061882070462519 -0.4515590745583134 0 -0.28866772051165962 -0.43688500450069401 0 -0.28007793289327881 -0.43497343963770219 0 -0.28061958212820592 -0.44663784466735451 0 -0.29061882070462519 -0.4515590745583134 0 -0.2869709190130515 -0.46201650110972292 0 -0.30455476456045721 -0.45647950970019452 0 -0.28061958212820592 -0.44663784466735451 0 -0.29061882070462519 -0.4515590745583134 0 -0.2869709190130515 -0.46201650110972292 0 -0.32082150150408317 -0.45688000142077823 0 -0.30455476456045721 -0.45647950970019452 0 -0.31132396783885069 -0.4713394846407476 0 -0.2869709190130515 -0.46201650110972292 0 -0.31132396783885069 -0.4713394846407476 0 -0.2869709190130515 -0.46201650110972292 0 -0.30455476456045721 -0.45647950970019452 0 -0.31132396783885069 -0.4713394846407476 0 -0.29964053987654149 -0.42634380369110503 0 -0.29061882070462519 -0.4515590745583134 0 -0.30527928961437462 -0.44270052567376289 0 -0.3149259106245394 -0.4460342910867629 0 -0.30455476456045721 -0.45647950970019452 0 -0.30527928961437462 -0.44270052567376289 0 -0.3149259106245394 -0.4460342910867629 0 -0.31588096561256779 -0.43260413164560357 0 -0.30527928961437462 -0.44270052567376289 0 -0.29061882070462519 -0.4515590745583134 0 -0.30455476456045721 -0.45647950970019452 0 -0.30527928961437462 -0.44270052567376289 0 -0.31588142759779508 -0.48725473026988281 0 -0.3043720453642299 -0.5 0 -0.29087757684371662 -0.4787167968626721 0 -0.31588142759779508 -0.48725473026988281 0 -0.31132396783885069 -0.4713394846407476 0 -0.29087757684371662 -0.4787167968626721 0 -0.31132396783885069 -0.4713394846407476 0 -0.29087757684371662 -0.4787167968626721 0 -0.2869709190130515 -0.46201650110972292 0 -0.29087757684371662 -0.4787167968626721 0 -0.27970635531850091 -0.47382013714226479 0 -0.2869709190130515 -0.46201650110972292 0 -0.31132396783885069 -0.4713394846407476 0 -0.29087757684371662 -0.4787167968626721 0 -0.3043720453642299 -0.5 0 -0.29087757684371662 -0.4787167968626721 0 -0.27889605927643968 -0.5 0 -0.27043118584858239 -0.48609410908459649 0 -0.27889605927643968 -0.5 0 -0.25342007318864929 -0.50000000000000067 0 -0.29087757684371662 -0.4787167968626721 0 -0.27043118584858239 -0.48609410908459649 0 -0.27889605927643968 -0.5 0 -0.27054573956865302 -0.46845314151206768 0 -0.27043118584858239 -0.48609410908459649 0 -0.25618757843193068 -0.47495550140067982 0 -0.29087757684371662 -0.4787167968626721 0 -0.27043118584858239 -0.48609410908459649 0 -0.29087757684371662 -0.4787167968626721 0 -0.27043118584858239 -0.48609410908459649 0 -0.27970635531850091 -0.47382013714226479 0 -0.27054573956865302 -0.46845314151206768 0 -0.27043118584858239 -0.48609410908459649 0 -0.27970635531850091 -0.47382013714226479 0 -0.27043118584858239 -0.48609410908459649 0 -0.24998479485344821 -0.49347142130652089 0 -0.27043118584858239 -0.48609410908459649 0 -0.25342007318864929 -0.50000000000000067 0 -0.24998479485344821 -0.49347142130652089 0 -0.27043118584858239 -0.48609410908459649 0 -0.25618757843193068 -0.47495550140067982 0 -0.24998479485344821 -0.49347142130652089 0 -0.25342007318864929 -0.50000000000000067 0 -0.24998479485344821 -0.49347142130652089 0 -0.24998479485344821 -0.49347142130652089 0 -0.24107127159571781 -0.49668753138116989 0 -0.24042972173504171 -0.47531247152470413 0 -0.25342007318864929 -0.50000000000000067 0 -0.24107127159571781 -0.49668753138116989 0 -0.22374513438433269 -0.5 0 -0.24998479485344821 -0.49347142130652089 0 -0.24042972173504171 -0.47531247152470413 0 -0.24998479485344821 -0.49347142130652089 0 -0.24107127159571781 -0.49668753138116989 0 -0.25342007318864929 -0.50000000000000067 0 -0.24998479485344821 -0.49347142130652089 0 -0.24107127159571781 -0.49668753138116989 0 -0.24107127159571781 -0.49668753138116989 0 -0.24042972173504171 -0.47531247152470413 0 -0.22709901383912209 -0.48488185483911889 0 -0.25618757843193068 -0.47495550140067982 0 -0.24998479485344821 -0.49347142130652089 0 -0.24042972173504171 -0.47531247152470413 0 -0.25618757843193068 -0.47495550140067982 0 -0.24042972173504171 -0.47531247152470413 0 -0.24884546327493129 -0.46100602696864418 0 -0.24042972173504171 -0.47531247152470413 0 -0.22459585300609819 -0.46970098971784319 0 -0.22709901383912209 -0.48488185483911889 0 -0.22459585300609819 -0.46970098971784319 0 -0.22709901383912209 -0.48488185483911889 0 -0.2167059226115236 -0.47722377902849722 0 -0.24107127159571781 -0.49668753138116989 0 -0.22374513438433269 -0.5 0 -0.22709901383912209 -0.48488185483911889 0 -0.22374513438433269 -0.5 0 -0.22709901383912209 -0.48488185483911889 0 -0.21221769617426389 -0.49003112268670879 0 -0.24349644104533871 -0.44659984309034118 0 -0.23479310157699529 -0.45272320885591588 0 -0.22545634051372179 -0.44685629182907671 0 -0.25070465155460381 -0.43298049185118082 0 -0.24349644104533871 -0.44659984309034118 0 -0.22545634051372179 -0.44685629182907671 0 -0.25070465155460381 -0.43298049185118082 0 -0.22545634051372179 -0.44685629182907671 0 -0.24349644104533871 -0.44659984309034118 0 -0.23479310157699529 -0.45272320885591588 0 -0.24149570497509271 -0.45546880124879757 0 -0.24042972173504171 -0.47531247152470413 0 -0.24149570497509271 -0.45546880124879757 0 -0.23264237273418811 -0.45753758636847619 0 -0.24042972173504171 -0.47531247152470413 0 -0.23087464861663759 -0.45715352174288598 0 -0.24042972173504171 -0.47531247152470413 0 -0.24149570497509271 -0.45546880124879757 0 -0.24884546327493129 -0.46100602696864418 0 -0.24042972173504171 -0.47531247152470413 0 -0.23087464861663759 -0.45715352174288598 0 -0.23264237273418811 -0.45753758636847619 0 -0.23479310157699529 -0.45272320885591588 0 -0.24149570497509271 -0.45546880124879757 0 -0.23264237273418811 -0.45753758636847619 0 -0.24349644104533871 -0.44659984309034118 0 -0.24149570497509271 -0.45546880124879757 0 -0.24884546327493129 -0.46100602696864418 0 -0.24042972173504171 -0.47531247152470413 0 -0.22459585300609819 -0.46970098971784319 0 -0.23087464861663759 -0.45715352174288598 0 -0.23087464861663759 -0.45715352174288598 0 -0.21356332519390889 -0.45339237661687309 0 -0.22459585300609819 -0.46970098971784319 0 -0.23087464861663759 -0.45715352174288598 0 -0.21356332519390889 -0.45339237661687309 0 -0.23087464861663759 -0.45715352174288598 0 -0.23264237273418811 -0.45753758636847619 0 -0.23479310157699529 -0.45272320885591588 0 -0.23087464861663759 -0.45715352174288598 0 -0.23264237273418811 -0.45753758636847619 0 -0.22545634051372179 -0.44685629182907671 0 -0.22074535129066211 -0.43790328690029862 0 -0.2319147169235512 -0.43100355718318972 0 -0.23087464861663759 -0.45715352174288598 0 -0.22545634051372179 -0.44685629182907671 0 -0.21356332519390889 -0.45339237661687309 0 -0.23087464861663759 -0.45715352174288598 0 -0.22545634051372179 -0.44685629182907671 0 -0.23479310157699529 -0.45272320885591588 0 -0.23087464861663759 -0.45715352174288598 0 -0.22545634051372179 -0.44685629182907671 0 -0.22545634051372179 -0.44685629182907671 0 -0.21356332519390889 -0.45339237661687309 0 -0.22545634051372179 -0.44685629182907671 0 -0.22074535129066211 -0.43790328690029862 0 -0.22545634051372179 -0.44685629182907671 0 -0.22074535129066211 -0.43790328690029862 0 -0.21376700891759121 -0.4420153445968763 0 -0.21376700891759121 -0.4420153445968763 0 -0.21356332519390889 -0.45339237661687309 0 -0.20230355158835761 -0.43876177587941578 0 -0.22545634051372179 -0.44685629182907671 0 -0.21376700891759121 -0.4420153445968763 0 -0.21356332519390889 -0.45339237661687309 0 -0.22459585300609819 -0.46970098971784319 0 -0.21356332519390889 -0.45339237661687309 0 -0.20971412557374439 -0.46943737128508262 0 -0.21356332519390889 -0.45339237661687309 0 -0.20971412557374439 -0.46943737128508262 0 -0.1872895695814554 -0.46783173364777131 0 -0.21356332519390889 -0.45339237661687309 0 -0.1872895695814554 -0.46783173364777131 0 -0.18612989294486951 -0.46450763799353628 0 -0.21356332519390889 -0.45339237661687309 0 -0.18612989294486951 -0.46450763799353628 0 -0.18598800999356421 -0.44740122505489971 0 -0.21356332519390889 -0.45339237661687309 0 -0.1872895695814554 -0.46783173364777131 0 -0.20230355158835761 -0.43876177587941578 0 -0.18598800999356421 -0.44740122505489971 0 -0.1858459829099314 -0.43027743450259931 0 -0.21356332519390889 -0.45339237661687309 0 -0.20230355158835761 -0.43876177587941578 0 -0.18598800999356421 -0.44740122505489971 0 -0.21356332519390889 -0.45339237661687309 0 -0.18598800999356421 -0.44740122505489971 0 -0.22374513438433269 -0.5 0 -0.21221769617426389 -0.49003112268670879 0 -0.19407019558001609 -0.5 0 -0.21221769617426389 -0.49003112268670879 0 -0.20258747394798171 -0.47870274271863528 0 -0.19809461919605911 -0.49031299733651229 0 -0.22709901383912209 -0.48488185483911889 0 -0.21221769617426389 -0.49003112268670879 0 -0.2167059226115236 -0.47722377902849722 0 -0.22459585300609819 -0.46970098971784319 0 -0.2167059226115236 -0.47722377902849722 0 -0.20971412557374439 -0.46943737128508262 0 -0.2167059226115236 -0.47722377902849722 0 -0.20971412557374439 -0.46943737128508262 0 -0.20258747394798171 -0.47870274271863528 0 -0.21221769617426389 -0.49003112268670879 0 -0.2167059226115236 -0.47722377902849722 0 -0.20258747394798171 -0.47870274271863528 0 -0.20971412557374439 -0.46943737128508262 0 -0.20258747394798171 -0.47870274271863528 0 -0.1872895695814554 -0.46783173364777131 0 -0.20258747394798171 -0.47870274271863528 0 -0.19099517867445739 -0.48069273207732088 0 -0.19809461919605911 -0.49031299733651229 0 -0.20258747394798171 -0.47870274271863528 0 -0.19099517867445739 -0.48069273207732088 0 -0.1872895695814554 -0.46783173364777131 0 -0.19407019558001609 -0.5 0 -0.19809461919605911 -0.49031299733651229 0 -0.17955521658253079 -0.48629204400758991 0 -0.21221769617426389 -0.49003112268670879 0 -0.19407019558001609 -0.5 0 -0.19809461919605911 -0.49031299733651229 0 -0.19809461919605911 -0.49031299733651229 0 -0.17955521658253079 -0.48629204400758991 0 -0.19099517867445739 -0.48069273207732088 0 -0.19809461919605911 -0.49031299733651229 0 -0.17955521658253079 -0.48629204400758991 0 -0.19407019558001609 -0.5 0 -0.17955521658253079 -0.48629204400758991 0 -0.16439525677569941 -0.5 0 -0.17955521658253079 -0.48629204400758991 0 -0.16439525677569941 -0.5 0 -0.16101581396900211 -0.48227109067866941 0 -0.16439525677569941 -0.5 0 -0.16101581396900211 -0.48227109067866941 0 -0.1476030158527922 -0.48964240765520489 0 -0.16101581396900211 -0.48227109067866941 0 -0.1574183284326702 -0.46092207287777281 0 -0.1710950211840466 -0.46874761780439661 0 -0.17955521658253079 -0.48629204400758991 0 -0.16101581396900211 -0.48227109067866941 0 -0.16101581396900211 -0.48227109067866941 0 -0.1872895695814554 -0.46783173364777131 0 -0.17955521658253079 -0.48629204400758991 0 -0.16101581396900211 -0.48227109067866941 0 -0.1872895695814554 -0.46783173364777131 0 -0.19099517867445739 -0.48069273207732088 0 -0.17955521658253079 -0.48629204400758991 0 -0.1872895695814554 -0.46783173364777131 0 -0.16101581396900211 -0.48227109067866941 0 -0.1872895695814554 -0.46783173364777131 0 -0.1710950211840466 -0.46874761780439661 0 -0.1872895695814554 -0.46783173364777131 0 -0.17983224419872729 -0.46428367101515561 0 -0.18612989294486951 -0.46450763799353628 0 -0.18612989294486951 -0.46450763799353628 0 -0.18598800999356421 -0.44740122505489971 0 -0.18612989294486951 -0.46450763799353628 0 -0.17481449308453759 -0.45604769461491801 0 -0.18598800999356421 -0.44740122505489971 0 -0.1872895695814554 -0.46783173364777131 0 -0.17983224419872729 -0.46428367101515561 0 -0.1710950211840466 -0.46874761780439661 0 -0.17983224419872729 -0.46428367101515561 0 -0.18612989294486951 -0.46450763799353628 0 -0.17481449308453759 -0.45604769461491801 0 -0.17983224419872729 -0.46428367101515561 0 -0.17481449308453759 -0.45604769461491801 0 -0.1710950211840466 -0.46874761780439661 0 -0.18598800999356421 -0.44740122505489971 0 -0.1791728010914091 -0.43849410903703878 0 -0.1858459829099314 -0.43027743450259931 0 -0.18598800999356421 -0.44740122505489971 0 -0.1858459829099314 -0.43027743450259931 0 -0.18598800999356421 -0.44740122505489971 0 -0.1791728010914091 -0.43849410903703878 0 -0.16776853372897069 -0.44344277007848559 0 -0.18598800999356421 -0.44740122505489971 0 -0.16776853372897069 -0.44344277007848559 0 -0.17481449308453759 -0.45604769461491801 0 -0.18598800999356421 -0.44740122505489971 0 -0.16776853372897069 -0.44344277007848559 0 -0.16776853372897069 -0.44344277007848559 0 -0.1574183284326702 -0.46092207287777281 0 -0.16776853372897069 -0.44344277007848559 0 -0.14536040907397599 -0.43857426830244672 0 -0.16776853372897069 -0.44344277007848559 0 -0.1574183284326702 -0.46092207287777281 0 -0.14536040907397599 -0.43857426830244672 0 -0.17481449308453759 -0.45604769461491801 0 -0.1574183284326702 -0.46092207287777281 0 -0.1710950211840466 -0.46874761780439661 0 -0.17481449308453759 -0.45604769461491801 0 -0.16776853372897069 -0.44344277007848559 0 -0.1574183284326702 -0.46092207287777281 0 -0.1574183284326702 -0.46092207287777281 0 -0.14210324834754601 -0.46452425213713822 0 -0.14536040907397599 -0.43857426830244672 0 -0.1574183284326702 -0.46092207287777281 0 -0.14210324834754601 -0.46452425213713822 0 -0.14706812313636961 -0.47840137567705981 0 -0.14536040907397599 -0.43857426830244672 0 -0.1266732872715573 -0.45466772510395781 0 -0.1229522844189808 -0.43370576652641007 0 -0.14210324834754601 -0.46452425213713822 0 -0.14536040907397599 -0.43857426830244672 0 -0.1266732872715573 -0.45466772510395781 0 -0.14210324834754601 -0.46452425213713822 0 -0.1266732872715573 -0.45466772510395781 0 -0.1303942901241347 -0.47562968368150538 0 -0.1266732872715573 -0.45466772510395781 0 -0.1303942901241347 -0.47562968368150538 0 -0.1303942901241347 -0.47562968368150538 0 -0.14706812313636961 -0.47840137567705981 0 -0.14210324834754601 -0.46452425213713822 0 -0.1303942901241347 -0.47562968368150538 0 -0.14706812313636961 -0.47840137567705981 0 -0.1303942901241347 -0.47562968368150538 0 -0.13419021773658019 -0.49701372463173682 0 -0.14706812313636961 -0.47840137567705981 0 -0.1303942901241347 -0.47562968368150538 0 -0.13419021773658019 -0.49701372463173682 0 -0.1303942901241347 -0.47562968368150538 0 -0.13419021773658019 -0.49701372463173682 0 -0.11832517605854199 -0.48705874080463729 0 -0.128756411435521 -0.50000000000001088 0 -0.13419021773658019 -0.49701372463173682 0 -0.11832517605854199 -0.48705874080463729 0 -0.128756411435521 -0.50000000000001088 0 -0.13472031797138281 -0.50000000000000033 0 -0.13419021773658019 -0.49701372463173682 0 -0.128756411435521 -0.50000000000001088 0 -0.13419021773658019 -0.49701372463173682 0 -0.13472031797138281 -0.50000000000000033 0 -0.13419021773658019 -0.49701372463173682 0 -0.1476030158527922 -0.48964240765520489 0 -0.13472031797138281 -0.50000000000000033 0 -0.13419021773658019 -0.49701372463173682 0 -0.16439525677569941 -0.5 0 -0.13472031797138281 -0.50000000000000033 0 -0.1476030158527922 -0.48964240765520489 0 -0.13419021773658019 -0.49701372463173682 0 -0.1476030158527922 -0.48964240765520489 0 -0.14706812313636961 -0.47840137567705981 0 -0.13419021773658019 -0.49701372463173682 0 -0.1476030158527922 -0.48964240765520489 0 -0.16101581396900211 -0.48227109067866941 0 -0.1476030158527922 -0.48964240765520489 0 -0.1574183284326702 -0.46092207287777281 0 -0.14706812313636961 -0.47840137567705981 0 -0.16101581396900211 -0.48227109067866941 0 -0.1574183284326702 -0.46092207287777281 0 -0.14706812313636961 -0.47840137567705981 0 -0.16101581396900211 -0.48227109067866941 0 -0.1476030158527922 -0.48964240765520489 0 -0.14706812313636961 -0.47840137567705981 0 -0.16101581396900211 -0.48227109067866941 0 -0.14706812313636961 -0.47840137567705981 0 -0.13738779332650169 -0.39239328884848801 0 -0.15214940472715641 -0.4074081710505717 0 -0.1580920107830773 -0.38639505685811049 0 -0.13738779332650169 -0.39239328884848801 0 -0.1326505070762681 -0.40726180765997883 0 -0.15214940472715641 -0.4074081710505717 0 -0.13867184321040671 -0.37791882159611861 0 -0.1580920107830773 -0.38639505685811049 0 -0.14755756298194639 -0.36772399181309928 0 -0.13867184321040671 -0.37791882159611861 0 -0.13738779332650169 -0.39239328884848801 0 -0.1580920107830773 -0.38639505685811049 0 -0.13738779332650169 -0.39239328884848801 0 -0.1580920107830773 -0.38639505685811049 0 -0.13867184321040671 -0.37791882159611861 0 -0.1261016000392115 -0.38762286794517758 0 -0.13738779332650169 -0.39239328884848801 0 -0.13867184321040671 -0.37791882159611861 0 -0.1261016000392115 -0.38762286794517758 0 -0.12198752904021749 -0.37612484935646451 0 -0.1261016000392115 -0.38762286794517758 0 -0.13738779332650169 -0.39239328884848801 0 -0.116683575869927 -0.39839152083886858 0 -0.13738779332650169 -0.39239328884848801 0 -0.1326505070762681 -0.40726180765997883 0 -0.116683575869927 -0.39839152083886858 0 -0.13738779332650169 -0.39239328884848801 0 -0.116683575869927 -0.39839152083886858 0 -0.1326505070762681 -0.40726180765997883 0 -0.13721383131330159 -0.42206741387932589 0 -0.1198179301444536 -0.41604864368263939 0 -0.14536040907397599 -0.43857426830244672 0 -0.13721383131330159 -0.42206741387932589 0 -0.1229522844189808 -0.43370576652641007 0 -0.14536040907397599 -0.43857426830244672 0 -0.1229522844189808 -0.43370576652641007 0 -0.13721383131330159 -0.42206741387932589 0 -0.1229522844189808 -0.43370576652641007 0 -0.1198179301444536 -0.41604864368263939 0 -0.14536040907397599 -0.43857426830244672 0 -0.13721383131330159 -0.42206741387932589 0 -0.15972993823939849 -0.42795907480556777 0 -0.1326505070762681 -0.40726180765997883 0 -0.13721383131330159 -0.42206741387932589 0 -0.15214940472715641 -0.4074081710505717 0 -0.13721383131330159 -0.42206741387932589 0 -0.15214940472715641 -0.4074081710505717 0 -0.15972993823939849 -0.42795907480556777 0 -0.15214940472715641 -0.4074081710505717 0 -0.16990073400721481 -0.4153815269313299 0 -0.17066323333658959 -0.4001280495281947 0 -0.15214940472715641 -0.4074081710505717 0 -0.16990073400721481 -0.4153815269313299 0 -0.15972993823939849 -0.42795907480556777 0 -0.16776853372897069 -0.44344277007848559 0 -0.14536040907397599 -0.43857426830244672 0 -0.15972993823939849 -0.42795907480556777 0 -0.16990073400721481 -0.4153815269313299 0 -0.15972993823939849 -0.42795907480556777 0 -0.17673624477763589 -0.4282982070143927 0 -0.16776853372897069 -0.44344277007848559 0 -0.15972993823939849 -0.42795907480556777 0 -0.17673624477763589 -0.4282982070143927 0 -0.17673624477763589 -0.4282982070143927 0 -0.1858459829099314 -0.43027743450259931 0 -0.18570395582630009 -0.41315364395029902 0 -0.1791728010914091 -0.43849410903703878 0 -0.16776853372897069 -0.44344277007848559 0 -0.17673624477763589 -0.4282982070143927 0 -0.16776853372897069 -0.44344277007848559 0 -0.17673624477763589 -0.4282982070143927 0 -0.1791728010914091 -0.43849410903703878 0 -0.17673624477763589 -0.4282982070143927 0 -0.1858459829099314 -0.43027743450259931 0 -0.16990073400721481 -0.4153815269313299 0 -0.17673624477763589 -0.4282982070143927 0 -0.18570395582630009 -0.41315364395029902 0 -0.1858459829099314 -0.43027743450259931 0 -0.18570395582630009 -0.41315364395029902 0 -0.16990073400721481 -0.4153815269313299 0 -0.18570395582630009 -0.41315364395029902 0 -0.17066323333658959 -0.4001280495281947 0 -0.17673624477763589 -0.4282982070143927 0 -0.18570395582630009 -0.41315364395029902 0 -0.18570395582630009 -0.41315364395029902 0 -0.17066323333658959 -0.4001280495281947 0 -0.1855132153856226 -0.3901566262516617 0 -0.18570395582630009 -0.41315364395029902 0 -0.1855132153856226 -0.3901566262516617 0 -0.15214940472715641 -0.4074081710505717 0 -0.17066323333658959 -0.4001280495281947 0 -0.1580920107830773 -0.38639505685811049 0 -0.1580920107830773 -0.38639505685811049 0 -0.17285035743821089 -0.37951964858010961 0 -0.16100109690762771 -0.36454889931311152 0 -0.17066323333658959 -0.4001280495281947 0 -0.1580920107830773 -0.38639505685811049 0 -0.17285035743821089 -0.37951964858010961 0 -0.17285035743821089 -0.37951964858010961 0 -0.1855132153856226 -0.3901566262516617 0 -0.18532247494494661 -0.3671596085530246 0 -0.17066323333658959 -0.4001280495281947 0 -0.17285035743821089 -0.37951964858010961 0 -0.1855132153856226 -0.3901566262516617 0 -0.1855132153856226 -0.3901566262516617 0 -0.18532247494494661 -0.3671596085530246 0 -0.1855132153856226 -0.3901566262516617 0 -0.19939159651717889 -0.39003812020999201 0 -0.18532247494494661 -0.3671596085530246 0 -0.18570395582630009 -0.41315364395029902 0 -0.19939159651717889 -0.39003812020999201 0 -0.20182117066780911 -0.40782688206832518 0 -0.18570395582630009 -0.41315364395029902 0 -0.1855132153856226 -0.3901566262516617 0 -0.19939159651717889 -0.39003812020999201 0 -0.18570395582630009 -0.41315364395029902 0 -0.19939159651717889 -0.39003812020999201 0 -0.19939159651717889 -0.39003812020999201 0 -0.21501062799061821 -0.39821054389663763 0 -0.20182117066780911 -0.40782688206832518 0 -0.19939159651717889 -0.39003812020999201 0 -0.21501062799061821 -0.39821054389663763 0 -0.21418473140426211 -0.38464080016545998 0 -0.19939159651717889 -0.39003812020999201 0 -0.21307923720805649 -0.36692259646968439 0 -0.19939159651717889 -0.39003812020999201 0 -0.21418473140426211 -0.38464080016545998 0 -0.21307923720805649 -0.36692259646968439 0 -0.1858459829099314 -0.43027743450259931 0 -0.18570395582630009 -0.41315364395029902 0 -0.19958277973085231 -0.4227179488604767 0 -0.20230355158835761 -0.43876177587941578 0 -0.1858459829099314 -0.43027743450259931 0 -0.19958277973085231 -0.4227179488604767 0 -0.18570395582630009 -0.41315364395029902 0 -0.19958277973085231 -0.4227179488604767 0 -0.20182117066780911 -0.40782688206832518 0 -0.21501062799061821 -0.39821054389663763 0 -0.21101812032271799 -0.41537656280730212 0 -0.22186372677081939 -0.41104285107428712 0 -0.21501062799061821 -0.39821054389663763 0 -0.20182117066780911 -0.40782688206832518 0 -0.21101812032271799 -0.41537656280730212 0 -0.21101812032271799 -0.41537656280730212 0 -0.22108727857416149 -0.42625189118123258 0 -0.22186372677081939 -0.41104285107428712 0 -0.19958277973085231 -0.4227179488604767 0 -0.20182117066780911 -0.40782688206832518 0 -0.21101812032271799 -0.41537656280730212 0 -0.20230355158835761 -0.43876177587941578 0 -0.19958277973085231 -0.4227179488604767 0 -0.21080389706999661 -0.43091139395491851 0 -0.19958277973085231 -0.4227179488604767 0 -0.21101812032271799 -0.41537656280730212 0 -0.21080389706999661 -0.43091139395491851 0 -0.21101812032271799 -0.41537656280730212 0 -0.21080389706999661 -0.43091139395491851 0 -0.22108727857416149 -0.42625189118123258 0 -0.22074535129066211 -0.43790328690029862 0 -0.21376700891759121 -0.4420153445968763 0 -0.21080389706999661 -0.43091139395491851 0 -0.22074535129066211 -0.43790328690029862 0 -0.21080389706999661 -0.43091139395491851 0 -0.22108727857416149 -0.42625189118123258 0 -0.21376700891759121 -0.4420153445968763 0 -0.20230355158835761 -0.43876177587941578 0 -0.21080389706999661 -0.43091139395491851 0 -0.22074535129066211 -0.43790328690029862 0 -0.2319147169235512 -0.43100355718318972 0 -0.22108727857416149 -0.42625189118123258 0 -0.2319147169235512 -0.43100355718318972 0 -0.2291697209752884 -0.41934515404542638 0 -0.24106533690687601 -0.41725466752911688 0 -0.2319147169235512 -0.43100355718318972 0 -0.22108727857416149 -0.42625189118123258 0 -0.2291697209752884 -0.41934515404542638 0 -0.2291697209752884 -0.41934515404542638 0 -0.24106533690687601 -0.41725466752911688 0 -0.2320642110516806 -0.40316440449873692 0 -0.2291697209752884 -0.41934515404542638 0 -0.22186372677081939 -0.41104285107428712 0 -0.2320642110516806 -0.40316440449873692 0 -0.22108727857416149 -0.42625189118123258 0 -0.2291697209752884 -0.41934515404542638 0 -0.22186372677081939 -0.41104285107428712 0 -0.25407636969816749 -0.4124580203161039 0 -0.25070465155460381 -0.43298049185118082 0 -0.24106533690687601 -0.41725466752911688 0 -0.24106533690687601 -0.41725466752911688 0 -0.2320642110516806 -0.40316440449873692 0 -0.24710417551880079 -0.40231406071222781 0 -0.25407636969816749 -0.4124580203161039 0 -0.24106533690687601 -0.41725466752911688 0 -0.24710417551880079 -0.40231406071222781 0 -0.25070465155460381 -0.43298049185118082 0 -0.22545634051372179 -0.44685629182907671 0 -0.2319147169235512 -0.43100355718318972 0 -0.25070465155460381 -0.43298049185118082 0 -0.2319147169235512 -0.43100355718318972 0 -0.24106533690687601 -0.41725466752911688 0 -0.21418473140426211 -0.38464080016545998 0 -0.22925746390119481 -0.38339194008552618 0 -0.21307923720805649 -0.36692259646968439 0 -0.21501062799061821 -0.39821054389663763 0 -0.21418473140426211 -0.38464080016545998 0 -0.22925746390119481 -0.38339194008552618 0 -0.21501062799061821 -0.39821054389663763 0 -0.22925746390119481 -0.38339194008552618 0 -0.2320642110516806 -0.40316440449873692 0 -0.22925746390119481 -0.38339194008552618 0 -0.2320642110516806 -0.40316440449873692 0 -0.24089071276389279 -0.39384558457997249 0 -0.21501062799061821 -0.39821054389663763 0 -0.22186372677081939 -0.41104285107428712 0 -0.2320642110516806 -0.40316440449873692 0 -0.2320642110516806 -0.40316440449873692 0 -0.24089071276389279 -0.39384558457997249 0 -0.24710417551880079 -0.40231406071222781 0 -0.25269773307511179 -0.39124555653212539 0 -0.24089071276389279 -0.39384558457997249 0 -0.24710417551880079 -0.40231406071222781 0 -0.25269773307511179 -0.39124555653212539 0 -0.24089071276389279 -0.39384558457997249 0 -0.24458261606595269 -0.38403471170289732 0 -0.25269773307511179 -0.39124555653212539 0 -0.25240873419082382 -0.38056695435806998 0 -0.24458261606595269 -0.38403471170289732 0 -0.22925746390119481 -0.38339194008552618 0 -0.24089071276389279 -0.39384558457997249 0 -0.24458261606595269 -0.38403471170289732 0 -0.22925746390119481 -0.38339194008552618 0 -0.24458261606595269 -0.38403471170289732 0 -0.24347343772631699 -0.37146223776518111 0 -0.25240873419082382 -0.38056695435806998 0 -0.24458261606595269 -0.38403471170289732 0 -0.24347343772631699 -0.37146223776518111 0 -0.22925746390119481 -0.38339194008552618 0 -0.24347343772631699 -0.37146223776518111 0 -0.23135297175937139 -0.36380988599827702 0 -0.25554226852600281 -0.36435994656900111 0 -0.24347343772631699 -0.37146223776518111 0 -0.24062206364244609 -0.35472384755395292 0 -0.24347343772631699 -0.37146223776518111 0 -0.23135297175937139 -0.36380988599827702 0 -0.24062206364244609 -0.35472384755395292 0 -0.22925746390119481 -0.38339194008552618 0 -0.23135297175937139 -0.36380988599827702 0 -0.21307923720805649 -0.36692259646968439 0 -0.2267668778989341 -0.34380707272937672 0 -0.21307923720805649 -0.36692259646968439 0 -0.23135297175937139 -0.36380988599827702 0 -0.2267668778989341 -0.34380707272937672 0 -0.21307923720805649 -0.36692259646968439 0 -0.23135297175937139 -0.36380988599827702 0 -0.2267668778989341 -0.34380707272937672 0 -0.24062206364244609 -0.35472384755395292 0 -0.25554226852600281 -0.36435994656900111 0 -0.24062206364244609 -0.35472384755395292 0 -0.2453369214912712 -0.33698757391685719 0 -0.2267668778989341 -0.34380707272937672 0 -0.24062206364244609 -0.35472384755395292 0 -0.2453369214912712 -0.33698757391685719 0 -0.2267668778989341 -0.34380707272937672 0 -0.2453369214912712 -0.33698757391685719 0 -0.23117722464368151 -0.3274971639103742 0 -0.2453369214912712 -0.33698757391685719 0 -0.2446258083714575 -0.31755415448893948 0 -0.23117722464368151 -0.3274971639103742 0 -0.23117722464368151 -0.3274971639103742 0 -0.21262224518418341 -0.32800257851324438 0 -0.22653427027256101 -0.3111344399034533 0 -0.2446258083714575 -0.31755415448893948 0 -0.23117722464368151 -0.3274971639103742 0 -0.22653427027256101 -0.3111344399034533 0 -0.2267668778989341 -0.34380707272937672 0 -0.23117722464368151 -0.3274971639103742 0 -0.21262224518418341 -0.32800257851324438 0 -0.21262224518418341 -0.32800257851324438 0 -0.19332731799267899 -0.34175675407166728 0 -0.20622363064575991 -0.34952972206739952 0 -0.2267668778989341 -0.34380707272937672 0 -0.21262224518418341 -0.32800257851324438 0 -0.20622363064575991 -0.34952972206739952 0 -0.21262224518418341 -0.32800257851324438 0 -0.19369976991618679 -0.31684940350277091 0 -0.20993467615829059 -0.30727567179942622 0 -0.21262224518418341 -0.32800257851324438 0 -0.22653427027256101 -0.3111344399034533 0 -0.20993467615829059 -0.30727567179942622 0 -0.21262224518418341 -0.32800257851324438 0 -0.19369976991618679 -0.31684940350277091 0 -0.19332731799267899 -0.34175675407166728 0 -0.19332731799267899 -0.34175675407166728 0 -0.20622363064575991 -0.34952972206739952 0 -0.18532247494494661 -0.3671596085530246 0 -0.21307923720805649 -0.36692259646968439 0 -0.20622363064575991 -0.34952972206739952 0 -0.18532247494494661 -0.3671596085530246 0 -0.19939159651717889 -0.39003812020999201 0 -0.21307923720805649 -0.36692259646968439 0 -0.18532247494494661 -0.3671596085530246 0 -0.2267668778989341 -0.34380707272937672 0 -0.21307923720805649 -0.36692259646968439 0 -0.20622363064575991 -0.34952972206739952 0 -0.23206587961242939 -0.25496471632509909 0 -0.23197094732608031 -0.27309690796845132 0 -0.20824623235315529 -0.2661365587586072 0 -0.23206587961242939 -0.25496471632509909 0 -0.24861229565321749 -0.26914929626367412 0 -0.24420758384304819 -0.24842821958125019 0 -0.23206587961242939 -0.25496471632509909 0 -0.24861229565321749 -0.26914929626367412 0 -0.24861229565321749 -0.26914929626367412 0 -0.23197094732608031 -0.27309690796845132 0 -0.24637317120339941 -0.29184799557545432 0 -0.23206587961242939 -0.25496471632509909 0 -0.24861229565321749 -0.26914929626367412 0 -0.23197094732608031 -0.27309690796845132 0 -0.23197094732608031 -0.27309690796845132 0 -0.2224852437409171 -0.2883596856466904 0 -0.20824623235315529 -0.2661365587586072 0 -0.23197094732608031 -0.27309690796845132 0 -0.2224852437409171 -0.2883596856466904 0 -0.24637317120339941 -0.29184799557545432 0 -0.2446258083714575 -0.31755415448893948 0 -0.24637317120339941 -0.29184799557545432 0 -0.22653427027256101 -0.3111344399034533 0 -0.25883551954499762 -0.30716521063406682 0 -0.2446258083714575 -0.31755415448893948 0 -0.24637317120339941 -0.29184799557545432 0 -0.2224852437409171 -0.2883596856466904 0 -0.24637317120339941 -0.29184799557545432 0 -0.22653427027256101 -0.3111344399034533 0 -0.2224852437409171 -0.2883596856466904 0 -0.22653427027256101 -0.3111344399034533 0 -0.20993467615829059 -0.30727567179942622 0 -0.19369976991618679 -0.31684940350277091 0 -0.20993467615829059 -0.30727567179942622 0 -0.20097300113467101 -0.29149298113068911 0 -0.19369976991618679 -0.31684940350277091 0 -0.20097300113467101 -0.29149298113068911 0 -0.18213088487957671 -0.30212221825621549 0 -0.19369976991618679 -0.31684940350277091 0 -0.20097300113467101 -0.29149298113068911 0 -0.20097300113467101 -0.29149298113068911 0 -0.19109232077204319 -0.2715549841042264 0 -0.18618606583022401 -0.28677077849700572 0 -0.20097300113467101 -0.29149298113068911 0 -0.18618606583022401 -0.28677077849700572 0 -0.18213088487957671 -0.30212221825621549 0 -0.2224852437409171 -0.2883596856466904 0 -0.20993467615829059 -0.30727567179942622 0 -0.20097300113467101 -0.29149298113068911 0 -0.2224852437409171 -0.2883596856466904 0 -0.20097300113467101 -0.29149298113068911 0 -0.20824623235315529 -0.2661365587586072 0 -0.20097300113467101 -0.29149298113068911 0 -0.20824623235315529 -0.2661365587586072 0 -0.20097300113467101 -0.29149298113068911 0 -0.20824623235315529 -0.2661365587586072 0 -0.19109232077204319 -0.2715549841042264 0 -0.20824623235315529 -0.2661365587586072 0 -0.19109232077204319 -0.2715549841042264 0 -0.19715624570168269 -0.25665000070718008 0 -0.19109232077204319 -0.2715549841042264 0 -0.19715624570168269 -0.25665000070718008 0 -0.18634948753055461 -0.25651004676778388 0 -0.19715624570168269 -0.25665000070718008 0 -0.18634948753055461 -0.25651004676778388 0 -0.1918043991281945 -0.24694729105096591 0 -0.19715624570168269 -0.25665000070718008 0 -0.20562149223732559 -0.25003540333929097 0 -0.19951336731501479 -0.24511267685473101 0 -0.23206587961242939 -0.25496471632509909 0 -0.20824623235315529 -0.2661365587586072 0 -0.21551946357164031 -0.24078013638652551 0 -0.20824623235315529 -0.2661365587586072 0 -0.20562149223732559 -0.25003540333929097 0 -0.21551946357164031 -0.24078013638652551 0 -0.20824623235315529 -0.2661365587586072 0 -0.19715624570168269 -0.25665000070718008 0 -0.20562149223732559 -0.25003540333929097 0 -0.20824623235315529 -0.2661365587586072 0 -0.21551946357164031 -0.24078013638652551 0 -0.16355308366542201 -0.26005738573066511 0 -0.14765582784824499 -0.24250290602987759 0 -0.1730193112966624 -0.2484669018237306 0 -0.16355308366542201 -0.26005738573066511 0 -0.17169770106826479 -0.26905104617830039 0 -0.15533858948731311 -0.26619514069068162 0 -0.16355308366542201 -0.26005738573066511 0 -0.17169770106826479 -0.26905104617830039 0 -0.16355308366542201 -0.26005738573066511 0 -0.17772561889659019 -0.26410693843622551 0 -0.17169770106826479 -0.26905104617830039 0 -0.16355308366542201 -0.26005738573066511 0 -0.1772616331536255 -0.25579310167913089 0 -0.1730193112966624 -0.2484669018237306 0 -0.1772616331536255 -0.25579310167913089 0 -0.18331645795018989 -0.24873503095268279 0 -0.1730193112966624 -0.2484669018237306 0 -0.18634948753055461 -0.25651004676778388 0 -0.18331645795018989 -0.24873503095268279 0 -0.1918043991281945 -0.24694729105096591 0 -0.1772616331536255 -0.25579310167913089 0 -0.18634948753055461 -0.25651004676778388 0 -0.18331645795018989 -0.24873503095268279 0 -0.1772616331536255 -0.25579310167913089 0 -0.18634948753055461 -0.25651004676778388 0 -0.17772561889659019 -0.26410693843622551 0 -0.19109232077204319 -0.2715549841042264 0 -0.18634948753055461 -0.25651004676778388 0 -0.17772561889659019 -0.26410693843622551 0 -0.16355308366542201 -0.26005738573066511 0 -0.1772616331536255 -0.25579310167913089 0 -0.17772561889659019 -0.26410693843622551 0 -0.179450339482599 -0.27761186543145272 0 -0.17169770106826479 -0.26905104617830039 0 -0.174165273932579 -0.28786040556116282 0 -0.179450339482599 -0.27761186543145272 0 -0.17169770106826479 -0.26905104617830039 0 -0.17772561889659019 -0.26410693843622551 0 -0.179450339482599 -0.27761186543145272 0 -0.17169770106826479 -0.26905104617830039 0 -0.19109232077204319 -0.2715549841042264 0 -0.17772561889659019 -0.26410693843622551 0 -0.179450339482599 -0.27761186543145272 0 -0.19109232077204319 -0.2715549841042264 0 -0.179450339482599 -0.27761186543145272 0 -0.18618606583022401 -0.28677077849700572 0 -0.17169770106826479 -0.26905104617830039 0 -0.15658308641158961 -0.27665574015823419 0 -0.15533858948731311 -0.26619514069068162 0 -0.17169770106826479 -0.26905104617830039 0 -0.15658308641158961 -0.27665574015823419 0 -0.1616515116286929 -0.29018085295157198 0 -0.17169770106826479 -0.26905104617830039 0 -0.1616515116286929 -0.29018085295157198 0 -0.17169770106826479 -0.26905104617830039 0 -0.1616515116286929 -0.29018085295157198 0 -0.174165273932579 -0.28786040556116282 0 -0.1616515116286929 -0.29018085295157198 0 -0.174165273932579 -0.28786040556116282 0 -0.16393278552676291 -0.30870310803934708 0 -0.15658308641158961 -0.27665574015823419 0 -0.1616515116286929 -0.29018085295157198 0 -0.15092356772834009 -0.28568513688461672 0 -0.179450339482599 -0.27761186543145272 0 -0.174165273932579 -0.28786040556116282 0 -0.18618606583022401 -0.28677077849700572 0 -0.174165273932579 -0.28786040556116282 0 -0.18618606583022401 -0.28677077849700572 0 -0.18213088487957671 -0.30212221825621549 0 -0.174165273932579 -0.28786040556116282 0 -0.18213088487957671 -0.30212221825621549 0 -0.16393278552676291 -0.30870310803934708 0 -0.18213088487957671 -0.30212221825621549 0 -0.16393278552676291 -0.30870310803934708 0 -0.1783889231317024 -0.31353783612371833 0 -0.19369976991618679 -0.31684940350277091 0 -0.18213088487957671 -0.30212221825621549 0 -0.1783889231317024 -0.31353783612371833 0 -0.1616515116286929 -0.29018085295157198 0 -0.16393278552676291 -0.30870310803934708 0 -0.15211142205760511 -0.31085233801918982 0 -0.174165273932579 -0.28786040556116282 0 -0.16393278552676291 -0.30870310803934708 0 -0.1616515116286929 -0.29018085295157198 0 -0.15211142205760511 -0.31085233801918982 0 -0.1616515116286929 -0.29018085295157198 0 -0.15211142205760511 -0.31085233801918982 0 -0.14915567496977691 -0.29663709719553288 0 -0.15211142205760511 -0.31085233801918982 0 -0.14055405507205929 -0.30570511697375391 0 -0.14915567496977691 -0.29663709719553288 0 -0.14055405507205929 -0.30570511697375391 0 -0.14053781836218729 -0.29076204114853182 0 -0.14915567496977691 -0.29663709719553288 0 -0.15211142205760511 -0.31085233801918982 0 -0.14055405507205929 -0.30570511697375391 0 -0.13811214572601049 -0.31983460693462218 0 -0.14055405507205929 -0.30570511697375391 0 -0.12830640928739981 -0.29836317722954442 0 -0.12934967030080799 -0.31288473439857067 0 -0.12830640928739981 -0.29836317722954442 0 -0.12934967030080799 -0.31288473439857067 0 -0.1191750668892555 -0.30631744688928458 0 -0.14055405507205929 -0.30570511697375391 0 -0.12830640928739981 -0.29836317722954442 0 -0.14053781836218729 -0.29076204114853182 0 -0.14053781836218729 -0.29076204114853182 0 -0.12766377854453659 -0.2838221008095882 0 -0.1432050824287629 -0.2746063177702881 0 -0.12830640928739981 -0.29836317722954442 0 -0.14053781836218729 -0.29076204114853182 0 -0.12766377854453659 -0.2838221008095882 0 -0.14053781836218729 -0.29076204114853182 0 -0.15092356772834009 -0.28568513688461672 0 -0.1432050824287629 -0.2746063177702881 0 -0.14053781836218729 -0.29076204114853182 0 -0.14915567496977691 -0.29663709719553288 0 -0.15092356772834009 -0.28568513688461672 0 -0.1616515116286929 -0.29018085295157198 0 -0.14915567496977691 -0.29663709719553288 0 -0.15092356772834009 -0.28568513688461672 0 -0.15533858948731311 -0.26619514069068162 0 -0.1432050824287629 -0.2746063177702881 0 -0.147477808453191 -0.25863960018048521 0 -0.15658308641158961 -0.27665574015823419 0 -0.15092356772834009 -0.28568513688461672 0 -0.1432050824287629 -0.2746063177702881 0 -0.15658308641158961 -0.27665574015823419 0 -0.15533858948731311 -0.26619514069068162 0 -0.1432050824287629 -0.2746063177702881 0 -0.12766377854453659 -0.2838221008095882 0 -0.1432050824287629 -0.2746063177702881 0 -0.13070163260614659 -0.26500153031149087 0 -0.12766377854453659 -0.2838221008095882 0 -0.13070163260614659 -0.26500153031149087 0 -0.1173829690163119 -0.27272600267365538 0 -0.1432050824287629 -0.2746063177702881 0 -0.13070163260614659 -0.26500153031149087 0 -0.147477808453191 -0.25863960018048521 0 -0.13070163260614659 -0.26500153031149087 0 -0.1324894623631693 -0.2500788841477915 0 -0.147477808453191 -0.25863960018048521 0 -0.13070163260614659 -0.26500153031149087 0 -0.1324894623631693 -0.2500788841477915 0 -0.1177457984409102 -0.25675586286376628 0 -0.16355308366542201 -0.26005738573066511 0 -0.15533858948731311 -0.26619514069068162 0 -0.147477808453191 -0.25863960018048521 0 -0.16355308366542201 -0.26005738573066511 0 -0.147477808453191 -0.25863960018048521 0 -0.14765582784824499 -0.24250290602987759 0 -0.16355308366542201 -0.26005738573066511 0 -0.14765582784824499 -0.24250290602987759 0 -0.1324894623631693 -0.2500788841477915 0 -0.147477808453191 -0.25863960018048521 0 -0.14765582784824499 -0.24250290602987759 0 -0.1683975633539051 -0.34607263353369172 0 -0.16100109690762771 -0.36454889931311152 0 -0.18532247494494661 -0.3671596085530246 0 -0.1683975633539051 -0.34607263353369172 0 -0.16100109690762771 -0.36454889931311152 0 -0.1520992923647744 -0.35720772931140582 0 -0.17285035743821089 -0.37951964858010961 0 -0.16100109690762771 -0.36454889931311152 0 -0.18532247494494661 -0.3671596085530246 0 -0.19332731799267899 -0.34175675407166728 0 -0.1683975633539051 -0.34607263353369172 0 -0.19332731799267899 -0.34175675407166728 0 -0.1683975633539051 -0.34607263353369172 0 -0.18532247494494661 -0.3671596085530246 0 -0.19332731799267899 -0.34175675407166728 0 -0.1683975633539051 -0.34607263353369172 0 -0.17379225220428329 -0.32647661469653982 0 -0.19369976991618679 -0.31684940350277091 0 -0.19332731799267899 -0.34175675407166728 0 -0.17379225220428329 -0.32647661469653982 0 -0.16393278552676291 -0.30870310803934708 0 -0.17379225220428329 -0.32647661469653982 0 -0.1783889231317024 -0.31353783612371833 0 -0.19369976991618679 -0.31684940350277091 0 -0.17379225220428329 -0.32647661469653982 0 -0.1783889231317024 -0.31353783612371833 0 -0.16393278552676291 -0.30870310803934708 0 -0.15370029712094679 -0.32954581051753118 0 -0.16393278552676291 -0.30870310803934708 0 -0.17379225220428329 -0.32647661469653982 0 -0.15370029712094679 -0.32954581051753118 0 -0.16393278552676291 -0.30870310803934708 0 -0.15211142205760511 -0.31085233801918982 0 -0.15370029712094679 -0.32954581051753118 0 -0.1683975633539051 -0.34607263353369172 0 -0.17379225220428329 -0.32647661469653982 0 -0.15370029712094679 -0.32954581051753118 0 -0.1683975633539051 -0.34607263353369172 0 -0.15370029712094679 -0.32954581051753118 0 -0.14346780871513101 -0.35038851299571561 0 -0.15370029712094679 -0.32954581051753118 0 -0.14346780871513101 -0.35038851299571561 0 -0.15370029712094679 -0.32954581051753118 0 -0.14257133248651729 -0.3315238230868075 0 -0.14346780871513101 -0.35038851299571561 0 -0.15211142205760511 -0.31085233801918982 0 -0.14257133248651729 -0.3315238230868075 0 -0.13811214572601049 -0.31983460693462218 0 -0.15211142205760511 -0.31085233801918982 0 -0.15370029712094679 -0.32954581051753118 0 -0.14257133248651729 -0.3315238230868075 0 -0.15211142205760511 -0.31085233801918982 0 -0.14257133248651729 -0.3315238230868075 0 -0.14055405507205929 -0.30570511697375391 0 -0.13811214572601049 -0.31983460693462218 0 -0.12934967030080799 -0.31288473439857067 0 -0.14257133248651729 -0.3315238230868075 0 -0.13811214572601049 -0.31983460693462218 0 -0.1349333816608245 -0.33072924073304139 0 -0.13811214572601049 -0.31983460693462218 0 -0.12926850188573499 -0.3259970452295568 0 -0.1349333816608245 -0.33072924073304139 0 -0.12926850188573499 -0.3259970452295568 0 -0.12934967030080799 -0.31288473439857067 0 -0.1190588789478416 -0.32036393822369053 0 -0.13811214572601049 -0.31983460693462218 0 -0.12926850188573499 -0.3259970452295568 0 -0.12934967030080799 -0.31288473439857067 0 -0.14257133248651729 -0.3315238230868075 0 -0.13303124291542731 -0.35219530815442418 0 -0.14257133248651729 -0.3315238230868075 0 -0.1315145679761969 -0.33855954570601882 0 -0.13303124291542731 -0.35219530815442418 0 -0.14257133248651729 -0.3315238230868075 0 -0.1349333816608245 -0.33072924073304139 0 -0.1315145679761969 -0.33855954570601882 0 -0.12926850188573499 -0.3259970452295568 0 -0.1349333816608245 -0.33072924073304139 0 -0.1315145679761969 -0.33855954570601882 0 -0.12926850188573499 -0.3259970452295568 0 -0.1315145679761969 -0.33855954570601882 0 -0.1232543804194112 -0.33840134118518228 0 -0.1315145679761969 -0.33855954570601882 0 -0.12585004375686309 -0.3448485279130355 0 -0.1232543804194112 -0.33840134118518228 0 -0.1315145679761969 -0.33855954570601882 0 -0.12585004375686309 -0.3448485279130355 0 -0.13303124291542731 -0.35219530815442418 0 -0.12585004375686309 -0.3448485279130355 0 -0.13303124291542731 -0.35219530815442418 0 -0.1191774914018081 -0.35023959388412351 0 -0.14257133248651729 -0.3315238230868075 0 -0.13303124291542731 -0.35219530815442418 0 -0.14346780871513101 -0.35038851299571561 0 -0.13303124291542731 -0.35219530815442418 0 -0.1400724298652618 -0.35730460890141069 0 -0.1379854199590525 -0.36611997335256929 0 -0.13303124291542731 -0.35219530815442418 0 -0.1400724298652618 -0.35730460890141069 0 -0.14346780871513101 -0.35038851299571561 0 -0.13303124291542731 -0.35219530815442418 0 -0.14346780871513101 -0.35038851299571561 0 -0.1683975633539051 -0.34607263353369172 0 -0.14346780871513101 -0.35038851299571561 0 -0.1520992923647744 -0.35720772931140582 0 -0.1683975633539051 -0.34607263353369172 0 -0.14346780871513101 -0.35038851299571561 0 -0.1400724298652618 -0.35730460890141069 0 -0.14346780871513101 -0.35038851299571561 0 -0.1400724298652618 -0.35730460890141069 0 -0.14346780871513101 -0.35038851299571561 0 -0.1520992923647744 -0.35720772931140582 0 -0.1580920107830773 -0.38639505685811049 0 -0.16100109690762771 -0.36454889931311152 0 -0.14755756298194639 -0.36772399181309928 0 -0.16100109690762771 -0.36454889931311152 0 -0.1520992923647744 -0.35720772931140582 0 -0.14755756298194639 -0.36772399181309928 0 -0.1400724298652618 -0.35730460890141069 0 -0.1520992923647744 -0.35720772931140582 0 -0.14755756298194639 -0.36772399181309928 0 -0.1400724298652618 -0.35730460890141069 0 -0.14755756298194639 -0.36772399181309928 0 -0.1379854199590525 -0.36611997335256929 0 -0.13867184321040671 -0.37791882159611861 0 -0.14755756298194639 -0.36772399181309928 0 -0.1379854199590525 -0.36611997335256929 0 -0.13303124291542731 -0.35219530815442418 0 -0.12198752904021749 -0.37612484935646451 0 -0.13303124291542731 -0.35219530815442418 0 -0.1379854199590525 -0.36611997335256929 0 -0.12198752904021749 -0.37612484935646451 0 -0.13867184321040671 -0.37791882159611861 0 -0.1379854199590525 -0.36611997335256929 0 -0.12198752904021749 -0.37612484935646451 0 -0.13303124291542731 -0.35219530815442418 0 -0.12172961598846779 -0.36167953682535697 0 -0.12198752904021749 -0.37612484935646451 0 -0.12172961598846779 -0.36167953682535697 0 -0.1145553680648593 -0.36706975842035189 0 -0.12198752904021749 -0.37612484935646451 0 -0.12172961598846779 -0.36167953682535697 0 -0.1145553680648593 -0.36706975842035189 0 -0.1163255548827558 -0.35743936710610341 0 -0.1145553680648593 -0.36706975842035189 0 -0.11206994869701981 -0.36174726426303361 0 -0.1163255548827558 -0.35743936710610341 0 -0.1145553680648593 -0.36706975842035189 0 -0.11206994869701981 -0.36174726426303361 0 -0.10814247983924299 -0.36662069322059843 0 -0.11206994869701981 -0.36174726426303361 0 -0.1124065257016687 -0.35858797067072301 0 -0.1108127874608211 -0.35905506936785481 0 -0.1145553680648593 -0.36706975842035189 0 -0.10843398110716369 -0.37349346380725351 0 -0.12198752904021749 -0.37612484935646451 0 -0.1145553680648593 -0.36706975842035189 0 -0.10843398110716369 -0.37349346380725351 0 -0.10814247983924299 -0.36662069322059843 0 -0.10843398110716369 -0.37349346380725351 0 -0.10814247983924299 -0.36662069322059843 0 -0.10043266094837409 -0.36829889481233419 0 -0.10843398110716369 -0.37349346380725351 0 -0.10043266094837409 -0.36829889481233419 0 -0.09664854879367818 -0.37838555299803123 0 -0.11206994869701981 -0.36174726426303361 0 -0.10814247983924299 -0.36662069322059843 0 -0.1052204403787982 -0.36249408480001871 0 -0.11206994869701981 -0.36174726426303361 0 -0.1052204403787982 -0.36249408480001871 0 -0.1108127874608211 -0.35905506936785481 0 -0.1052204403787982 -0.36249408480001871 0 -0.1088083885967783 -0.35686172650335701 0 -0.1108127874608211 -0.35905506936785481 0 -0.10814247983924299 -0.36662069322059843 0 -0.1052204403787982 -0.36249408480001871 0 -0.10043266094837409 -0.36829889481233419 0 -0.10043266094837409 -0.36829889481233419 0 -0.088301046330317823 -0.36609800319119828 0 -0.092795272228429121 -0.35578241197675642 0 -0.1052204403787982 -0.36249408480001871 0 -0.10043266094837409 -0.36829889481233419 0 -0.092795272228429121 -0.35578241197675642 0 -0.10043266094837409 -0.36829889481233419 0 -0.088301046330317823 -0.36609800319119828 0 -0.09664854879367818 -0.37838555299803123 0 -0.1088083885967783 -0.35686172650335701 0 -0.1024874125305839 -0.34665079504220608 0 -0.083178910937193526 -0.34137276956029472 0 -0.1088083885967783 -0.35686172650335701 0 -0.083178910937193526 -0.34137276956029472 0 -0.092795272228429121 -0.35578241197675642 0 -0.1088083885967783 -0.35686172650335701 0 -0.083178910937193526 -0.34137276956029472 0 -0.1052204403787982 -0.36249408480001871 0 -0.1088083885967783 -0.35686172650335701 0 -0.092795272228429121 -0.35578241197675642 0 -0.1088083885967783 -0.35686172650335701 0 -0.1024874125305839 -0.34665079504220608 0 -0.10939085109497521 -0.35157370375522923 0 -0.1024874125305839 -0.34665079504220608 0 -0.1079647303978335 -0.3449100332690237 0 -0.10939085109497521 -0.35157370375522923 0 -0.1138391822257131 -0.34814952217947792 0 -0.11928943462919001 -0.34498893941048719 0 -0.1130728214572586 -0.33931329962675127 0 -0.13303124291542731 -0.35219530815442418 0 -0.110417811766078 -0.35611018194590038 0 -0.1079647303978335 -0.3449100332690237 0 -0.1138391822257131 -0.34814952217947792 0 -0.1130728214572586 -0.33931329962675127 0 -0.13303124291542731 -0.35219530815442418 0 -0.110417811766078 -0.35611018194590038 0 -0.1163255548827558 -0.35743936710610341 0 -0.13303124291542731 -0.35219530815442418 0 -0.110417811766078 -0.35611018194590038 0 -0.1191774914018081 -0.35023959388412351 0 -0.13303124291542731 -0.35219530815442418 0 -0.12172961598846779 -0.36167953682535697 0 -0.1163255548827558 -0.35743936710610341 0 -0.1138391822257131 -0.34814952217947792 0 -0.1130119330159448 -0.35186710682304712 0 -0.10939085109497521 -0.35157370375522923 0 -0.1079647303978335 -0.3449100332690237 0 -0.1138391822257131 -0.34814952217947792 0 -0.10939085109497521 -0.35157370375522923 0 -0.1138391822257131 -0.34814952217947792 0 -0.1130119330159448 -0.35186710682304712 0 -0.1191774914018081 -0.35023959388412351 0 -0.110417811766078 -0.35611018194590038 0 -0.1130119330159448 -0.35186710682304712 0 -0.1191774914018081 -0.35023959388412351 0 -0.1124065257016687 -0.35858797067072301 0 -0.110417811766078 -0.35611018194590038 0 -0.1163255548827558 -0.35743936710610341 0 -0.1124065257016687 -0.35858797067072301 0 -0.1108127874608211 -0.35905506936785481 0 -0.110417811766078 -0.35611018194590038 0 -0.1088083885967783 -0.35686172650335701 0 -0.1108127874608211 -0.35905506936785481 0 -0.110417811766078 -0.35611018194590038 0 -0.110417811766078 -0.35611018194590038 0 -0.1130119330159448 -0.35186710682304712 0 -0.10939085109497521 -0.35157370375522923 0 -0.1088083885967783 -0.35686172650335701 0 -0.110417811766078 -0.35611018194590038 0 -0.10939085109497521 -0.35157370375522923 0 -0.11206994869701981 -0.36174726426303361 0 -0.1124065257016687 -0.35858797067072301 0 -0.1163255548827558 -0.35743936710610341 0 -0.1138391822257131 -0.34814952217947792 0 -0.11928943462919001 -0.34498893941048719 0 -0.1191774914018081 -0.35023959388412351 0 -0.12585004375686309 -0.3448485279130355 0 -0.11928943462919001 -0.34498893941048719 0 -0.1191774914018081 -0.35023959388412351 0 -0.11928943462919001 -0.34498893941048719 0 -0.1232543804194112 -0.33840134118518228 0 -0.1130728214572586 -0.33931329962675127 0 -0.1232543804194112 -0.33840134118518228 0 -0.118230770615232 -0.33196166608695898 0 -0.1130728214572586 -0.33931329962675127 0 -0.12585004375686309 -0.3448485279130355 0 -0.11928943462919001 -0.34498893941048719 0 -0.1232543804194112 -0.33840134118518228 0 -0.12926850188573499 -0.3259970452295568 0 -0.1232543804194112 -0.33840134118518228 0 -0.118230770615232 -0.33196166608695898 0 -0.118230770615232 -0.33196166608695898 0 -0.1130728214572586 -0.33931329962675127 0 -0.10631774318058861 -0.32617927952271603 0 -0.12934967030080799 -0.31288473439857067 0 -0.1190588789478416 -0.32036393822369053 0 -0.1191750668892555 -0.30631744688928458 0 -0.12926850188573499 -0.3259970452295568 0 -0.118230770615232 -0.33196166608695898 0 -0.1190588789478416 -0.32036393822369053 0 -0.118230770615232 -0.33196166608695898 0 -0.1190588789478416 -0.32036393822369053 0 -0.10631774318058861 -0.32617927952271603 0 -0.1190588789478416 -0.32036393822369053 0 -0.1101377120205075 -0.3125026414737459 0 -0.1191750668892555 -0.30631744688928458 0 -0.1190588789478416 -0.32036393822369053 0 -0.1101377120205075 -0.3125026414737459 0 -0.10631774318058861 -0.32617927952271603 0 -0.10631774318058861 -0.32617927952271603 0 -0.090151715718552128 -0.32479909016819453 0 -0.097223545448816909 -0.31108663316568258 0 -0.1101377120205075 -0.3125026414737459 0 -0.10631774318058861 -0.32617927952271603 0 -0.097223545448816909 -0.31108663316568258 0 -0.10631774318058861 -0.32617927952271603 0 -0.1010333846806367 -0.33886284574145381 0 -0.090151715718552128 -0.32479909016819453 0 -0.1024874125305839 -0.34665079504220608 0 -0.1010333846806367 -0.33886284574145381 0 -0.083178910937193526 -0.34137276956029472 0 -0.1079647303978335 -0.3449100332690237 0 -0.1130728214572586 -0.33931329962675127 0 -0.1010333846806367 -0.33886284574145381 0 -0.1024874125305839 -0.34665079504220608 0 -0.1079647303978335 -0.3449100332690237 0 -0.1010333846806367 -0.33886284574145381 0 -0.1130728214572586 -0.33931329962675127 0 -0.10631774318058861 -0.32617927952271603 0 -0.1010333846806367 -0.33886284574145381 0 -0.083178910937193526 -0.34137276956029472 0 -0.090151715718552128 -0.32479909016819453 0 -0.070470354422744269 -0.32196936896693401 0 -0.1010333846806367 -0.33886284574145381 0 -0.083178910937193526 -0.34137276956029472 0 -0.090151715718552128 -0.32479909016819453 0 -0.090151715718552128 -0.32479909016819453 0 -0.070470354422744269 -0.32196936896693401 0 -0.082686355641332782 -0.30932364405208618 0 -0.090151715718552128 -0.32479909016819453 0 -0.097223545448816909 -0.31108663316568258 0 -0.082686355641332782 -0.30932364405208618 0 -0.083178910937193526 -0.34137276956029472 0 -0.062322779804588453 -0.34405765609245131 0 -0.057549433277608773 -0.32588381261723243 0 -0.083178910937193526 -0.34137276956029472 0 -0.070470354422744269 -0.32196936896693401 0 -0.057549433277608773 -0.32588381261723243 0 -0.083178910937193526 -0.34137276956029472 0 -0.057549433277608773 -0.32588381261723243 0 -0.083178910937193526 -0.34137276956029472 0 -0.073209204485975801 -0.35858339237649778 0 -0.062322779804588453 -0.34405765609245131 0 -0.073209204485975801 -0.35858339237649778 0 -0.052723855289950758 -0.35570181019509378 0 -0.062322779804588453 -0.34405765609245131 0 -0.073209204485975801 -0.35858339237649778 0 -0.077756349542724076 -0.37082101601793299 0 -0.055054619442423007 -0.37694070571453819 0 -0.077756349542724076 -0.37082101601793299 0 -0.088301046330317823 -0.36609800319119828 0 -0.09664854879367818 -0.37838555299803123 0 -0.073209204485975801 -0.35858339237649778 0 -0.077756349542724076 -0.37082101601793299 0 -0.088301046330317823 -0.36609800319119828 0 -0.073209204485975801 -0.35858339237649778 0 -0.088301046330317823 -0.36609800319119828 0 -0.092795272228429121 -0.35578241197675642 0 -0.083178910937193526 -0.34137276956029472 0 -0.073209204485975801 -0.35858339237649778 0 -0.092795272228429121 -0.35578241197675642 0 -0.10088548835506531 -0.26558022797582997 0 -0.085591391298974168 -0.25525670998288419 0 -0.1024958807902701 -0.24662047527455311 0 -0.10088548835506531 -0.26558022797582997 0 -0.1177457984409102 -0.25675586286376628 0 -0.1024958807902701 -0.24662047527455311 0 -0.10088548835506531 -0.26558022797582997 0 -0.1177457984409102 -0.25675586286376628 0 -0.1173829690163119 -0.27272600267365538 0 -0.13070163260614659 -0.26500153031149087 0 -0.1177457984409102 -0.25675586286376628 0 -0.1173829690163119 -0.27272600267365538 0 -0.10088548835506531 -0.26558022797582997 0 -0.1086905185149004 -0.29431700710516773 0 -0.088300478490928341 -0.2783787802631677 0 -0.10088548835506531 -0.26558022797582997 0 -0.1173829690163119 -0.27272600267365538 0 -0.1086905185149004 -0.29431700710516773 0 -0.1086905185149004 -0.29431700710516773 0 -0.090897995020448208 -0.2956468741563294 0 -0.088300478490928341 -0.2783787802631677 0 -0.1086905185149004 -0.29431700710516773 0 -0.088300478490928341 -0.2783787802631677 0 -0.12830640928739981 -0.29836317722954442 0 -0.12766377854453659 -0.2838221008095882 0 -0.1086905185149004 -0.29431700710516773 0 -0.12766377854453659 -0.2838221008095882 0 -0.1173829690163119 -0.27272600267365538 0 -0.1086905185149004 -0.29431700710516773 0 -0.12830640928739981 -0.29836317722954442 0 -0.1086905185149004 -0.29431700710516773 0 -0.1191750668892555 -0.30631744688928458 0 -0.1101377120205075 -0.3125026414737459 0 -0.1086905185149004 -0.29431700710516773 0 -0.1191750668892555 -0.30631744688928458 0 -0.1101377120205075 -0.3125026414737459 0 -0.1086905185149004 -0.29431700710516773 0 -0.097223545448816909 -0.31108663316568258 0 -0.1086905185149004 -0.29431700710516773 0 -0.097223545448816909 -0.31108663316568258 0 -0.090897995020448208 -0.2956468741563294 0 -0.082686355641332782 -0.30932364405208618 0 -0.069190396444849811 -0.29220496119405098 0 -0.090897995020448208 -0.2956468741563294 0 -0.097223545448816909 -0.31108663316568258 0 -0.082686355641332782 -0.30932364405208618 0 -0.090897995020448208 -0.2956468741563294 0 -0.070470354422744269 -0.32196936896693401 0 -0.082686355641332782 -0.30932364405208618 0 -0.069190396444849811 -0.29220496119405098 0 -0.070470354422744269 -0.32196936896693401 0 -0.069190396444849811 -0.29220496119405098 0 -0.070470354422744269 -0.32196936896693401 0 -0.069190396444849811 -0.29220496119405098 0 -0.058072350439826982 -0.30784442721416061 0 -0.069190396444849811 -0.29220496119405098 0 -0.090897995020448208 -0.2956468741563294 0 -0.088300478490928341 -0.2783787802631677 0 -0.10088548835506531 -0.26558022797582997 0 -0.088300478490928341 -0.2783787802631677 0 -0.085591391298974168 -0.25525670998288419 0 -0.069190396444849811 -0.29220496119405098 0 -0.067910438466956005 -0.26244055342116801 0 -0.069190396444849811 -0.29220496119405098 0 -0.067910438466956005 -0.26244055342116801 0 -0.054156375835217298 -0.27743468704089841 0 -0.088300478490928341 -0.2783787802631677 0 -0.067910438466956005 -0.26244055342116801 0 -0.069190396444849811 -0.29220496119405098 0 -0.088300478490928341 -0.2783787802631677 0 -0.067910438466956005 -0.26244055342116801 0 -0.067910438466956005 -0.26244055342116801 0 -0.06702448306146816 -0.24183836302669171 0 -0.067910438466956005 -0.26244055342116801 0 -0.085591391298974168 -0.25525670998288419 0 -0.06702448306146816 -0.24183836302669171 0 -0.088300478490928341 -0.2783787802631677 0 -0.067910438466956005 -0.26244055342116801 0 -0.085591391298974168 -0.25525670998288419 0 -0.031734752645820631 -0.25710441704462761 0 -0.047964650075353853 -0.26349647087778583 0 -0.044292763933359319 -0.2439793903359338 0 -0.031734752645820631 -0.25710441704462761 0 -0.047964650075353853 -0.26349647087778583 0 -0.038357972140739993 -0.27609053451530807 0 -0.067910438466956005 -0.26244055342116801 0 -0.044292763933359319 -0.2439793903359338 0 -0.067910438466956005 -0.26244055342116801 0 -0.047964650075353853 -0.26349647087778583 0 -0.044292763933359319 -0.2439793903359338 0 -0.067910438466956005 -0.26244055342116801 0 -0.047964650075353853 -0.26349647087778583 0 -0.054156375835217298 -0.27743468704089841 0 -0.047964650075353853 -0.26349647087778583 0 -0.054156375835217298 -0.27743468704089841 0 -0.038357972140739993 -0.27609053451530807 0 -0.038357972140739993 -0.27609053451530807 0 -0.046905472255554678 -0.29281292164723122 0 -0.028095966589391039 -0.2903649222546113 0 -0.054156375835217298 -0.27743468704089841 0 -0.038357972140739993 -0.27609053451530807 0 -0.046905472255554678 -0.29281292164723122 0 -0.069190396444849811 -0.29220496119405098 0 -0.054156375835217298 -0.27743468704089841 0 -0.046905472255554678 -0.29281292164723122 0 -0.069190396444849811 -0.29220496119405098 0 -0.046905472255554678 -0.29281292164723122 0 -0.058072350439826982 -0.30784442721416061 0 -0.046905472255554678 -0.29281292164723122 0 -0.058072350439826982 -0.30784442721416061 0 -0.031919955618023937 -0.31039485567417002 0 -0.046905472255554678 -0.29281292164723122 0 -0.031919955618023937 -0.31039485567417002 0 -0.028095966589391039 -0.2903649222546113 0 -0.0062904779584391293 -0.29490589873110767 0 -0.01372632204363926 -0.27253411672486377 0 0.01933899970114571 -0.27941694178804538 0 -0.031919955618023937 -0.31039485567417002 0 -0.0062904779584391293 -0.29490589873110767 0 -0.028095966589391039 -0.2903649222546113 0 -0.031919955618023937 -0.31039485567417002 0 -0.0062904779584391293 -0.29490589873110767 0 -0.015936783505504589 -0.32457883084223582 0 -0.031919955618023937 -0.31039485567417002 0 -0.0062904779584391293 -0.29490589873110767 0 -0.0062904779584391293 -0.29490589873110767 0 -0.028095966589391039 -0.2903649222546113 0 -0.01372632204363926 -0.27253411672486377 0 -0.031734752645820631 -0.25710441704462761 0 -0.038357972140739993 -0.27609053451530807 0 -0.01372632204363926 -0.27253411672486377 0 -0.038357972140739993 -0.27609053451530807 0 -0.028095966589391039 -0.2903649222546113 0 -0.01372632204363926 -0.27253411672486377 0 -0.01372632204363926 -0.27253411672486377 0 -0.01457790468976509 -0.24802235646209489 0 0.012011206364422111 -0.25275089785599059 0 -0.031734752645820631 -0.25710441704462761 0 -0.01372632204363926 -0.27253411672486377 0 -0.01457790468976509 -0.24802235646209489 0 -0.034038952021759147 -0.3560108187195713 0 -0.052723855289950758 -0.35570181019509378 0 -0.048937241897429332 -0.3409317867067978 0 -0.044156288482612507 -0.36694839551265612 0 -0.033511182078635807 -0.37639575098856759 0 -0.055054619442423007 -0.37694070571453819 0 -0.034038952021759147 -0.3560108187195713 0 -0.044156288482612507 -0.36694839551265612 0 -0.052723855289950758 -0.35570181019509378 0 -0.034038952021759147 -0.3560108187195713 0 -0.044156288482612507 -0.36694839551265612 0 -0.033511182078635807 -0.37639575098856759 0 -0.073209204485975801 -0.35858339237649778 0 -0.052723855289950758 -0.35570181019509378 0 -0.055054619442423007 -0.37694070571453819 0 -0.044156288482612507 -0.36694839551265612 0 -0.052723855289950758 -0.35570181019509378 0 -0.055054619442423007 -0.37694070571453819 0 -0.052723855289950758 -0.35570181019509378 0 -0.062322779804588453 -0.34405765609245131 0 -0.048937241897429332 -0.3409317867067978 0 -0.062322779804588453 -0.34405765609245131 0 -0.048937241897429332 -0.3409317867067978 0 -0.057549433277608773 -0.32588381261723243 0 -0.070470354422744269 -0.32196936896693401 0 -0.058072350439826982 -0.30784442721416061 0 -0.057549433277608773 -0.32588381261723243 0 -0.058072350439826982 -0.30784442721416061 0 -0.031919955618023937 -0.31039485567417002 0 -0.057549433277608773 -0.32588381261723243 0 -0.031919955618023937 -0.31039485567417002 0 -0.057549433277608773 -0.32588381261723243 0 -0.031919955618023937 -0.31039485567417002 0 -0.057549433277608773 -0.32588381261723243 0 -0.033187468292983607 -0.33398043363786128 0 -0.034038952021759147 -0.3560108187195713 0 -0.048937241897429332 -0.3409317867067978 0 -0.033187468292983607 -0.33398043363786128 0 -0.048937241897429332 -0.3409317867067978 0 -0.057549433277608773 -0.32588381261723243 0 -0.033187468292983607 -0.33398043363786128 0 -0.033187468292983607 -0.33398043363786128 0 -0.015936783505504589 -0.32457883084223582 0 -0.01132347348887399 -0.34647629943326852 0 -0.031919955618023937 -0.31039485567417002 0 -0.033187468292983607 -0.33398043363786128 0 -0.015936783505504589 -0.32457883084223582 0 -0.0062904779584391293 -0.29490589873110767 0 -0.015936783505504589 -0.32457883084223582 0 0.0067780386225128313 -0.32069423561336358 0 -0.015936783505504589 -0.32457883084223582 0 -0.01132347348887399 -0.34647629943326852 0 0.0067780386225128313 -0.32069423561336358 0 -0.034038952021759147 -0.3560108187195713 0 -0.033187468292983607 -0.33398043363786128 0 -0.01132347348887399 -0.34647629943326852 0 -0.034038952021759147 -0.3560108187195713 0 -0.01132347348887399 -0.34647629943326852 0 -0.019276567142949369 -0.367333855168611 0 -0.034038952021759147 -0.3560108187195713 0 -0.019276567142949369 -0.367333855168611 0 -0.033511182078635807 -0.37639575098856759 0 -0.01132347348887399 -0.34647629943326852 0 -0.019276567142949369 -0.367333855168611 0 0.001329830272625719 -0.37172096034497498 0 -0.001437518266137712 -0.39260329897227669 0 -0.018839058398103639 -0.38606544635667273 0 0.001329830272625719 -0.37172096034497498 0 -0.019276567142949369 -0.367333855168611 0 -0.018839058398103639 -0.38606544635667273 0 0.001329830272625719 -0.37172096034497498 0 -0.001437518266137712 -0.39260329897227669 0 -0.01277198429310071 -0.40307588270242389 0 0.0095576460485872552 -0.41214570334098932 0 -0.001437518266137712 -0.39260329897227669 0 -0.01277198429310071 -0.40307588270242389 0 -0.018839058398103639 -0.38606544635667273 0 -0.02781839127326393 -0.39998951755214668 0 -0.018839058398103639 -0.38606544635667273 0 -0.03868495994736295 -0.39055302720992757 0 -0.01277198429310071 -0.40307588270242389 0 -0.02781839127326393 -0.39998951755214668 0 -0.018839058398103639 -0.38606544635667273 0 -0.01277198429310071 -0.40307588270242389 0 -0.02781839127326393 -0.39998951755214668 0 -0.025475555649262051 -0.41060736509465012 0 -0.02781839127326393 -0.39998951755214668 0 -0.038872780994770588 -0.40589362859398259 0 -0.025475555649262051 -0.41060736509465012 0 -0.018839058398103639 -0.38606544635667273 0 -0.033511182078635807 -0.37639575098856759 0 -0.03868495994736295 -0.39055302720992757 0 -0.019276567142949369 -0.367333855168611 0 -0.018839058398103639 -0.38606544635667273 0 -0.033511182078635807 -0.37639575098856759 0 -0.033511182078635807 -0.37639575098856759 0 -0.03868495994736295 -0.39055302720992757 0 -0.055054619442423007 -0.37694070571453819 0 -0.02781839127326393 -0.39998951755214668 0 -0.03868495994736295 -0.39055302720992757 0 -0.038872780994770588 -0.40589362859398259 0 -0.03868495994736295 -0.39055302720992757 0 -0.038872780994770588 -0.40589362859398259 0 -0.05167212638442846 -0.39869180496617002 0 -0.038872780994770588 -0.40589362859398259 0 -0.05167212638442846 -0.39869180496617002 0 -0.052232890879759547 -0.4125213360055634 0 -0.05167212638442846 -0.39869180496617002 0 -0.052232890879759547 -0.4125213360055634 0 -0.065206150196892299 -0.40414400715726528 0 -0.05167212638442846 -0.39869180496617002 0 -0.063776459064912042 -0.3908233398031562 0 -0.065206150196892299 -0.40414400715726528 0 -0.03868495994736295 -0.39055302720992757 0 -0.05167212638442846 -0.39869180496617002 0 -0.055054619442423007 -0.37694070571453819 0 -0.05167212638442846 -0.39869180496617002 0 -0.055054619442423007 -0.37694070571453819 0 -0.063776459064912042 -0.3908233398031562 0 -0.056159920884544627 -0.42721999162275798 0 -0.039219650966994118 -0.43993369420983469 0 -0.054858384676533867 -0.44335949856273121 0 -0.056159920884544627 -0.42721999162275798 0 -0.054858384676533867 -0.44335949856273121 0 -0.06708753092689522 -0.43847526656636482 0 -0.056159920884544627 -0.42721999162275798 0 -0.052232890879759547 -0.4125213360055634 0 -0.067232301577754089 -0.41698335483103621 0 -0.056159920884544627 -0.42721999162275798 0 -0.052232890879759547 -0.4125213360055634 0 -0.03425406524016731 -0.42219522886216859 0 -0.052232890879759547 -0.4125213360055634 0 -0.065206150196892299 -0.40414400715726528 0 -0.067232301577754089 -0.41698335483103621 0 -0.038872780994770588 -0.40589362859398259 0 -0.03425406524016731 -0.42219522886216859 0 -0.025475555649262051 -0.41060736509465012 0 -0.038872780994770588 -0.40589362859398259 0 -0.052232890879759547 -0.4125213360055634 0 -0.03425406524016731 -0.42219522886216859 0 -0.056159920884544627 -0.42721999162275798 0 -0.03425406524016731 -0.42219522886216859 0 -0.039219650966994118 -0.43993369420983469 0 -0.056159920884544627 -0.42721999162275798 0 -0.03425406524016731 -0.42219522886216859 0 -0.03425406524016731 -0.42219522886216859 0 -0.028290500672523481 -0.43328462373739368 0 -0.039219650966994118 -0.43993369420983469 0 -0.028290500672523481 -0.43328462373739368 0 -0.021493365521205111 -0.42029022452707721 0 -0.01916899609321842 -0.43909647226391968 0 -0.021493365521205111 -0.42029022452707721 0 -0.01148670204715382 -0.43608022824107973 0 -0.01916899609321842 -0.43909647226391968 0 -0.03425406524016731 -0.42219522886216859 0 -0.028290500672523481 -0.43328462373739368 0 -0.021493365521205111 -0.42029022452707721 0 -0.03425406524016731 -0.42219522886216859 0 -0.01234820959579002 -0.41717046610157921 0 -0.03425406524016731 -0.42219522886216859 0 -0.025475555649262051 -0.41060736509465012 0 -0.01234820959579002 -0.41717046610157921 0 -0.03425406524016731 -0.42219522886216859 0 -0.021493365521205111 -0.42029022452707721 0 -0.01234820959579002 -0.41717046610157921 0 -0.01277198429310071 -0.40307588270242389 0 -0.025475555649262051 -0.41060736509465012 0 -0.01234820959579002 -0.41717046610157921 0 -0.01234820959579002 -0.41717046610157921 0 0.0095576460485872552 -0.41214570334098932 0 -0.01277198429310071 -0.40307588270242389 0 -0.01234820959579002 -0.41717046610157921 0 0.0095576460485872552 -0.41214570334098932 0 -0.01234820959579002 -0.41717046610157921 0 0.0095576460485872552 -0.41214570334098932 0 0.0010375023834286519 -0.4343684959930546 0 -0.021493365521205111 -0.42029022452707721 0 -0.01234820959579002 -0.41717046610157921 0 0.0010375023834286519 -0.4343684959930546 0 -0.021493365521205111 -0.42029022452707721 0 -0.01148670204715382 -0.43608022824107973 0 0.0010375023834286519 -0.4343684959930546 0 -0.021493365521205111 -0.42029022452707721 0 0.0010375023834286519 -0.4343684959930546 0 -0.01160789492439597 -0.44738992288539342 0 -0.0074202278742511044 -0.45642849793787049 0 0.0010375023834286519 -0.4343684959930546 0 -0.01148670204715382 -0.43608022824107973 0 -0.01160789492439597 -0.44738992288539342 0 0.0010375023834286519 -0.4343684959930546 0 -0.0074202278742511044 -0.45642849793787049 0 0.0010375023834286519 -0.4343684959930546 0 0.0004496438087077761 -0.45535156770205759 0 -0.0074202278742511044 -0.45642849793787049 0 0.0010375023834286519 -0.4343684959930546 0 -0.01148670204715382 -0.43608022824107973 0 -0.01160789492439597 -0.44738992288539342 0 -0.01916899609321842 -0.43909647226391968 0 -0.01160789492439597 -0.44738992288539342 0 -0.0074202278742511044 -0.45642849793787049 0 -0.020028059688804421 -0.45271281868019869 0 -0.0061332739445871323 -0.46027128126309252 0 -0.0074202278742511044 -0.45642849793787049 0 0.0004496438087077761 -0.45535156770205759 0 -0.0061332739445871323 -0.46027128126309252 0 -0.0042480672254351058 -0.47158187165537568 0 0.0061377907538116318 -0.46935369526845938 0 -0.0061332739445871323 -0.46027128126309252 0 -0.0042480672254351058 -0.47158187165537568 0 -0.016790587478368969 -0.47035488017167859 0 -0.0061332739445871323 -0.46027128126309252 0 -0.0074202278742511044 -0.45642849793787049 0 -0.020028059688804421 -0.45271281868019869 0 -0.0061332739445871323 -0.46027128126309252 0 -0.031027935021987672 -0.45990770839890871 0 -0.020028059688804421 -0.45271281868019869 0 -0.0061332739445871323 -0.46027128126309252 0 -0.031027935021987672 -0.45990770839890871 0 -0.016790587478368969 -0.47035488017167859 0 -0.0061332739445871323 -0.46027128126309252 0 -0.031027935021987672 -0.45990770839890871 0 -0.031027935021987672 -0.45990770839890871 0 -0.027316425541032471 -0.44490749882396852 0 -0.020028059688804421 -0.45271281868019869 0 -0.028290500672523481 -0.43328462373739368 0 -0.027316425541032471 -0.44490749882396852 0 -0.01916899609321842 -0.43909647226391968 0 -0.01160789492439597 -0.44738992288539342 0 -0.01916899609321842 -0.43909647226391968 0 -0.020028059688804421 -0.45271281868019869 0 -0.027316425541032471 -0.44490749882396852 0 -0.01916899609321842 -0.43909647226391968 0 -0.020028059688804421 -0.45271281868019869 0 -0.01134111977391916 -0.5 0 -0.01204862080277474 -0.48010111032556968 0 0.0058358895367897701 -0.48046532183178642 0 -0.01204862080277474 -0.48010111032556968 0 -0.0042480672254351058 -0.47158187165537568 0 0.0058358895367897701 -0.48046532183178642 0 -0.01204862080277474 -0.48010111032556968 0 -0.0042480672254351058 -0.47158187165537568 0 -0.016790587478368969 -0.47035488017167859 0 -0.031027935021987672 -0.45990770839890871 0 -0.030495040397060209 -0.47991242921544641 0 -0.016790587478368969 -0.47035488017167859 0 -0.01204862080277474 -0.48010111032556968 0 -0.030495040397060209 -0.47991242921544641 0 -0.016790587478368969 -0.47035488017167859 0 -0.01134111977391916 -0.5 0 -0.030495040397060209 -0.47991242921544641 0 -0.040694942689319558 -0.5 0 -0.01134111977391916 -0.5 0 -0.01204862080277474 -0.48010111032556968 0 -0.030495040397060209 -0.47991242921544641 0 -0.030495040397060209 -0.47991242921544641 0 -0.040694942689319558 -0.5 0 -0.056842214343114962 -0.48255321341928969 0 -0.030495040397060209 -0.47991242921544641 0 -0.056842214343114962 -0.48255321341928969 0 -0.046863756047834063 -0.46628110181753019 0 -0.056842214343114962 -0.48255321341928969 0 -0.046863756047834063 -0.46628110181753019 0 -0.059063855834004038 -0.46866961485627079 0 -0.056842214343114962 -0.48255321341928969 0 -0.059063855834004038 -0.46866961485627079 0 -0.066818729778652081 -0.47416442508231588 0 -0.040694942689319558 -0.5 0 -0.056842214343114962 -0.48255321341928969 0 -0.070048765604720009 -0.5 0 -0.039219650966994118 -0.43993369420983469 0 -0.045740383087984629 -0.45339549461664358 0 -0.054858384676533867 -0.44335949856273121 0 -0.031027935021987672 -0.45990770839890871 0 -0.039219650966994118 -0.43993369420983469 0 -0.045740383087984629 -0.45339549461664358 0 -0.031027935021987672 -0.45990770839890871 0 -0.027316425541032471 -0.44490749882396852 0 -0.039219650966994118 -0.43993369420983469 0 -0.028290500672523481 -0.43328462373739368 0 -0.027316425541032471 -0.44490749882396852 0 -0.039219650966994118 -0.43993369420983469 0 -0.031027935021987672 -0.45990770839890871 0 -0.030495040397060209 -0.47991242921544641 0 -0.046863756047834063 -0.46628110181753019 0 -0.031027935021987672 -0.45990770839890871 0 -0.046863756047834063 -0.46628110181753019 0 -0.045740383087984629 -0.45339549461664358 0 -0.046863756047834063 -0.46628110181753019 0 -0.045740383087984629 -0.45339549461664358 0 -0.056732188726573443 -0.45749547009421282 0 -0.046863756047834063 -0.46628110181753019 0 -0.059063855834004038 -0.46866961485627079 0 -0.056732188726573443 -0.45749547009421282 0 -0.059063855834004038 -0.46866961485627079 0 -0.056732188726573443 -0.45749547009421282 0 -0.068062390273845669 -0.46285386386800598 0 -0.056732188726573443 -0.45749547009421282 0 -0.054858384676533867 -0.44335949856273121 0 -0.068769467303020776 -0.45086207063833073 0 -0.045740383087984629 -0.45339549461664358 0 -0.056732188726573443 -0.45749547009421282 0 -0.054858384676533867 -0.44335949856273121 0 -0.054858384676533867 -0.44335949856273121 0 -0.06708753092689522 -0.43847526656636482 0 -0.068769467303020776 -0.45086207063833073 0 -0.068769467303020776 -0.45086207063833073 0 -0.074882435057314387 -0.45655124061624391 0 -0.080945729837518937 -0.43976829126926348 0 -0.06708753092689522 -0.43847526656636482 0 -0.068769467303020776 -0.45086207063833073 0 -0.080945729837518937 -0.43976829126926348 0 -0.056732188726573443 -0.45749547009421282 0 -0.068769467303020776 -0.45086207063833073 0 -0.068062390273845669 -0.46285386386800598 0 -0.068062390273845669 -0.46285386386800598 0 -0.074625731269735776 -0.46652126095257918 0 -0.066818729778652081 -0.47416442508231588 0 -0.059063855834004038 -0.46866961485627079 0 -0.068062390273845669 -0.46285386386800598 0 -0.066818729778652081 -0.47416442508231588 0 -0.074625731269735776 -0.46652126095257918 0 -0.082008856602450789 -0.46275071635304033 0 -0.077131063959714197 -0.47331992715823562 0 -0.068062390273845669 -0.46285386386800598 0 -0.074625731269735776 -0.46652126095257918 0 -0.074882435057314387 -0.45655124061624391 0 -0.074625731269735776 -0.46652126095257918 0 -0.074882435057314387 -0.45655124061624391 0 -0.082008856602450789 -0.46275071635304033 0 -0.068769467303020776 -0.45086207063833073 0 -0.068062390273845669 -0.46285386386800598 0 -0.074882435057314387 -0.45655124061624391 0 -0.082008856602450789 -0.46275071635304033 0 -0.089965957738843805 -0.44550925377590112 0 -0.082008856602450789 -0.46275071635304033 0 -0.088521622832008595 -0.45772582017561703 0 -0.089965957738843805 -0.44550925377590112 0 -0.082008856602450789 -0.46275071635304033 0 -0.077131063959714197 -0.47331992715823562 0 -0.082008856602450789 -0.46275071635304033 0 -0.082219629466361036 -0.46730715469539258 0 -0.077131063959714197 -0.47331992715823562 0 -0.082008856602450789 -0.46275071635304033 0 -0.082219629466361036 -0.46730715469539258 0 -0.088852059401353087 -0.46467299519669009 0 -0.082008856602450789 -0.46275071635304033 0 -0.082219629466361036 -0.46730715469539258 0 -0.088852059401353087 -0.46467299519669009 0 -0.0932596175853867 -0.45797031537683652 0 -0.097741960324114904 -0.46616234089512792 0 -0.082219629466361036 -0.46730715469539258 0 -0.088852059401353087 -0.46467299519669009 0 -0.088247144066257832 -0.47362203157918831 0 -0.088852059401353087 -0.46467299519669009 0 -0.088247144066257832 -0.47362203157918831 0 -0.097741960324114904 -0.46616234089512792 0 -0.082008856602450789 -0.46275071635304033 0 -0.088852059401353087 -0.46467299519669009 0 -0.088521622832008595 -0.45772582017561703 0 -0.088521622832008595 -0.45772582017561703 0 -0.0932596175853867 -0.45797031537683652 0 -0.089965957738843805 -0.44550925377590112 0 -0.088852059401353087 -0.46467299519669009 0 -0.088521622832008595 -0.45772582017561703 0 -0.0932596175853867 -0.45797031537683652 0 -0.074882435057314387 -0.45655124061624391 0 -0.082008856602450789 -0.46275071635304033 0 -0.080945729837518937 -0.43976829126926348 0 -0.082008856602450789 -0.46275071635304033 0 -0.089965957738843805 -0.44550925377590112 0 -0.080945729837518937 -0.43976829126926348 0 -0.082008856602450789 -0.46275071635304033 0 -0.080945729837518937 -0.43976829126926348 0 -0.089965957738843805 -0.44550925377590112 0 -0.080945729837518937 -0.43976829126926348 0 -0.089872878867396089 -0.43438624897365791 0 -0.056842214343114962 -0.48255321341928969 0 -0.070048765604720009 -0.5 0 -0.079595373143356948 -0.4858382082214151 0 -0.056842214343114962 -0.48255321341928969 0 -0.066818729778652081 -0.47416442508231588 0 -0.079595373143356948 -0.4858382082214151 0 -0.066818729778652081 -0.47416442508231588 0 -0.077131063959714197 -0.47331992715823562 0 -0.079595373143356948 -0.4858382082214151 0 -0.074625731269735776 -0.46652126095257918 0 -0.066818729778652081 -0.47416442508231588 0 -0.077131063959714197 -0.47331992715823562 0 -0.088247144066257832 -0.47362203157918831 0 -0.079595373143356948 -0.4858382082214151 0 -0.099291573954669921 -0.48113598537334618 0 -0.082219629466361036 -0.46730715469539258 0 -0.077131063959714197 -0.47331992715823562 0 -0.088247144066257832 -0.47362203157918831 0 -0.077131063959714197 -0.47331992715823562 0 -0.088247144066257832 -0.47362203157918831 0 -0.079595373143356948 -0.4858382082214151 0 -0.070048765604720009 -0.5 0 -0.079595373143356948 -0.4858382082214151 0 -0.099402588520120516 -0.5 0 -0.079595373143356948 -0.4858382082214151 0 -0.099402588520120516 -0.5 0 -0.099291573954669921 -0.48113598537334618 0 -0.099402588520120516 -0.5 0 -0.099291573954669921 -0.48113598537334618 0 -0.11832517605854199 -0.48705874080463729 0 -0.088247144066257832 -0.47362203157918831 0 -0.099291573954669921 -0.48113598537334618 0 -0.097741960324114904 -0.46616234089512792 0 -0.099291573954669921 -0.48113598537334618 0 -0.1120754061200048 -0.47165655794741063 0 -0.097741960324114904 -0.46616234089512792 0 -0.099291573954669921 -0.48113598537334618 0 -0.1120754061200048 -0.47165655794741063 0 -0.11832517605854199 -0.48705874080463729 0 -0.1303942901241347 -0.47562968368150538 0 -0.1120754061200048 -0.47165655794741063 0 -0.1303942901241347 -0.47562968368150538 0 -0.1120754061200048 -0.47165655794741063 0 -0.11832517605854199 -0.48705874080463729 0 -0.128756411435521 -0.50000000000001088 0 -0.099402588520120516 -0.5 0 -0.11832517605854199 -0.48705874080463729 0 -0.089965957738843805 -0.44550925377590112 0 -0.10542161506418631 -0.44292504787331988 0 -0.097923058875237307 -0.4282677911987619 0 -0.10542161506418631 -0.44292504787331988 0 -0.1019449973282484 -0.45336568099480717 0 -0.11432177695962289 -0.45377674687071923 0 -0.089965957738843805 -0.44550925377590112 0 -0.10542161506418631 -0.44292504787331988 0 -0.1019449973282484 -0.45336568099480717 0 -0.0932596175853867 -0.45797031537683652 0 -0.089965957738843805 -0.44550925377590112 0 -0.1019449973282484 -0.45336568099480717 0 -0.0932596175853867 -0.45797031537683652 0 -0.097741960324114904 -0.46616234089512792 0 -0.1019449973282484 -0.45336568099480717 0 -0.1120754061200048 -0.47165655794741063 0 -0.097741960324114904 -0.46616234089512792 0 -0.1065210351829978 -0.46124033167701622 0 -0.1065210351829978 -0.46124033167701622 0 -0.1019449973282484 -0.45336568099480717 0 -0.11432177695962289 -0.45377674687071923 0 -0.097741960324114904 -0.46616234089512792 0 -0.1065210351829978 -0.46124033167701622 0 -0.1019449973282484 -0.45336568099480717 0 -0.1266732872715573 -0.45466772510395781 0 -0.1120754061200048 -0.47165655794741063 0 -0.11432177695962289 -0.45377674687071923 0 -0.1266732872715573 -0.45466772510395781 0 -0.1303942901241347 -0.47562968368150538 0 -0.1120754061200048 -0.47165655794741063 0 -0.1120754061200048 -0.47165655794741063 0 -0.1065210351829978 -0.46124033167701622 0 -0.11432177695962289 -0.45377674687071923 0 -0.1266732872715573 -0.45466772510395781 0 -0.1229522844189808 -0.43370576652641007 0 -0.10542161506418631 -0.44292504787331988 0 -0.11432177695962289 -0.45377674687071923 0 -0.1229522844189808 -0.43370576652641007 0 -0.1266732872715573 -0.45466772510395781 0 -0.11432177695962289 -0.45377674687071923 0 -0.1229522844189808 -0.43370576652641007 0 -0.1229522844189808 -0.43370576652641007 0 -0.097923058875237307 -0.4282677911987619 0 -0.1198179301444536 -0.41604864368263939 0 -0.1229522844189808 -0.43370576652641007 0 -0.097923058875237307 -0.4282677911987619 0 -0.1229522844189808 -0.43370576652641007 0 -0.1198179301444536 -0.41604864368263939 0 -0.10542161506418631 -0.44292504787331988 0 -0.1229522844189808 -0.43370576652641007 0 -0.097923058875237307 -0.4282677911987619 0 -0.089965957738843805 -0.44550925377590112 0 -0.097923058875237307 -0.4282677911987619 0 -0.097923058875237307 -0.4282677911987619 0 -0.094234796882961214 -0.427466460862722 0 -0.09372568044455952 -0.42228810283010432 0 -0.097923058875237307 -0.4282677911987619 0 -0.094234796882961214 -0.427466460862722 0 -0.097923058875237307 -0.4282677911987619 0 -0.094234796882961214 -0.427466460862722 0 -0.089872878867396089 -0.43438624897365791 0 -0.097923058875237307 -0.4282677911987619 0 -0.10443343702012101 -0.41416109087863268 0 -0.1198179301444536 -0.41604864368263939 0 -0.10443343702012101 -0.41416109087863268 0 -0.096123501951424689 -0.40434799291326962 0 -0.09303485647857955 -0.41532479050328219 0 -0.10443343702012101 -0.41416109087863268 0 -0.09372568044455952 -0.42228810283010432 0 -0.09303485647857955 -0.41532479050328219 0 -0.097923058875237307 -0.4282677911987619 0 -0.10443343702012101 -0.41416109087863268 0 -0.097923058875237307 -0.4282677911987619 0 -0.10443343702012101 -0.41416109087863268 0 -0.09372568044455952 -0.42228810283010432 0 -0.10443343702012101 -0.41416109087863268 0 -0.11094381516500609 -0.40005439055850411 0 -0.1198179301444536 -0.41604864368263939 0 -0.116683575869927 -0.39839152083886858 0 -0.1326505070762681 -0.40726180765997883 0 -0.1198179301444536 -0.41604864368263939 0 -0.116683575869927 -0.39839152083886858 0 -0.10443343702012101 -0.41416109087863268 0 -0.1198179301444536 -0.41604864368263939 0 -0.11094381516500609 -0.40005439055850411 0 -0.1198179301444536 -0.41604864368263939 0 -0.116683575869927 -0.39839152083886858 0 -0.11094381516500609 -0.40005439055850411 0 -0.1261016000392115 -0.38762286794517758 0 -0.116683575869927 -0.39839152083886858 0 -0.1157772587490042 -0.39328585908594821 0 -0.116683575869927 -0.39839152083886858 0 -0.1157772587490042 -0.39328585908594821 0 -0.11094381516500609 -0.40005439055850411 0 -0.116683575869927 -0.39839152083886858 0 -0.1157772587490042 -0.39328585908594821 0 -0.116683575869927 -0.39839152083886858 0 -0.11094381516500609 -0.40005439055850411 0 -0.1157772587490042 -0.39328585908594821 0 -0.11094381516500609 -0.40005439055850411 0 -0.12198752904021749 -0.37612484935646451 0 -0.11094381516500609 -0.40005439055850411 0 -0.12198752904021749 -0.37612484935646451 0 -0.107760996682504 -0.38476151877063031 0 -0.1261016000392115 -0.38762286794517758 0 -0.1157772587490042 -0.39328585908594821 0 -0.12198752904021749 -0.37612484935646451 0 -0.11094381516500609 -0.40005439055850411 0 -0.12198752904021749 -0.37612484935646451 0 -0.10843398110716369 -0.37349346380725351 0 -0.12198752904021749 -0.37612484935646451 0 -0.107760996682504 -0.38476151877063031 0 -0.10843398110716369 -0.37349346380725351 0 -0.107760996682504 -0.38476151877063031 0 -0.09664854879367818 -0.37838555299803123 0 -0.09664854879367818 -0.37838555299803123 0 -0.099427206685132857 -0.39317935706669399 0 -0.087901594847244274 -0.38725489627332338 0 -0.107760996682504 -0.38476151877063031 0 -0.09664854879367818 -0.37838555299803123 0 -0.099427206685132857 -0.39317935706669399 0 -0.10443343702012101 -0.41416109087863268 0 -0.11094381516500609 -0.40005439055850411 0 -0.096123501951424689 -0.40434799291326962 0 -0.11094381516500609 -0.40005439055850411 0 -0.096123501951424689 -0.40434799291326962 0 -0.11094381516500609 -0.40005439055850411 0 -0.099427206685132857 -0.39317935706669399 0 -0.096123501951424689 -0.40434799291326962 0 -0.11094381516500609 -0.40005439055850411 0 -0.107760996682504 -0.38476151877063031 0 -0.099427206685132857 -0.39317935706669399 0 -0.099427206685132857 -0.39317935706669399 0 -0.096123501951424689 -0.40434799291326962 0 -0.086856392907030525 -0.40008511418224918 0 -0.096123501951424689 -0.40434799291326962 0 -0.086856392907030525 -0.40008511418224918 0 -0.081303188737843146 -0.40864159526803462 0 -0.078819476307655692 -0.39380344110170967 0 -0.079882603072587322 -0.41678586618548658 0 -0.099427206685132857 -0.39317935706669399 0 -0.086856392907030525 -0.40008511418224918 0 -0.087901594847244274 -0.38725489627332338 0 -0.086856392907030525 -0.40008511418224918 0 -0.078819476307655692 -0.39380344110170967 0 -0.087901594847244274 -0.38725489627332338 0 -0.086856392907030525 -0.40008511418224918 0 -0.078819476307655692 -0.39380344110170967 0 -0.081303188737843146 -0.40864159526803462 0 -0.077756349542724076 -0.37082101601793299 0 -0.078819476307655692 -0.39380344110170967 0 -0.077756349542724076 -0.37082101601793299 0 -0.078819476307655692 -0.39380344110170967 0 -0.087901594847244274 -0.38725489627332338 0 -0.077756349542724076 -0.37082101601793299 0 -0.09664854879367818 -0.37838555299803123 0 -0.087901594847244274 -0.38725489627332338 0 -0.077756349542724076 -0.37082101601793299 0 -0.078819476307655692 -0.39380344110170967 0 -0.063776459064912042 -0.3908233398031562 0 -0.077756349542724076 -0.37082101601793299 0 -0.055054619442423007 -0.37694070571453819 0 -0.063776459064912042 -0.3908233398031562 0 -0.078819476307655692 -0.39380344110170967 0 -0.07278513278872234 -0.40792916731887452 0 -0.079882603072587322 -0.41678586618548658 0 -0.078819476307655692 -0.39380344110170967 0 -0.065206150196892299 -0.40414400715726528 0 -0.07278513278872234 -0.40792916731887452 0 -0.078819476307655692 -0.39380344110170967 0 -0.063776459064912042 -0.3908233398031562 0 -0.065206150196892299 -0.40414400715726528 0 -0.065206150196892299 -0.40414400715726528 0 -0.07278513278872234 -0.40792916731887452 0 -0.067232301577754089 -0.41698335483103621 0 -0.07278513278872234 -0.40792916731887452 0 -0.067232301577754089 -0.41698335483103621 0 -0.079882603072587322 -0.41678586618548658 0 -0.067232301577754089 -0.41698335483103621 0 -0.070957616735740539 -0.42860158612728311 0 -0.079882603072587322 -0.41678586618548658 0 -0.056159920884544627 -0.42721999162275798 0 -0.067232301577754089 -0.41698335483103621 0 -0.070957616735740539 -0.42860158612728311 0 -0.080945729837518937 -0.43976829126926348 0 -0.070957616735740539 -0.42860158612728311 0 -0.079882603072587322 -0.41678586618548658 0 -0.056159920884544627 -0.42721999162275798 0 -0.06708753092689522 -0.43847526656636482 0 -0.070957616735740539 -0.42860158612728311 0 -0.06708753092689522 -0.43847526656636482 0 -0.080945729837518937 -0.43976829126926348 0 -0.070957616735740539 -0.42860158612728311 0 -0.080945729837518937 -0.43976829126926348 0 -0.079882603072587322 -0.41678586618548658 0 -0.080945729837518937 -0.43976829126926348 0 -0.08629485100241982 -0.43091944776164148 0 -0.079882603072587322 -0.41678586618548658 0 -0.08629485100241982 -0.43091944776164148 0 -0.086824846158217964 -0.42241566903712952 0 -0.079882603072587322 -0.41678586618548658 0 -0.089965957738843805 -0.44550925377590112 0 -0.097923058875237307 -0.4282677911987619 0 -0.089872878867396089 -0.43438624897365791 0 -0.080945729837518937 -0.43976829126926348 0 -0.089872878867396089 -0.43438624897365791 0 -0.08629485100241982 -0.43091944776164148 0 -0.094234796882961214 -0.427466460862722 0 -0.089872878867396089 -0.43438624897365791 0 -0.08629485100241982 -0.43091944776164148 0 -0.094234796882961214 -0.427466460862722 0 -0.08629485100241982 -0.43091944776164148 0 -0.090270043622039636 -0.42577242012289929 0 -0.08629485100241982 -0.43091944776164148 0 -0.086824846158217964 -0.42241566903712952 0 -0.090270043622039636 -0.42577242012289929 0 -0.086824846158217964 -0.42241566903712952 0 -0.09372568044455952 -0.42228810283010432 0 -0.090270043622039636 -0.42577242012289929 0 -0.094234796882961214 -0.427466460862722 0 -0.09372568044455952 -0.42228810283010432 0 -0.090270043622039636 -0.42577242012289929 0 -0.078819476307655692 -0.39380344110170967 0 -0.081303188737843146 -0.40864159526803462 0 -0.079882603072587322 -0.41678586618548658 0 -0.086824846158217964 -0.42241566903712952 0 -0.09372568044455952 -0.42228810283010432 0 -0.09303485647857955 -0.41532479050328219 0 -0.086824846158217964 -0.42241566903712952 0 -0.09303485647857955 -0.41532479050328219 0 -0.086919673414888488 -0.41352887370492852 0 -0.096123501951424689 -0.40434799291326962 0 -0.086919673414888488 -0.41352887370492852 0 -0.081303188737843146 -0.40864159526803462 0 -0.096123501951424689 -0.40434799291326962 0 -0.09303485647857955 -0.41532479050328219 0 -0.086919673414888488 -0.41352887370492852 0 -0.096123501951424689 -0.40434799291326962 0 -0.081303188737843146 -0.40864159526803462 0 -0.086919673414888488 -0.41352887370492852 0 -0.081303188737843146 -0.40864159526803462 0 -0.079882603072587322 -0.41678586618548658 0 -0.086824846158217964 -0.42241566903712952 0 -0.086919673414888488 -0.41352887370492852 0 -0.079882603072587322 -0.41678586618548658 0 -0.087689730184715181 -0.072584255009734477 0 -0.096877071132811715 -0.091708203621162887 0 -0.078346268210225264 -0.082512936449974927 0 -0.087689730184715181 -0.072584255009734477 0 -0.096877071132811715 -0.091708203621162887 0 -0.078346268210225264 -0.082512936449974927 0 -0.07748939413609976 -0.098751377406457425 0 -0.096877071132811715 -0.091708203621162887 0 -0.078346268210225264 -0.082512936449974927 0 -0.087689730184715181 -0.072584255009734477 0 -0.079203142284352726 -0.066274495493492513 0 -0.087689730184715181 -0.072584255009734477 0 -0.098396104907248594 -0.068909198853537371 0 -0.082054180276970479 -0.060853552139183281 0 -0.078346268210225264 -0.082512936449974927 0 -0.079203142284352726 -0.066274495493492513 0 -0.087689730184715181 -0.072584255009734477 0 -0.098488210791047512 -0.08061290168926355 0 -0.087689730184715181 -0.072584255009734477 0 -0.082054180276970479 -0.060853552139183281 0 -0.087689730184715181 -0.072584255009734477 0 -0.079203142284352726 -0.066274495493492513 0 -0.082054180276970479 -0.060853552139183281 0 -0.087689730184715181 -0.072584255009734477 0 -0.079203142284352726 -0.066274495493492513 0 -0.079203142284352726 -0.066274495493492513 0 -0.079453069391684158 -0.061538179273186083 0 -0.082054180276970479 -0.060853552139183281 0 -0.079203142284352726 -0.066274495493492513 0 -0.079453069391684158 -0.061538179273186083 0 -0.078346268210225264 -0.082512936449974927 0 -0.072475332291661712 -0.070478649437382565 0 -0.067152337472304341 -0.075939744756790273 0 -0.078346268210225264 -0.082512936449974927 0 -0.079203142284352726 -0.066274495493492513 0 -0.072475332291661712 -0.070478649437382565 0 -0.079203142284352726 -0.066274495493492513 0 -0.074563708646548335 -0.062825086745271083 0 -0.079453069391684158 -0.061538179273186083 0 -0.079203142284352726 -0.066274495493492513 0 -0.074563708646548335 -0.062825086745271083 0 -0.079203142284352726 -0.066274495493492513 0 -0.072475332291661712 -0.070478649437382565 0 -0.074563708646548335 -0.062825086745271083 0 -0.072475332291661712 -0.070478649437382565 0 -0.074563708646548335 -0.062825086745271083 0 -0.068653424811404698 -0.067930975804191357 0 -0.074563708646548335 -0.062825086745271083 0 -0.064583654294517276 -0.065451893640289208 0 -0.074563708646548335 -0.062825086745271083 0 -0.068653424811404698 -0.067930975804191357 0 -0.064583654294517276 -0.065451893640289208 0 -0.068653424811404698 -0.067930975804191357 0 -0.065112497769405406 -0.067524498886117973 0 -0.066090048551386837 -0.071634580985232801 0 -0.072475332291661712 -0.070478649437382565 0 -0.068653424811404698 -0.067930975804191357 0 -0.066090048551386837 -0.071634580985232801 0 -0.065112497769405406 -0.067524498886117973 0 -0.064583654294517276 -0.065451893640289208 0 -0.061891373696365597 -0.072103099773147286 0 -0.068653424811404698 -0.067930975804191357 0 -0.065112497769405406 -0.067524498886117973 0 -0.064583654294517276 -0.065451893640289208 0 -0.065112497769405406 -0.067524498886117973 0 -0.064583654294517276 -0.065451893640289208 0 -0.067152337472304341 -0.075939744756790273 0 -0.062285751979021448 -0.083356801233608849 0 -0.061891373696365597 -0.072103099773147286 0 -0.072475332291661712 -0.070478649437382565 0 -0.067152337472304341 -0.075939744756790273 0 -0.066090048551386837 -0.071634580985232801 0 -0.065112497769405406 -0.067524498886117973 0 -0.066090048551386837 -0.071634580985232801 0 -0.061891373696365597 -0.072103099773147286 0 -0.067152337472304341 -0.075939744756790273 0 -0.066090048551386837 -0.071634580985232801 0 -0.061891373696365597 -0.072103099773147286 0 -0.078346268210225264 -0.082512936449974927 0 -0.069967657805204808 -0.092566269804908383 0 -0.07748939413609976 -0.098751377406457425 0 -0.078346268210225264 -0.082512936449974927 0 -0.069967657805204808 -0.092566269804908383 0 -0.062285751979021448 -0.083356801233608849 0 -0.078346268210225264 -0.082512936449974927 0 -0.07748939413609976 -0.098751377406457425 0 -0.078346268210225264 -0.082512936449974927 0 -0.067152337472304341 -0.075939744756790273 0 -0.062285751979021448 -0.083356801233608849 0 -0.069967657805204808 -0.092566269804908383 0 -0.062285751979021448 -0.083356801233608849 0 -0.061705104080998108 -0.096742378327168588 0 -0.069967657805204808 -0.092566269804908383 0 -0.070011770619679309 -0.10146785560733181 0 -0.061705104080998108 -0.096742378327168588 0 -0.070927946597859504 -0.1077314810632644 0 -0.07748939413609976 -0.098751377406457425 0 -0.076356911845466086 -0.12021281189956209 0 -0.070011770619679309 -0.10146785560733181 0 -0.064518809140877778 -0.1061857597201456 0 -0.061705104080998108 -0.096742378327168588 0 -0.064518809140877778 -0.1061857597201456 0 -0.070927946597859504 -0.1077314810632644 0 -0.067442288582566859 -0.11269343141151179 0 -0.070011770619679309 -0.10146785560733181 0 -0.064518809140877778 -0.1061857597201456 0 -0.070927946597859504 -0.1077314810632644 0 -0.070011770619679309 -0.10146785560733181 0 -0.070927946597859504 -0.1077314810632644 0 -0.07748939413609976 -0.098751377406457425 0 -0.069967657805204808 -0.092566269804908383 0 -0.070011770619679309 -0.10146785560733181 0 -0.07748939413609976 -0.098751377406457425 0 -0.070011770619679309 -0.10146785560733181 0 -0.07748939413609976 -0.098751377406457425 0 -0.076356911845466086 -0.12021281189956209 0 -0.081160465231656834 -0.1225154164946881 0 -0.059619915887674929 -0.1212376501946269 0 -0.052743994431308221 -0.1208297766265711 0 -0.059619915887674929 -0.1212376501946269 0 -0.075764490596910233 -0.13262170878292451 0 -0.07748939413609976 -0.098751377406457425 0 -0.076356911845466086 -0.12021281189956209 0 -0.065132042871223816 -0.1163716968197253 0 -0.076356911845466086 -0.12021281189956209 0 -0.059619915887674929 -0.1212376501946269 0 -0.081160465231656834 -0.1225154164946881 0 -0.059619915887674929 -0.1212376501946269 0 -0.065132042871223816 -0.1163716968197253 0 -0.067442288582566859 -0.11269343141151179 0 -0.076356911845466086 -0.12021281189956209 0 -0.065132042871223816 -0.1163716968197253 0 -0.067442288582566859 -0.11269343141151179 0 -0.059653091971374819 -0.11110215055363031 0 -0.064518809140877778 -0.1061857597201456 0 -0.067442288582566859 -0.11269343141151179 0 -0.059653091971374819 -0.11110215055363031 0 -0.070927946597859504 -0.1077314810632644 0 -0.067442288582566859 -0.11269343141151179 0 -0.076356911845466086 -0.12021281189956209 0 -0.07748939413609976 -0.098751377406457425 0 -0.076356911845466086 -0.12021281189956209 0 -0.084307508452819979 -0.1113000736302633 0 -0.076356911845466086 -0.12021281189956209 0 -0.081160465231656834 -0.1225154164946881 0 -0.084307508452819979 -0.1113000736302633 0 -0.081160465231656834 -0.1225154164946881 0 -0.084307508452819979 -0.1113000736302633 0 -0.096563574140114655 -0.1123036948554129 0 -0.07748939413609976 -0.098751377406457425 0 -0.091593022978020827 -0.1037193422624748 0 -0.096877071132811715 -0.091708203621162887 0 -0.07748939413609976 -0.098751377406457425 0 -0.096877071132811715 -0.091708203621162887 0 -0.07748939413609976 -0.098751377406457425 0 -0.084307508452819979 -0.1113000736302633 0 -0.091593022978020827 -0.1037193422624748 0 -0.084307508452819979 -0.1113000736302633 0 -0.091593022978020827 -0.1037193422624748 0 -0.096563574140114655 -0.1123036948554129 0 -0.10150106721898319 -0.10133330233371 0 -0.096877071132811715 -0.091708203621162887 0 -0.091593022978020827 -0.1037193422624748 0 -0.10150106721898319 -0.10133330233371 0 -0.096877071132811715 -0.091708203621162887 0 -0.091593022978020827 -0.1037193422624748 0 -0.10150106721898319 -0.10133330233371 0 -0.096563574140114655 -0.1123036948554129 0 -0.10150106721898319 -0.10133330233371 0 -0.096563574140114655 -0.1123036948554129 0 -0.11062935633412301 -0.1097248711419829 0 -0.081160465231656834 -0.1225154164946881 0 -0.096563574140114655 -0.1123036948554129 0 -0.1095769360320055 -0.12420105636280469 0 -0.081160465231656834 -0.1225154164946881 0 -0.1095769360320055 -0.12420105636280469 0 -0.096563574140114655 -0.1123036948554129 0 -0.1095769360320055 -0.12420105636280469 0 -0.11062935633412301 -0.1097248711419829 0 -0.1095769360320055 -0.12420105636280469 0 -0.11062935633412301 -0.1097248711419829 0 -0.12577690156327029 -0.11012255766180661 0 -0.1095769360320055 -0.12420105636280469 0 -0.13799340683235409 -0.1258866962309213 0 -0.12577690156327029 -0.11012255766180661 0 -0.10150106721898319 -0.10133330233371 0 -0.11062935633412301 -0.1097248711419829 0 -0.1176464408371143 -0.098810885827636058 0 -0.1176464408371143 -0.098810885827636058 0 -0.12999288857614619 -0.093686328831556503 0 -0.12577690156327029 -0.11012255766180661 0 -0.10150106721898319 -0.10133330233371 0 -0.1176464408371143 -0.098810885827636058 0 -0.11655659649242391 -0.084559006884318888 0 -0.11062935633412301 -0.1097248711419829 0 -0.1176464408371143 -0.098810885827636058 0 -0.12577690156327029 -0.11012255766180661 0 -0.1176464408371143 -0.098810885827636058 0 -0.11655659649242391 -0.084559006884318888 0 -0.12999288857614619 -0.093686328831556503 0 -0.1176464408371143 -0.098810885827636058 0 -0.11655659649242391 -0.084559006884318888 0 -0.11655659649242391 -0.084559006884318888 0 -0.096877071132811715 -0.091708203621162887 0 -0.11655659649242391 -0.084559006884318888 0 -0.098488210791047512 -0.08061290168926355 0 -0.1072259149863496 -0.07499262054188259 0 -0.10150106721898319 -0.10133330233371 0 -0.11655659649242391 -0.084559006884318888 0 -0.096877071132811715 -0.091708203621162887 0 -0.11655659649242391 -0.084559006884318888 0 -0.098488210791047512 -0.08061290168926355 0 -0.096877071132811715 -0.091708203621162887 0 -0.087689730184715181 -0.072584255009734477 0 -0.098488210791047512 -0.08061290168926355 0 -0.096877071132811715 -0.091708203621162887 0 -0.098396104907248594 -0.068909198853537371 0 -0.1072259149863496 -0.07499262054188259 0 -0.11532772782976949 -0.06848910891888986 0 -0.098396104907248594 -0.068909198853537371 0 -0.11532772782976949 -0.06848910891888986 0 -0.098076519722041164 -0.056636381546322757 0 -0.087689730184715181 -0.072584255009734477 0 -0.098488210791047512 -0.08061290168926355 0 -0.098396104907248594 -0.068909198853537371 0 -0.098488210791047512 -0.08061290168926355 0 -0.098396104907248594 -0.068909198853537371 0 -0.1072259149863496 -0.07499262054188259 0 -0.11655659649242391 -0.084559006884318888 0 -0.11532772782976949 -0.06848910891888986 0 -0.14226160065796431 -0.075220868461634449 0 -0.11655659649242391 -0.084559006884318888 0 -0.1072259149863496 -0.07499262054188259 0 -0.11532772782976949 -0.06848910891888986 0 -0.11655659649242391 -0.084559006884318888 0 -0.11532772782976949 -0.06848910891888986 0 -0.11532772782976949 -0.06848910891888986 0 -0.1140988591671116 -0.052419210953461068 0 -0.12929758581347681 -0.059690850942959492 0 -0.11532772782976949 -0.06848910891888986 0 -0.1140988591671116 -0.052419210953461068 0 -0.1140988591671116 -0.052419210953461068 0 -0.1122086689428039 -0.027701220363369701 0 -0.12955396198145891 -0.030767486083318842 0 -0.1140988591671116 -0.052419210953461068 0 -0.1122086689428039 -0.027701220363369701 0 -0.1140988591671116 -0.052419210953461068 0 -0.1036425197998255 -0.043637052219597079 0 -0.1122086689428039 -0.027701220363369701 0 -0.094889432455603523 -0.037465902605830062 0 -0.1036425197998255 -0.043637052219597079 0 -0.1122086689428039 -0.027701220363369701 0 -0.094889432455603523 -0.037465902605830062 0 -0.1036425197998255 -0.043637052219597079 0 -0.098076519722041164 -0.056636381546322757 0 -0.11532772782976949 -0.06848910891888986 0 -0.1140988591671116 -0.052419210953461068 0 -0.098076519722041164 -0.056636381546322757 0 -0.1140988591671116 -0.052419210953461068 0 -0.1036425197998255 -0.043637052219597079 0 -0.098076519722041164 -0.056636381546322757 0 -0.1140988591671116 -0.052419210953461068 0 -0.098076519722041164 -0.056636381546322757 0 -0.1164388837083003 -0.0026345546631316862 0 -0.1225727701940631 -0.01455985372084038 0 -0.13211260120916571 -0.006208574162898362 0 -0.1103184787184923 -0.002983229773278688 0 -0.1225727701940631 -0.01455985372084038 0 -0.1122086689428039 -0.027701220363369701 0 -0.1103184787184923 -0.002983229773278688 0 -0.1122086689428039 -0.027701220363369701 0 -0.1103184787184923 -0.002983229773278688 0 -0.1164388837083003 -0.0026345546631316862 0 -0.1225727701940631 -0.01455985372084038 0 -0.1225727701940631 -0.01455985372084038 0 -0.1122086689428039 -0.027701220363369701 0 -0.12955396198145891 -0.030767486083318842 0 -0.094889432455603523 -0.037465902605830062 0 -0.1122086689428039 -0.027701220363369701 0 -0.094802713500361319 -0.01377456584920111 0 -0.1122086689428039 -0.027701220363369701 0 -0.10355538031242829 -0.0098091968982004854 0 -0.094802713500361319 -0.01377456584920111 0 -0.1103184787184923 -0.002983229773278688 0 -0.1122086689428039 -0.027701220363369701 0 -0.10355538031242829 -0.0098091968982004854 0 -0.094802713500361319 -0.01377456584920111 0 -0.099898419841897623 -0.00092325477833528379 0 -0.090898068884156247 0.0047172067815882367 0 -0.10355538031242829 -0.0098091968982004854 0 -0.094802713500361319 -0.01377456584920111 0 -0.099898419841897623 -0.00092325477833528379 0 -0.1103184787184923 -0.002983229773278688 0 -0.10355538031242829 -0.0098091968982004854 0 -0.099898419841897623 -0.00092325477833528379 0 -0.081276921025937074 -0.02697474927771747 0 -0.082810791649288867 0.0020933113676955811 0 -0.081276921025937074 -0.02697474927771747 0 -0.071408624790867001 -0.01426442296412786 0 -0.082810791649288867 0.0020933113676955811 0 -0.094802713500361319 -0.01377456584920111 0 -0.090898068884156247 0.0047172067815882367 0 -0.082810791649288867 0.0020933113676955811 0 -0.094802713500361319 -0.01377456584920111 0 -0.081276921025937074 -0.02697474927771747 0 -0.082810791649288867 0.0020933113676955811 0 -0.094889432455603523 -0.037465902605830062 0 -0.094802713500361319 -0.01377456584920111 0 -0.081276921025937074 -0.02697474927771747 0 -0.065977816151277291 -0.027389728043037749 0 -0.071408624790867001 -0.01426442296412786 0 -0.06192442777119718 -0.01683978225425669 0 -0.081276921025937074 -0.02697474927771747 0 -0.065977816151277291 -0.027389728043037749 0 -0.071408624790867001 -0.01426442296412786 0 -0.071408624790867001 -0.01426442296412786 0 -0.066435485497779195 -0.0032196128049521229 0 -0.082810791649288867 0.0020933113676955811 0 -0.066435485497779195 -0.0032196128049521229 0 -0.082810791649288867 0.0020933113676955811 0 -0.071408624790867001 -0.01426442296412786 0 -0.066435485497779195 -0.0032196128049521229 0 -0.06192442777119718 -0.01683978225425669 0 -0.098076519722041164 -0.056636381546322757 0 -0.07974305040258492 -0.056042809923130633 0 -0.082054180276970479 -0.060853552139183281 0 -0.098076519722041164 -0.056636381546322757 0 -0.082054180276970479 -0.060853552139183281 0 -0.098396104907248594 -0.068909198853537371 0 -0.098076519722041164 -0.056636381546322757 0 -0.082054180276970479 -0.060853552139183281 0 -0.094889432455603523 -0.037465902605830062 0 -0.098076519722041164 -0.056636381546322757 0 -0.07974305040258492 -0.056042809923130633 0 -0.07974305040258492 -0.056042809923130633 0 -0.082054180276970479 -0.060853552139183281 0 -0.07974305040258492 -0.056042809923130633 0 -0.079453069391684158 -0.061538179273186083 0 -0.082054180276970479 -0.060853552139183281 0 -0.07974305040258492 -0.056042809923130633 0 -0.079453069391684158 -0.061538179273186083 0 -0.079453069391684158 -0.061538179273186083 0 -0.082054180276970479 -0.060853552139183281 0 -0.094889432455603523 -0.037465902605830062 0 -0.081276921025937074 -0.02697474927771747 0 -0.07974305040258492 -0.056042809923130633 0 -0.081276921025937074 -0.02697474927771747 0 -0.07974305040258492 -0.056042809923130633 0 -0.081276921025937074 -0.02697474927771747 0 -0.07974305040258492 -0.056042809923130633 0 -0.072860433276931105 -0.041716268983084157 0 -0.081276921025937074 -0.02697474927771747 0 -0.065977816151277291 -0.027389728043037749 0 -0.072860433276931105 -0.041716268983084157 0 -0.065977816151277291 -0.027389728043037749 0 -0.072860433276931105 -0.041716268983084157 0 -0.065977816151277291 -0.027389728043037749 0 -0.072860433276931105 -0.041716268983084157 0 -0.063999542322829728 -0.038237822873304753 0 -0.072860433276931105 -0.041716268983084157 0 -0.063999542322829728 -0.038237822873304753 0 -0.0614198867933195 -0.053052683985530903 0 -0.074563708646548335 -0.062825086745271083 0 -0.07974305040258492 -0.056042809923130633 0 -0.0614198867933195 -0.053052683985530903 0 -0.07974305040258492 -0.056042809923130633 0 -0.072860433276931105 -0.041716268983084157 0 -0.0614198867933195 -0.053052683985530903 0 -0.07974305040258492 -0.056042809923130633 0 -0.072860433276931105 -0.041716268983084157 0 -0.074563708646548335 -0.062825086745271083 0 -0.079453069391684158 -0.061538179273186083 0 -0.074563708646548335 -0.062825086745271083 0 -0.07974305040258492 -0.056042809923130633 0 -0.079453069391684158 -0.061538179273186083 0 -0.064583654294517276 -0.065451893640289208 0 -0.0614198867933195 -0.053052683985530903 0 -0.074563708646548335 -0.062825086745271083 0 -0.064583654294517276 -0.065451893640289208 0 -0.0614198867933195 -0.053052683985530903 0 -0.074563708646548335 -0.062825086745271083 0 -0.0614198867933195 -0.053052683985530903 0 -0.064583654294517276 -0.065451893640289208 0 -0.0614198867933195 -0.053052683985530903 0 -0.04519129143490927 -0.054902075759591468 0 -0.0614198867933195 -0.053052683985530903 0 -0.038850481143148971 -0.036272380317071307 0 -0.04519129143490927 -0.054902075759591468 0 -0.0614198867933195 -0.053052683985530903 0 -0.038850481143148971 -0.036272380317071307 0 -0.055740033069792812 -0.030792610481565761 0 -0.063999542322829728 -0.038237822873304753 0 -0.0614198867933195 -0.053052683985530903 0 -0.055740033069792812 -0.030792610481565761 0 -0.0614198867933195 -0.053052683985530903 0 -0.038850481143148971 -0.036272380317071307 0 -0.0614198867933195 -0.053052683985530903 0 -0.055740033069792812 -0.030792610481565761 0 -0.065977816151277291 -0.027389728043037749 0 -0.063999542322829728 -0.038237822873304753 0 -0.055740033069792812 -0.030792610481565761 0 -0.038850481143148971 -0.036272380317071307 0 -0.04519129143490927 -0.054902075759591468 0 -0.023059570611726591 -0.047295840803270817 0 -0.04519129143490927 -0.054902075759591468 0 -0.023059570611726591 -0.047295840803270817 0 -0.038042864331835027 -0.072437580051791878 0 -0.066435485497779195 -0.0032196128049521229 0 -0.050060179346269558 -0.0085325369775998625 0 -0.06192442777119718 -0.01683978225425669 0 -0.066435485497779195 -0.0032196128049521229 0 -0.050060179346269558 -0.0085325369775998625 0 -0.066435485497779195 -0.0032196128049521229 0 -0.050060179346269558 -0.0085325369775998625 0 -0.055410707191302949 0.0050441632942630089 0 -0.050060179346269558 -0.0085325369775998625 0 -0.055740033069792812 -0.030792610481565761 0 -0.044455330244708463 -0.022402458647336611 0 -0.050060179346269558 -0.0085325369775998625 0 -0.06192442777119718 -0.01683978225425669 0 -0.055740033069792812 -0.030792610481565761 0 -0.050060179346269558 -0.0085325369775998625 0 -0.055740033069792812 -0.030792610481565761 0 -0.065977816151277291 -0.027389728043037749 0 -0.06192442777119718 -0.01683978225425669 0 -0.055740033069792812 -0.030792610481565761 0 -0.038850481143148971 -0.036272380317071307 0 -0.044455330244708463 -0.022402458647336611 0 -0.033170627419622511 -0.0140123068131094 0 -0.038850481143148971 -0.036272380317071307 0 -0.055740033069792812 -0.030792610481565761 0 -0.044455330244708463 -0.022402458647336611 0 -0.050060179346269558 -0.0085325369775998625 0 -0.033170627419622511 -0.0140123068131094 0 -0.031401804829180688 0.0027902702105055579 0 -0.050060179346269558 -0.0085325369775998625 0 -0.033170627419622511 -0.0140123068131094 0 -0.050060179346269558 -0.0085325369775998625 0 -0.044455330244708463 -0.022402458647336611 0 -0.033170627419622511 -0.0140123068131094 0 -0.033170627419622511 -0.0140123068131094 0 -0.01721953082408104 -0.0031172801099605988 0 -0.01628107549297474 -0.019492076648616671 0 -0.033170627419622511 -0.0140123068131094 0 -0.01721953082408104 -0.0031172801099605988 0 -0.031401804829180688 0.0027902702105055579 0 -0.033170627419622511 -0.0140123068131094 0 -0.01628107549297474 -0.019492076648616671 0 -0.038850481143148971 -0.036272380317071307 0 -0.01628107549297474 -0.019492076648616671 0 -0.01628107549297474 -0.019492076648616671 0 -0.0080762768916106727 -0.022154101554753981 0 -0.023059570611726591 -0.047295840803270817 0 -0.038850481143148971 -0.036272380317071307 0 -0.033170627419622511 -0.0140123068131094 0 -0.01628107549297474 -0.019492076648616671 0 -0.0080762768916106727 -0.022154101554753981 0 -0.0064242675956501551 -0.039195660703315788 0 0.01090422342544064 -0.028312273988929021 0 -0.01628107549297474 -0.019492076648616671 0 -0.0080762768916106727 -0.022154101554753981 0 0.001300284477923656 -0.0064203740176691469 0 -0.01628107549297474 -0.019492076648616671 0 -0.0080762768916106727 -0.022154101554753981 0 -0.01628107549297474 -0.019492076648616671 0 0.001300284477923656 -0.0064203740176691469 0 -0.01721953082408104 -0.0031172801099605988 0 -0.01628107549297474 -0.019492076648616671 0 0.001300284477923656 -0.0064203740176691469 0 -0.0080762768916106727 -0.022154101554753981 0 0.001300284477923656 -0.0064203740176691469 0 -0.01721953082408104 -0.0031172801099605988 0 -0.0045202662753825928 0.0076875810721139838 0 0.001300284477923656 -0.0064203740176691469 0 -0.020615308642819581 -0.048774712166032567 0 -0.025766335292371819 -0.064344389228912696 0 -0.033988398442946897 -0.073504738463647495 0 -0.023059570611726591 -0.047295840803270817 0 -0.020615308642819581 -0.048774712166032567 0 -0.033988398442946897 -0.073504738463647495 0 -0.023059570611726591 -0.047295840803270817 0 -0.038042864331835027 -0.072437580051791878 0 -0.020615308642819581 -0.048774712166032567 0 -0.033988398442946897 -0.073504738463647495 0 -0.020615308642819581 -0.048774712166032567 0 -0.017559973038546561 -0.053827614431614171 0 -0.01120381140474995 -0.047416227675810031 0 -0.020615308642819581 -0.048774712166032567 0 -0.017559973038546561 -0.053827614431614171 0 -0.021829357424598541 -0.05836190718670365 0 -0.023059570611726591 -0.047295840803270817 0 -0.020615308642819581 -0.048774712166032567 0 -0.01120381140474995 -0.047416227675810031 0 -0.020615308642819581 -0.048774712166032567 0 -0.021829357424598541 -0.05836190718670365 0 -0.025766335292371819 -0.064344389228912696 0 -0.017559973038546561 -0.053827614431614171 0 -0.017576259023686019 -0.060268140454943442 0 -0.021829357424598541 -0.05836190718670365 0 -0.017559973038546561 -0.053827614431614171 0 -0.017576259023686019 -0.060268140454943442 0 -0.012730189725035861 -0.05686257490583372 0 -0.021829357424598541 -0.05836190718670365 0 -0.02289599127575433 -0.064549976025104816 0 -0.020760486141112089 -0.062628901755948249 0 -0.017576259023686019 -0.060268140454943442 0 -0.021829357424598541 -0.05836190718670365 0 -0.020760486141112089 -0.062628901755948249 0 -0.021829357424598541 -0.05836190718670365 0 -0.02289599127575433 -0.064549976025104816 0 -0.025766335292371819 -0.064344389228912696 0 -0.038850481143148971 -0.036272380317071307 0 -0.01628107549297474 -0.019492076648616671 0 -0.023059570611726591 -0.047295840803270817 0 -0.023059570611726591 -0.047295840803270817 0 -0.0064242675956501551 -0.039195660703315788 0 -0.01120381140474995 -0.047416227675810031 0 -0.0080762768916106727 -0.022154101554753981 0 -0.023059570611726591 -0.047295840803270817 0 -0.0064242675956501551 -0.039195660703315788 0 -0.0080762768916106727 -0.022154101554753981 0 -0.023059570611726591 -0.047295840803270817 0 -0.0064242675956501551 -0.039195660703315788 0 -0.00078708000148443357 -0.048538300474750183 0 -0.01120381140474995 -0.047416227675810031 0 -0.00078708000148443357 -0.048538300474750183 0 -0.01120381140474995 -0.047416227675810031 0 -0.0033324927636182362 -0.055788865741512143 0 -0.01120381140474995 -0.047416227675810031 0 -0.012730189725035861 -0.05686257490583372 0 -0.0033324927636182362 -0.055788865741512143 0 -0.017559973038546561 -0.053827614431614171 0 -0.01120381140474995 -0.047416227675810031 0 -0.012730189725035861 -0.05686257490583372 0 -0.012730189725035861 -0.05686257490583372 0 -0.0033324927636182362 -0.055788865741512143 0 -0.0078058758839707346 -0.061049144146270377 0 -0.017576259023686019 -0.060268140454943442 0 -0.012730189725035861 -0.05686257490583372 0 -0.013347004534543161 -0.064056156123228153 0 -0.012730189725035861 -0.05686257490583372 0 -0.0078058758839707346 -0.061049144146270377 0 -0.013347004534543161 -0.064056156123228153 0 -0.0033324927636182362 -0.055788865741512143 0 -0.0078058758839707346 -0.061049144146270377 0 0.00029661487375323931 -0.063456112584095156 0 -0.0072121827325475861 -0.067864757132353154 0 0.00029661487375323931 -0.063456112584095156 0 0.0061302044082681591 -0.072685309045958837 0 -0.0072121827325475861 -0.067864757132353154 0 -0.011052574766886871 -0.07954157730739933 0 0.0061302044082681591 -0.072685309045958837 0 -0.0078058758839707346 -0.061049144146270377 0 -0.0072121827325475861 -0.067864757132353154 0 0.00029661487375323931 -0.063456112584095156 0 -0.0072121827325475861 -0.067864757132353154 0 -0.01466021420622919 -0.070260712733920413 0 -0.011052574766886871 -0.07954157730739933 0 -0.0072121827325475861 -0.067864757132353154 0 -0.01466021420622919 -0.070260712733920413 0 -0.013347004534543161 -0.064056156123228153 0 -0.0078058758839707346 -0.061049144146270377 0 -0.0072121827325475861 -0.067864757132353154 0 -0.013347004534543161 -0.064056156123228153 0 -0.0090612447988093099 -0.089460404684983577 0 -0.0019803882487723222 -0.094826818401422736 0 0.0061302044082681591 -0.072685309045958837 0 -0.0090612447988093099 -0.089460404684983577 0 0.0061302044082681591 -0.072685309045958837 0 -0.011052574766886871 -0.07954157730739933 0 -0.0090612447988093099 -0.089460404684983577 0 0.0061302044082681591 -0.072685309045958837 0 -0.011052574766886871 -0.07954157730739933 0 -0.0090612447988093099 -0.089460404684983577 0 -0.018423014270024879 -0.085738122828434474 0 -0.011052574766886871 -0.07954157730739933 0 -0.018423014270024879 -0.085738122828434474 0 -0.033988398442946897 -0.073504738463647495 0 -0.02239354096133828 -0.09338749024688564 0 -0.018423014270024879 -0.085738122828434474 0 -0.026395015192515209 -0.08802261486869202 0 -0.0090612447988093099 -0.089460404684983577 0 -0.02239354096133828 -0.09338749024688564 0 -0.018423014270024879 -0.085738122828434474 0 -0.018423014270024879 -0.085738122828434474 0 -0.026395015192515209 -0.08802261486869202 0 -0.033988398442946897 -0.073504738463647495 0 -0.02239354096133828 -0.09338749024688564 0 -0.026395015192515209 -0.08802261486869202 0 -0.033835736539455492 -0.097480808528309579 0 -0.011052574766886871 -0.07954157730739933 0 -0.021702011756172281 -0.07232979849461145 0 -0.033988398442946897 -0.073504738463647495 0 -0.011052574766886871 -0.07954157730739933 0 -0.033988398442946897 -0.073504738463647495 0 -0.019640050965854201 -0.066531630997262795 0 -0.02289599127575433 -0.064549976025104816 0 -0.024546115387813951 -0.068753187259980753 0 -0.019640050965854201 -0.066531630997262795 0 -0.021702011756172281 -0.07232979849461145 0 -0.024546115387813951 -0.068753187259980753 0 -0.019640050965854201 -0.066531630997262795 0 -0.02289599127575433 -0.064549976025104816 0 -0.020760486141112089 -0.062628901755948249 0 -0.017576259023686019 -0.060268140454943442 0 -0.019640050965854201 -0.066531630997262795 0 -0.020760486141112089 -0.062628901755948249 0 -0.017576259023686019 -0.060268140454943442 0 -0.013347004534543161 -0.064056156123228153 0 -0.019640050965854201 -0.066531630997262795 0 -0.01466021420622919 -0.070260712733920413 0 -0.019640050965854201 -0.066531630997262795 0 -0.021702011756172281 -0.07232979849461145 0 -0.01466021420622919 -0.070260712733920413 0 -0.013347004534543161 -0.064056156123228153 0 -0.019640050965854201 -0.066531630997262795 0 -0.01466021420622919 -0.070260712733920413 0 -0.011052574766886871 -0.07954157730739933 0 -0.021702011756172281 -0.07232979849461145 0 -0.021702011756172281 -0.07232979849461145 0 -0.024546115387813951 -0.068753187259980753 0 -0.033988398442946897 -0.073504738463647495 0 -0.024546115387813951 -0.068753187259980753 0 -0.025766335292371819 -0.064344389228912696 0 -0.033988398442946897 -0.073504738463647495 0 -0.02289599127575433 -0.064549976025104816 0 -0.024546115387813951 -0.068753187259980753 0 -0.025766335292371819 -0.064344389228912696 0 -0.023059570611726591 -0.047295840803270817 0 -0.038042864331835027 -0.072437580051791878 0 -0.033988398442946897 -0.073504738463647495 0 -0.038042864331835027 -0.072437580051791878 0 -0.033988398442946897 -0.073504738463647495 0 -0.046560997936773423 -0.08673087884039607 0 -0.038042864331835027 -0.072437580051791878 0 -0.033988398442946897 -0.073504738463647495 0 -0.026395015192515209 -0.08802261486869202 0 -0.033988398442946897 -0.073504738463647495 0 -0.033835736539455492 -0.097480808528309579 0 -0.033988398442946897 -0.073504738463647495 0 -0.046813087806952029 -0.097220641816610137 0 -0.033835736539455492 -0.097480808528309579 0 -0.033988398442946897 -0.073504738463647495 0 -0.046560997936773423 -0.08673087884039607 0 -0.046813087806952029 -0.097220641816610137 0 -0.033988398442946897 -0.073504738463647495 0 -0.046813087806952029 -0.097220641816610137 0 -0.038042864331835027 -0.072437580051791878 0 -0.046560997936773423 -0.08673087884039607 0 -0.038042864331835027 -0.072437580051791878 0 -0.046560997936773423 -0.08673087884039607 0 -0.048549552026608711 -0.078508426994339797 0 -0.046560997936773423 -0.08673087884039607 0 -0.048549552026608711 -0.078508426994339797 0 -0.053266585911512301 -0.082141320676802493 0 -0.048549552026608711 -0.078508426994339797 0 -0.053266585911512301 -0.082141320676802493 0 -0.055215048340834891 -0.074825779827388139 0 -0.046560997936773423 -0.08673087884039607 0 -0.054188634484533912 -0.091092586883293206 0 -0.046813087806952029 -0.097220641816610137 0 -0.046560997936773423 -0.08673087884039607 0 -0.053266585911512301 -0.082141320676802493 0 -0.054188634484533912 -0.091092586883293206 0 -0.054188634484533912 -0.091092586883293206 0 -0.062285751979021448 -0.083356801233608849 0 -0.061705104080998108 -0.096742378327168588 0 -0.053266585911512301 -0.082141320676802493 0 -0.054188634484533912 -0.091092586883293206 0 -0.062285751979021448 -0.083356801233608849 0 -0.053266585911512301 -0.082141320676802493 0 -0.062285751979021448 -0.083356801233608849 0 -0.055215048340834891 -0.074825779827388139 0 -0.064583654294517276 -0.065451893640289208 0 -0.055215048340834891 -0.074825779827388139 0 -0.061891373696365597 -0.072103099773147286 0 -0.062285751979021448 -0.083356801233608849 0 -0.055215048340834891 -0.074825779827388139 0 -0.061891373696365597 -0.072103099773147286 0 -0.064583654294517276 -0.065451893640289208 0 -0.04519129143490927 -0.054902075759591468 0 -0.038042864331835027 -0.072437580051791878 0 -0.064583654294517276 -0.065451893640289208 0 -0.038042864331835027 -0.072437580051791878 0 -0.064583654294517276 -0.065451893640289208 0 -0.038042864331835027 -0.072437580051791878 0 -0.055215048340834891 -0.074825779827388139 0 -0.038042864331835027 -0.072437580051791878 0 -0.048549552026608711 -0.078508426994339797 0 -0.055215048340834891 -0.074825779827388139 0 -0.059619915887674929 -0.1212376501946269 0 -0.059653091971374819 -0.11110215055363031 0 -0.046813087806952029 -0.097220641816610137 0 -0.047631221813804893 -0.1113556993862902 0 -0.059619915887674929 -0.1212376501946269 0 -0.046813087806952029 -0.097220641816610137 0 -0.046903103685044079 -0.1204833001631011 0 -0.052743994431308221 -0.1208297766265711 0 -0.041494165450922743 -0.12527432463270199 0 -0.046903103685044079 -0.1204833001631011 0 -0.052743994431308221 -0.1208297766265711 0 -0.047631221813804893 -0.1113556993862902 0 -0.052743994431308221 -0.1208297766265711 0 -0.059619915887674929 -0.1212376501946269 0 -0.052743994431308221 -0.1208297766265711 0 -0.059619915887674929 -0.1212376501946269 0 -0.065132042871223816 -0.1163716968197253 0 -0.059619915887674929 -0.1212376501946269 0 -0.059653091971374819 -0.11110215055363031 0 -0.059619915887674929 -0.1212376501946269 0 -0.046813087806952029 -0.097220641816610137 0 -0.064518809140877778 -0.1061857597201456 0 -0.057337889584594223 -0.1036674422240549 0 -0.061705104080998108 -0.096742378327168588 0 -0.064518809140877778 -0.1061857597201456 0 -0.059653091971374819 -0.11110215055363031 0 -0.057337889584594223 -0.1036674422240549 0 -0.057337889584594223 -0.1036674422240549 0 -0.061705104080998108 -0.096742378327168588 0 -0.055011178989269563 -0.097180762312781707 0 -0.054188634484533912 -0.091092586883293206 0 -0.061705104080998108 -0.096742378327168588 0 -0.055011178989269563 -0.097180762312781707 0 -0.057337889584594223 -0.1036674422240549 0 -0.055011178989269563 -0.097180762312781707 0 -0.046813087806952029 -0.097220641816610137 0 -0.054188634484533912 -0.091092586883293206 0 -0.055011178989269563 -0.097180762312781707 0 -0.046813087806952029 -0.097220641816610137 0 -0.059653091971374819 -0.11110215055363031 0 -0.057337889584594223 -0.1036674422240549 0 -0.046813087806952029 -0.097220641816610137 0 -0.040462905441213913 -0.10425889484340529 0 -0.03849834421859747 -0.1135326384752897 0 -0.024252694005886609 -0.1062355003240084 0 -0.047631221813804893 -0.1113556993862902 0 -0.040462905441213913 -0.10425889484340529 0 -0.046813087806952029 -0.097220641816610137 0 -0.040462905441213913 -0.10425889484340529 0 -0.033835736539455492 -0.097480808528309579 0 -0.024252694005886609 -0.1062355003240084 0 -0.040462905441213913 -0.10425889484340529 0 -0.046813087806952029 -0.097220641816610137 0 -0.033835736539455492 -0.097480808528309579 0 -0.024252694005886609 -0.1062355003240084 0 -0.041494165450922743 -0.12527432463270199 0 -0.03849834421859747 -0.1135326384752897 0 -0.024252694005886609 -0.1062355003240084 0 -0.041494165450922743 -0.12527432463270199 0 -0.03849834421859747 -0.1135326384752897 0 -0.024252694005886609 -0.1062355003240084 0 -0.047631221813804893 -0.1113556993862902 0 -0.040462905441213913 -0.10425889484340529 0 -0.03849834421859747 -0.1135326384752897 0 -0.047631221813804893 -0.1113556993862902 0 -0.052743994431308221 -0.1208297766265711 0 -0.03849834421859747 -0.1135326384752897 0 -0.052743994431308221 -0.1208297766265711 0 -0.03849834421859747 -0.1135326384752897 0 -0.046903103685044079 -0.1204833001631011 0 -0.052743994431308221 -0.1208297766265711 0 -0.03849834421859747 -0.1135326384752897 0 -0.046903103685044079 -0.1204833001631011 0 -0.03849834421859747 -0.1135326384752897 0 -0.041494165450922743 -0.12527432463270199 0 -0.024982235146028309 -0.1229374312581781 0 -0.024252694005886609 -0.1062355003240084 0 -0.041494165450922743 -0.12527432463270199 0 -0.024982235146028309 -0.1229374312581781 0 -0.024252694005886609 -0.1062355003240084 0 -0.01064541398267013 -0.11436145263820489 0 -0.0090612447988093099 -0.089460404684983577 0 -0.024252694005886609 -0.1062355003240084 0 -0.0090612447988093099 -0.089460404684983577 0 -0.02239354096133828 -0.09338749024688564 0 -0.024252694005886609 -0.1062355003240084 0 -0.02239354096133828 -0.09338749024688564 0 -0.033835736539455492 -0.097480808528309579 0 -0.024252694005886609 -0.1062355003240084 0 -0.024252694005886609 -0.1062355003240084 0 -0.0019803882487723222 -0.094826818401422736 0 -0.0090612447988093099 -0.089460404684983577 0 -0.024252694005886609 -0.1062355003240084 0 -0.0019803882487723222 -0.094826818401422736 0 -0.024252694005886609 -0.1062355003240084 0 -0.008763459470000335 -0.1052242896166448 0 -0.0019803882487723222 -0.094826818401422736 0 -0.024252694005886609 -0.1062355003240084 0 -0.008763459470000335 -0.1052242896166448 0 -0.01064541398267013 -0.11436145263820489 0 -0.008763459470000335 -0.1052242896166448 0 -0.0019803882487723222 -0.094826818401422736 0 0.001824658357327627 -0.1054733871029431 0 -0.008763459470000335 -0.1052242896166448 0 -0.01064541398267013 -0.11436145263820489 0 0.001824658357327627 -0.1054733871029431 0 -0.01064541398267013 -0.11436145263820489 0 -1.1024891662820941e-05 -0.1179733914109671 0 -0.01122296251645335 -0.13073236201005109 0 -0.024982235146028309 -0.1229374312581781 0 -0.01064541398267013 -0.11436145263820489 0 -0.01122296251645335 -0.13073236201005109 0 -0.01064541398267013 -0.11436145263820489 0 -1.1024891662820941e-05 -0.1179733914109671 0 0.001824658357327627 -0.1054733871029431 0 -0.01122296251645335 -0.13073236201005109 0 -0.0094617969145815786 -0.1507676640924068 0 0.0084465345920672896 -0.12804710113955539 0 -1.1024891662820941e-05 -0.1179733914109671 0 -0.01122296251645335 -0.13073236201005109 0 0.0084465345920672896 -0.12804710113955539 0 -0.024982235146028309 -0.1229374312581781 0 -0.01122296251645335 -0.13073236201005109 0 -0.031721866833847673 -0.14364697089723441 0 -0.01122296251645335 -0.13073236201005109 0 -0.031721866833847673 -0.14364697089723441 0 -0.019633437305273751 -0.14763916488333789 0 -0.023086809920030659 -0.1613899403835391 0 -0.031721866833847673 -0.14364697089723441 0 -0.01122296251645335 -0.13073236201005109 0 -0.019633437305273751 -0.14763916488333789 0 -0.031721866833847673 -0.14364697089723441 0 -0.019633437305273751 -0.14763916488333789 0 -0.0094617969145815786 -0.1507676640924068 0 -0.023086809920030659 -0.1613899403835391 0 -0.0094617969145815786 -0.1507676640924068 0 -0.0049237239026245858 -0.15418735608634859 0 0.0084465345920672896 -0.12804710113955539 0 -0.0094617969145815786 -0.1507676640924068 0 -0.0049237239026245858 -0.15418735608634859 0 -0.023086809920030659 -0.1613899403835391 0 -0.01122296251645335 -0.13073236201005109 0 -0.019633437305273751 -0.14763916488333789 0 -0.0094617969145815786 -0.1507676640924068 0 -0.0094617969145815786 -0.1507676640924068 0 -0.0049237239026245858 -0.15418735608634859 0 -0.0049237239026245858 -0.15418735608634859 0 -0.017776816662633439 -0.17931649788527401 0 -0.0049237239026245858 -0.15418735608634859 0 -0.017776816662633439 -0.17931649788527401 0 -0.023086809920030659 -0.1613899403835391 0 -0.0049237239026245858 -0.15418735608634859 0 -0.0003562882565626862 -0.1747178663493702 0 -0.017776816662633439 -0.17931649788527401 0 -0.0003562882565626862 -0.1747178663493702 0 -0.017776816662633439 -0.17931649788527401 0 -0.0034610342632233932 -0.19838100306331299 0 -0.017776816662633439 -0.17931649788527401 0 -0.023086809920030659 -0.1613899403835391 0 -0.034747685849417127 -0.18171400192545559 0 -0.042374487418790248 -0.16882329498574761 0 -0.052220771151241942 -0.1565615797844177 0 -0.031721866833847673 -0.14364697089723441 0 -0.023086809920030659 -0.1613899403835391 0 -0.042374487418790248 -0.16882329498574761 0 -0.031721866833847673 -0.14364697089723441 0 -0.023086809920030659 -0.1613899403835391 0 -0.042374487418790248 -0.16882329498574761 0 -0.034747685849417127 -0.18171400192545559 0 -0.034747685849417127 -0.18171400192545559 0 -0.052311483039327852 -0.18174796089171791 0 -0.04472251194855275 -0.1940947736310413 0 -0.042374487418790248 -0.16882329498574761 0 -0.034747685849417127 -0.18171400192545559 0 -0.052311483039327852 -0.18174796089171791 0 -0.042374487418790248 -0.16882329498574761 0 -0.052311483039327852 -0.18174796089171791 0 -0.057051729238527998 -0.17057520873247439 0 -0.052311483039327852 -0.18174796089171791 0 -0.057051729238527998 -0.17057520873247439 0 -0.065212872872060207 -0.17700884471367431 0 -0.052311483039327852 -0.18174796089171791 0 -0.066356875270059554 -0.1872171783275039 0 -0.065212872872060207 -0.17700884471367431 0 -0.052220771151241942 -0.1565615797844177 0 -0.072719675468636155 -0.16947618867160091 0 -0.052220771151241942 -0.1565615797844177 0 -0.057051729238527998 -0.17057520873247439 0 -0.072719675468636155 -0.16947618867160091 0 -0.042374487418790248 -0.16882329498574761 0 -0.052220771151241942 -0.1565615797844177 0 -0.057051729238527998 -0.17057520873247439 0 -0.052220771151241942 -0.1565615797844177 0 -0.058735636895958773 -0.14431314894139591 0 -0.031721866833847673 -0.14364697089723441 0 -0.052220771151241942 -0.1565615797844177 0 -0.058735636895958773 -0.14431314894139591 0 -0.075977108340994817 -0.16335197325008971 0 -0.052743994431308221 -0.1208297766265711 0 -0.058735636895958773 -0.14431314894139591 0 -0.041494165450922743 -0.12527432463270199 0 -0.052743994431308221 -0.1208297766265711 0 -0.058735636895958773 -0.14431314894139591 0 -0.075764490596910233 -0.13262170878292451 0 -0.058735636895958773 -0.14431314894139591 0 -0.041494165450922743 -0.12527432463270199 0 -0.058735636895958773 -0.14431314894139591 0 -0.041494165450922743 -0.12527432463270199 0 -0.031721866833847673 -0.14364697089723441 0 -0.024982235146028309 -0.1229374312581781 0 -0.041494165450922743 -0.12527432463270199 0 -0.031721866833847673 -0.14364697089723441 0 -0.052220771151241942 -0.1565615797844177 0 -0.031721866833847673 -0.14364697089723441 0 -0.03096635535031074 -0.24089892805247801 0 -0.01457790468976509 -0.24802235646209489 0 -0.020743353299958179 -0.22581369493660949 0 -0.031734752645820631 -0.25710441704462761 0 -0.03096635535031074 -0.24089892805247801 0 -0.01457790468976509 -0.24802235646209489 0 -0.01457790468976509 -0.24802235646209489 0 0.0022737653020384711 -0.2270177109581504 0 -0.01457790468976509 -0.24802235646209489 0 0.012011206364422111 -0.25275089785599059 0 0.0022737653020384711 -0.2270177109581504 0 -0.01457790468976509 -0.24802235646209489 0 -0.020743353299958179 -0.22581369493660949 0 0.0022737653020384711 -0.2270177109581504 0 -0.020743353299958179 -0.22581369493660949 0 -0.030629909422641929 -0.20444563968419921 0 -0.0034610342632233932 -0.19838100306331299 0 -0.020743353299958179 -0.22581369493660949 0 -0.0034610342632233932 -0.19838100306331299 0 0.0022737653020384711 -0.2270177109581504 0 -0.017776816662633439 -0.17931649788527401 0 -0.034747685849417127 -0.18171400192545559 0 -0.030629909422641929 -0.20444563968419921 0 -0.017776816662633439 -0.17931649788527401 0 -0.030629909422641929 -0.20444563968419921 0 -0.017776816662633439 -0.17931649788527401 0 -0.030629909422641929 -0.20444563968419921 0 -0.0034610342632233932 -0.19838100306331299 0 -0.034747685849417127 -0.18171400192545559 0 -0.030629909422641929 -0.20444563968419921 0 -0.04472251194855275 -0.1940947736310413 0 -0.030629909422641929 -0.20444563968419921 0 -0.04472251194855275 -0.1940947736310413 0 -0.050199023391961972 -0.2076850722706691 0 -0.052311483039327852 -0.18174796089171791 0 -0.04472251194855275 -0.1940947736310413 0 -0.055724458039414851 -0.1948811933831647 0 -0.055724458039414851 -0.1948811933831647 0 -0.050199023391961972 -0.2076850722706691 0 -0.067448299862646208 -0.2031950777036769 0 -0.052311483039327852 -0.18174796089171791 0 -0.055724458039414851 -0.1948811933831647 0 -0.066356875270059554 -0.1872171783275039 0 -0.04472251194855275 -0.1940947736310413 0 -0.055724458039414851 -0.1948811933831647 0 -0.050199023391961972 -0.2076850722706691 0 -0.050199023391961972 -0.2076850722706691 0 -0.060565100051884459 -0.22056517490713271 0 -0.067448299862646208 -0.2031950777036769 0 -0.030629909422641929 -0.20444563968419921 0 -0.050199023391961972 -0.2076850722706691 0 -0.043483002182650499 -0.2295747814831246 0 -0.030629909422641929 -0.20444563968419921 0 -0.043483002182650499 -0.2295747814831246 0 -0.03096635535031074 -0.24089892805247801 0 -0.020743353299958179 -0.22581369493660949 0 -0.043483002182650499 -0.2295747814831246 0 -0.020743353299958179 -0.22581369493660949 0 -0.030629909422641929 -0.20444563968419921 0 -0.043483002182650499 -0.2295747814831246 0 -0.050199023391961972 -0.2076850722706691 0 -0.043483002182650499 -0.2295747814831246 0 -0.060565100051884459 -0.22056517490713271 0 -0.043483002182650499 -0.2295747814831246 0 -0.060565100051884459 -0.22056517490713271 0 -0.055872912470210201 -0.23451799817569641 0 -0.067910438466956005 -0.26244055342116801 0 -0.044292763933359319 -0.2439793903359338 0 -0.06702448306146816 -0.24183836302669171 0 -0.043483002182650499 -0.2295747814831246 0 -0.055872912470210201 -0.23451799817569641 0 -0.044292763933359319 -0.2439793903359338 0 -0.055872912470210201 -0.23451799817569641 0 -0.044292763933359319 -0.2439793903359338 0 -0.06702448306146816 -0.24183836302669171 0 -0.031734752645820631 -0.25710441704462761 0 -0.03096635535031074 -0.24089892805247801 0 -0.044292763933359319 -0.2439793903359338 0 -0.03096635535031074 -0.24089892805247801 0 -0.043483002182650499 -0.2295747814831246 0 -0.044292763933359319 -0.2439793903359338 0 -0.085591391298974168 -0.25525670998288419 0 -0.087951612448116626 -0.2372463167873041 0 -0.06702448306146816 -0.24183836302669171 0 -0.085591391298974168 -0.25525670998288419 0 -0.087951612448116626 -0.2372463167873041 0 -0.1024958807902701 -0.24662047527455311 0 -0.087951612448116626 -0.2372463167873041 0 -0.06702448306146816 -0.24183836302669171 0 -0.074190513046430637 -0.22914715983858999 0 -0.055872912470210201 -0.23451799817569641 0 -0.06702448306146816 -0.24183836302669171 0 -0.074190513046430637 -0.22914715983858999 0 -0.060565100051884459 -0.22056517490713271 0 -0.055872912470210201 -0.23451799817569641 0 -0.074190513046430637 -0.22914715983858999 0 -0.060565100051884459 -0.22056517490713271 0 -0.074190513046430637 -0.22914715983858999 0 -0.07487986488562598 -0.21506190081176541 0 -0.087951612448116626 -0.2372463167873041 0 -0.074190513046430637 -0.22914715983858999 0 -0.088013039436044174 -0.2210704408272976 0 -0.074190513046430637 -0.22914715983858999 0 -0.088013039436044174 -0.2210704408272976 0 -0.07487986488562598 -0.21506190081176541 0 -0.088013039436044174 -0.2210704408272976 0 -0.07487986488562598 -0.21506190081176541 0 -0.086078987801752799 -0.20149607860424121 0 -0.060565100051884459 -0.22056517490713271 0 -0.067448299862646208 -0.2031950777036769 0 -0.07487986488562598 -0.21506190081176541 0 -0.067448299862646208 -0.2031950777036769 0 -0.07487986488562598 -0.21506190081176541 0 -0.086078987801752799 -0.20149607860424121 0 -0.067448299862646208 -0.2031950777036769 0 -0.078265170384165722 -0.19177504862899869 0 -0.066356875270059554 -0.1872171783275039 0 -0.067448299862646208 -0.2031950777036769 0 -0.086078987801752799 -0.20149607860424121 0 -0.078265170384165722 -0.19177504862899869 0 -0.055724458039414851 -0.1948811933831647 0 -0.067448299862646208 -0.2031950777036769 0 -0.066356875270059554 -0.1872171783275039 0 -0.086078987801752799 -0.20149607860424121 0 -0.078265170384165722 -0.19177504862899869 0 -0.093218579786030598 -0.18239079755878379 0 -0.1146262760481609 -0.19587795863433641 0 -0.093218579786030598 -0.18239079755878379 0 -0.11136432914010221 -0.20242816704914809 0 -0.093218579786030598 -0.18239079755878379 0 -0.11136432914010221 -0.20242816704914809 0 -0.1146262760481609 -0.19587795863433641 0 -0.093218579786030598 -0.18239079755878379 0 -0.086078987801752799 -0.20149607860424121 0 -0.11136432914010221 -0.20242816704914809 0 -0.093218579786030598 -0.18239079755878379 0 -0.11136432914010221 -0.20242816704914809 0 -0.1146262760481609 -0.19587795863433641 0 -0.13603397231029141 -0.20936511970988869 0 -0.1146262760481609 -0.19587795863433641 0 -0.10927822534484311 -0.1807036897331534 0 -0.1207920240460465 -0.1865978803816474 0 -0.1146262760481609 -0.19587795863433641 0 -0.1207920240460465 -0.1865978803816474 0 -0.12688147277931869 -0.19591272946601529 0 -0.11136432914010221 -0.20242816704914809 0 -0.12951007849417359 -0.2224655365395129 0 -0.11136432914010221 -0.20242816704914809 0 -0.1082554853557897 -0.22733847806125509 0 -0.12951007849417359 -0.2224655365395129 0 -0.088013039436044174 -0.2210704408272976 0 -0.11136432914010221 -0.20242816704914809 0 -0.1082554853557897 -0.22733847806125509 0 -0.088013039436044174 -0.2210704408272976 0 -0.086078987801752799 -0.20149607860424121 0 -0.11136432914010221 -0.20242816704914809 0 -0.087951612448116626 -0.2372463167873041 0 -0.088013039436044174 -0.2210704408272976 0 -0.1082554853557897 -0.22733847806125509 0 -0.1082554853557897 -0.22733847806125509 0 -0.1165264082877072 -0.24280735305789661 0 -0.12951007849417359 -0.2224655365395129 0 -0.1324894623631693 -0.2500788841477915 0 -0.1177457984409102 -0.25675586286376628 0 -0.1165264082877072 -0.24280735305789661 0 -0.1177457984409102 -0.25675586286376628 0 -0.1165264082877072 -0.24280735305789661 0 -0.1024958807902701 -0.24662047527455311 0 -0.1082554853557897 -0.22733847806125509 0 -0.1165264082877072 -0.24280735305789661 0 -0.1024958807902701 -0.24662047527455311 0 -0.087951612448116626 -0.2372463167873041 0 -0.1082554853557897 -0.22733847806125509 0 -0.1024958807902701 -0.24662047527455311 0 -0.075764490596910233 -0.13262170878292451 0 -0.098784986762511989 -0.14441364093927819 0 -0.083610352425363868 -0.1442564746130868 0 -0.075764490596910233 -0.13262170878292451 0 -0.098784986762511989 -0.14441364093927819 0 -0.075764490596910233 -0.13262170878292451 0 -0.098784986762511989 -0.14441364093927819 0 -0.095090436292185734 -0.13225086889304061 0 -0.081160465231656834 -0.1225154164946881 0 -0.075764490596910233 -0.13262170878292451 0 -0.095090436292185734 -0.13225086889304061 0 -0.052743994431308221 -0.1208297766265711 0 -0.075764490596910233 -0.13262170878292451 0 -0.081160465231656834 -0.1225154164946881 0 -0.059619915887674929 -0.1212376501946269 0 -0.075764490596910233 -0.13262170878292451 0 -0.058735636895958773 -0.14431314894139591 0 -0.075764490596910233 -0.13262170878292451 0 -0.072850714464454569 -0.14557728284116289 0 -0.058735636895958773 -0.14431314894139591 0 -0.075977108340994817 -0.16335197325008971 0 -0.058735636895958773 -0.14431314894139591 0 -0.072850714464454569 -0.14557728284116289 0 -0.075977108340994817 -0.16335197325008971 0 -0.083610352425363868 -0.1442564746130868 0 -0.072850714464454569 -0.14557728284116289 0 -0.075977108340994817 -0.16335197325008971 0 -0.083610352425363868 -0.1442564746130868 0 -0.075764490596910233 -0.13262170878292451 0 -0.072850714464454569 -0.14557728284116289 0 -0.052220771151241942 -0.1565615797844177 0 -0.075977108340994817 -0.16335197325008971 0 -0.072719675468636155 -0.16947618867160091 0 -0.057051729238527998 -0.17057520873247439 0 -0.072719675468636155 -0.16947618867160091 0 -0.065212872872060207 -0.17700884471367431 0 -0.066356875270059554 -0.1872171783275039 0 -0.065212872872060207 -0.17700884471367431 0 -0.075154634756190511 -0.18157361158011229 0 -0.072719675468636155 -0.16947618867160091 0 -0.065212872872060207 -0.17700884471367431 0 -0.075154634756190511 -0.18157361158011229 0 -0.078265170384165722 -0.19177504862899869 0 -0.066356875270059554 -0.1872171783275039 0 -0.075154634756190511 -0.18157361158011229 0 -0.072719675468636155 -0.16947618867160091 0 -0.075154634756190511 -0.18157361158011229 0 -0.093218579786030598 -0.18239079755878379 0 -0.072719675468636155 -0.16947618867160091 0 -0.093218579786030598 -0.18239079755878379 0 -0.075977108340994817 -0.16335197325008971 0 -0.093218579786030598 -0.18239079755878379 0 -0.078265170384165722 -0.19177504862899869 0 -0.075154634756190511 -0.18157361158011229 0 -0.093218579786030598 -0.18239079755878379 0 -0.075977108340994817 -0.16335197325008971 0 -0.093218579786030598 -0.18239079755878379 0 -0.094968611668415262 -0.16116174302992309 0 -0.075977108340994817 -0.16335197325008971 0 -0.072719675468636155 -0.16947618867160091 0 -0.093218579786030598 -0.18239079755878379 0 -0.083610352425363868 -0.1442564746130868 0 -0.075977108340994817 -0.16335197325008971 0 -0.094968611668415262 -0.16116174302992309 0 -0.094968611668415262 -0.16116174302992309 0 -0.10703718361033369 -0.16840173520861329 0 -0.1126215530599662 -0.150588468370045 0 -0.093218579786030598 -0.18239079755878379 0 -0.094968611668415262 -0.16116174302992309 0 -0.10703718361033369 -0.16840173520861329 0 -0.1146262760481609 -0.19587795863433641 0 -0.093218579786030598 -0.18239079755878379 0 -0.10927822534484311 -0.1807036897331534 0 -0.093218579786030598 -0.18239079755878379 0 -0.10703718361033369 -0.16840173520861329 0 -0.10927822534484311 -0.1807036897331534 0 -0.10703718361033369 -0.16840173520861329 0 -0.10927822534484311 -0.1807036897331534 0 -0.12158918941477879 -0.17394971554160951 0 -0.10927822534484311 -0.1807036897331534 0 -0.12158918941477879 -0.17394971554160951 0 -0.1207920240460465 -0.1865978803816474 0 -0.10703718361033369 -0.16840173520861329 0 -0.12158918941477879 -0.17394971554160951 0 -0.1126215530599662 -0.150588468370045 0 -0.1126215530599662 -0.150588468370045 0 -0.1084753086262967 -0.138165322479224 0 -0.12630263098481431 -0.1393725778309515 0 -0.083610352425363868 -0.1442564746130868 0 -0.094968611668415262 -0.16116174302992309 0 -0.1126215530599662 -0.150588468370045 0 -0.083610352425363868 -0.1442564746130868 0 -0.1126215530599662 -0.150588468370045 0 -0.098784986762511989 -0.14441364093927819 0 -0.083610352425363868 -0.1442564746130868 0 -0.1126215530599662 -0.150588468370045 0 -0.1126215530599662 -0.150588468370045 0 -0.098784986762511989 -0.14441364093927819 0 -0.1084753086262967 -0.138165322479224 0 -0.081160465231656834 -0.1225154164946881 0 -0.1095769360320055 -0.12420105636280469 0 -0.095090436292185734 -0.13225086889304061 0 -0.098784986762511989 -0.14441364093927819 0 -0.095090436292185734 -0.13225086889304061 0 -0.1084753086262967 -0.138165322479224 0 -0.1095769360320055 -0.12420105636280469 0 -0.095090436292185734 -0.13225086889304061 0 -0.1084753086262967 -0.138165322479224 0 -0.1095769360320055 -0.12420105636280469 0 -0.1084753086262967 -0.138165322479224 0 -0.12630263098481431 -0.1393725778309515 0 -0.1095769360320055 -0.12420105636280469 0 -0.13799340683235409 -0.1258866962309213 0 -0.12630263098481431 -0.1393725778309515 0 -0.1095769360320055 -0.12420105636280469 0 -0.13799340683235409 -0.1258866962309213 0 -0.13799340683235409 -0.1258866962309213 0 -0.12630263098481431 -0.1393725778309515 0 -0.14875101350336289 -0.13978050874838011 0 -0.13799340683235409 -0.1258866962309213 0 -0.14875101350336289 -0.13978050874838011 0 -0.16640987763270279 -0.1275723360990379 0 -0.13799340683235409 -0.1258866962309213 0 -0.16640987763270279 -0.1275723360990379 0 -0.14875101350336289 -0.13978050874838011 0 -0.14163275369456821 -0.15692046212700311 0 -0.15859891199749521 -0.14925734423153969 0 -0.1126215530599662 -0.150588468370045 0 -0.12630263098481431 -0.1393725778309515 0 -0.14163275369456821 -0.15692046212700311 0 -0.1126215530599662 -0.150588468370045 0 -0.14163275369456821 -0.15692046212700311 0 -0.12630263098481431 -0.1393725778309515 0 -0.14875101350336289 -0.13978050874838011 0 -0.14163275369456821 -0.15692046212700311 0 -0.12158918941477879 -0.17394971554160951 0 -0.14527571591422181 -0.17423339906322899 0 -0.14163275369456821 -0.15692046212700311 0 -0.12158918941477879 -0.17394971554160951 0 -0.1126215530599662 -0.150588468370045 0 -0.14163275369456821 -0.15692046212700311 0 -0.12158918941477879 -0.17394971554160951 0 -0.14527571591422181 -0.17423339906322899 0 -0.12158918941477879 -0.17394971554160951 0 -0.14527571591422181 -0.17423339906322899 0 -0.1326850206417198 -0.18794571586636591 0 -0.12158918941477879 -0.17394971554160951 0 -0.1207920240460465 -0.1865978803816474 0 -0.1326850206417198 -0.18794571586636591 0 -0.14527571591422181 -0.17423339906322899 0 -0.15675086316305831 -0.18603211862003269 0 -0.14732717882940721 -0.19684051359115909 0 -0.14527571591422181 -0.17423339906322899 0 -0.1326850206417198 -0.18794571586636591 0 -0.14732717882940721 -0.19684051359115909 0 -0.14163275369456821 -0.15692046212700311 0 -0.17064395432917029 -0.16325245588396131 0 -0.14527571591422181 -0.17423339906322899 0 -0.14163275369456821 -0.15692046212700311 0 -0.15662866658790631 -0.1672308499147605 0 -0.14163275369456821 -0.15692046212700311 0 -0.17064395432917029 -0.16325245588396131 0 -0.15859891199749521 -0.14925734423153969 0 -0.14163275369456821 -0.15692046212700311 0 -0.15662866658790631 -0.1672308499147605 0 -0.17064395432917029 -0.16325245588396131 0 -0.17064395432917029 -0.16325245588396131 0 -0.16896224241366481 -0.1745170825848488 0 -0.15662866658790631 -0.1672308499147605 0 -0.17064395432917029 -0.16325245588396131 0 -0.16896224241366481 -0.1745170825848488 0 -0.14527571591422181 -0.17423339906322899 0 -0.15675086316305831 -0.18603211862003269 0 -0.16896224241366481 -0.1745170825848488 0 -0.14527571591422181 -0.17423339906322899 0 -0.15662866658790631 -0.1672308499147605 0 -0.16896224241366481 -0.1745170825848488 0 -0.14527571591422181 -0.17423339906322899 0 -0.16896224241366481 -0.1745170825848488 0 -0.15675086316305831 -0.18603211862003269 0 -0.16896224241366481 -0.1745170825848488 0 -0.1650462339928255 -0.20074771852890019 0 -0.16896224241366481 -0.1745170825848488 0 -0.1985935048645423 -0.17487196369763189 0 -0.16896224241366481 -0.1745170825848488 0 -0.18469791284173989 -0.18944578359353439 0 -0.1985935048645423 -0.17487196369763189 0 -0.16896224241366481 -0.1745170825848488 0 -0.17631570271229799 -0.164490373466392 0 -0.1859616939236676 -0.1633866984096668 0 -0.16896224241366481 -0.1745170825848488 0 -0.1859616939236676 -0.1633866984096668 0 -0.1985935048645423 -0.17487196369763189 0 -0.17631570271229799 -0.164490373466392 0 -0.1801804986063921 -0.15997504206485491 0 -0.17699228593865129 -0.1562214919480448 0 -0.17064395432917029 -0.16325245588396131 0 -0.17631570271229799 -0.164490373466392 0 -0.17699228593865129 -0.1562214919480448 0 -0.17064395432917029 -0.16325245588396131 0 -0.17631570271229799 -0.164490373466392 0 -0.17064395432917029 -0.16325245588396131 0 -0.16896224241366481 -0.1745170825848488 0 -0.17631570271229799 -0.164490373466392 0 -0.1859616939236676 -0.1633866984096668 0 -0.18259005829477709 -0.1556972080703746 0 -0.1897808151022787 -0.15528187629347101 0 -0.17631570271229799 -0.164490373466392 0 -0.1859616939236676 -0.1633866984096668 0 -0.1801804986063921 -0.15997504206485491 0 -0.1859616939236676 -0.1633866984096668 0 -0.1801804986063921 -0.15997504206485491 0 -0.18259005829477709 -0.1556972080703746 0 -0.1801804986063921 -0.15997504206485491 0 -0.18259005829477709 -0.1556972080703746 0 -0.17699228593865129 -0.1562214919480448 0 -0.18560355648730681 -0.1503239792367112 0 -0.18259005829477709 -0.1556972080703746 0 -0.1897808151022787 -0.15528187629347101 0 -0.17064395432917029 -0.16325245588396131 0 -0.17699228593865129 -0.1562214919480448 0 -0.1733235186333473 -0.14530390516647859 0 -0.17064395432917029 -0.16325245588396131 0 -0.1733235186333473 -0.14530390516647859 0 -0.18560355648730681 -0.1503239792367112 0 -0.17987271695610119 -0.14940393920251621 0 -0.18259005829477709 -0.1556972080703746 0 -0.17987271695610119 -0.14940393920251621 0 -0.18259005829477709 -0.1556972080703746 0 -0.17699228593865129 -0.1562214919480448 0 -0.17987271695610119 -0.14940393920251621 0 -0.17699228593865129 -0.1562214919480448 0 -0.1733235186333473 -0.14530390516647859 0 -0.17987271695610119 -0.14940393920251621 0 -0.1733235186333473 -0.14530390516647859 0 -0.1847404350896015 -0.14335601035045059 0 -0.18560355648730681 -0.1503239792367112 0 -0.17987271695610119 -0.14940393920251621 0 -0.1847404350896015 -0.14335601035045059 0 -0.18560355648730681 -0.1503239792367112 0 -0.1847404350896015 -0.14335601035045059 0 -0.19170337139201049 -0.14834245915999009 0 -0.1733235186333473 -0.14530390516647859 0 -0.1847404350896015 -0.14335601035045059 0 -0.16640987763270279 -0.1275723360990379 0 -0.16640987763270279 -0.1275723360990379 0 -0.1948263484330513 -0.12925797596715499 0 -0.1847404350896015 -0.14335601035045059 0 -0.16640987763270279 -0.1275723360990379 0 -0.1948263484330513 -0.12925797596715499 0 -0.14875101350336289 -0.13978050874838011 0 -0.16640987763270279 -0.1275723360990379 0 -0.16177083044172699 -0.14047852356135909 0 -0.1733235186333473 -0.14530390516647859 0 -0.16640987763270279 -0.1275723360990379 0 -0.16177083044172699 -0.14047852356135909 0 -0.14875101350336289 -0.13978050874838011 0 -0.16177083044172699 -0.14047852356135909 0 -0.15859891199749521 -0.14925734423153969 0 -0.17064395432917029 -0.16325245588396131 0 -0.1733235186333473 -0.14530390516647859 0 -0.15859891199749521 -0.14925734423153969 0 -0.1733235186333473 -0.14530390516647859 0 -0.16177083044172699 -0.14047852356135909 0 -0.15859891199749521 -0.14925734423153969 0 -0.14765582784824499 -0.24250290602987759 0 -0.15329560866931549 -0.2302083001494907 0 -0.16770988851516691 -0.2324854021699439 0 -0.1324894623631693 -0.2500788841477915 0 -0.14765582784824499 -0.24250290602987759 0 -0.12951007849417359 -0.2224655365395129 0 -0.1324894623631693 -0.2500788841477915 0 -0.14765582784824499 -0.24250290602987759 0 -0.1324894623631693 -0.2500788841477915 0 -0.1165264082877072 -0.24280735305789661 0 -0.12951007849417359 -0.2224655365395129 0 -0.14765582784824499 -0.24250290602987759 0 -0.12951007849417359 -0.2224655365395129 0 -0.1447002004217586 -0.22244622723247329 0 -0.14765582784824499 -0.24250290602987759 0 -0.12951007849417359 -0.2224655365395129 0 -0.14765582784824499 -0.24250290602987759 0 -0.1447002004217586 -0.22244622723247329 0 -0.15329560866931549 -0.2302083001494907 0 -0.1447002004217586 -0.22244622723247329 0 -0.15329560866931549 -0.2302083001494907 0 -0.15452650795475259 -0.21811579588492391 0 -0.15452650795475259 -0.21811579588492391 0 -0.14846027111787921 -0.21019837904080391 0 -0.1650462339928255 -0.20074771852890019 0 -0.1447002004217586 -0.22244622723247329 0 -0.15452650795475259 -0.21811579588492391 0 -0.14846027111787921 -0.21019837904080391 0 -0.14846027111787921 -0.21019837904080391 0 -0.13603397231029141 -0.20936511970988869 0 -0.14732717882940721 -0.19684051359115909 0 -0.1447002004217586 -0.22244622723247329 0 -0.14846027111787921 -0.21019837904080391 0 -0.13603397231029141 -0.20936511970988869 0 -0.11136432914010221 -0.20242816704914809 0 -0.12951007849417359 -0.2224655365395129 0 -0.13603397231029141 -0.20936511970988869 0 -0.12951007849417359 -0.2224655365395129 0 -0.1447002004217586 -0.22244622723247329 0 -0.13603397231029141 -0.20936511970988869 0 -0.1146262760481609 -0.19587795863433641 0 -0.13603397231029141 -0.20936511970988869 0 -0.1146262760481609 -0.19587795863433641 0 -0.13603397231029141 -0.20936511970988869 0 -0.12688147277931869 -0.19591272946601529 0 -0.13603397231029141 -0.20936511970988869 0 -0.13573191114018429 -0.19751601965835719 0 -0.14732717882940721 -0.19684051359115909 0 -0.13603397231029141 -0.20936511970988869 0 -0.13573191114018429 -0.19751601965835719 0 -0.12688147277931869 -0.19591272946601529 0 -0.13573191114018429 -0.19751601965835719 0 -0.12688147277931869 -0.19591272946601529 0 -0.1326850206417198 -0.18794571586636591 0 -0.1207920240460465 -0.1865978803816474 0 -0.12688147277931869 -0.19591272946601529 0 -0.1326850206417198 -0.18794571586636591 0 -0.13573191114018429 -0.19751601965835719 0 -0.1326850206417198 -0.18794571586636591 0 -0.14732717882940721 -0.19684051359115909 0 -0.14846027111787921 -0.21019837904080391 0 -0.14732717882940721 -0.19684051359115909 0 -0.1650462339928255 -0.20074771852890019 0 -0.15675086316305831 -0.18603211862003269 0 -0.14732717882940721 -0.19684051359115909 0 -0.1650462339928255 -0.20074771852890019 0 -0.16896224241366481 -0.1745170825848488 0 -0.1650462339928255 -0.20074771852890019 0 -0.16896224241366481 -0.1745170825848488 0 -0.1650462339928255 -0.20074771852890019 0 -0.18469791284173989 -0.18944578359353439 0 -0.1650462339928255 -0.20074771852890019 0 -0.18469791284173989 -0.18944578359353439 0 -0.18760163146006961 -0.20605962484002491 0 -0.1650462339928255 -0.20074771852890019 0 -0.17346517264762121 -0.21892503312393 0 -0.18760163146006961 -0.20605962484002491 0 -0.17346517264762121 -0.21892503312393 0 -0.1877639491820888 -0.2224678983100101 0 -0.18760163146006961 -0.20605962484002491 0 -0.1650462339928255 -0.20074771852890019 0 -0.16113022557198389 -0.22697835447295139 0 -0.1650462339928255 -0.20074771852890019 0 -0.16113022557198389 -0.22697835447295139 0 -0.17346517264762121 -0.21892503312393 0 -0.15452650795475259 -0.21811579588492391 0 -0.1650462339928255 -0.20074771852890019 0 -0.16113022557198389 -0.22697835447295139 0 -0.15329560866931549 -0.2302083001494907 0 -0.15452650795475259 -0.21811579588492391 0 -0.16113022557198389 -0.22697835447295139 0 -0.15329560866931549 -0.2302083001494907 0 -0.16113022557198389 -0.22697835447295139 0 -0.16770988851516691 -0.2324854021699439 0 -0.16113022557198389 -0.22697835447295139 0 -0.16770988851516691 -0.2324854021699439 0 -0.17346517264762121 -0.21892503312393 0 -0.16770988851516691 -0.2324854021699439 0 -0.1844985433038748 -0.23886606773038441 0 -0.1877639491820888 -0.2224678983100101 0 -0.16770988851516691 -0.2324854021699439 0 -0.1877639491820888 -0.2224678983100101 0 -0.16770988851516691 -0.2324854021699439 0 -0.17346517264762121 -0.21892503312393 0 -0.1877639491820888 -0.2224678983100101 0 -0.16770988851516691 -0.2324854021699439 0 -0.1844985433038748 -0.23886606773038441 0 -0.1730193112966624 -0.2484669018237306 0 -0.1844985433038748 -0.23886606773038441 0 -0.18331645795018989 -0.24873503095268279 0 -0.1918043991281945 -0.24694729105096591 0 -0.1844985433038748 -0.23886606773038441 0 -0.18331645795018989 -0.24873503095268279 0 -0.1730193112966624 -0.2484669018237306 0 -0.14765582784824499 -0.24250290602987759 0 -0.16770988851516691 -0.2324854021699439 0 -0.14765582784824499 -0.24250290602987759 0 -0.16770988851516691 -0.2324854021699439 0 -0.1730193112966624 -0.2484669018237306 0 -0.21551946357164031 -0.24078013638652551 0 -0.21224576761874739 -0.2323031720292337 0 -0.21747794487500491 -0.23395234862009889 0 -0.21551946357164031 -0.24078013638652551 0 -0.21747794487500491 -0.23395234862009889 0 -0.21551946357164031 -0.24078013638652551 0 -0.2067220462497944 -0.2417839436881313 0 -0.20318361931292819 -0.23020511104168939 0 -0.2067220462497944 -0.2417839436881313 0 -0.20118784123830541 -0.23785109465459381 0 -0.20318361931292819 -0.23020511104168939 0 -0.21551946357164031 -0.24078013638652551 0 -0.20318361931292819 -0.23020511104168939 0 -0.21551946357164031 -0.24078013638652551 0 -0.20318361931292819 -0.23020511104168939 0 -0.21224576761874739 -0.2323031720292337 0 -0.20562149223732559 -0.25003540333929097 0 -0.2067220462497944 -0.2417839436881313 0 -0.19951336731501479 -0.24511267685473101 0 -0.20562149223732559 -0.25003540333929097 0 -0.21551946357164031 -0.24078013638652551 0 -0.2067220462497944 -0.2417839436881313 0 -0.19715624570168269 -0.25665000070718008 0 -0.19951336731501479 -0.24511267685473101 0 -0.1918043991281945 -0.24694729105096591 0 -0.19951336731501479 -0.24511267685473101 0 -0.1918043991281945 -0.24694729105096591 0 -0.1946812953848551 -0.23971874101568569 0 -0.1844985433038748 -0.23886606773038441 0 -0.1946812953848551 -0.23971874101568569 0 -0.1925354633794589 -0.2332985660275898 0 -0.1844985433038748 -0.23886606773038441 0 -0.1918043991281945 -0.24694729105096591 0 -0.1946812953848551 -0.23971874101568569 0 -0.1946812953848551 -0.23971874101568569 0 -0.19871403309271091 -0.23312190981005021 0 -0.1925354633794589 -0.2332985660275898 0 -0.1946812953848551 -0.23971874101568569 0 -0.20118784123830541 -0.23785109465459381 0 -0.19871403309271091 -0.23312190981005021 0 -0.19951336731501479 -0.24511267685473101 0 -0.1946812953848551 -0.23971874101568569 0 -0.20118784123830541 -0.23785109465459381 0 -0.2067220462497944 -0.2417839436881313 0 -0.19951336731501479 -0.24511267685473101 0 -0.20118784123830541 -0.23785109465459381 0 -0.20118784123830541 -0.23785109465459381 0 -0.19871403309271091 -0.23312190981005021 0 -0.20318361931292819 -0.23020511104168939 0 -0.1877639491820888 -0.2224678983100101 0 -0.19490191130647161 -0.22612701853477449 0 -0.20781800984901039 -0.21245039445007549 0 -0.20091358932407091 -0.22825910522625789 0 -0.19871403309271091 -0.23312190981005021 0 -0.20318361931292819 -0.23020511104168939 0 -0.20091358932407091 -0.22825910522625789 0 -0.19490191130647161 -0.22612701853477449 0 -0.20781800984901039 -0.21245039445007549 0 -0.20118784123830541 -0.23785109465459381 0 -0.20318361931292819 -0.23020511104168939 0 -0.1844985433038748 -0.23886606773038441 0 -0.1925354633794589 -0.2332985660275898 0 -0.1877639491820888 -0.2224678983100101 0 -0.20091358932407091 -0.22825910522625789 0 -0.20318361931292819 -0.23020511104168939 0 -0.20091358932407091 -0.22825910522625789 0 -0.19871403309271091 -0.23312190981005021 0 -0.19490191130647161 -0.22612701853477449 0 -0.19871403309271091 -0.23312190981005021 0 -0.1925354633794589 -0.2332985660275898 0 -0.19490191130647161 -0.22612701853477449 0 -0.1925354633794589 -0.2332985660275898 0 -0.1877639491820888 -0.2224678983100101 0 -0.19490191130647161 -0.22612701853477449 0 -0.20318361931292819 -0.23020511104168939 0 -0.21280204271541611 -0.22427509206862101 0 -0.20781800984901039 -0.21245039445007549 0 -0.20091358932407091 -0.22825910522625789 0 -0.20318361931292819 -0.23020511104168939 0 -0.20781800984901039 -0.21245039445007549 0 -0.20318361931292819 -0.23020511104168939 0 -0.20781800984901039 -0.21245039445007549 0 -0.21280204271541611 -0.22427509206862101 0 -0.20781800984901039 -0.21245039445007549 0 -0.2239427658221087 -0.22436833622587399 0 -0.20318361931292819 -0.23020511104168939 0 -0.21224576761874739 -0.2323031720292337 0 -0.21280204271541611 -0.22427509206862101 0 -0.21224576761874739 -0.2323031720292337 0 -0.21747794487500491 -0.23395234862009889 0 -0.21280204271541611 -0.22427509206862101 0 -0.21747794487500491 -0.23395234862009889 0 -0.21280204271541611 -0.22427509206862101 0 -0.2239427658221087 -0.22436833622587399 0 -0.20781800984901039 -0.21245039445007549 0 -0.18760163146006961 -0.20605962484002491 0 -0.1993987041737775 -0.19332292522355929 0 -0.1877639491820888 -0.2224678983100101 0 -0.20781800984901039 -0.21245039445007549 0 -0.18760163146006961 -0.20605962484002491 0 -0.1877639491820888 -0.2224678983100101 0 -0.20781800984901039 -0.21245039445007549 0 -0.18469791284173989 -0.18944578359353439 0 -0.18760163146006961 -0.20605962484002491 0 -0.1993987041737775 -0.19332292522355929 0 -0.20781800984901039 -0.21245039445007549 0 -0.21519087598962761 -0.1842043612823045 0 -0.20781800984901039 -0.21245039445007549 0 -0.1993987041737775 -0.19332292522355929 0 -0.21519087598962761 -0.1842043612823045 0 -0.20781800984901039 -0.21245039445007549 0 -0.23462583113721311 -0.19905921858344211 0 -0.21519087598962761 -0.1842043612823045 0 -0.23462583113721311 -0.19905921858344211 0 -0.25497145227442608 -0.2101784452455481 0 -0.25794011146818069 -0.1874131536250189 0 -0.23462583113721311 -0.19905921858344211 0 -0.25794011146818069 -0.1874131536250189 0 -0.23462583113721311 -0.19905921858344211 0 -0.23941670749013111 -0.22374371908234611 0 -0.23462583113721311 -0.19905921858344211 0 -0.23941670749013111 -0.22374371908234611 0 -0.25497145227442608 -0.2101784452455481 0 -0.20781800984901039 -0.21245039445007549 0 -0.23462583113721311 -0.19905921858344211 0 -0.20781800984901039 -0.21245039445007549 0 -0.23462583113721311 -0.19905921858344211 0 -0.2239427658221087 -0.22436833622587399 0 -0.23462583113721311 -0.19905921858344211 0 -0.2239427658221087 -0.22436833622587399 0 -0.23941670749013111 -0.22374371908234611 0 -0.21747794487500491 -0.23395234862009889 0 -0.2239427658221087 -0.22436833622587399 0 -0.2243739799584038 -0.23840964432676851 0 -0.2239427658221087 -0.22436833622587399 0 -0.23941670749013111 -0.22374371908234611 0 -0.23286384591083581 -0.23798268407624501 0 -0.2239427658221087 -0.22436833622587399 0 -0.23286384591083581 -0.23798268407624501 0 -0.2243739799584038 -0.23840964432676851 0 -0.23941670749013111 -0.22374371908234611 0 -0.24420758384304819 -0.24842821958125019 0 -0.25561367355809922 -0.2342256554916041 0 -0.23941670749013111 -0.22374371908234611 0 -0.24420758384304819 -0.24842821958125019 0 -0.23206587961242939 -0.25496471632509909 0 -0.24420758384304819 -0.24842821958125019 0 -0.23286384591083581 -0.23798268407624501 0 -0.23941670749013111 -0.22374371908234611 0 -0.24420758384304819 -0.24842821958125019 0 -0.23286384591083581 -0.23798268407624501 0 -0.23206587961242939 -0.25496471632509909 0 -0.21551946357164031 -0.24078013638652551 0 -0.23206587961242939 -0.25496471632509909 0 -0.21551946357164031 -0.24078013638652551 0 -0.2243739799584038 -0.23840964432676851 0 -0.23206587961242939 -0.25496471632509909 0 -0.23286384591083581 -0.23798268407624501 0 -0.2243739799584038 -0.23840964432676851 0 -0.21551946357164031 -0.24078013638652551 0 -0.21747794487500491 -0.23395234862009889 0 -0.2243739799584038 -0.23840964432676851 0 -0.20964998333284901 -0.1422715119267261 0 -0.20784729260948659 -0.15339929895560739 0 -0.19511111665664971 -0.147189693292303 0 -0.20784729260948659 -0.15339929895560739 0 -0.21645344051944099 -0.1481920070018542 0 -0.22256374213024521 -0.15595832811453361 0 -0.20964998333284901 -0.1422715119267261 0 -0.20784729260948659 -0.15339929895560739 0 -0.21645344051944099 -0.1481920070018542 0 -0.20964998333284901 -0.1422715119267261 0 -0.21645344051944099 -0.1481920070018542 0 -0.22337558648345279 -0.1410934834420052 0 -0.20964998333284901 -0.1422715119267261 0 -0.2241888500090482 -0.13735333056114879 0 -0.21118851686650869 -0.13613286805390351 0 -0.21383814742472021 -0.13038573903703349 0 -0.2241888500090482 -0.13735333056114879 0 -0.20964998333284901 -0.1422715119267261 0 -0.21118851686650869 -0.13613286805390351 0 -0.2241888500090482 -0.13735333056114879 0 -0.21118851686650869 -0.13613286805390351 0 -0.20923690616099419 -0.13011279748241689 0 -0.19496247500007419 -0.13782980006140741 0 -0.20964998333284901 -0.1422715119267261 0 -0.21118851686650869 -0.13613286805390351 0 -0.19496247500007419 -0.13782980006140741 0 -0.21383814742472021 -0.13038573903703349 0 -0.20923690616099419 -0.13011279748241689 0 -0.21118851686650869 -0.13613286805390351 0 -0.21383814742472021 -0.13038573903703349 0 -0.20923690616099419 -0.13011279748241689 0 -0.21383814742472021 -0.13038573903703349 0 -0.21156386606290931 -0.12885480300530661 0 -0.20923690616099419 -0.13011279748241689 0 -0.21383814742472021 -0.13038573903703349 0 -0.21156386606290931 -0.12885480300530661 0 -0.21156386606290931 -0.12885480300530661 0 -0.20923690616099419 -0.13011279748241689 0 -0.19698894271951911 -0.11904367071504 0 -0.21156386606290931 -0.12885480300530661 0 -0.20923690616099419 -0.13011279748241689 0 -0.20923690616099419 -0.13011279748241689 0 -0.19496247500007419 -0.13782980006140741 0 -0.20923690616099419 -0.13011279748241689 0 -0.1948263484330513 -0.12925797596715499 0 -0.20923690616099419 -0.13011279748241689 0 -0.1948263484330513 -0.12925797596715499 0 -0.19698894271951911 -0.11904367071504 0 -0.20923690616099419 -0.13011279748241689 0 -0.1948263484330513 -0.12925797596715499 0 -0.19496247500007419 -0.13782980006140741 0 -0.1847404350896015 -0.14335601035045059 0 -0.19496247500007419 -0.13782980006140741 0 -0.1847404350896015 -0.14335601035045059 0 -0.1948263484330513 -0.12925797596715499 0 -0.19496247500007419 -0.13782980006140741 0 -0.1948263484330513 -0.12925797596715499 0 -0.19496247500007419 -0.13782980006140741 0 -0.1847404350896015 -0.14335601035045059 0 -0.19496247500007419 -0.13782980006140741 0 -0.19170337139201049 -0.14834245915999009 0 -0.19496247500007419 -0.13782980006140741 0 -0.19170337139201049 -0.14834245915999009 0 -0.19511111665664971 -0.147189693292303 0 -0.19496247500007419 -0.13782980006140741 0 -0.19511111665664971 -0.147189693292303 0 -0.19170337139201049 -0.14834245915999009 0 -0.19511111665664971 -0.147189693292303 0 -0.20964998333284901 -0.1422715119267261 0 -0.19511111665664971 -0.147189693292303 0 -0.20964998333284901 -0.1422715119267261 0 -0.19496247500007419 -0.13782980006140741 0 -0.19511111665664971 -0.147189693292303 0 -0.20784729260948659 -0.15339929895560739 0 -0.19511111665664971 -0.147189693292303 0 -0.19532772165979809 -0.16082920558920941 0 -0.19511111665664971 -0.147189693292303 0 -0.19532772165979809 -0.16082920558920941 0 -0.19511111665664971 -0.147189693292303 0 -0.1897808151022787 -0.15528187629347101 0 -0.19532772165979809 -0.16082920558920941 0 -0.19170337139201049 -0.14834245915999009 0 -0.19511111665664971 -0.147189693292303 0 -0.1897808151022787 -0.15528187629347101 0 -0.18560355648730681 -0.1503239792367112 0 -0.19170337139201049 -0.14834245915999009 0 -0.1897808151022787 -0.15528187629347101 0 -0.1859616939236676 -0.1633866984096668 0 -0.1897808151022787 -0.15528187629347101 0 -0.19532772165979809 -0.16082920558920941 0 -0.1859616939236676 -0.1633866984096668 0 -0.19532772165979809 -0.16082920558920941 0 -0.1985935048645423 -0.17487196369763189 0 -0.19532772165979809 -0.16082920558920941 0 -0.1985935048645423 -0.17487196369763189 0 -0.20735869991998629 -0.16594322344220999 0 -0.18469791284173989 -0.18944578359353439 0 -0.1993987041737775 -0.19332292522355929 0 -0.1985935048645423 -0.17487196369763189 0 -0.1985935048645423 -0.17487196369763189 0 -0.21519087598962761 -0.1842043612823045 0 -0.20735869991998629 -0.16594322344220999 0 -0.1993987041737775 -0.19332292522355929 0 -0.1985935048645423 -0.17487196369763189 0 -0.21519087598962761 -0.1842043612823045 0 -0.21519087598962761 -0.1842043612823045 0 -0.20735869991998629 -0.16594322344220999 0 -0.22256374213024521 -0.15595832811453361 0 -0.20784729260948659 -0.15339929895560739 0 -0.19532772165979809 -0.16082920558920941 0 -0.20735869991998629 -0.16594322344220999 0 -0.20784729260948659 -0.15339929895560739 0 -0.20735869991998629 -0.16594322344220999 0 -0.22256374213024521 -0.15595832811453361 0 -0.21519087598962761 -0.1842043612823045 0 -0.22900070881033341 -0.17007635101272359 0 -0.22256374213024521 -0.15595832811453361 0 -0.21519087598962761 -0.1842043612823045 0 -0.22256374213024521 -0.15595832811453361 0 -0.23462583113721311 -0.19905921858344211 0 -0.21519087598962761 -0.1842043612823045 0 -0.22900070881033341 -0.17007635101272359 0 -0.23462583113721311 -0.19905921858344211 0 -0.22900070881033341 -0.17007635101272359 0 -0.23462583113721311 -0.19905921858344211 0 -0.22900070881033341 -0.17007635101272359 0 -0.24697969284727 -0.17288689331231 0 -0.23462583113721311 -0.19905921858344211 0 -0.24697969284727 -0.17288689331231 0 -0.25794011146818069 -0.1874131536250189 0 -0.22900070881033341 -0.17007635101272359 0 -0.24697969284727 -0.17288689331231 0 -0.2432106972724157 -0.1501579165962969 0 -0.2432106972724157 -0.1501579165962969 0 -0.22337558648345279 -0.1410934834420052 0 -0.2241888500090482 -0.13735333056114879 0 -0.22900070881033341 -0.17007635101272359 0 -0.22337558648345279 -0.1410934834420052 0 -0.22256374213024521 -0.15595832811453361 0 -0.22900070881033341 -0.17007635101272359 0 -0.22337558648345279 -0.1410934834420052 0 -0.2432106972724157 -0.1501579165962969 0 -0.2241888500090482 -0.13735333056114879 0 -0.22900070881033341 -0.17007635101272359 0 -0.2432106972724157 -0.1501579165962969 0 -0.22337558648345279 -0.1410934834420052 0 -0.21645344051944099 -0.1481920070018542 0 -0.22337558648345279 -0.1410934834420052 0 -0.22256374213024521 -0.15595832811453361 0 -0.21383814742472021 -0.13038573903703349 0 -0.23496242967267331 -0.13163881274181269 0 -0.23415543765642671 -0.116641411502323 0 -0.21383814742472021 -0.13038573903703349 0 -0.23496242967267331 -0.13163881274181269 0 -0.21383814742472021 -0.13038573903703349 0 -0.2241888500090482 -0.13735333056114879 0 -0.23496242967267331 -0.13163881274181269 0 -0.21383814742472021 -0.13038573903703349 0 -0.21156386606290931 -0.12885480300530661 0 -0.23415543765642671 -0.116641411502323 0 -0.2241888500090482 -0.13735333056114879 0 -0.24414510373304521 -0.13060256536204701 0 -0.21383814742472021 -0.13038573903703349 0 -0.2241888500090482 -0.13735333056114879 0 -0.20964998333284901 -0.1422715119267261 0 -0.22337558648345279 -0.1410934834420052 0 -0.2241888500090482 -0.13735333056114879 0 -0.2432106972724157 -0.1501579165962969 0 -0.24414510373304521 -0.13060256536204701 0 -0.25831117895737959 -0.13960737339820159 0 -0.2241888500090482 -0.13735333056114879 0 -0.23496242967267331 -0.13163881274181269 0 -0.24414510373304521 -0.13060256536204701 0 -0.23496242967267331 -0.13163881274181269 0 -0.24414510373304521 -0.13060256536204701 0 -0.24163917940672999 -0.1228049181518641 0 -0.2432106972724157 -0.1501579165962969 0 -0.2241888500090482 -0.13735333056114879 0 -0.24414510373304521 -0.13060256536204701 0 -0.23415543765642671 -0.116641411502323 0 -0.25091414607788359 -0.1177406574638967 0 -0.25674700924994409 -0.1044280199993394 0 -0.24414510373304521 -0.13060256536204701 0 -0.24163917940672999 -0.1228049181518641 0 -0.25091414607788359 -0.1177406574638967 0 -0.24163917940672999 -0.1228049181518641 0 -0.23415543765642671 -0.116641411502323 0 -0.25091414607788359 -0.1177406574638967 0 -0.23415543765642671 -0.116641411502323 0 -0.25674700924994409 -0.1044280199993394 0 -0.23496242967267331 -0.13163881274181269 0 -0.24163917940672999 -0.1228049181518641 0 -0.23415543765642671 -0.116641411502323 0 -0.24813890095642441 -0.094900992904842857 0 -0.24088238805934489 -0.10286992299486911 0 -0.25674700924994409 -0.1044280199993394 0 -0.24088238805934489 -0.10286992299486911 0 -0.23415543765642671 -0.116641411502323 0 -0.25674700924994409 -0.1044280199993394 0 -0.24088238805934489 -0.10286992299486911 0 -0.22896701010309589 -0.1033421962793787 0 -0.23605103183215431 -0.092591566606571057 0 -0.24813890095642441 -0.094900992904842857 0 -0.24088238805934489 -0.10286992299486911 0 -0.23605103183215431 -0.092591566606571057 0 -0.24088238805934489 -0.10286992299486911 0 -0.22896701010309589 -0.1033421962793787 0 -0.23415543765642671 -0.116641411502323 0 -0.22896701010309589 -0.1033421962793787 0 -0.22244276175535119 -0.091722076431601379 0 -0.2158516247040366 -0.1092681522656497 0 -0.22896701010309589 -0.1033421962793787 0 -0.23605103183215431 -0.092591566606571057 0 -0.22244276175535119 -0.091722076431601379 0 -0.21156386606290931 -0.12885480300530661 0 -0.23415543765642671 -0.116641411502323 0 -0.21156386606290931 -0.12885480300530661 0 -0.23415543765642671 -0.116641411502323 0 -0.2158516247040366 -0.1092681522656497 0 -0.22896701010309589 -0.1033421962793787 0 -0.23415543765642671 -0.116641411502323 0 -0.2158516247040366 -0.1092681522656497 0 -0.23142667576485931 -0.076620995107883894 0 -0.2323315243755236 -0.059052365072440292 0 -0.25022041194564271 -0.065724720361071992 0 -0.2455166695662627 -0.081063769452341394 0 -0.23142667576485931 -0.076620995107883894 0 -0.25022041194564271 -0.065724720361071992 0 -0.2455166695662627 -0.081063769452341394 0 -0.23605103183215431 -0.092591566606571057 0 -0.23142667576485931 -0.076620995107883894 0 -0.24813890095642441 -0.094900992904842857 0 -0.2455166695662627 -0.081063769452341394 0 -0.23605103183215431 -0.092591566606571057 0 -0.22244276175535119 -0.091722076431601379 0 -0.23142667576485931 -0.076620995107883894 0 -0.21538632356412299 -0.073079595645186554 0 -0.23605103183215431 -0.092591566606571057 0 -0.22244276175535119 -0.091722076431601379 0 -0.23142667576485931 -0.076620995107883894 0 -0.23142667576485931 -0.076620995107883894 0 -0.21538632356412299 -0.073079595645186554 0 -0.2323315243755236 -0.059052365072440292 0 -0.21538632356412299 -0.073079595645186554 0 -0.1940565221370425 -0.080782386399893255 0 -0.2069739045638378 -0.095429952684938257 0 -0.22244276175535119 -0.091722076431601379 0 -0.21538632356412299 -0.073079595645186554 0 -0.2069739045638378 -0.095429952684938257 0 -0.1940565221370425 -0.080782386399893255 0 -0.19444143528504321 -0.1050201811835242 0 -0.1940565221370425 -0.080782386399893255 0 -0.2069739045638378 -0.095429952684938257 0 -0.19444143528504321 -0.1050201811835242 0 -0.1940565221370425 -0.080782386399893255 0 -0.19444143528504321 -0.1050201811835242 0 -0.18113317195024181 -0.092871379585857144 0 -0.21538632356412299 -0.073079595645186554 0 -0.1940565221370425 -0.080782386399893255 0 -0.19367160898904401 -0.056544591616262303 0 -0.1940565221370425 -0.080782386399893255 0 -0.19367160898904401 -0.056544591616262303 0 -0.21156386606290931 -0.12885480300530661 0 -0.20706812162389279 -0.1172993260890758 0 -0.2158516247040366 -0.1092681522656497 0 -0.20706812162389279 -0.1172993260890758 0 -0.2158516247040366 -0.1092681522656497 0 -0.20426480577926601 -0.10921225658764561 0 -0.21156386606290931 -0.12885480300530661 0 -0.19698894271951911 -0.11904367071504 0 -0.21156386606290931 -0.12885480300530661 0 -0.20706812162389279 -0.1172993260890758 0 -0.19698894271951911 -0.11904367071504 0 -0.22244276175535119 -0.091722076431601379 0 -0.2158516247040366 -0.1092681522656497 0 -0.2069739045638378 -0.095429952684938257 0 -0.2158516247040366 -0.1092681522656497 0 -0.2069739045638378 -0.095429952684938257 0 -0.20426480577926601 -0.10921225658764561 0 -0.2069739045638378 -0.095429952684938257 0 -0.20426480577926601 -0.10921225658764561 0 -0.19444143528504321 -0.1050201811835242 0 -0.1948263484330513 -0.12925797596715499 0 -0.19444143528504321 -0.1050201811835242 0 -0.1948263484330513 -0.12925797596715499 0 -0.19444143528504321 -0.1050201811835242 0 -0.19698894271951911 -0.11904367071504 0 -0.1948263484330513 -0.12925797596715499 0 -0.19444143528504321 -0.1050201811835242 0 -0.18071368568866719 -0.1137880351325696 0 -0.20426480577926601 -0.10921225658764561 0 -0.19444143528504321 -0.1050201811835242 0 -0.19698894271951911 -0.11904367071504 0 -0.20706812162389279 -0.1172993260890758 0 -0.20426480577926601 -0.10921225658764561 0 -0.19698894271951911 -0.11904367071504 0 -0.16640987763270279 -0.1275723360990379 0 -0.1948263484330513 -0.12925797596715499 0 -0.18071368568866719 -0.1137880351325696 0 -0.16640987763270279 -0.1275723360990379 0 -0.16349335935957701 -0.096885839684650768 0 -0.1438259122579735 -0.1039786467714318 0 -0.16640987763270279 -0.1275723360990379 0 -0.18071368568866719 -0.1137880351325696 0 -0.16349335935957701 -0.096885839684650768 0 -0.18071368568866719 -0.1137880351325696 0 -0.16349335935957701 -0.096885839684650768 0 -0.18113317195024181 -0.092871379585857144 0 -0.19444143528504321 -0.1050201811835242 0 -0.18071368568866719 -0.1137880351325696 0 -0.18113317195024181 -0.092871379585857144 0 -0.1940565221370425 -0.080782386399893255 0 -0.18113317195024181 -0.092871379585857144 0 -0.16796660482350431 -0.065882730038948706 0 -0.1940565221370425 -0.080782386399893255 0 -0.16796660482350431 -0.065882730038948706 0 -0.19367160898904401 -0.056544591616262303 0 -0.16349335935957701 -0.096885839684650768 0 -0.18113317195024181 -0.092871379585857144 0 -0.16796660482350431 -0.065882730038948706 0 -0.16349335935957701 -0.096885839684650768 0 -0.16796660482350431 -0.065882730038948706 0 -0.14226160065796431 -0.075220868461634449 0 -0.16349335935957701 -0.096885839684650768 0 -0.14226160065796431 -0.075220868461634449 0 -0.1438259122579735 -0.1039786467714318 0 -0.16796660482350431 -0.065882730038948706 0 -0.14226160065796431 -0.075220868461634449 0 -0.11532772782976949 -0.06848910891888986 0 -0.14226160065796431 -0.075220868461634449 0 -0.12929758581347681 -0.059690850942959492 0 -0.14226160065796431 -0.075220868461634449 0 -0.12999288857614619 -0.093686328831556503 0 -0.1438259122579735 -0.1039786467714318 0 -0.11655659649242391 -0.084559006884318888 0 -0.14226160065796431 -0.075220868461634449 0 -0.12999288857614619 -0.093686328831556503 0 -0.11655659649242391 -0.084559006884318888 0 -0.14226160065796431 -0.075220868461634449 0 -0.12999288857614619 -0.093686328831556503 0 -0.12577690156327029 -0.11012255766180661 0 -0.1438259122579735 -0.1039786467714318 0 -0.13799340683235409 -0.1258866962309213 0 -0.12577690156327029 -0.11012255766180661 0 -0.1438259122579735 -0.1039786467714318 0 -0.13799340683235409 -0.1258866962309213 0 -0.16640987763270279 -0.1275723360990379 0 -0.1438259122579735 -0.1039786467714318 0 -0.1508870945426419 -0.02654415828381574 0 -0.1463954756695956 -0.0058153693874122246 0 -0.13706542397739421 -0.017907811515415008 0 -0.1463954756695956 -0.0058153693874122246 0 -0.16242646614593281 -0.0071964109301604576 0 -0.15835162420705179 0.0087119178024780992 0 -0.1508870945426419 -0.02654415828381574 0 -0.1463954756695956 -0.0058153693874122246 0 -0.16242646614593281 -0.0071964109301604576 0 -0.1463954756695956 -0.0058153693874122246 0 -0.13211260120916571 -0.006208574162898362 0 -0.13690710031888381 0.01195771323067427 0 -0.1463954756695956 -0.0058153693874122246 0 -0.13211260120916571 -0.006208574162898362 0 -0.13706542397739421 -0.017907811515415008 0 -0.1225727701940631 -0.01455985372084038 0 -0.13211260120916571 -0.006208574162898362 0 -0.13706542397739421 -0.017907811515415008 0 -0.1225727701940631 -0.01455985372084038 0 -0.12955396198145891 -0.030767486083318842 0 -0.13706542397739421 -0.017907811515415008 0 -0.1508870945426419 -0.02654415828381574 0 -0.12955396198145891 -0.030767486083318842 0 -0.13706542397739421 -0.017907811515415008 0 -0.1508870945426419 -0.02654415828381574 0 -0.12955396198145891 -0.030767486083318842 0 -0.1404909550647386 -0.045472661663011858 0 -0.1140988591671116 -0.052419210953461068 0 -0.12955396198145891 -0.030767486083318842 0 -0.1404909550647386 -0.045472661663011858 0 -0.1140988591671116 -0.052419210953461068 0 -0.1404909550647386 -0.045472661663011858 0 -0.14226160065796431 -0.075220868461634449 0 -0.1404909550647386 -0.045472661663011858 0 -0.12929758581347681 -0.059690850942959492 0 -0.1140988591671116 -0.052419210953461068 0 -0.1404909550647386 -0.045472661663011858 0 -0.12929758581347681 -0.059690850942959492 0 -0.16796660482350431 -0.065882730038948706 0 -0.14226160065796431 -0.075220868461634449 0 -0.1404909550647386 -0.045472661663011858 0 -0.1404909550647386 -0.045472661663011858 0 -0.16688305096236589 -0.038526112372563329 0 -0.1508870945426419 -0.02654415828381574 0 -0.1404909550647386 -0.045472661663011858 0 -0.16688305096236589 -0.038526112372563329 0 -0.16796660482350431 -0.065882730038948706 0 -0.1404909550647386 -0.045472661663011858 0 -0.16688305096236589 -0.038526112372563329 0 -0.16796660482350431 -0.065882730038948706 0 -0.19367160898904401 -0.056544591616262303 0 -0.16796660482350431 -0.065882730038948706 0 -0.16688305096236589 -0.038526112372563329 0 -0.19367160898904401 -0.056544591616262303 0 -0.16688305096236589 -0.038526112372563329 0 -0.19327514685999381 -0.031579563082118151 0 -0.16688305096236589 -0.038526112372563329 0 -0.19367160898904401 -0.056544591616262303 0 -0.19327514685999381 -0.031579563082118151 0 -0.16688305096236589 -0.038526112372563329 0 -0.18453926791605149 -0.020121715980214869 0 -0.19327514685999381 -0.031579563082118151 0 -0.18453926791605149 -0.020121715980214869 0 -0.16810408750946909 -0.022026086553549259 0 -0.17617136535093039 -0.0081619959644970916 0 -0.16688305096236589 -0.038526112372563329 0 -0.18453926791605149 -0.020121715980214869 0 -0.16810408750946909 -0.022026086553549259 0 -0.1508870945426419 -0.02654415828381574 0 -0.16688305096236589 -0.038526112372563329 0 -0.16810408750946909 -0.022026086553549259 0 -0.1508870945426419 -0.02654415828381574 0 -0.16810408750946909 -0.022026086553549259 0 -0.16242646614593281 -0.0071964109301604576 0 -0.16810408750946909 -0.022026086553549259 0 -0.16242646614593281 -0.0071964109301604576 0 -0.17617136535093039 -0.0081619959644970916 0 -0.16242646614593281 -0.0071964109301604576 0 -0.17617136535093039 -0.0081619959644970916 0 -0.17341675758933661 0.0047366988330417251 0 -0.18453926791605149 -0.020121715980214869 0 -0.17617136535093039 -0.0081619959644970916 0 -0.1884722209359557 0.0015402469942710109 0 -0.18453926791605149 -0.020121715980214869 0 -0.1884722209359557 0.0015402469942710109 0 -0.17617136535093039 -0.0081619959644970916 0 -0.17341675758933661 0.0047366988330417251 0 -0.1884722209359557 0.0015402469942710109 0 -0.18453926791605149 -0.020121715980214869 0 -0.19284016040793381 -0.0041886765566805789 0 -0.1884722209359557 0.0015402469942710109 0 -0.19284016040793381 -0.0041886765566805789 0 -0.20084076352851871 -0.00020028152259580351 0 -0.20384982758437981 -0.01591808159437768 0 -0.19284016040793381 -0.0041886765566805789 0 -0.20384982758437981 -0.01591808159437768 0 -0.19327514685999381 -0.031579563082118151 0 -0.19284016040793381 -0.0041886765566805789 0 -0.19327514685999381 -0.031579563082118151 0 -0.18453926791605149 -0.020121715980214869 0 -0.19284016040793381 -0.0041886765566805789 0 -0.19327514685999381 -0.031579563082118151 0 -0.20384982758437981 -0.01591808159437768 0 -0.21158541641819201 -0.0082493684831916551 0 -0.2189157141546357 -0.024830820381338641 0 -0.20384982758437981 -0.01591808159437768 0 -0.19327514685999381 -0.031579563082118151 0 -0.2189157141546357 -0.024830820381338641 0 -0.19327514685999381 -0.031579563082118151 0 -0.2189157141546357 -0.024830820381338641 0 -0.20084076352851871 -0.00020028152259580351 0 -0.20384982758437981 -0.01591808159437768 0 -0.21158541641819201 -0.0082493684831916551 0 -0.21158541641819201 -0.0082493684831916551 0 -0.22346190016105291 -0.0051988592664399917 0 -0.2189157141546357 -0.024830820381338641 0 -0.21158541641819201 -0.0082493684831916551 0 -0.22346190016105291 -0.0051988592664399917 0 -0.21437324906605321 0.0021701380236543101 0 -0.20084076352851871 -0.00020028152259580351 0 -0.21158541641819201 -0.0082493684831916551 0 -0.21437324906605321 0.0021701380236543101 0 -0.19367160898904401 -0.056544591616262303 0 -0.19327514685999381 -0.031579563082118151 0 -0.19367160898904401 -0.056544591616262303 0 -0.19327514685999381 -0.031579563082118151 0 -0.2132757437763862 -0.049422782838398398 0 -0.19327514685999381 -0.031579563082118151 0 -0.2132757437763862 -0.049422782838398398 0 -0.2189157141546357 -0.024830820381338641 0 -0.19367160898904401 -0.056544591616262303 0 -0.2132757437763862 -0.049422782838398398 0 -0.21538632356412299 -0.073079595645186554 0 -0.19367160898904401 -0.056544591616262303 0 -0.2132757437763862 -0.049422782838398398 0 -0.2132757437763862 -0.049422782838398398 0 -0.2323315243755236 -0.059052365072440292 0 -0.23287987856372799 -0.042300974060533868 0 -0.21538632356412299 -0.073079595645186554 0 -0.2132757437763862 -0.049422782838398398 0 -0.2323315243755236 -0.059052365072440292 0 -0.2132757437763862 -0.049422782838398398 0 -0.23287987856372799 -0.042300974060533868 0 -0.2189157141546357 -0.024830820381338641 0 -0.2132757437763862 -0.049422782838398398 0 -0.23287987856372799 -0.042300974060533868 0 -0.23287987856372799 -0.042300974060533868 0 -0.24455628144927841 -0.018082077680562431 0 -0.25080011263840252 -0.047165122421567021 0 -0.2323315243755236 -0.059052365072440292 0 -0.23287987856372799 -0.042300974060533868 0 -0.25080011263840252 -0.047165122421567021 0 -0.2323315243755236 -0.059052365072440292 0 -0.25080011263840252 -0.047165122421567021 0 -0.25022041194564271 -0.065724720361071992 0 -0.22346190016105291 -0.0051988592664399917 0 -0.23748093572953399 -0.016059876272065361 0 -0.23785897178045259 0.005694125113922267 0 -0.22346190016105291 -0.0051988592664399917 0 -0.2189157141546357 -0.024830820381338641 0 -0.23748093572953399 -0.016059876272065361 0 -0.2189157141546357 -0.024830820381338641 0 -0.23748093572953399 -0.016059876272065361 0 -0.24455628144927841 -0.018082077680562431 0 -0.23287987856372799 -0.042300974060533868 0 -0.2189157141546357 -0.024830820381338641 0 -0.24455628144927841 -0.018082077680562431 0 -0.2189157141546357 -0.024830820381338641 0 -0.24455628144927841 -0.018082077680562431 0 -0.23748093572953399 -0.016059876272065361 0 -0.24871960323422521 -0.0040779935892079214 0 -0.23785897178045259 0.005694125113922267 0 -0.23748093572953399 -0.016059876272065361 0 -0.24455628144927841 -0.018082077680562431 0 -0.24871960323422521 -0.0040779935892079214 0 -0.23748093572953399 -0.016059876272065361 0 -0.23785897178045259 0.005694125113922267 0 -0.24455628144927841 -0.018082077680562431 0 -0.26297327802616549 -0.007284295890669118 0 -0.27019684874392103 -0.011333334979786251 0 -0.24455628144927841 -0.018082077680562431 0 -0.24871960323422521 -0.0040779935892079214 0 -0.26297327802616549 -0.007284295890669118 0 -0.24455628144927841 -0.018082077680562431 0 -0.27019684874392103 -0.011333334979786251 0 -0.24455628144927841 -0.018082077680562431 0 -0.27019684874392103 -0.011333334979786251 0 -0.26521917348562513 -0.032836742664965328 0 -0.27898997256227909 -0.0271570494551591 0 -0.27019684874392103 -0.011333334979786251 0 -0.26521917348562513 -0.032836742664965328 0 -0.27898997256227909 -0.0271570494551591 0 -0.27019684874392103 -0.011333334979786251 0 -0.28917700289266679 -0.017472494646406961 0 -0.27019684874392103 -0.011333334979786251 0 -0.29583741603856339 -0.0045845922790098536 0 -0.2740535381829538 0.002859602543604707 0 -0.26297327802616549 -0.007284295890669118 0 -0.27019684874392103 -0.011333334979786251 0 -0.2740535381829538 0.002859602543604707 0 -0.27019684874392103 -0.011333334979786251 0 -0.29583741603856339 -0.0045845922790098536 0 -0.27019684874392103 -0.011333334979786251 0 -0.29583741603856339 -0.0045845922790098536 0 -0.28917700289266679 -0.017472494646406961 0 -0.29583741603856339 -0.0045845922790098536 0 -0.29687552824972552 -0.0063559827868097107 0 -0.28917700289266679 -0.017472494646406961 0 -0.29802576414415299 -0.015879696470337521 0 -0.29687552824972552 -0.0063559827868097107 0 -0.29583741603856339 -0.0045845922790098536 0 -0.28917700289266679 -0.017472494646406961 0 -0.29687552824972552 -0.0063559827868097107 0 -0.27898997256227909 -0.0271570494551591 0 -0.28917700289266679 -0.017472494646406961 0 -0.2910496138811477 -0.032714843719744958 0 -0.28917700289266679 -0.017472494646406961 0 -0.29690117045043429 -0.02403302126358222 0 -0.2910496138811477 -0.032714843719744958 0 -0.28917700289266679 -0.017472494646406961 0 -0.29802576414415299 -0.015879696470337521 0 -0.29690117045043429 -0.02403302126358222 0 -0.29802576414415299 -0.015879696470337521 0 -0.30499456821900939 -0.021327592125566421 0 -0.30363297621194818 -0.01073279409690008 0 -0.29802576414415299 -0.015879696470337521 0 -0.29690117045043429 -0.02403302126358222 0 -0.30499456821900939 -0.021327592125566421 0 -0.30499456821900939 -0.021327592125566421 0 -0.31162403140943312 -0.0097516636075976829 0 -0.31888937154162877 -0.030649470261424949 0 -0.29690117045043429 -0.02403302126358222 0 -0.30416375372123272 -0.033817284491010777 0 -0.2910496138811477 -0.032714843719744958 0 -0.29690117045043429 -0.02403302126358222 0 -0.30499456821900939 -0.021327592125566421 0 -0.30416375372123272 -0.033817284491010777 0 -0.30499456821900939 -0.021327592125566421 0 -0.30416375372123272 -0.033817284491010777 0 -0.31888937154162877 -0.030649470261424949 0 -0.29583741603856339 -0.0045845922790098536 0 -0.31162403140943312 -0.0097516636075976829 0 -0.30363297621194818 -0.01073279409690008 0 -0.29583741603856339 -0.0045845922790098536 0 -0.31162403140943312 -0.0097516636075976829 0 -0.32108526965035911 0.002060785953649905 0 -0.30499456821900939 -0.021327592125566421 0 -0.31162403140943312 -0.0097516636075976829 0 -0.30363297621194818 -0.01073279409690008 0 -0.29583741603856339 -0.0045845922790098536 0 -0.32108526965035911 0.002060785953649905 0 -0.29583741603856339 -0.0045845922790098536 0 -0.29687552824972552 -0.0063559827868097107 0 -0.30363297621194818 -0.01073279409690008 0 -0.29802576414415299 -0.015879696470337521 0 -0.29687552824972552 -0.0063559827868097107 0 -0.30363297621194818 -0.01073279409690008 0 -0.30357264839307257 -0.059635343064400083 0 -0.31171442024782681 -0.045870758467197771 0 -0.29657781139641332 -0.046284774034828079 0 -0.30357264839307257 -0.059635343064400083 0 -0.29657781139641332 -0.046284774034828079 0 -0.29294847914264632 -0.057280364765548007 0 -0.30357264839307257 -0.059635343064400083 0 -0.31171442024782681 -0.045870758467197771 0 -0.31512033311768911 -0.058505546491203847 0 -0.31171442024782681 -0.045870758467197771 0 -0.30416375372123272 -0.033817284491010777 0 -0.31888937154162877 -0.030649470261424949 0 -0.30416375372123272 -0.033817284491010777 0 -0.29657781139641332 -0.046284774034828079 0 -0.2910496138811477 -0.032714843719744958 0 -0.31171442024782681 -0.045870758467197771 0 -0.30416375372123272 -0.033817284491010777 0 -0.29657781139641332 -0.046284774034828079 0 -0.29657781139641332 -0.046284774034828079 0 -0.2910496138811477 -0.032714843719744958 0 -0.2804290101871853 -0.040671772553380718 0 -0.27898997256227909 -0.0271570494551591 0 -0.2910496138811477 -0.032714843719744958 0 -0.2804290101871853 -0.040671772553380718 0 -0.29657781139641332 -0.046284774034828079 0 -0.28187388397831492 -0.054207746721906591 0 -0.2804290101871853 -0.040671772553380718 0 -0.29657781139641332 -0.046284774034828079 0 -0.28187388397831492 -0.054207746721906591 0 -0.29294847914264632 -0.057280364765548007 0 -0.30357264839307257 -0.059635343064400083 0 -0.29294847914264632 -0.057280364765548007 0 -0.29288639902301722 -0.068162232303269454 0 -0.28187388397831492 -0.054207746721906591 0 -0.29294847914264632 -0.057280364765548007 0 -0.28239023162487398 -0.065290061521452655 0 -0.28187388397831492 -0.054207746721906591 0 -0.27100118129896411 -0.064984149937810626 0 -0.28239023162487398 -0.065290061521452655 0 -0.28187388397831492 -0.054207746721906591 0 -0.26659062892235569 -0.050931709110117032 0 -0.2804290101871853 -0.040671772553380718 0 -0.28187388397831492 -0.054207746721906591 0 -0.26659062892235569 -0.050931709110117032 0 -0.27100118129896411 -0.064984149937810626 0 -0.26659062892235569 -0.050931709110117032 0 -0.2804290101871853 -0.040671772553380718 0 -0.26521917348562513 -0.032836742664965328 0 -0.27898997256227909 -0.0271570494551591 0 -0.2804290101871853 -0.040671772553380718 0 -0.26521917348562513 -0.032836742664965328 0 -0.26659062892235569 -0.050931709110117032 0 -0.26521917348562513 -0.032836742664965328 0 -0.25080011263840252 -0.047165122421567021 0 -0.24455628144927841 -0.018082077680562431 0 -0.26521917348562513 -0.032836742664965328 0 -0.25080011263840252 -0.047165122421567021 0 -0.26659062892235569 -0.050931709110117032 0 -0.25022041194564271 -0.065724720361071992 0 -0.27100118129896411 -0.064984149937810626 0 -0.26659062892235569 -0.050931709110117032 0 -0.25080011263840252 -0.047165122421567021 0 -0.25022041194564271 -0.065724720361071992 0 -0.25022041194564271 -0.065724720361071992 0 -0.27100118129896411 -0.064984149937810626 0 -0.26637131039333078 -0.076978184961144683 0 -0.25022041194564271 -0.065724720361071992 0 -0.25851128941906237 -0.090473948742725352 0 -0.25022041194564271 -0.065724720361071992 0 -0.25851128941906237 -0.090473948742725352 0 -0.26637131039333078 -0.076978184961144683 0 -0.2455166695662627 -0.081063769452341394 0 -0.25022041194564271 -0.065724720361071992 0 -0.25851128941906237 -0.090473948742725352 0 -0.24813890095642441 -0.094900992904842857 0 -0.2455166695662627 -0.081063769452341394 0 -0.25851128941906237 -0.090473948742725352 0 -0.2725355050853035 -0.087448284415255928 0 -0.27958816421768151 -0.076259821348859488 0 -0.26637131039333078 -0.076978184961144683 0 -0.25851128941906237 -0.090473948742725352 0 -0.2725355050853035 -0.087448284415255928 0 -0.26637131039333078 -0.076978184961144683 0 -0.25851128941906237 -0.090473948742725352 0 -0.2725355050853035 -0.087448284415255928 0 -0.27083906669322222 -0.1003738301556034 0 -0.2725355050853035 -0.087448284415255928 0 -0.27848080523323121 -0.094937004020361496 0 -0.28665726939722591 -0.089979893072667655 0 -0.2725355050853035 -0.087448284415255928 0 -0.27958816421768151 -0.076259821348859488 0 -0.28665726939722591 -0.089979893072667655 0 -0.27958816421768151 -0.076259821348859488 0 -0.27100118129896411 -0.064984149937810626 0 -0.28239023162487398 -0.065290061521452655 0 -0.27958816421768151 -0.076259821348859488 0 -0.27100118129896411 -0.064984149937810626 0 -0.26637131039333078 -0.076978184961144683 0 -0.24414510373304521 -0.13060256536204701 0 -0.26410135745704177 -0.12385180016294441 0 -0.25091414607788359 -0.1177406574638967 0 -0.26410135745704177 -0.12385180016294441 0 -0.25091414607788359 -0.1177406574638967 0 -0.259248597467306 -0.11671837436762179 0 -0.26410135745704177 -0.12385180016294441 0 -0.259248597467306 -0.11671837436762179 0 -0.2668021668924821 -0.1152231771243787 0 -0.25091414607788359 -0.1177406574638967 0 -0.259248597467306 -0.11671837436762179 0 -0.25674700924994409 -0.1044280199993394 0 -0.259248597467306 -0.11671837436762179 0 -0.25674700924994409 -0.1044280199993394 0 -0.2668021668924821 -0.1152231771243787 0 -0.25851128941906237 -0.090473948742725352 0 -0.2668021668924821 -0.1152231771243787 0 -0.25851128941906237 -0.090473948742725352 0 -0.25674700924994409 -0.1044280199993394 0 -0.2668021668924821 -0.1152231771243787 0 -0.25851128941906237 -0.090473948742725352 0 -0.27083906669322222 -0.1003738301556034 0 -0.2668021668924821 -0.1152231771243787 0 -0.24813890095642441 -0.094900992904842857 0 -0.25851128941906237 -0.090473948742725352 0 -0.25674700924994409 -0.1044280199993394 0 -0.27083906669322222 -0.1003738301556034 0 -0.27848080523323121 -0.094937004020361496 0 -0.28193621305823863 -0.1038525899201052 0 -0.2725355050853035 -0.087448284415255928 0 -0.27083906669322222 -0.1003738301556034 0 -0.27848080523323121 -0.094937004020361496 0 -0.27495205784387228 -0.1085822326372716 0 -0.2802307847315465 -0.1148793333489994 0 -0.28193621305823863 -0.1038525899201052 0 -0.27083906669322222 -0.1003738301556034 0 -0.27495205784387228 -0.1085822326372716 0 -0.28193621305823863 -0.1038525899201052 0 -0.27083906669322222 -0.1003738301556034 0 -0.27495205784387228 -0.1085822326372716 0 -0.2668021668924821 -0.1152231771243787 0 -0.27495205784387228 -0.1085822326372716 0 -0.2668021668924821 -0.1152231771243787 0 -0.2802307847315465 -0.1148793333489994 0 -0.2668021668924821 -0.1152231771243787 0 -0.2802307847315465 -0.1148793333489994 0 -0.28165613224495512 -0.1272121628220059 0 -0.28992218621857441 -0.12121090261211249 0 -0.2965623965121118 -0.11701994000450799 0 -0.29818071929502649 -0.12533829272112651 0 -0.2802307847315465 -0.1148793333489994 0 -0.28992218621857441 -0.12121090261211249 0 -0.28165613224495512 -0.1272121628220059 0 -0.2802307847315465 -0.1148793333489994 0 -0.28992218621857441 -0.12121090261211249 0 -0.2900635250041429 -0.1112255364351384 0 -0.2802307847315465 -0.1148793333489994 0 -0.2900635250041429 -0.1112255364351384 0 -0.28193621305823863 -0.1038525899201052 0 -0.28992218621857441 -0.12121090261211249 0 -0.2965623965121118 -0.11701994000450799 0 -0.2900635250041429 -0.1112255364351384 0 -0.2965623965121118 -0.11701994000450799 0 -0.2900635250041429 -0.1112255364351384 0 -0.29907377272889868 -0.1089979880691484 0 -0.29066103962009998 -0.099885876773618237 0 -0.30042219685057481 -0.097227290533347513 0 -0.29907377272889868 -0.1089979880691484 0 -0.2900635250041429 -0.1112255364351384 0 -0.29066103962009998 -0.099885876773618237 0 -0.29907377272889868 -0.1089979880691484 0 -0.2900635250041429 -0.1112255364351384 0 -0.28193621305823863 -0.1038525899201052 0 -0.29066103962009998 -0.099885876773618237 0 -0.27848080523323121 -0.094937004020361496 0 -0.29066103962009998 -0.099885876773618237 0 -0.28665726939722591 -0.089979893072667655 0 -0.27848080523323121 -0.094937004020361496 0 -0.28193621305823863 -0.1038525899201052 0 -0.29066103962009998 -0.099885876773618237 0 -0.29066103962009998 -0.099885876773618237 0 -0.30042219685057481 -0.097227290533347513 0 -0.29646357585493238 -0.088270953275525907 0 -0.30042219685057481 -0.097227290533347513 0 -0.30718228699576511 -0.10475614014504959 0 -0.31413057107246251 -0.094025728982225887 0 -0.30718228699576511 -0.10475614014504959 0 -0.29907377272889868 -0.1089979880691484 0 -0.30978202788364972 -0.1119727599886042 0 -0.30718228699576511 -0.10475614014504959 0 -0.30978202788364972 -0.1119727599886042 0 -0.31685941794142058 -0.10914206090647539 0 -0.30042219685057481 -0.097227290533347513 0 -0.30718228699576511 -0.10475614014504959 0 -0.29907377272889868 -0.1089979880691484 0 -0.2965623965121118 -0.11701994000450799 0 -0.29907377272889868 -0.1089979880691484 0 -0.30557177931391682 -0.1183269801850142 0 -0.29907377272889868 -0.1089979880691484 0 -0.30978202788364972 -0.1119727599886042 0 -0.30557177931391682 -0.1183269801850142 0 -0.30978202788364972 -0.1119727599886042 0 -0.30557177931391682 -0.1183269801850142 0 -0.3127070392079988 -0.11983974052116721 0 -0.30557177931391682 -0.1183269801850142 0 -0.3127070392079988 -0.11983974052116721 0 -0.30659383293176717 -0.12836008554116621 0 -0.30557177931391682 -0.1183269801850142 0 -0.30659383293176717 -0.12836008554116621 0 -0.29818071929502649 -0.12533829272112651 0 -0.2965623965121118 -0.11701994000450799 0 -0.30557177931391682 -0.1183269801850142 0 -0.29818071929502649 -0.12533829272112651 0 -0.29288639902301722 -0.068162232303269454 0 -0.29152329783040948 -0.080201345581178293 0 -0.30202108065919059 -0.07833382790556892 0 -0.29294847914264632 -0.057280364765548007 0 -0.29288639902301722 -0.068162232303269454 0 -0.28239023162487398 -0.065290061521452655 0 -0.27958816421768151 -0.076259821348859488 0 -0.29288639902301722 -0.068162232303269454 0 -0.28239023162487398 -0.065290061521452655 0 -0.27958816421768151 -0.076259821348859488 0 -0.29288639902301722 -0.068162232303269454 0 -0.29152329783040948 -0.080201345581178293 0 -0.27958816421768151 -0.076259821348859488 0 -0.28665726939722591 -0.089979893072667655 0 -0.29152329783040948 -0.080201345581178293 0 -0.28665726939722591 -0.089979893072667655 0 -0.29646357585493238 -0.088270953275525907 0 -0.29152329783040948 -0.080201345581178293 0 -0.29066103962009998 -0.099885876773618237 0 -0.28665726939722591 -0.089979893072667655 0 -0.29646357585493238 -0.088270953275525907 0 -0.29646357585493238 -0.088270953275525907 0 -0.29152329783040948 -0.080201345581178293 0 -0.30202108065919059 -0.07833382790556892 0 -0.29646357585493238 -0.088270953275525907 0 -0.30202108065919059 -0.07833382790556892 0 -0.3056620303393317 -0.088279728833940446 0 -0.30042219685057481 -0.097227290533347513 0 -0.29646357585493238 -0.088270953275525907 0 -0.3056620303393317 -0.088279728833940446 0 -0.3056620303393317 -0.088279728833940446 0 -0.31120497227667171 -0.082008408674462449 0 -0.31413057107246251 -0.094025728982225887 0 -0.30042219685057481 -0.097227290533347513 0 -0.3056620303393317 -0.088279728833940446 0 -0.31413057107246251 -0.094025728982225887 0 -0.30202108065919059 -0.07833382790556892 0 -0.3056620303393317 -0.088279728833940446 0 -0.31120497227667171 -0.082008408674462449 0 -0.30202108065919059 -0.07833382790556892 0 -0.31120497227667171 -0.082008408674462449 0 -0.31237785291584602 -0.069779599229170111 0 -0.30202108065919059 -0.07833382790556892 0 -0.3027144952477816 -0.068977750625602144 0 -0.31237785291584602 -0.069779599229170111 0 -0.29288639902301722 -0.068162232303269454 0 -0.30202108065919059 -0.07833382790556892 0 -0.3027144952477816 -0.068977750625602144 0 -0.30357264839307257 -0.059635343064400083 0 -0.29288639902301722 -0.068162232303269454 0 -0.3027144952477816 -0.068977750625602144 0 -0.30357264839307257 -0.059635343064400083 0 -0.3027144952477816 -0.068977750625602144 0 -0.31237785291584602 -0.069779599229170111 0 -0.30357264839307257 -0.059635343064400083 0 -0.31237785291584602 -0.069779599229170111 0 -0.31512033311768911 -0.058505546491203847 0 -0.31237785291584602 -0.069779599229170111 0 -0.32228855523183442 -0.067412463942328485 0 -0.31512033311768911 -0.058505546491203847 0 -0.32228855523183442 -0.067412463942328485 0 -0.33266609991267537 -0.071141957851293819 0 -0.32670947635562941 -0.057942322018680041 0 -0.32228855523183442 -0.067412463942328485 0 -0.3218333263965279 -0.079623158421406895 0 -0.33266609991267537 -0.071141957851293819 0 -0.31120497227667171 -0.082008408674462449 0 -0.31237785291584602 -0.069779599229170111 0 -0.3218333263965279 -0.079623158421406895 0 -0.31237785291584602 -0.069779599229170111 0 -0.32228855523183442 -0.067412463942328485 0 -0.3218333263965279 -0.079623158421406895 0 -0.31120497227667171 -0.082008408674462449 0 -0.3218333263965279 -0.079623158421406895 0 -0.31413057107246251 -0.094025728982225887 0 -0.32782594411528981 -0.091457685180327097 0 -0.3218333263965279 -0.079623158421406895 0 -0.31413057107246251 -0.094025728982225887 0 -0.32782594411528981 -0.091457685180327097 0 -0.3218333263965279 -0.079623158421406895 0 -0.3335778889340259 -0.082451580408153091 0 -0.32782594411528981 -0.091457685180327097 0 -0.3335778889340259 -0.082451580408153091 0 -0.34165770705380771 -0.090731403761530646 0 -0.3335778889340259 -0.082451580408153091 0 -0.34165770705380771 -0.090731403761530646 0 -0.34390636719182882 -0.079303696826206985 0 -0.33266609991267537 -0.071141957851293819 0 -0.34690015559293019 -0.0687441474097783 0 -0.34390636719182882 -0.079303696826206985 0 -0.3335778889340259 -0.082451580408153091 0 -0.33266609991267537 -0.071141957851293819 0 -0.34390636719182882 -0.079303696826206985 0 -0.33266609991267537 -0.071141957851293819 0 -0.34690015559293019 -0.0687441474097783 0 -0.33838793771633557 -0.061087895524668263 0 -0.33266609991267537 -0.071141957851293819 0 -0.32670947635562941 -0.057942322018680041 0 -0.33838793771633557 -0.061087895524668263 0 -0.3218333263965279 -0.079623158421406895 0 -0.3335778889340259 -0.082451580408153091 0 -0.33266609991267537 -0.071141957851293819 0 -0.3220225050481379 -0.1208358837763179 0 -0.33281902370276312 -0.121937847958709 0 -0.32692124900018849 -0.1316055839017648 0 -0.3220225050481379 -0.1208358837763179 0 -0.32894372753917689 -0.11141289544397209 0 -0.33281902370276312 -0.121937847958709 0 -0.3220225050481379 -0.1208358837763179 0 -0.3127070392079988 -0.11983974052116721 0 -0.31541267212910112 -0.1304006727294251 0 -0.3220225050481379 -0.1208358837763179 0 -0.3127070392079988 -0.11983974052116721 0 -0.31685941794142058 -0.10914206090647539 0 -0.30978202788364972 -0.1119727599886042 0 -0.3127070392079988 -0.11983974052116721 0 -0.31685941794142058 -0.10914206090647539 0 -0.3220225050481379 -0.1208358837763179 0 -0.31685941794142058 -0.10914206090647539 0 -0.32894372753917689 -0.11141289544397209 0 -0.32490098380414972 -0.1015801428795698 0 -0.31685941794142058 -0.10914206090647539 0 -0.32894372753917689 -0.11141289544397209 0 -0.30718228699576511 -0.10475614014504959 0 -0.31685941794142058 -0.10914206090647539 0 -0.31413057107246251 -0.094025728982225887 0 -0.32490098380414972 -0.1015801428795698 0 -0.31685941794142058 -0.10914206090647539 0 -0.31413057107246251 -0.094025728982225887 0 -0.32782594411528981 -0.091457685180327097 0 -0.32490098380414972 -0.1015801428795698 0 -0.31413057107246251 -0.094025728982225887 0 -0.32782594411528981 -0.091457685180327097 0 -0.34165770705380771 -0.090731403761530646 0 -0.33674525835239871 -0.1018623438848483 0 -0.32782594411528981 -0.091457685180327097 0 -0.32490098380414972 -0.1015801428795698 0 -0.33674525835239871 -0.1018623438848483 0 -0.34165770705380771 -0.090731403761530646 0 -0.33674525835239871 -0.1018623438848483 0 -0.34719506697004598 -0.10357586404307501 0 -0.33674525835239871 -0.1018623438848483 0 -0.3433383610898571 -0.1158082150106745 0 -0.34719506697004598 -0.10357586404307501 0 -0.32490098380414972 -0.1015801428795698 0 -0.33674525835239871 -0.1018623438848483 0 -0.32894372753917689 -0.11141289544397209 0 -0.3433383610898571 -0.1158082150106745 0 -0.33281902370276312 -0.121937847958709 0 -0.34084471854603932 -0.13214134829864821 0 -0.32894372753917689 -0.11141289544397209 0 -0.3433383610898571 -0.1158082150106745 0 -0.33281902370276312 -0.121937847958709 0 -0.33674525835239871 -0.1018623438848483 0 -0.32894372753917689 -0.11141289544397209 0 -0.3433383610898571 -0.1158082150106745 0 -0.3433383610898571 -0.1158082150106745 0 -0.34719506697004598 -0.10357586404307501 0 -0.36232758239183582 -0.1135653549006088 0 -0.3433383610898571 -0.1158082150106745 0 -0.34084471854603932 -0.13214134829864821 0 -0.35366831172704771 -0.12576671887634161 0 -0.3433383610898571 -0.1158082150106745 0 -0.36232758239183582 -0.1135653549006088 0 -0.35366831172704771 -0.12576671887634161 0 -0.34719506697004598 -0.10357586404307501 0 -0.35467540402294728 -0.094150828641927753 0 -0.36598978952768702 -0.10049230602183511 0 -0.34719506697004598 -0.10357586404307501 0 -0.36598978952768702 -0.10049230602183511 0 -0.36232758239183582 -0.1135653549006088 0 -0.34165770705380771 -0.090731403761530646 0 -0.34719506697004598 -0.10357586404307501 0 -0.35467540402294728 -0.094150828641927753 0 -0.35467540402294728 -0.094150828641927753 0 -0.36598978952768702 -0.10049230602183511 0 -0.3710615428907762 -0.088432852022637343 0 -0.36598978952768702 -0.10049230602183511 0 -0.3710615428907762 -0.088432852022637343 0 -0.38243094650880338 -0.1059575807915757 0 -0.36598978952768702 -0.10049230602183511 0 -0.36232758239183582 -0.1135653549006088 0 -0.38243094650880338 -0.1059575807915757 0 -0.36232758239183582 -0.1135653549006088 0 -0.35366831172704771 -0.12576671887634161 0 -0.3762508269806728 -0.12969304455337599 0 -0.36232758239183582 -0.1135653549006088 0 -0.3762508269806728 -0.12969304455337599 0 -0.38243094650880338 -0.1059575807915757 0 -0.35799323547629769 -0.071576041618272718 0 -0.34390636719182882 -0.079303696826206985 0 -0.3564251842098316 -0.083294263079383327 0 -0.35799323547629769 -0.071576041618272718 0 -0.36113304727332102 -0.058961249708899349 0 -0.3496038367749924 -0.05767961254428787 0 -0.35799323547629769 -0.071576041618272718 0 -0.34690015559293019 -0.0687441474097783 0 -0.3496038367749924 -0.05767961254428787 0 -0.34690015559293019 -0.0687441474097783 0 -0.3496038367749924 -0.05767961254428787 0 -0.33838793771633557 -0.061087895524668263 0 -0.35799323547629769 -0.071576041618272718 0 -0.34690015559293019 -0.0687441474097783 0 -0.34390636719182882 -0.079303696826206985 0 -0.34165770705380771 -0.090731403761530646 0 -0.34390636719182882 -0.079303696826206985 0 -0.3564251842098316 -0.083294263079383327 0 -0.34165770705380771 -0.090731403761530646 0 -0.35467540402294728 -0.094150828641927753 0 -0.3564251842098316 -0.083294263079383327 0 -0.3564251842098316 -0.083294263079383327 0 -0.3710615428907762 -0.088432852022637343 0 -0.36925684862333191 -0.075570755605724571 0 -0.35467540402294728 -0.094150828641927753 0 -0.3564251842098316 -0.083294263079383327 0 -0.3710615428907762 -0.088432852022637343 0 -0.3710615428907762 -0.088432852022637343 0 -0.36925684862333191 -0.075570755605724571 0 -0.38397168268224552 -0.076429317657624118 0 -0.35799323547629769 -0.071576041618272718 0 -0.3737851180713696 -0.063118395580058217 0 -0.36113304727332102 -0.058961249708899349 0 -0.35799323547629769 -0.071576041618272718 0 -0.36925684862333191 -0.075570755605724571 0 -0.3737851180713696 -0.063118395580058217 0 -0.35799323547629769 -0.071576041618272718 0 -0.3564251842098316 -0.083294263079383327 0 -0.36925684862333191 -0.075570755605724571 0 -0.3737851180713696 -0.063118395580058217 0 -0.36113304727332102 -0.058961249708899349 0 -0.36811241657795418 -0.046063652852842647 0 -0.36113304727332102 -0.058961249708899349 0 -0.35437741888053831 -0.044993794830128081 0 -0.36811241657795418 -0.046063652852842647 0 -0.3496038367749924 -0.05767961254428787 0 -0.35437741888053831 -0.044993794830128081 0 -0.33867070448803321 -0.045764496708811518 0 -0.36113304727332102 -0.058961249708899349 0 -0.3496038367749924 -0.05767961254428787 0 -0.35437741888053831 -0.044993794830128081 0 -0.35437741888053831 -0.044993794830128081 0 -0.36107933840778389 -0.032195246697208482 0 -0.34654977572243589 -0.028943878132961769 0 -0.35437741888053831 -0.044993794830128081 0 -0.34654977572243589 -0.028943878132961769 0 -0.33867070448803321 -0.045764496708811518 0 -0.36107933840778389 -0.032195246697208482 0 -0.36811241657795418 -0.046063652852842647 0 -0.37636024238127208 -0.02856628230930431 0 -0.35437741888053831 -0.044993794830128081 0 -0.36107933840778389 -0.032195246697208482 0 -0.36811241657795418 -0.046063652852842647 0 -0.35999683847671909 -0.012408625360805579 0 -0.38485887469789321 -0.006265053940782743 0 -0.37636024238127208 -0.02856628230930431 0 -0.36107933840778389 -0.032195246697208482 0 -0.35999683847671909 -0.012408625360805579 0 -0.37636024238127208 -0.02856628230930431 0 -0.35999683847671909 -0.012408625360805579 0 -0.38485887469789321 -0.006265053940782743 0 -0.37158097687395047 0.0153515424189699 0 -0.35999683847671909 -0.012408625360805579 0 -0.33225599713101878 -0.01511796039223893 0 -0.34633312326215482 0.0087061641863099039 0 -0.36107933840778389 -0.032195246697208482 0 -0.35999683847671909 -0.012408625360805579 0 -0.34654977572243589 -0.028943878132961769 0 -0.35999683847671909 -0.012408625360805579 0 -0.34654977572243589 -0.028943878132961769 0 -0.33225599713101878 -0.01511796039223893 0 -0.34654977572243589 -0.028943878132961769 0 -0.33300306675845498 -0.031037552293433999 0 -0.33225599713101878 -0.01511796039223893 0 -0.33225599713101878 -0.01511796039223893 0 -0.32108526965035911 0.002060785953649905 0 -0.34633312326215482 0.0087061641863099039 0 -0.31162403140943312 -0.0097516636075976829 0 -0.33225599713101878 -0.01511796039223893 0 -0.32108526965035911 0.002060785953649905 0 -0.33300306675845498 -0.031037552293433999 0 -0.33225599713101878 -0.01511796039223893 0 -0.31888937154162877 -0.030649470261424949 0 -0.31162403140943312 -0.0097516636075976829 0 -0.33225599713101878 -0.01511796039223893 0 -0.31888937154162877 -0.030649470261424949 0 -0.33300306675845498 -0.031037552293433999 0 -0.31888937154162877 -0.030649470261424949 0 -0.3246736101166634 -0.045168768484107072 0 -0.31171442024782681 -0.045870758467197771 0 -0.31888937154162877 -0.030649470261424949 0 -0.3246736101166634 -0.045168768484107072 0 -0.31171442024782681 -0.045870758467197771 0 -0.3246736101166634 -0.045168768484107072 0 -0.31512033311768911 -0.058505546491203847 0 -0.32228855523183442 -0.067412463942328485 0 -0.31512033311768911 -0.058505546491203847 0 -0.32670947635562941 -0.057942322018680041 0 -0.3246736101166634 -0.045168768484107072 0 -0.31512033311768911 -0.058505546491203847 0 -0.32670947635562941 -0.057942322018680041 0 -0.3246736101166634 -0.045168768484107072 0 -0.32670947635562941 -0.057942322018680041 0 -0.33867070448803321 -0.045764496708811518 0 -0.32670947635562941 -0.057942322018680041 0 -0.33838793771633557 -0.061087895524668263 0 -0.33867070448803321 -0.045764496708811518 0 -0.3496038367749924 -0.05767961254428787 0 -0.33838793771633557 -0.061087895524668263 0 -0.33867070448803321 -0.045764496708811518 0 -0.34654977572243589 -0.028943878132961769 0 -0.33300306675845498 -0.031037552293433999 0 -0.33867070448803321 -0.045764496708811518 0 -0.33300306675845498 -0.031037552293433999 0 -0.3246736101166634 -0.045168768484107072 0 -0.33867070448803321 -0.045764496708811518 0 -0.2989969812672415 -0.25685767029938761 0 -0.30688642208107159 -0.2408772910233668 0 -0.29199662451381508 -0.24395190857152521 0 -0.30688642208107159 -0.2408772910233668 0 -0.2974177280728405 -0.2262829239669214 0 -0.29199662451381508 -0.24395190857152521 0 -0.30688642208107159 -0.2408772910233668 0 -0.31003689493595771 -0.22519251148771979 0 -0.31871320956963478 -0.23348994629003031 0 -0.30688642208107159 -0.2408772910233668 0 -0.31003689493595771 -0.22519251148771979 0 -0.2974177280728405 -0.2262829239669214 0 -0.31003689493595771 -0.22519251148771979 0 -0.2974177280728405 -0.2262829239669214 0 -0.30856574268658199 -0.2125374837929937 0 -0.2974177280728405 -0.2262829239669214 0 -0.2822119211907379 -0.23357204555037309 0 -0.28552392511025732 -0.2151217184963127 0 -0.2974177280728405 -0.2262829239669214 0 -0.2822119211907379 -0.23357204555037309 0 -0.29199662451381508 -0.24395190857152521 0 -0.2822119211907379 -0.23357204555037309 0 -0.29199662451381508 -0.24395190857152521 0 -0.27989972723655071 -0.24951081827475999 0 -0.2822119211907379 -0.23357204555037309 0 -0.27989972723655071 -0.24951081827475999 0 -0.26800758892227822 -0.2459884927220134 0 -0.25723245459539951 -0.25549634606515792 0 -0.26800758892227822 -0.2459884927220134 0 -0.25561367355809922 -0.2342256554916041 0 -0.25723245459539951 -0.25549634606515792 0 -0.24420758384304819 -0.24842821958125019 0 -0.25561367355809922 -0.2342256554916041 0 -0.23941670749013111 -0.22374371908234611 0 -0.25561367355809922 -0.2342256554916041 0 -0.25497145227442608 -0.2101784452455481 0 -0.26800758892227822 -0.2459884927220134 0 -0.25561367355809922 -0.2342256554916041 0 -0.27037907639407682 -0.22206723941748441 0 -0.25561367355809922 -0.2342256554916041 0 -0.27037907639407682 -0.22206723941748441 0 -0.25497145227442608 -0.2101784452455481 0 -0.2822119211907379 -0.23357204555037309 0 -0.26800758892227822 -0.2459884927220134 0 -0.27037907639407682 -0.22206723941748441 0 -0.2822119211907379 -0.23357204555037309 0 -0.27037907639407682 -0.22206723941748441 0 -0.28552392511025732 -0.2151217184963127 0 -0.27037907639407682 -0.22206723941748441 0 -0.27394377996781022 -0.20364230612437659 0 -0.28552392511025732 -0.2151217184963127 0 -0.27037907639407682 -0.22206723941748441 0 -0.27394377996781022 -0.20364230612437659 0 -0.25497145227442608 -0.2101784452455481 0 -0.27394377996781022 -0.20364230612437659 0 -0.25497145227442608 -0.2101784452455481 0 -0.25794011146818069 -0.1874131536250189 0 -0.27394377996781022 -0.20364230612437659 0 -0.27959887450268511 -0.19005226436608971 0 -0.25794011146818069 -0.1874131536250189 0 -0.27394377996781022 -0.20364230612437659 0 -0.27959887450268511 -0.19005226436608971 0 -0.29607461344245428 -0.202604816435493 0 -0.29607461344245428 -0.202604816435493 0 -0.28878147583583119 -0.18083395697896409 0 -0.27959887450268511 -0.19005226436608971 0 -0.29607461344245428 -0.202604816435493 0 -0.28878147583583119 -0.18083395697896409 0 -0.29607461344245428 -0.202604816435493 0 -0.30566538195503168 -0.19219938461169711 0 -0.28878147583583119 -0.18083395697896409 0 -0.27394377996781022 -0.20364230612437659 0 -0.29607461344245428 -0.202604816435493 0 -0.28552392511025732 -0.2151217184963127 0 -0.2974177280728405 -0.2262829239669214 0 -0.28552392511025732 -0.2151217184963127 0 -0.29663231290606268 -0.2139386661620801 0 -0.29607461344245428 -0.202604816435493 0 -0.28552392511025732 -0.2151217184963127 0 -0.29663231290606268 -0.2139386661620801 0 -0.29607461344245428 -0.202604816435493 0 -0.29663231290606268 -0.2139386661620801 0 -0.30856574268658199 -0.2125374837929937 0 -0.2974177280728405 -0.2262829239669214 0 -0.29663231290606268 -0.2139386661620801 0 -0.30856574268658199 -0.2125374837929937 0 -0.30856574268658199 -0.2125374837929937 0 -0.30566538195503168 -0.19219938461169711 0 -0.32254928807423239 -0.20356481224442949 0 -0.29607461344245428 -0.202604816435493 0 -0.30856574268658199 -0.2125374837929937 0 -0.30566538195503168 -0.19219938461169711 0 -0.30566538195503168 -0.19219938461169711 0 -0.29979611935978112 -0.17973742679260191 0 -0.28878147583583119 -0.18083395697896409 0 -0.30566538195503168 -0.19219938461169711 0 -0.28878147583583119 -0.18083395697896409 0 -0.29979611935978112 -0.17973742679260191 0 -0.29677492077878792 -0.16801419704310069 0 -0.31392491427256253 -0.18316879865766789 0 -0.29677492077878792 -0.16801419704310069 0 -0.32402122023455981 -0.17471348528253791 0 -0.31392491427256253 -0.18316879865766789 0 -0.30566538195503168 -0.19219938461169711 0 -0.29979611935978112 -0.17973742679260191 0 -0.31392491427256253 -0.18316879865766789 0 -0.30332693385598508 -0.16474130297035791 0 -0.29677492077878792 -0.16801419704310069 0 -0.32402122023455981 -0.17471348528253791 0 -0.29677492077878792 -0.16801419704310069 0 -0.32402122023455981 -0.17471348528253791 0 -0.30897405095764752 -0.15770376687721549 0 -0.30332693385598508 -0.16474130297035791 0 -0.31772375842085981 -0.16132348979489289 0 -0.30897405095764752 -0.15770376687721549 0 -0.30332693385598508 -0.16474130297035791 0 -0.30330385792881731 -0.15466541210308751 0 -0.29825779308574207 -0.1597149405198606 0 -0.30332693385598508 -0.16474130297035791 0 -0.30330385792881731 -0.15466541210308751 0 -0.29825779308574207 -0.1597149405198606 0 -0.30332693385598508 -0.16474130297035791 0 -0.29677492077878792 -0.16801419704310069 0 -0.30332693385598508 -0.16474130297035791 0 -0.29677492077878792 -0.16801419704310069 0 -0.29677492077878792 -0.16801419704310069 0 -0.28338392183931987 -0.16472163388768599 0 -0.29677492077878792 -0.16801419704310069 0 -0.29294590916443908 -0.16136198903321769 0 -0.28338392183931987 -0.16472163388768599 0 -0.29677492077878792 -0.16801419704310069 0 -0.28624840698660642 -0.1732724534279895 0 -0.29825779308574207 -0.1597149405198606 0 -0.29294590916443908 -0.16136198903321769 0 -0.29336700095390678 -0.1529971846822219 0 -0.29294590916443908 -0.16136198903321769 0 -0.28338392183931987 -0.16472163388768599 0 -0.29336700095390678 -0.1529971846822219 0 -0.29825779308574207 -0.1597149405198606 0 -0.29677492077878792 -0.16801419704310069 0 -0.29294590916443908 -0.16136198903321769 0 -0.29677492077878792 -0.16801419704310069 0 -0.28338392183931987 -0.16472163388768599 0 -0.28624840698660642 -0.1732724534279895 0 -0.28338392183931987 -0.16472163388768599 0 -0.28125439179914852 -0.17576708866659629 0 -0.28624840698660642 -0.1732724534279895 0 -0.28338392183931987 -0.16472163388768599 0 -0.28624840698660642 -0.1732724534279895 0 -0.28125439179914852 -0.17576708866659629 0 -0.28624840698660642 -0.1732724534279895 0 -0.28125439179914852 -0.17576708866659629 0 -0.28878147583583119 -0.18083395697896409 0 -0.28624840698660642 -0.1732724534279895 0 -0.28878147583583119 -0.18083395697896409 0 -0.28125439179914852 -0.17576708866659629 0 -0.28624840698660642 -0.1732724534279895 0 -0.28878147583583119 -0.18083395697896409 0 -0.29979611935978112 -0.17973742679260191 0 -0.29677492077878792 -0.16801419704310069 0 -0.29347822797871559 -0.1751115891738392 0 -0.29677492077878792 -0.16801419704310069 0 -0.28624840698660642 -0.1732724534279895 0 -0.29347822797871559 -0.1751115891738392 0 -0.29979611935978112 -0.17973742679260191 0 -0.29347822797871559 -0.1751115891738392 0 -0.28878147583583119 -0.18083395697896409 0 -0.28624840698660642 -0.1732724534279895 0 -0.29347822797871559 -0.1751115891738392 0 -0.28878147583583119 -0.18083395697896409 0 -0.27959887450268511 -0.19005226436608971 0 -0.28125439179914852 -0.17576708866659629 0 -0.28878147583583119 -0.18083395697896409 0 -0.27959887450268511 -0.19005226436608971 0 -0.28125439179914852 -0.17576708866659629 0 -0.25794011146818069 -0.1874131536250189 0 -0.28125439179914852 -0.17576708866659629 0 -0.25794011146818069 -0.1874131536250189 0 -0.28125439179914852 -0.17576708866659629 0 -0.25794011146818069 -0.1874131536250189 0 -0.2622325445357826 -0.16296250263144599 0 -0.24697969284727 -0.17288689331231 0 -0.25794011146818069 -0.1874131536250189 0 -0.2622325445357826 -0.16296250263144599 0 -0.2432106972724157 -0.1501579165962969 0 -0.2622325445357826 -0.16296250263144599 0 -0.24697969284727 -0.17288689331231 0 -0.2432106972724157 -0.1501579165962969 0 -0.2622325445357826 -0.16296250263144599 0 -0.2622325445357826 -0.16296250263144599 0 -0.27774702748207991 -0.16333564089675981 0 -0.270249394152417 -0.15235498686519769 0 -0.28125439179914852 -0.17576708866659629 0 -0.2622325445357826 -0.16296250263144599 0 -0.28125439179914852 -0.17576708866659629 0 -0.2622325445357826 -0.16296250263144599 0 -0.27774702748207991 -0.16333564089675981 0 -0.28338392183931987 -0.16472163388768599 0 -0.28125439179914852 -0.17576708866659629 0 -0.27774702748207991 -0.16333564089675981 0 -0.28338392183931987 -0.16472163388768599 0 -0.27774702748207991 -0.16333564089675981 0 -0.270249394152417 -0.15235498686519769 0 -0.28338392183931987 -0.16472163388768599 0 -0.27774702748207991 -0.16333564089675981 0 -0.28338392183931987 -0.16472163388768599 0 -0.270249394152417 -0.15235498686519769 0 -0.27509304436590182 -0.1399724055060321 0 -0.28338392183931987 -0.16472163388768599 0 -0.27509304436590182 -0.1399724055060321 0 -0.270249394152417 -0.15235498686519769 0 -0.25831117895737959 -0.13960737339820159 0 -0.27509304436590182 -0.1399724055060321 0 -0.2622325445357826 -0.16296250263144599 0 -0.270249394152417 -0.15235498686519769 0 -0.25850095372949872 -0.15127069487278549 0 -0.2432106972724157 -0.1501579165962969 0 -0.2622325445357826 -0.16296250263144599 0 -0.25850095372949872 -0.15127069487278549 0 -0.270249394152417 -0.15235498686519769 0 -0.25850095372949872 -0.15127069487278549 0 -0.25831117895737959 -0.13960737339820159 0 -0.2432106972724157 -0.1501579165962969 0 -0.25850095372949872 -0.15127069487278549 0 -0.25831117895737959 -0.13960737339820159 0 -0.24414510373304521 -0.13060256536204701 0 -0.26410135745704177 -0.12385180016294441 0 -0.25831117895737959 -0.13960737339820159 0 -0.24414510373304521 -0.13060256536204701 0 -0.26410135745704177 -0.12385180016294441 0 -0.2668021668924821 -0.1152231771243787 0 -0.27509304436590182 -0.1399724055060321 0 -0.2668021668924821 -0.1152231771243787 0 -0.27509304436590182 -0.1399724055060321 0 -0.28165613224495512 -0.1272121628220059 0 -0.26410135745704177 -0.12385180016294441 0 -0.2668021668924821 -0.1152231771243787 0 -0.27509304436590182 -0.1399724055060321 0 -0.26410135745704177 -0.12385180016294441 0 -0.25831117895737959 -0.13960737339820159 0 -0.27509304436590182 -0.1399724055060321 0 -0.28992218621857441 -0.12121090261211249 0 -0.28165613224495512 -0.1272121628220059 0 -0.29124008899697368 -0.1302994722889608 0 -0.28992218621857441 -0.12121090261211249 0 -0.29124008899697368 -0.1302994722889608 0 -0.29818071929502649 -0.12533829272112651 0 -0.29124008899697368 -0.1302994722889608 0 -0.29818071929502649 -0.12533829272112651 0 -0.2987703797059359 -0.13541869813432031 0 -0.29124008899697368 -0.1302994722889608 0 -0.28767102752037621 -0.1423173051552388 0 -0.2987703797059359 -0.13541869813432031 0 -0.28165613224495512 -0.1272121628220059 0 -0.29124008899697368 -0.1302994722889608 0 -0.28767102752037621 -0.1423173051552388 0 -0.27509304436590182 -0.1399724055060321 0 -0.28165613224495512 -0.1272121628220059 0 -0.28767102752037621 -0.1423173051552388 0 -0.28338392183931987 -0.16472163388768599 0 -0.28767102752037621 -0.1423173051552388 0 -0.29336700095390678 -0.1529971846822219 0 -0.28338392183931987 -0.16472163388768599 0 -0.27509304436590182 -0.1399724055060321 0 -0.28767102752037621 -0.1423173051552388 0 -0.28767102752037621 -0.1423173051552388 0 -0.3004787159394382 -0.14569751117936811 0 -0.2987703797059359 -0.13541869813432031 0 -0.28767102752037621 -0.1423173051552388 0 -0.29336700095390678 -0.1529971846822219 0 -0.3004787159394382 -0.14569751117936811 0 -0.29825779308574207 -0.1597149405198606 0 -0.29336700095390678 -0.1529971846822219 0 -0.30330385792881731 -0.15466541210308751 0 -0.29336700095390678 -0.1529971846822219 0 -0.3004787159394382 -0.14569751117936811 0 -0.30330385792881731 -0.15466541210308751 0 -0.30897405095764752 -0.15770376687721549 0 -0.30330385792881731 -0.15466541210308751 0 -0.31154165362492808 -0.1500848626405237 0 -0.3004787159394382 -0.14569751117936811 0 -0.30330385792881731 -0.15466541210308751 0 -0.31154165362492808 -0.1500848626405237 0 -0.3004787159394382 -0.14569751117936811 0 -0.31154165362492808 -0.1500848626405237 0 -0.30870905866223952 -0.13867345968553069 0 -0.30870905866223952 -0.13867345968553069 0 -0.30659383293176717 -0.12836008554116621 0 -0.2987703797059359 -0.13541869813432031 0 -0.30870905866223952 -0.13867345968553069 0 -0.30659383293176717 -0.12836008554116621 0 -0.31541267212910112 -0.1304006727294251 0 -0.3127070392079988 -0.11983974052116721 0 -0.30659383293176717 -0.12836008554116621 0 -0.31541267212910112 -0.1304006727294251 0 -0.30659383293176717 -0.12836008554116621 0 -0.29818071929502649 -0.12533829272112651 0 -0.2987703797059359 -0.13541869813432031 0 -0.3004787159394382 -0.14569751117936811 0 -0.30870905866223952 -0.13867345968553069 0 -0.2987703797059359 -0.13541869813432031 0 -0.32692124900018849 -0.1316055839017648 0 -0.31887054610959997 -0.14060153674419121 0 -0.33049915771306693 -0.14262067381460841 0 -0.32692124900018849 -0.1316055839017648 0 -0.31541267212910112 -0.1304006727294251 0 -0.31887054610959997 -0.14060153674419121 0 -0.3220225050481379 -0.1208358837763179 0 -0.32692124900018849 -0.1316055839017648 0 -0.31541267212910112 -0.1304006727294251 0 -0.30870905866223952 -0.13867345968553069 0 -0.31541267212910112 -0.1304006727294251 0 -0.31887054610959997 -0.14060153674419121 0 -0.31154165362492808 -0.1500848626405237 0 -0.30870905866223952 -0.13867345968553069 0 -0.31887054610959997 -0.14060153674419121 0 -0.31154165362492808 -0.1500848626405237 0 -0.31887054610959997 -0.14060153674419121 0 -0.32164490168355142 -0.15100972734714349 0 -0.31154165362492808 -0.1500848626405237 0 -0.32164490168355142 -0.15100972734714349 0 -0.31772375842085981 -0.16132348979489289 0 -0.32164490168355142 -0.15100972734714349 0 -0.33049915771306693 -0.14262067381460841 0 -0.3306939182402337 -0.15597576926640239 0 -0.32164490168355142 -0.15100972734714349 0 -0.3306939182402337 -0.15597576926640239 0 -0.31772375842085981 -0.16132348979489289 0 -0.31887054610959997 -0.14060153674419121 0 -0.32164490168355142 -0.15100972734714349 0 -0.33049915771306693 -0.14262067381460841 0 -0.33049915771306693 -0.14262067381460841 0 -0.3306939182402337 -0.15597576926640239 0 -0.34092633487009583 -0.14622186648894989 0 -0.3306939182402337 -0.15597576926640239 0 -0.34092633487009583 -0.14622186648894989 0 -0.3471007123255756 -0.15965419094794159 0 -0.33049915771306693 -0.14262067381460841 0 -0.34092633487009583 -0.14622186648894989 0 -0.34084471854603932 -0.13214134829864821 0 -0.32692124900018849 -0.1316055839017648 0 -0.33049915771306693 -0.14262067381460841 0 -0.34084471854603932 -0.13214134829864821 0 -0.33281902370276312 -0.121937847958709 0 -0.32692124900018849 -0.1316055839017648 0 -0.34084471854603932 -0.13214134829864821 0 -0.34092633487009583 -0.14622186648894989 0 -0.34084471854603932 -0.13214134829864821 0 -0.35549316752556342 -0.14071735011714889 0 -0.34084471854603932 -0.13214134829864821 0 -0.35366831172704771 -0.12576671887634161 0 -0.35549316752556342 -0.14071735011714889 0 -0.35366831172704771 -0.12576671887634161 0 -0.35549316752556342 -0.14071735011714889 0 -0.3762508269806728 -0.12969304455337599 0 -0.37085910199024757 -0.14746961565196939 0 -0.35549316752556342 -0.14071735011714889 0 -0.3762508269806728 -0.12969304455337599 0 -0.37085910199024757 -0.14746961565196939 0 -0.35549316752556342 -0.14071735011714889 0 -0.3471007123255756 -0.15965419094794159 0 -0.34092633487009583 -0.14622186648894989 0 -0.35549316752556342 -0.14071735011714889 0 -0.3471007123255756 -0.15965419094794159 0 -0.3471007123255756 -0.15965419094794159 0 -0.36970112771986602 -0.16519807248713231 0 -0.35126751969033182 -0.18141277352197391 0 -0.37085910199024757 -0.14746961565196939 0 -0.3471007123255756 -0.15965419094794159 0 -0.36970112771986602 -0.16519807248713231 0 -0.35126751969033182 -0.18141277352197391 0 -0.37851381914610388 -0.1881120617614099 0 -0.36970112771986602 -0.16519807248713231 0 -0.35126751969033182 -0.18141277352197391 0 -0.37851381914610388 -0.1881120617614099 0 -0.35126751969033182 -0.18141277352197391 0 -0.32402122023455981 -0.17471348528253791 0 -0.35126751969033182 -0.18141277352197391 0 -0.32402122023455981 -0.17471348528253791 0 -0.33214640550964653 -0.18959122549723501 0 -0.3471007123255756 -0.15965419094794159 0 -0.35126751969033182 -0.18141277352197391 0 -0.32402122023455981 -0.17471348528253791 0 -0.3306939182402337 -0.15597576926640239 0 -0.3471007123255756 -0.15965419094794159 0 -0.32402122023455981 -0.17471348528253791 0 -0.30332693385598508 -0.16474130297035791 0 -0.31772375842085981 -0.16132348979489289 0 -0.32402122023455981 -0.17471348528253791 0 -0.3306939182402337 -0.15597576926640239 0 -0.31772375842085981 -0.16132348979489289 0 -0.32402122023455981 -0.17471348528253791 0 -0.30897405095764752 -0.15770376687721549 0 -0.31154165362492808 -0.1500848626405237 0 -0.31772375842085981 -0.16132348979489289 0 -0.32402122023455981 -0.17471348528253791 0 -0.31392491427256253 -0.18316879865766789 0 -0.33214640550964653 -0.18959122549723501 0 -0.31392491427256253 -0.18316879865766789 0 -0.32254928807423239 -0.20356481224442949 0 -0.33214640550964653 -0.18959122549723501 0 -0.30566538195503168 -0.19219938461169711 0 -0.32254928807423239 -0.20356481224442949 0 -0.30566538195503168 -0.19219938461169711 0 -0.31392491427256253 -0.18316879865766789 0 -0.32254928807423239 -0.20356481224442949 0 -0.30856574268658199 -0.2125374837929937 0 -0.32254928807423239 -0.20356481224442949 0 -0.32459514743456952 -0.21887612083854049 0 -0.32254928807423239 -0.20356481224442949 0 -0.34129944794769929 -0.20411452274494171 0 -0.32459514743456952 -0.21887612083854049 0 -0.34129944794769929 -0.20411452274494171 0 -0.3406279613925669 -0.22155840011260949 0 -0.32459514743456952 -0.21887612083854049 0 -0.35126751969033182 -0.18141277352197391 0 -0.34129944794769929 -0.20411452274494171 0 -0.33214640550964653 -0.18959122549723501 0 -0.32254928807423239 -0.20356481224442949 0 -0.34129944794769929 -0.20411452274494171 0 -0.33214640550964653 -0.18959122549723501 0 -0.35126751969033182 -0.18141277352197391 0 -0.34129944794769929 -0.20411452274494171 0 -0.36059450865931453 -0.2002623644615579 0 -0.35126751969033182 -0.18141277352197391 0 -0.36059450865931453 -0.2002623644615579 0 -0.37851381914610388 -0.1881120617614099 0 -0.36059450865931453 -0.2002623644615579 0 -0.37618669488559953 -0.21240098463229071 0 -0.37851381914610388 -0.1881120617614099 0 -0.35473859147532832 -0.21619473076995091 0 -0.3606529002083767 -0.22698200399158591 0 -0.37618669488559953 -0.21240098463229071 0 -0.36059450865931453 -0.2002623644615579 0 -0.35473859147532832 -0.21619473076995091 0 -0.37618669488559953 -0.21240098463229071 0 -0.34129944794769929 -0.20411452274494171 0 -0.36059450865931453 -0.2002623644615579 0 -0.35473859147532832 -0.21619473076995091 0 -0.34129944794769929 -0.20411452274494171 0 -0.35473859147532832 -0.21619473076995091 0 -0.3406279613925669 -0.22155840011260949 0 -0.35473859147532832 -0.21619473076995091 0 -0.34791503009455382 -0.23123720406468759 0 -0.3406279613925669 -0.22155840011260949 0 -0.34791503009455382 -0.23123720406468759 0 -0.3606529002083767 -0.22698200399158591 0 -0.35718801745933282 -0.23765982156544871 0 -0.35473859147532832 -0.21619473076995091 0 -0.34791503009455382 -0.23123720406468759 0 -0.3606529002083767 -0.22698200399158591 0 -0.3606529002083767 -0.22698200399158591 0 -0.36723616712707691 -0.23741727892555431 0 -0.37618669488559953 -0.21240098463229071 0 -0.36723616712707691 -0.23741727892555431 0 -0.37618669488559953 -0.21240098463229071 0 -0.3606529002083767 -0.22698200399158591 0 -0.36723616712707691 -0.23741727892555431 0 -0.35718801745933282 -0.23765982156544871 0 -0.36723616712707691 -0.23741727892555431 0 -0.38256295026869941 -0.2239064984687483 0 -0.37559939495059241 -0.25759382415502369 0 -0.36198061697463252 -0.25210628865026241 0 -0.36723616712707691 -0.23741727892555431 0 -0.37559939495059241 -0.25759382415502369 0 -0.36723616712707691 -0.23741727892555431 0 -0.38160478445204399 -0.2381723507000279 0 -0.36723616712707691 -0.23741727892555431 0 -0.35704918331323882 -0.2463972521237382 0 -0.36723616712707691 -0.23741727892555431 0 -0.35704918331323882 -0.2463972521237382 0 -0.35718801745933282 -0.23765982156544871 0 -0.36198061697463252 -0.25210628865026241 0 -0.36723616712707691 -0.23741727892555431 0 -0.35704918331323882 -0.2463972521237382 0 -0.36198061697463252 -0.25210628865026241 0 -0.36723616712707691 -0.23741727892555431 0 -0.35704918331323882 -0.2463972521237382 0 -0.35718801745933282 -0.23765982156544871 0 -0.34531969915818922 -0.24521335040884201 0 -0.35704918331323882 -0.2463972521237382 0 -0.35718801745933282 -0.23765982156544871 0 -0.34791503009455382 -0.23123720406468759 0 -0.35718801745933282 -0.23765982156544871 0 -0.34531969915818922 -0.24521335040884201 0 -0.34531969915818922 -0.24521335040884201 0 -0.328202492380054 -0.24702697275665519 0 -0.33336932808792608 -0.2335698768354495 0 -0.34791503009455382 -0.23123720406468759 0 -0.34531969915818922 -0.24521335040884201 0 -0.33336932808792608 -0.2335698768354495 0 -0.3406279613925669 -0.22155840011260949 0 -0.33336932808792608 -0.2335698768354495 0 -0.32459514743456952 -0.21887612083854049 0 -0.34791503009455382 -0.23123720406468759 0 -0.3406279613925669 -0.22155840011260949 0 -0.33336932808792608 -0.2335698768354495 0 -0.33336932808792608 -0.2335698768354495 0 -0.32459514743456952 -0.21887612083854049 0 -0.31871320956963478 -0.23348994629003031 0 -0.31003689493595771 -0.22519251148771979 0 -0.30856574268658199 -0.2125374837929937 0 -0.32459514743456952 -0.21887612083854049 0 -0.31003689493595771 -0.22519251148771979 0 -0.32459514743456952 -0.21887612083854049 0 -0.31871320956963478 -0.23348994629003031 0 -0.30688642208107159 -0.2408772910233668 0 -0.31871320956963478 -0.23348994629003031 0 -0.31715735955622371 -0.2445022096132447 0 -0.31382319645809431 -0.25537883115472171 0 -0.328202492380054 -0.24702697275665519 0 -0.31715735955622371 -0.2445022096132447 0 -0.31382319645809431 -0.25537883115472171 0 -0.30688642208107159 -0.2408772910233668 0 -0.31715735955622371 -0.2445022096132447 0 -0.328202492380054 -0.24702697275665519 0 -0.33336932808792608 -0.2335698768354495 0 -0.31871320956963478 -0.23348994629003031 0 -0.328202492380054 -0.24702697275665519 0 -0.31871320956963478 -0.23348994629003031 0 -0.31715735955622371 -0.2445022096132447 0 -0.43534344162737859 -0.24047631527095989 0 -0.41599572027092829 -0.2308763102902866 0 -0.42066567285705447 -0.24747213920793271 0 -0.43534344162737859 -0.24047631527095989 0 -0.43524987343654858 -0.2261218355439521 0 -0.41599572027092829 -0.2308763102902866 0 -0.43524987343654858 -0.2261218355439521 0 -0.42797025300646202 -0.21410326264050389 0 -0.44799952697485568 -0.2189563797826358 0 -0.43524987343654858 -0.2261218355439521 0 -0.41599572027092829 -0.2308763102902866 0 -0.42797025300646202 -0.21410326264050389 0 -0.41599572027092829 -0.2308763102902866 0 -0.39831859429118138 -0.23199988348810369 0 -0.40578108161144449 -0.22401229982098031 0 -0.41599572027092829 -0.2308763102902866 0 -0.41095125672322341 -0.21507194316695649 0 -0.42797025300646202 -0.21410326264050389 0 -0.41599572027092829 -0.2308763102902866 0 -0.40578108161144449 -0.22401229982098031 0 -0.41095125672322341 -0.21507194316695649 0 -0.41599572027092829 -0.2308763102902866 0 -0.42066567285705447 -0.24747213920793271 0 -0.4060172103153033 -0.2466409140486745 0 -0.41599572027092829 -0.2308763102902866 0 -0.4060172103153033 -0.2466409140486745 0 -0.39831859429118138 -0.23199988348810369 0 -0.4060172103153033 -0.2466409140486745 0 -0.39148266415987848 -0.24724731724582799 0 -0.39831859429118138 -0.23199988348810369 0 -0.37559939495059241 -0.25759382415502369 0 -0.39148266415987848 -0.24724731724582799 0 -0.38160478445204399 -0.2381723507000279 0 -0.39148266415987848 -0.24724731724582799 0 -0.38160478445204399 -0.2381723507000279 0 -0.39831859429118138 -0.23199988348810369 0 -0.36723616712707691 -0.23741727892555431 0 -0.38256295026869941 -0.2239064984687483 0 -0.37618669488559953 -0.21240098463229071 0 -0.38160478445204399 -0.2381723507000279 0 -0.38256295026869941 -0.2239064984687483 0 -0.39831859429118138 -0.23199988348810369 0 -0.36723616712707691 -0.23741727892555431 0 -0.38160478445204399 -0.2381723507000279 0 -0.38256295026869941 -0.2239064984687483 0 -0.38256295026869941 -0.2239064984687483 0 -0.39831859429118138 -0.23199988348810369 0 -0.39785875516044511 -0.21810106233857471 0 -0.40578108161144449 -0.22401229982098031 0 -0.39785875516044511 -0.21810106233857471 0 -0.41095125672322341 -0.21507194316695649 0 -0.39831859429118138 -0.23199988348810369 0 -0.40578108161144449 -0.22401229982098031 0 -0.39785875516044511 -0.21810106233857471 0 -0.40066355076090943 -0.20327441215359149 0 -0.39785875516044511 -0.21810106233857471 0 -0.41095125672322341 -0.21507194316695649 0 -0.40066355076090943 -0.20327441215359149 0 -0.39785875516044511 -0.21810106233857471 0 -0.3884818347439567 -0.20901352958644701 0 -0.38256295026869941 -0.2239064984687483 0 -0.39785875516044511 -0.21810106233857471 0 -0.3884818347439567 -0.20901352958644701 0 -0.38256295026869941 -0.2239064984687483 0 -0.3884818347439567 -0.20901352958644701 0 -0.37618669488559953 -0.21240098463229071 0 -0.37618669488559953 -0.21240098463229071 0 -0.37851381914610388 -0.1881120617614099 0 -0.38513722264412997 -0.18738469033902991 0 -0.3884818347439567 -0.20901352958644701 0 -0.37618669488559953 -0.21240098463229071 0 -0.38513722264412997 -0.18738469033902991 0 -0.37618669488559953 -0.21240098463229071 0 -0.38513722264412997 -0.18738469033902991 0 -0.40066355076090943 -0.20327441215359149 0 -0.3884818347439567 -0.20901352958644701 0 -0.38513722264412997 -0.18738469033902991 0 -0.40066355076090943 -0.20327441215359149 0 -0.40337511607238907 -0.18642342028559331 0 -0.38513722264412997 -0.18738469033902991 0 -0.40066355076090943 -0.20327441215359149 0 -0.41938580303462092 -0.19795961846702431 0 -0.40337511607238907 -0.18642342028559331 0 -0.41938580303462092 -0.19795961846702431 0 -0.41095125672322341 -0.21507194316695649 0 -0.42797025300646202 -0.21410326264050389 0 -0.40066355076090943 -0.20327441215359149 0 -0.41938580303462092 -0.19795961846702431 0 -0.41095125672322341 -0.21507194316695649 0 -0.41938580303462092 -0.19795961846702431 0 -0.42797025300646202 -0.21410326264050389 0 -0.43838396388955841 -0.2027760574533056 0 -0.41938580303462092 -0.19795961846702431 0 -0.43812620105171018 -0.18179465630655431 0 -0.43838396388955841 -0.2027760574533056 0 -0.41938580303462092 -0.19795961846702431 0 -0.41616867309295968 -0.17386728874614099 0 -0.43812620105171018 -0.18179465630655431 0 -0.42974902272786758 -0.15651163862692649 0 -0.41616867309295968 -0.17386728874614099 0 -0.43812620105171018 -0.18179465630655431 0 -0.42974902272786758 -0.15651163862692649 0 -0.41616867309295968 -0.17386728874614099 0 -0.41157185505517818 -0.15451465490677299 0 -0.41616867309295968 -0.17386728874614099 0 -0.39408775040266031 -0.16236839604576911 0 -0.41157185505517818 -0.15451465490677299 0 -0.41938580303462092 -0.19795961846702431 0 -0.41616867309295968 -0.17386728874614099 0 -0.40337511607238907 -0.18642342028559331 0 -0.40337511607238907 -0.18642342028559331 0 -0.38513722264412997 -0.18738469033902991 0 -0.39408775040266031 -0.16236839604576911 0 -0.41616867309295968 -0.17386728874614099 0 -0.40337511607238907 -0.18642342028559331 0 -0.39408775040266031 -0.16236839604576911 0 -0.36970112771986602 -0.16519807248713231 0 -0.37851381914610388 -0.1881120617614099 0 -0.38073852672451852 -0.1746494262426532 0 -0.38513722264412997 -0.18738469033902991 0 -0.38073852672451852 -0.1746494262426532 0 -0.39408775040266031 -0.16236839604576911 0 -0.38513722264412997 -0.18738469033902991 0 -0.39408775040266031 -0.16236839604576911 0 -0.37851381914610388 -0.1881120617614099 0 -0.38513722264412997 -0.18738469033902991 0 -0.38073852672451852 -0.1746494262426532 0 -0.36970112771986602 -0.16519807248713231 0 -0.39408775040266031 -0.16236839604576911 0 -0.38669343927280758 -0.14660748034245871 0 -0.36970112771986602 -0.16519807248713231 0 -0.38073852672451852 -0.1746494262426532 0 -0.39408775040266031 -0.16236839604576911 0 -0.39408775040266031 -0.16236839604576911 0 -0.38669343927280758 -0.14660748034245871 0 -0.40303827816119059 -0.1373521017525082 0 -0.39408775040266031 -0.16236839604576911 0 -0.40303827816119059 -0.1373521017525082 0 -0.41157185505517818 -0.15451465490677299 0 -0.39408775040266031 -0.16236839604576911 0 -0.40303827816119059 -0.1373521017525082 0 -0.37085910199024757 -0.14746961565196939 0 -0.38669343927280758 -0.14660748034245871 0 -0.3762508269806728 -0.12969304455337599 0 -0.37085910199024757 -0.14746961565196939 0 -0.36970112771986602 -0.16519807248713231 0 -0.38669343927280758 -0.14660748034245871 0 -0.38669343927280758 -0.14660748034245871 0 -0.3762508269806728 -0.12969304455337599 0 -0.40303827816119059 -0.1373521017525082 0 -0.3762508269806728 -0.12969304455337599 0 -0.40303827816119059 -0.1373521017525082 0 -0.39342721439259698 -0.12133463363917681 0 -0.40303827816119059 -0.1373521017525082 0 -0.42504752033769388 -0.12845244577964721 0 -0.41198880591972109 -0.1123358074592473 0 -0.40303827816119059 -0.1373521017525082 0 -0.41157185505517818 -0.15451465490677299 0 -0.42504752033769388 -0.12845244577964721 0 -0.42974902272786758 -0.15651163862692649 0 -0.41157185505517818 -0.15451465490677299 0 -0.42504752033769388 -0.12845244577964721 0 -0.42974902272786758 -0.15651163862692649 0 -0.42504752033769388 -0.12845244577964721 0 -0.44497151870134311 -0.139897060422943 0 -0.42504752033769388 -0.12845244577964721 0 -0.44497151870134311 -0.139897060422943 0 -0.44007047451708048 -0.1141490580437016 0 -0.44497151870134311 -0.139897060422943 0 -0.46446437205799068 -0.12619982473044111 0 -0.44007047451708048 -0.1141490580437016 0 -0.44497151870134311 -0.139897060422943 0 -0.4625274526091282 -0.1512873775981764 0 -0.44797026995829747 -0.16278201775876611 0 -0.42974902272786758 -0.15651163862692649 0 -0.44497151870134311 -0.139897060422943 0 -0.44797026995829747 -0.16278201775876611 0 -0.4625274526091282 -0.1512873775981764 0 -0.46837666553851032 -0.1417835643265869 0 -0.47037249233062878 -0.15276320157061149 0 -0.44497151870134311 -0.139897060422943 0 -0.4625274526091282 -0.1512873775981764 0 -0.46446437205799068 -0.12619982473044111 0 -0.4625274526091282 -0.1512873775981764 0 -0.46837666553851032 -0.1417835643265869 0 -0.46446437205799068 -0.12619982473044111 0 -0.4625274526091282 -0.1512873775981764 0 -0.46446437205799068 -0.12619982473044111 0 -0.46837666553851032 -0.1417835643265869 0 -0.46446437205799068 -0.12619982473044111 0 -0.47090872410275109 -0.1343940827270326 0 -0.46446437205799068 -0.12619982473044111 0 -0.47788594967197873 -0.13283018382426171 0 -0.46446437205799068 -0.12619982473044111 0 -0.47788594967197873 -0.13283018382426171 0 -0.46489433234608979 -0.12063085206865851 0 -0.46446437205799068 -0.12619982473044111 0 -0.47090872410275109 -0.1343940827270326 0 -0.47788594967197873 -0.13283018382426171 0 -0.46837666553851032 -0.1417835643265869 0 -0.47090872410275109 -0.1343940827270326 0 -0.47712341059676772 -0.13485318125778459 0 -0.47090872410275109 -0.1343940827270326 0 -0.47712341059676772 -0.13485318125778459 0 -0.47788594967197873 -0.13283018382426171 0 -0.47712341059676772 -0.13485318125778459 0 -0.47788594967197873 -0.13283018382426171 0 -0.48456908853345709 -0.1430079985343882 0 -0.47712341059676772 -0.13485318125778459 0 -0.47788594967197873 -0.13283018382426171 0 -0.47788594967197873 -0.13283018382426171 0 -0.50000000000000078 -0.1437546890434406 0 -0.47788594967197873 -0.13283018382426171 0 -0.50000000000000078 -0.1437546890434406 0 -0.48456908853345709 -0.1430079985343882 0 -0.47788594967197873 -0.13283018382426171 0 -0.50000000000000078 -0.1437546890434406 0 -0.5 -0.1205571765527803 0 -0.50000000000000078 -0.1437546890434406 0 -0.48456908853345709 -0.1430079985343882 0 -0.48326699386508071 -0.1605939400120667 0 -0.47712341059676772 -0.13485318125778459 0 -0.48456908853345709 -0.1430079985343882 0 -0.48326699386508071 -0.1605939400120667 0 -0.47712341059676772 -0.13485318125778459 0 -0.47037249233062878 -0.15276320157061149 0 -0.48326699386508071 -0.1605939400120667 0 -0.46837666553851032 -0.1417835643265869 0 -0.47712341059676772 -0.13485318125778459 0 -0.47037249233062878 -0.15276320157061149 0 -0.47712341059676772 -0.13485318125778459 0 -0.47037249233062878 -0.15276320157061149 0 -0.47712341059676772 -0.13485318125778459 0 -0.48326699386508071 -0.1605939400120667 0 -0.47037249233062878 -0.15276320157061149 0 -0.47249960992668733 -0.16379232694870879 0 -0.48326699386508071 -0.1605939400120667 0 -0.47037249233062878 -0.15276320157061149 0 -0.47249960992668733 -0.16379232694870879 0 -0.46362157406449039 -0.17067322188343859 0 -0.471570802061127 -0.17140437249734619 0 -0.48326699386508071 -0.1605939400120667 0 -0.47528549591981761 -0.18053029688042621 0 -0.47249960992668733 -0.16379232694870879 0 -0.471570802061127 -0.17140437249734619 0 -0.48326699386508071 -0.1605939400120667 0 -0.47249960992668733 -0.16379232694870879 0 -0.471570802061127 -0.17140437249734619 0 -0.46362157406449039 -0.17067322188343859 0 -0.48326699386508071 -0.1605939400120667 0 -0.5 -0.1678547070788701 0 -0.48941057713339331 -0.18633469876634909 0 -0.50000000000000078 -0.1437546890434406 0 -0.48326699386508071 -0.1605939400120667 0 -0.5 -0.1678547070788701 0 -0.5 -0.1678547070788701 0 -0.48941057713339331 -0.18633469876634909 0 -0.5 -0.19195472511429951 0 -0.48326699386508071 -0.1605939400120667 0 -0.48941057713339331 -0.18633469876634909 0 -0.48326699386508071 -0.1605939400120667 0 -0.48941057713339331 -0.18633469876634909 0 -0.47528549591981761 -0.18053029688042621 0 -0.48941057713339331 -0.18633469876634909 0 -0.47528549591981761 -0.18053029688042621 0 -0.4777532859679175 -0.1946576620847302 0 -0.471570802061127 -0.17140437249734619 0 -0.47528549591981761 -0.18053029688042621 0 -0.46059053316026821 -0.17637493046591179 0 -0.47528549591981761 -0.18053029688042621 0 -0.46059053316026821 -0.17637493046591179 0 -0.45865361371140811 -0.2014624833336473 0 -0.471570802061127 -0.17140437249734619 0 -0.46059053316026821 -0.17637493046591179 0 -0.46362157406449039 -0.17067322188343859 0 -0.4625274526091282 -0.1512873775981764 0 -0.46059053316026821 -0.17637493046591179 0 -0.44797026995829747 -0.16278201775876611 0 -0.4625274526091282 -0.1512873775981764 0 -0.46059053316026821 -0.17637493046591179 0 -0.4625274526091282 -0.1512873775981764 0 -0.47037249233062878 -0.15276320157061149 0 -0.46362157406449039 -0.17067322188343859 0 -0.4625274526091282 -0.1512873775981764 0 -0.46059053316026821 -0.17637493046591179 0 -0.46362157406449039 -0.17067322188343859 0 -0.47037249233062878 -0.15276320157061149 0 -0.46362157406449039 -0.17067322188343859 0 -0.42974902272786758 -0.15651163862692649 0 -0.44797026995829747 -0.16278201775876611 0 -0.43812620105171018 -0.18179465630655431 0 -0.46059053316026821 -0.17637493046591179 0 -0.43812620105171018 -0.18179465630655431 0 -0.45865361371140811 -0.2014624833336473 0 -0.46059053316026821 -0.17637493046591179 0 -0.44797026995829747 -0.16278201775876611 0 -0.43812620105171018 -0.18179465630655431 0 -0.43812620105171018 -0.18179465630655431 0 -0.43838396388955841 -0.2027760574533056 0 -0.45865361371140811 -0.2014624833336473 0 -0.42797025300646202 -0.21410326264050389 0 -0.43838396388955841 -0.2027760574533056 0 -0.44799952697485568 -0.2189563797826358 0 -0.43838396388955841 -0.2027760574533056 0 -0.45865361371140811 -0.2014624833336473 0 -0.44799952697485568 -0.2189563797826358 0 -0.45865361371140811 -0.2014624833336473 0 -0.45671669426254741 -0.22655003620138259 0 -0.44799952697485568 -0.2189563797826358 0 -0.46843146770864219 -0.2137068893222013 0 -0.45865361371140811 -0.2014624833336473 0 -0.45671669426254741 -0.22655003620138259 0 -0.46843146770864219 -0.2137068893222013 0 -0.45865361371140811 -0.2014624833336473 0 -0.47516265013842779 -0.2054668595552063 0 -0.45865361371140811 -0.2014624833336473 0 -0.45671669426254741 -0.22655003620138259 0 -0.46059053316026821 -0.17637493046591179 0 -0.45865361371140811 -0.2014624833336473 0 -0.45865361371140811 -0.2014624833336473 0 -0.4777532859679175 -0.1946576620847302 0 -0.47516265013842779 -0.2054668595552063 0 -0.48941057713339331 -0.18633469876634909 0 -0.48410526154370492 -0.2027496760410929 0 -0.4777532859679175 -0.1946576620847302 0 -0.47528549591981761 -0.18053029688042621 0 -0.45865361371140811 -0.2014624833336473 0 -0.4777532859679175 -0.1946576620847302 0 -0.48410526154370492 -0.2027496760410929 0 -0.4777532859679175 -0.1946576620847302 0 -0.47516265013842779 -0.2054668595552063 0 -0.48941057713339331 -0.18633469876634909 0 -0.5 -0.19195472511429951 0 -0.49555416040170569 -0.21207545752063139 0 -0.48941057713339331 -0.18633469876634909 0 -0.48410526154370492 -0.2027496760410929 0 -0.49555416040170569 -0.21207545752063139 0 -0.48941057713339331 -0.18633469876634909 0 -0.49555416040170569 -0.21207545752063139 0 -0.5 -0.19195472511429951 0 -0.5 -0.21605474314972889 0 -0.49555416040170569 -0.21207545752063139 0 -0.5 -0.21605474314972889 0 -0.49555416040170569 -0.21207545752063139 0 -0.49173507930754168 -0.22081549960986249 0 -0.48410526154370492 -0.2027496760410929 0 -0.49555416040170569 -0.21207545752063139 0 -0.48264563407708022 -0.2152137022785475 0 -0.49555416040170569 -0.21207545752063139 0 -0.48264563407708022 -0.2152137022785475 0 -0.49173507930754168 -0.22081549960986249 0 -0.48410526154370492 -0.2027496760410929 0 -0.48264563407708022 -0.2152137022785475 0 -0.47516265013842779 -0.2054668595552063 0 -0.46843146770864219 -0.2137068893222013 0 -0.48264563407708022 -0.2152137022785475 0 -0.47430965597614849 -0.2259703507902131 0 -0.46843146770864219 -0.2137068893222013 0 -0.48264563407708022 -0.2152137022785475 0 -0.47516265013842779 -0.2054668595552063 0 -0.47430965597614849 -0.2259703507902131 0 -0.47835834713127418 -0.24540240771098509 0 -0.45671669426254741 -0.22655003620138259 0 -0.47430965597614849 -0.2259703507902131 0 -0.48539613670119902 -0.22897871843794859 0 -0.47835834713127418 -0.24540240771098509 0 -0.48264563407708022 -0.2152137022785475 0 -0.47430965597614849 -0.2259703507902131 0 -0.48539613670119902 -0.22897871843794859 0 -0.5 -0.21605474314972889 0 -0.49173507930754168 -0.22081549960986249 0 -0.5 -0.24015476118515819 0 -0.48264563407708022 -0.2152137022785475 0 -0.49173507930754168 -0.22081549960986249 0 -0.48539613670119902 -0.22897871843794859 0 -0.49173507930754168 -0.22081549960986249 0 -0.48539613670119902 -0.22897871843794859 0 -0.5 -0.24015476118515819 0 -0.48539613670119902 -0.22897871843794859 0 -0.5 -0.24015476118515819 0 -0.47835834713127418 -0.24540240771098509 0 -0.50000000000000089 -0.2642547792205876 0 -0.5 -0.24015476118515819 0 -0.47835834713127418 -0.24540240771098509 0 -0.47835834713127418 -0.24540240771098509 0 -0.45671669426254741 -0.22655003620138259 0 -0.45462712384395731 -0.25361476952217549 0 -0.45671669426254741 -0.22655003620138259 0 -0.45462712384395731 -0.25361476952217549 0 -0.47835834713127418 -0.24540240771098509 0 -0.45671669426254741 -0.22655003620138259 0 -0.46843146770864219 -0.2137068893222013 0 -0.47430965597614849 -0.2259703507902131 0 -0.45671669426254741 -0.22655003620138259 0 -0.45671669426254741 -0.22655003620138259 0 -0.44598733202905771 -0.23314386726422121 0 -0.44799952697485568 -0.2189563797826358 0 -0.45671669426254741 -0.22655003620138259 0 -0.44799952697485568 -0.2189563797826358 0 -0.43524987343654858 -0.2261218355439521 0 -0.44598733202905771 -0.23314386726422121 0 -0.44799952697485568 -0.2189563797826358 0 -0.43534344162737859 -0.24047631527095989 0 -0.43524987343654858 -0.2261218355439521 0 -0.44598733202905771 -0.23314386726422121 0 -0.45462712384395731 -0.25361476952217549 0 -0.45671669426254741 -0.22655003620138259 0 -0.44598733202905771 -0.23314386726422121 0 -0.45462712384395731 -0.25361476952217549 0 -0.43534344162737859 -0.24047631527095989 0 -0.44598733202905771 -0.23314386726422121 0 -0.41921093266659359 -0.033164954261902801 0 -0.41295173416197378 -0.06234822558326894 0 -0.40195936500103141 -0.046796709667722668 0 -0.41921093266659359 -0.033164954261902801 0 -0.41295173416197378 -0.06234822558326894 0 -0.43040198375701832 -0.060745891718668607 0 -0.41295173416197378 -0.06234822558326894 0 -0.42988986143678481 -0.062303218872726752 0 -0.41295173416197378 -0.06234822558326894 0 -0.42988986143678481 -0.062303218872726752 0 -0.43040198375701832 -0.060745891718668607 0 -0.43040198375701832 -0.060745891718668607 0 -0.4380515092733156 -0.039491805992396427 0 -0.41921093266659359 -0.033164954261902801 0 -0.43040198375701832 -0.060745891718668607 0 -0.42988986143678481 -0.062303218872726752 0 -0.43040198375701832 -0.060745891718668607 0 -0.445481763444253 -0.054145757887925132 0 -0.42988986143678481 -0.062303218872726752 0 -0.43040198375701832 -0.060745891718668607 0 -0.41921093266659359 -0.033164954261902801 0 -0.43040198375701832 -0.060745891718668607 0 -0.4380515092733156 -0.039491805992396427 0 -0.41921093266659359 -0.033164954261902801 0 -0.43230720793599609 -0.026094421193308431 0 -0.4380515092733156 -0.039491805992396427 0 -0.43230720793599609 -0.026094421193308431 0 -0.42630531071212308 -0.0134974999185404 0 -0.44566107909195207 -0.018223424600394129 0 -0.41921093266659359 -0.033164954261902801 0 -0.43230720793599609 -0.026094421193308431 0 -0.42630531071212308 -0.0134974999185404 0 -0.42630531071212308 -0.0134974999185404 0 -0.44366757214212588 -0.0037234520514396528 0 -0.42902323539132631 0.0019823452864290588 0 -0.42630531071212308 -0.0134974999185404 0 -0.40801988157616897 -0.0055840168051370133 0 -0.42902323539132631 0.0019823452864290588 0 -0.41921093266659359 -0.033164954261902801 0 -0.40801988157616897 -0.0055840168051370133 0 -0.41921093266659359 -0.033164954261902801 0 -0.42630531071212308 -0.0134974999185404 0 -0.40801988157616897 -0.0055840168051370133 0 -0.41921093266659359 -0.033164954261902801 0 -0.40801988157616897 -0.0055840168051370133 0 -0.39636647839350242 -0.028379862240049378 0 -0.40801988157616897 -0.0055840168051370133 0 -0.39636647839350242 -0.028379862240049378 0 -0.38485887469789321 -0.006265053940782743 0 -0.39636647839350242 -0.028379862240049378 0 -0.38485887469789321 -0.006265053940782743 0 -0.37636024238127208 -0.02856628230930431 0 -0.36811241657795418 -0.046063652852842647 0 -0.37636024238127208 -0.02856628230930431 0 -0.38525407289592412 -0.047697273959590523 0 -0.39636647839350242 -0.028379862240049378 0 -0.37636024238127208 -0.02856628230930431 0 -0.38525407289592412 -0.047697273959590523 0 -0.41921093266659359 -0.033164954261902801 0 -0.39636647839350242 -0.028379862240049378 0 -0.40195936500103141 -0.046796709667722668 0 -0.39636647839350242 -0.028379862240049378 0 -0.40195936500103141 -0.046796709667722668 0 -0.38525407289592412 -0.047697273959590523 0 -0.41295173416197378 -0.06234822558326894 0 -0.39601360688716281 -0.062393232293801761 0 -0.40195936500103141 -0.046796709667722668 0 -0.39601360688716281 -0.062393232293801761 0 -0.38525407289592412 -0.047697273959590523 0 -0.41295173416197378 -0.06234822558326894 0 -0.40195936500103141 -0.046796709667722668 0 -0.39601360688716281 -0.062393232293801761 0 -0.3737851180713696 -0.063118395580058217 0 -0.36811241657795418 -0.046063652852842647 0 -0.38525407289592412 -0.047697273959590523 0 -0.3737851180713696 -0.063118395580058217 0 -0.39601360688716281 -0.062393232293801761 0 -0.38525407289592412 -0.047697273959590523 0 -0.3737851180713696 -0.063118395580058217 0 -0.39601360688716281 -0.062393232293801761 0 -0.38397168268224552 -0.076429317657624118 0 -0.36925684862333191 -0.075570755605724571 0 -0.3737851180713696 -0.063118395580058217 0 -0.38397168268224552 -0.076429317657624118 0 -0.3710615428907762 -0.088432852022637343 0 -0.38397168268224552 -0.076429317657624118 0 -0.39558112630105779 -0.09016001402609701 0 -0.38397168268224552 -0.076429317657624118 0 -0.39558112630105779 -0.09016001402609701 0 -0.40264167198013717 -0.075616311922087953 0 -0.39601360688716281 -0.062393232293801761 0 -0.38397168268224552 -0.076429317657624118 0 -0.40264167198013717 -0.075616311922087953 0 -0.41295173416197378 -0.06234822558326894 0 -0.39601360688716281 -0.062393232293801761 0 -0.40264167198013717 -0.075616311922087953 0 -0.3762508269806728 -0.12969304455337599 0 -0.38243094650880338 -0.1059575807915757 0 -0.39342721439259698 -0.12133463363917681 0 -0.3710615428907762 -0.088432852022637343 0 -0.39558112630105779 -0.09016001402609701 0 -0.38243094650880338 -0.1059575807915757 0 -0.39558112630105779 -0.09016001402609701 0 -0.38243094650880338 -0.1059575807915757 0 -0.41198880591972109 -0.1123358074592473 0 -0.38243094650880338 -0.1059575807915757 0 -0.39342721439259698 -0.12133463363917681 0 -0.41198880591972109 -0.1123358074592473 0 -0.40303827816119059 -0.1373521017525082 0 -0.39342721439259698 -0.12133463363917681 0 -0.41198880591972109 -0.1123358074592473 0 -0.40303827816119059 -0.1373521017525082 0 -0.41198880591972109 -0.1123358074592473 0 -0.39558112630105779 -0.09016001402609701 0 -0.41198880591972109 -0.1123358074592473 0 -0.42093933367825143 -0.087319513165986518 0 -0.41198880591972109 -0.1123358074592473 0 -0.42093933367825143 -0.087319513165986518 0 -0.41198880591972109 -0.1123358074592473 0 -0.428675226549597 -0.10753216097262849 0 -0.42093933367825143 -0.087319513165986518 0 -0.428675226549597 -0.10753216097262849 0 -0.42093933367825143 -0.087319513165986518 0 -0.44532999829523801 -0.095403980414559747 0 -0.42504752033769388 -0.12845244577964721 0 -0.41198880591972109 -0.1123358074592473 0 -0.428675226549597 -0.10753216097262849 0 -0.42504752033769388 -0.12845244577964721 0 -0.428675226549597 -0.10753216097262849 0 -0.44007047451708048 -0.1141490580437016 0 -0.41295173416197378 -0.06234822558326894 0 -0.42988986143678481 -0.062303218872726752 0 -0.42093933367825143 -0.087319513165986518 0 -0.41295173416197378 -0.06234822558326894 0 -0.40264167198013717 -0.075616311922087953 0 -0.42093933367825143 -0.087319513165986518 0 -0.39558112630105779 -0.09016001402609701 0 -0.40264167198013717 -0.075616311922087953 0 -0.42093933367825143 -0.087319513165986518 0 -0.42093933367825143 -0.087319513165986518 0 -0.44352482208928051 -0.075476291908082513 0 -0.44532999829523801 -0.095403980414559747 0 -0.42988986143678481 -0.062303218872726752 0 -0.42093933367825143 -0.087319513165986518 0 -0.42988986143678481 -0.062303218872726752 0 -0.42093933367825143 -0.087319513165986518 0 -0.44352482208928051 -0.075476291908082513 0 -0.42988986143678481 -0.062303218872726752 0 -0.44352482208928051 -0.075476291908082513 0 -0.45978884722028818 -0.062223773549381023 0 -0.44352482208928051 -0.075476291908082513 0 -0.46167606981584391 -0.070130973537759253 0 -0.44532999829523801 -0.095403980414559747 0 -0.46167606981584391 -0.070130973537759253 0 -0.44532999829523801 -0.095403980414559747 0 -0.46660875189734308 -0.09079822486751131 0 -0.46167606981584391 -0.070130973537759253 0 -0.46660875189734308 -0.09079822486751131 0 -0.46167606981584391 -0.070130973537759253 0 -0.44532999829523801 -0.095403980414559747 0 -0.46660875189734308 -0.09079822486751131 0 -0.46167606981584391 -0.070130973537759253 0 -0.47553936258594409 -0.072890928715443268 0 -0.44352482208928051 -0.075476291908082513 0 -0.46167606981584391 -0.070130973537759253 0 -0.45978884722028818 -0.062223773549381023 0 -0.46167606981584391 -0.070130973537759253 0 -0.46680234062521597 -0.062205137825232001 0 -0.45978884722028818 -0.062223773549381023 0 -0.46167606981584391 -0.070130973537759253 0 -0.46680234062521597 -0.062205137825232001 0 -0.46167606981584391 -0.070130973537759253 0 -0.47553936258594409 -0.072890928715443268 0 -0.46680234062521597 -0.062205137825232001 0 -0.46167606981584391 -0.070130973537759253 0 -0.45978884722028818 -0.062223773549381023 0 -0.46446437205799068 -0.12619982473044111 0 -0.44007047451708048 -0.1141490580437016 0 -0.44007047451708048 -0.1141490580437016 0 -0.44532999829523801 -0.095403980414559747 0 -0.4560943567290483 -0.107255691954944 0 -0.428675226549597 -0.10753216097262849 0 -0.44007047451708048 -0.1141490580437016 0 -0.44532999829523801 -0.095403980414559747 0 -0.46660875189734308 -0.09079822486751131 0 -0.4560943567290483 -0.107255691954944 0 -0.4634810328616813 -0.11104556232049 0 -0.46660875189734308 -0.09079822486751131 0 -0.4634810328616813 -0.11104556232049 0 -0.47154143397884352 -0.1114654761972631 0 -0.46660875189734308 -0.09079822486751131 0 -0.44532999829523801 -0.095403980414559747 0 -0.4560943567290483 -0.107255691954944 0 -0.44007047451708048 -0.1141490580437016 0 -0.4560943567290483 -0.107255691954944 0 -0.46489433234608979 -0.12063085206865851 0 -0.46446437205799068 -0.12619982473044111 0 -0.44007047451708048 -0.1141490580437016 0 -0.46489433234608979 -0.12063085206865851 0 -0.4560943567290483 -0.107255691954944 0 -0.4634810328616813 -0.11104556232049 0 -0.46489433234608979 -0.12063085206865851 0 -0.4634810328616813 -0.11104556232049 0 -0.46489433234608979 -0.12063085206865851 0 -0.47154143397884352 -0.1114654761972631 0 -0.46446437205799068 -0.12619982473044111 0 -0.46489433234608979 -0.12063085206865851 0 -0.47788594967197873 -0.13283018382426171 0 -0.47154143397884352 -0.1114654761972631 0 -0.47788594967197873 -0.13283018382426171 0 -0.48525729978131837 -0.11327417307332729 0 -0.47788594967197873 -0.13283018382426171 0 -0.46489433234608979 -0.12063085206865851 0 -0.47154143397884352 -0.1114654761972631 0 -0.47788594967197873 -0.13283018382426171 0 -0.47154143397884352 -0.1114654761972631 0 -0.48525729978131837 -0.11327417307332729 0 -0.46660875189734308 -0.09079822486751131 0 -0.47154143397884352 -0.1114654761972631 0 -0.48001338162697349 -0.10013028910861339 0 -0.46660875189734308 -0.09079822486751131 0 -0.47154143397884352 -0.1114654761972631 0 -0.47154143397884352 -0.1114654761972631 0 -0.48001338162697349 -0.10013028910861339 0 -0.48525729978131837 -0.11327417307332729 0 -0.48001338162697349 -0.10013028910861339 0 -0.48525729978131837 -0.11327417307332729 0 -0.49262864989066041 -0.093718162322393814 0 -0.5 -0.097359664062120155 0 -0.48525729978131837 -0.11327417307332729 0 -0.49262864989066041 -0.093718162322393814 0 -0.48525729978131837 -0.11327417307332729 0 -0.49262864989066041 -0.093718162322393814 0 -0.47788594967197873 -0.13283018382426171 0 -0.5 -0.1205571765527803 0 -0.48525729978131837 -0.11327417307332729 0 -0.5 -0.097359664062120155 0 -0.5 -0.1205571765527803 0 -0.48525729978131837 -0.11327417307332729 0 -0.47553936258594409 -0.072890928715443268 0 -0.48340117031260732 -0.062161032670582123 0 -0.46680234062521597 -0.062205137825232001 0 -0.47553936258594409 -0.072890928715443268 0 -0.48625202128796408 -0.081550607026024194 0 -0.48903851083730332 -0.070576329499888554 0 -0.47553936258594409 -0.072890928715443268 0 -0.48903851083730332 -0.070576329499888554 0 -0.48340117031260732 -0.062161032670582123 0 -0.46660875189734308 -0.09079822486751131 0 -0.48001338162697349 -0.10013028910861339 0 -0.48625202128796408 -0.081550607026024194 0 -0.46660875189734308 -0.09079822486751131 0 -0.47553936258594409 -0.072890928715443268 0 -0.48625202128796408 -0.081550607026024194 0 -0.5 -0.097359664062120155 0 -0.49262864989066041 -0.093718162322393814 0 -0.50000000000000122 -0.074162151571459889 0 -0.48001338162697349 -0.10013028910861339 0 -0.49262864989066041 -0.093718162322393814 0 -0.48625202128796408 -0.081550607026024194 0 -0.49262864989066041 -0.093718162322393814 0 -0.48625202128796408 -0.081550607026024194 0 -0.50000000000000122 -0.074162151571459889 0 -0.49262864989066041 -0.093718162322393814 0 -0.50000000000000122 -0.074162151571459889 0 -0.48903851083730332 -0.070576329499888554 0 -0.49999999999999861 -0.062116927515932903 0 -0.48340117031260732 -0.062161032670582123 0 -0.48625202128796408 -0.081550607026024194 0 -0.50000000000000122 -0.074162151571459889 0 -0.48903851083730332 -0.070576329499888554 0 -0.50000000000000122 -0.074162151571459889 0 -0.48903851083730332 -0.070576329499888554 0 -0.49999999999999861 -0.062116927515932903 0 -0.49999999999999861 -0.062116927515932903 0 -0.49004070218756363 -0.046771572727125683 0 -0.5 -0.036497231046605072 0 -0.49999999999999861 -0.062116927515932903 0 -0.48340117031260732 -0.062161032670582123 0 -0.49999999999999861 -0.062116927515932903 0 -0.49004070218756363 -0.046771572727125683 0 -0.48340117031260732 -0.062161032670582123 0 -0.49004070218756363 -0.046771572727125683 0 -0.47786822708347609 -0.045095936742580153 0 -0.48893411354173599 -0.027986735659928111 0 -0.49004070218756363 -0.046771572727125683 0 -0.5 -0.036497231046605072 0 -0.48893411354173599 -0.027986735659928111 0 -0.47786822708347609 -0.045095936742580153 0 -0.46882174202180921 -0.034055559810237883 0 -0.48893411354173599 -0.027986735659928111 0 -0.47786822708347609 -0.045095936742580153 0 -0.48893411354173599 -0.027986735659928111 0 -0.47786822708347609 -0.045095936742580153 0 -0.46882174202180921 -0.034055559810237883 0 -0.4639745088328352 -0.047777207998901061 0 -0.48340117031260732 -0.062161032670582123 0 -0.46680234062521597 -0.062205137825232001 0 -0.49004070218756363 -0.046771572727125683 0 -0.47786822708347609 -0.045095936742580153 0 -0.48340117031260732 -0.062161032670582123 0 -0.47786822708347609 -0.045095936742580153 0 -0.46680234062521597 -0.062205137825232001 0 -0.47786822708347609 -0.045095936742580153 0 -0.48340117031260732 -0.062161032670582123 0 -0.46680234062521597 -0.062205137825232001 0 -0.47786822708347609 -0.045095936742580153 0 -0.46680234062521597 -0.062205137825232001 0 -0.4639745088328352 -0.047777207998901061 0 -0.46680234062521597 -0.062205137825232001 0 -0.45978884722028818 -0.062223773549381023 0 -0.4639745088328352 -0.047777207998901061 0 -0.45978884722028818 -0.062223773549381023 0 -0.4639745088328352 -0.047777207998901061 0 -0.45343992856281629 -0.035622688095642008 0 -0.45978884722028818 -0.062223773549381023 0 -0.45343992856281629 -0.035622688095642008 0 -0.46680234062521597 -0.062205137825232001 0 -0.45978884722028818 -0.062223773549381023 0 -0.46882174202180921 -0.034055559810237883 0 -0.4639745088328352 -0.047777207998901061 0 -0.45343992856281629 -0.035622688095642008 0 -0.45343992856281629 -0.035622688095642008 0 -0.4380515092733156 -0.039491805992396427 0 -0.445481763444253 -0.054145757887925132 0 -0.42988986143678481 -0.062303218872726752 0 -0.45978884722028818 -0.062223773549381023 0 -0.43040198375701832 -0.060745891718668607 0 -0.4380515092733156 -0.039491805992396427 0 -0.445481763444253 -0.054145757887925132 0 -0.42988986143678481 -0.062303218872726752 0 -0.45978884722028818 -0.062223773549381023 0 -0.445481763444253 -0.054145757887925132 0 -0.45978884722028818 -0.062223773549381023 0 -0.45343992856281629 -0.035622688095642008 0 -0.445481763444253 -0.054145757887925132 0 -0.44566107909195207 -0.018223424600394129 0 -0.45327064891058511 0.00304495679160946 0 -0.42630531071212308 -0.0134974999185404 0 -0.44366757214212588 -0.0037234520514396528 0 -0.44566107909195207 -0.018223424600394129 0 -0.44366757214212588 -0.0037234520514396528 0 -0.44566107909195207 -0.018223424600394129 0 -0.45327064891058511 0.00304495679160946 0 -0.44366757214212588 -0.0037234520514396528 0 -0.45327064891058511 0.00304495679160946 0 -0.45343992856281629 -0.035622688095642008 0 -0.4380515092733156 -0.039491805992396427 0 -0.44566107909195207 -0.018223424600394129 0 -0.43230720793599609 -0.026094421193308431 0 -0.4380515092733156 -0.039491805992396427 0 -0.44566107909195207 -0.018223424600394129 0 -0.4380515092733156 -0.039491805992396427 0 -0.44566107909195207 -0.018223424600394129 0 -0.45343992856281629 -0.035622688095642008 0 -0.44566107909195207 -0.018223424600394129 0 -0.46833053142682451 -0.01852689591314597 0 -0.46882174202180921 -0.034055559810237883 0 -0.45343992856281629 -0.035622688095642008 0 -0.46833053142682451 -0.01852689591314597 0 -0.46833053142682451 -0.01852689591314597 0 -0.48100815468351582 -0.002010352775923496 0 -0.45327064891058511 0.00304495679160946 0 -0.44566107909195207 -0.018223424600394129 0 -0.46833053142682451 -0.01852689591314597 0 -0.45327064891058511 0.00304495679160946 0 -0.46882174202180921 -0.034055559810237883 0 -0.46833053142682451 -0.01852689591314597 0 -0.48893411354173599 -0.027986735659928111 0 -0.46833053142682451 -0.01852689591314597 0 -0.48100815468351582 -0.002010352775923496 0 -0.48893411354173599 -0.027986735659928111 0 -0.5 -0.036497231046605072 0 -0.48893411354173599 -0.027986735659928111 0 -0.49999999999999761 -0.01087753457727726 0 -0.48893411354173599 -0.027986735659928111 0 -0.49999999999999761 -0.01087753457727726 0 -0.48100815468351582 -0.002010352775923496 0 -0.49999999999999761 -0.01087753457727726 0 -0.5 0.012251244279806509 0 -0.48100815468351582 -0.002010352775923496 0 -0.48893411354173599 -0.027986735659928111 0 -0.49999999999999761 -0.01087753457727726 0 -0.48100815468351582 -0.002010352775923496 0 -0.5 0.012251244279806509 0 -0.47651431179380249 0.019427478476797391 0 -0.5 0.012251244279806509 0 -0.47651431179380249 0.019427478476797391 0 -0.4997579746770221 0.03581000016198186 0 -0.47651431179380249 0.019427478476797391 0 -0.4997579746770221 0.03581000016198186 0 -0.47651431179380249 0.019427478476797391 0 -0.4997579746770221 0.03581000016198186 0 -0.48387191122562379 0.035318291717874171 0 -0.48100815468351582 -0.002010352775923496 0 -0.47651431179380249 0.019427478476797391 0 -0.45327064891058511 0.00304495679160946 0 -0.49328980217069363 0.060931714553400768 0 -0.49324823997122907 0.047375055951869222 0 -0.48167866942108339 0.067929308148762843 0 -0.49328980217069363 0.060931714553400768 0 -0.50000000000000067 0.049152157475713498 0 -0.5 0.074690434906506287 0 -0.49324823997122907 0.047375055951869222 0 -0.48167866942108339 0.067929308148762843 0 -0.49328980217069363 0.060931714553400768 0 -0.50000000000000067 0.049152157475713498 0 -0.49324823997122907 0.047375055951869222 0 -0.50000000000000067 0.049152157475713498 0 -0.49324823997122907 0.047375055951869222 0 -0.49324823997122907 0.047375055951869222 0 -0.4997579746770221 0.03581000016198186 0 -0.48387191122562379 0.035318291717874171 0 -0.50000000000000067 0.049152157475713498 0 -0.49324823997122907 0.047375055951869222 0 -0.4997579746770221 0.03581000016198186 0 -0.49324823997122907 0.047375055951869222 0 -0.4997579746770221 0.03581000016198186 0 -0.49324823997122907 0.047375055951869222 0 -0.48387191122562379 0.035318291717874171 0 -0.46662418747517459 0.040367454369455547 0 -0.49324823997122907 0.047375055951869222 0 -0.46662418747517459 0.040367454369455547 0 -0.47651431179380249 0.019427478476797391 0 -0.48387191122562379 0.035318291717874171 0 -0.46662418747517459 0.040367454369455547 0 -0.47281195505366602 0.057661966932046449 0 -0.46662418747517459 0.040367454369455547 0 -0.49324823997122907 0.047375055951869222 0 -0.47281195505366602 0.057661966932046449 0 -0.46662418747517459 0.040367454369455547 0 -0.49324823997122907 0.047375055951869222 0 -0.47281195505366602 0.057661966932046449 0 -0.48167866942108339 0.067929308148762843 0 -0.47281195505366602 0.057661966932046449 0 -0.4584982921918625 0.053516102002706921 0 -0.46662418747517459 0.040367454369455547 0 -0.47281195505366602 0.057661966932046449 0 -0.4584982921918625 0.053516102002706921 0 -0.46726329885682549 0.067949153023567896 0 -0.46662418747517459 0.040367454369455547 0 -0.4433590684786981 0.03424394313018192 0 -0.46662418747517459 0.040367454369455547 0 -0.4433590684786981 0.03424394313018192 0 -0.45994741819288371 0.021706205580531119 0 -0.4584982921918625 0.053516102002706921 0 -0.46662418747517459 0.040367454369455547 0 -0.4433590684786981 0.03424394313018192 0 -0.4433590684786981 0.03424394313018192 0 -0.44393262849027498 0.056060373741069709 0 -0.43108437969641772 0.043094290047631822 0 -0.4584982921918625 0.053516102002706921 0 -0.44393262849027498 0.056060373741069709 0 -0.45321847874658189 0.072154827688668793 0 -0.4584982921918625 0.053516102002706921 0 -0.4433590684786981 0.03424394313018192 0 -0.44393262849027498 0.056060373741069709 0 -0.45327064891058511 0.00304495679160946 0 -0.45994741819288371 0.021706205580531119 0 -0.47651431179380249 0.019427478476797391 0 -0.45327064891058511 0.00304495679160946 0 -0.45994741819288371 0.021706205580531119 0 -0.47651431179380249 0.019427478476797391 0 -0.45327064891058511 0.00304495679160946 0 -0.47651431179380249 0.019427478476797391 0 -0.46662418747517459 0.040367454369455547 0 -0.45994741819288371 0.021706205580531119 0 -0.46662418747517459 0.040367454369455547 0 -0.45994741819288371 0.021706205580531119 0 -0.45994741819288371 0.021706205580531119 0 -0.44417219079966908 0.0080725471881138849 0 -0.43495207936142088 0.017352680333440701 0 -0.4433590684786981 0.03424394313018192 0 -0.45994741819288371 0.021706205580531119 0 -0.43495207936142088 0.017352680333440701 0 -0.45327064891058511 0.00304495679160946 0 -0.45994741819288371 0.021706205580531119 0 -0.44417219079966908 0.0080725471881138849 0 -0.44366757214212588 -0.0037234520514396528 0 -0.45327064891058511 0.00304495679160946 0 -0.44417219079966908 0.0080725471881138849 0 -0.44366757214212588 -0.0037234520514396528 0 -0.44417219079966908 0.0080725471881138849 0 -0.42902323539132631 0.0019823452864290588 0 -0.42902323539132631 0.0019823452864290588 0 -0.41663897571736019 0.012372145848194819 0 -0.43495207936142088 0.017352680333440701 0 -0.44417219079966908 0.0080725471881138849 0 -0.42902323539132631 0.0019823452864290588 0 -0.43495207936142088 0.017352680333440701 0 -0.40801988157616897 -0.0055840168051370133 0 -0.41663897571736019 0.012372145848194819 0 -0.39682883048574619 0.02199692065162966 0 -0.40801988157616897 -0.0055840168051370133 0 -0.42902323539132631 0.0019823452864290588 0 -0.41663897571736019 0.012372145848194819 0 -0.42009394948222217 0.02812043189090593 0 -0.39682883048574619 0.02199692065162966 0 -0.41663897571736019 0.012372145848194819 0 -0.42009394948222217 0.02812043189090593 0 -0.39682883048574619 0.02199692065162966 0 -0.4433590684786981 0.03424394313018192 0 -0.42009394948222217 0.02812043189090593 0 -0.43495207936142088 0.017352680333440701 0 -0.4433590684786981 0.03424394313018192 0 -0.42009394948222217 0.02812043189090593 0 -0.41663897571736019 0.012372145848194819 0 -0.42009394948222217 0.02812043189090593 0 -0.43495207936142088 0.017352680333440701 0 -0.4433590684786981 0.03424394313018192 0 -0.42009394948222217 0.02812043189090593 0 -0.43108437969641772 0.043094290047631822 0 -0.43108437969641772 0.043094290047631822 0 -0.42532616283980063 0.047804438512569603 0 -0.42083289304589322 0.040817528728329597 0 -0.42009394948222217 0.02812043189090593 0 -0.43108437969641772 0.043094290047631822 0 -0.42083289304589322 0.040817528728329597 0 -0.44393262849027498 0.056060373741069709 0 -0.43306763397294251 0.054237528659298283 0 -0.43191629317040392 0.074278312734462684 0 -0.43306763397294251 0.054237528659298283 0 -0.4221173011816044 0.055446280831053428 0 -0.43191629317040392 0.074278312734462684 0 -0.4221173011816044 0.055446280831053428 0 -0.41860467559521508 0.056898562830420142 0 -0.43191629317040392 0.074278312734462684 0 -0.44393262849027498 0.056060373741069709 0 -0.43108437969641772 0.043094290047631822 0 -0.43306763397294251 0.054237528659298283 0 -0.43108437969641772 0.043094290047631822 0 -0.43306763397294251 0.054237528659298283 0 -0.42532616283980063 0.047804438512569603 0 -0.43306763397294251 0.054237528659298283 0 -0.42532616283980063 0.047804438512569603 0 -0.4221173011816044 0.055446280831053428 0 -0.42532616283980063 0.047804438512569603 0 -0.4221173011816044 0.055446280831053428 0 -0.418844433784481 0.048115915280819897 0 -0.41860467559521508 0.056898562830420142 0 -0.3960510533864614 0.066223274146421401 0 -0.4221173011816044 0.055446280831053428 0 -0.41860467559521508 0.056898562830420142 0 -0.4221173011816044 0.055446280831053428 0 -0.41860467559521508 0.056898562830420142 0 -0.418844433784481 0.048115915280819897 0 -0.41860467559521508 0.056898562830420142 0 -0.418844433784481 0.048115915280819897 0 -0.40744719439121679 0.042331269878290827 0 -0.41860467559521508 0.056898562830420142 0 -0.40744719439121679 0.042331269878290827 0 -0.41860467559521508 0.056898562830420142 0 -0.40744719439121679 0.042331269878290827 0 -0.40391879919769902 0.053884242093477031 0 -0.42009394948222217 0.02812043189090593 0 -0.40744719439121679 0.042331269878290827 0 -0.39628971318721973 0.02776397692616072 0 -0.42009394948222217 0.02812043189090593 0 -0.42083289304589322 0.040817528728329597 0 -0.40744719439121679 0.042331269878290827 0 -0.418844433784481 0.048115915280819897 0 -0.42083289304589322 0.040817528728329597 0 -0.40744719439121679 0.042331269878290827 0 -0.42532616283980063 0.047804438512569603 0 -0.418844433784481 0.048115915280819897 0 -0.42083289304589322 0.040817528728329597 0 -0.40744719439121679 0.042331269878290827 0 -0.39628971318721973 0.02776397692616072 0 -0.40744719439121679 0.042331269878290827 0 -0.39347904158017882 0.049940390906802058 0 -0.39043950465286581 0.03774375218368263 0 -0.40744719439121679 0.042331269878290827 0 -0.39043950465286581 0.03774375218368263 0 -0.39628971318721973 0.02776397692616072 0 -0.41860467559521508 0.056898562830420142 0 -0.40391879919769902 0.053884242093477031 0 -0.3960510533864614 0.066223274146421401 0 -0.40391879919769902 0.053884242093477031 0 -0.39347904158017882 0.049940390906802058 0 -0.3960510533864614 0.066223274146421401 0 -0.40744719439121679 0.042331269878290827 0 -0.40391879919769902 0.053884242093477031 0 -0.39347904158017882 0.049940390906802058 0 -0.39347904158017882 0.049940390906802058 0 -0.38155454120004317 0.054287033044786361 0 -0.3960510533864614 0.066223274146421401 0 -0.38155454120004317 0.054287033044786361 0 -0.37987359111232638 0.042726657548247719 0 -0.36370318070167962 0.048460228983828568 0 -0.39347904158017882 0.049940390906802058 0 -0.38155454120004317 0.054287033044786361 0 -0.37987359111232638 0.042726657548247719 0 -0.39043950465286581 0.03774375218368263 0 -0.37987359111232638 0.042726657548247719 0 -0.37310467998658048 0.033205643054502923 0 -0.39347904158017882 0.049940390906802058 0 -0.39043950465286581 0.03774375218368263 0 -0.37987359111232638 0.042726657548247719 0 -0.39043950465286581 0.03774375218368263 0 -0.39682883048574619 0.02199692065162966 0 -0.37310467998658048 0.033205643054502923 0 -0.39682883048574619 0.02199692065162966 0 -0.37158097687395047 0.0153515424189699 0 -0.37310467998658048 0.033205643054502923 0 -0.39682883048574619 0.02199692065162966 0 -0.37158097687395047 0.0153515424189699 0 -0.38485887469789321 -0.006265053940782743 0 -0.39682883048574619 0.02199692065162966 0 -0.37158097687395047 0.0153515424189699 0 -0.40801988157616897 -0.0055840168051370133 0 -0.38485887469789321 -0.006265053940782743 0 -0.39682883048574619 0.02199692065162966 0 -0.40801988157616897 -0.0055840168051370133 0 -0.39682883048574619 0.02199692065162966 0 -0.39043950465286581 0.03774375218368263 0 -0.39682883048574619 0.02199692065162966 0 -0.39043950465286581 0.03774375218368263 0 -0.39682883048574619 0.02199692065162966 0 -0.39628971318721973 0.02776397692616072 0 -0.42009394948222217 0.02812043189090593 0 -0.39682883048574619 0.02199692065162966 0 -0.39628971318721973 0.02776397692616072 0 -0.40592399802745782 0.098224846341659955 0 -0.3828431623919355 0.1015949094496669 0 -0.40128761833721011 0.081955636071747662 0 -0.40592399802745782 0.098224846341659955 0 -0.39931050979208671 0.1182757043989533 0 -0.3828431623919355 0.1015949094496669 0 -0.39931050979208671 0.1182757043989533 0 -0.38244713528919438 0.1241996252201293 0 -0.3828431623919355 0.1015949094496669 0 -0.38244713528919438 0.1241996252201293 0 -0.3828431623919355 0.1015949094496669 0 -0.36439870644666089 0.1212341828275862 0 -0.3828431623919355 0.1015949094496669 0 -0.40128761833721011 0.081955636071747662 0 -0.37349743117770789 0.075547985462423001 0 -0.38155454120004317 0.054287033044786361 0 -0.3960510533864614 0.066223274146421401 0 -0.37349743117770789 0.075547985462423001 0 -0.3960510533864614 0.066223274146421401 0 -0.37349743117770789 0.075547985462423001 0 -0.3960510533864614 0.066223274146421401 0 -0.40128761833721011 0.081955636071747662 0 -0.37349743117770789 0.075547985462423001 0 -0.3960510533864614 0.066223274146421401 0 -0.40128761833721011 0.081955636071747662 0 -0.41083371736751978 0.070040503391437067 0 -0.3828431623919355 0.1015949094496669 0 -0.40128761833721011 0.081955636071747662 0 -0.40592399802745782 0.098224846341659955 0 -0.40128761833721011 0.081955636071747662 0 -0.41362110527636081 0.082374028923920026 0 -0.40592399802745782 0.098224846341659955 0 -0.42090917186475091 0.092365640829029122 0 -0.41362110527636081 0.082374028923920026 0 -0.41860467559521508 0.056898562830420142 0 -0.41083371736751978 0.070040503391437067 0 -0.43191629317040392 0.074278312734462684 0 -0.41860467559521508 0.056898562830420142 0 -0.3960510533864614 0.066223274146421401 0 -0.41083371736751978 0.070040503391437067 0 -0.41362110527636081 0.082374028923920026 0 -0.41083371736751978 0.070040503391437067 0 -0.43191629317040392 0.074278312734462684 0 -0.40128761833721011 0.081955636071747662 0 -0.41362110527636081 0.082374028923920026 0 -0.41083371736751978 0.070040503391437067 0 -0.41860467559521508 0.056898562830420142 0 -0.43191629317040392 0.074278312734462684 0 -0.42090917186475091 0.092365640829029122 0 -0.41362110527636081 0.082374028923920026 0 -0.43191629317040392 0.074278312734462684 0 -0.42090917186475091 0.092365640829029122 0 -0.43191629317040392 0.074278312734462684 0 -0.44522791074559381 0.09165806263850429 0 -0.42090917186475091 0.092365640829029122 0 -0.43046020517667521 0.1047188208473277 0 -0.41750532729253093 0.1127622697909664 0 -0.42090917186475091 0.092365640829029122 0 -0.43046020517667521 0.1047188208473277 0 -0.44522791074559381 0.09165806263850429 0 -0.40592399802745782 0.098224846341659955 0 -0.42090917186475091 0.092365640829029122 0 -0.41750532729253093 0.1127622697909664 0 -0.41750532729253093 0.1127622697909664 0 -0.43257162568432511 0.12355777738738249 0 -0.41320524529068592 0.1368960367759364 0 -0.40592399802745782 0.098224846341659955 0 -0.39931050979208671 0.1182757043989533 0 -0.41750532729253093 0.1127622697909664 0 -0.39931050979208671 0.1182757043989533 0 -0.41750532729253093 0.1127622697909664 0 -0.41320524529068592 0.1368960367759364 0 -0.43046020517667521 0.1047188208473277 0 -0.43257162568432511 0.12355777738738249 0 -0.44277817607928288 0.1091066594026175 0 -0.43046020517667521 0.1047188208473277 0 -0.41750532729253093 0.1127622697909664 0 -0.43257162568432511 0.12355777738738249 0 -0.45089622782402122 0.1226167371315041 0 -0.44277817607928288 0.1091066594026175 0 -0.45853952832078387 0.1090378125425456 0 -0.43257162568432511 0.12355777738738249 0 -0.45089622782402122 0.1226167371315041 0 -0.44277817607928288 0.1091066594026175 0 -0.45853952832078387 0.1090378125425456 0 -0.44522791074559381 0.09165806263850429 0 -0.43046020517667521 0.1047188208473277 0 -0.44277817607928288 0.1091066594026175 0 -0.44522791074559381 0.09165806263850429 0 -0.44277817607928288 0.1091066594026175 0 -0.45853952832078387 0.1090378125425456 0 -0.44522791074559381 0.09165806263850429 0 -0.45853952832078387 0.1090378125425456 0 -0.44522791074559381 0.09165806263850429 0 -0.47010909887093411 0.088483560345654452 0 -0.45853952832078387 0.1090378125425456 0 -0.47010909887093411 0.088483560345654452 0 -0.45853952832078387 0.1090378125425456 0 -0.47209351792259402 0.12673400522167511 0 -0.45089622782402122 0.1226167371315041 0 -0.45853952832078387 0.1090378125425456 0 -0.47209351792259402 0.12673400522167511 0 -0.45089622782402122 0.1226167371315041 0 -0.45853952832078387 0.1090378125425456 0 -0.44393262849027498 0.056060373741069709 0 -0.43191629317040392 0.074278312734462684 0 -0.45321847874658189 0.072154827688668793 0 -0.43191629317040392 0.074278312734462684 0 -0.44522791074559381 0.09165806263850429 0 -0.43191629317040392 0.074278312734462684 0 -0.44522791074559381 0.09165806263850429 0 -0.45321847874658189 0.072154827688668793 0 -0.44522791074559381 0.09165806263850429 0 -0.45321847874658189 0.072154827688668793 0 -0.47010909887093411 0.088483560345654452 0 -0.45321847874658189 0.072154827688668793 0 -0.46726329885682549 0.067949153023567896 0 -0.47010909887093411 0.088483560345654452 0 -0.4584982921918625 0.053516102002706921 0 -0.45321847874658189 0.072154827688668793 0 -0.46726329885682549 0.067949153023567896 0 -0.46726329885682549 0.067949153023567896 0 -0.48167866942108339 0.067929308148762843 0 -0.47010909887093411 0.088483560345654452 0 -0.47281195505366602 0.057661966932046449 0 -0.46726329885682549 0.067949153023567896 0 -0.48167866942108339 0.067929308148762843 0 -0.48167866942108339 0.067929308148762843 0 -0.47010909887093411 0.088483560345654452 0 -0.48167866942108339 0.067929308148762843 0 -0.47010909887093411 0.088483560345654452 0 -0.4863899291577925 0.086490308171966943 0 -0.47010909887093411 0.088483560345654452 0 -0.4863899291577925 0.086490308171966943 0 -0.48061872243351428 0.10612840113659119 0 -0.4863899291577925 0.086490308171966943 0 -0.5 0.074690434906506287 0 -0.5 0.1002287123372993 0 -0.49328980217069363 0.060931714553400768 0 -0.48167866942108339 0.067929308148762843 0 -0.5 0.074690434906506287 0 -0.48167866942108339 0.067929308148762843 0 -0.4863899291577925 0.086490308171966943 0 -0.5 0.074690434906506287 0 -0.48061872243351428 0.10612840113659119 0 -0.5 0.12576698976809231 0 -0.47209351792259402 0.12673400522167511 0 -0.45853952832078387 0.1090378125425456 0 -0.48061872243351428 0.10612840113659119 0 -0.47209351792259402 0.12673400522167511 0 -0.45853952832078387 0.1090378125425456 0 -0.47010909887093411 0.088483560345654452 0 -0.48061872243351428 0.10612840113659119 0 -0.4863899291577925 0.086490308171966943 0 -0.48061872243351428 0.10612840113659119 0 -0.5 0.1002287123372993 0 -0.48061872243351428 0.10612840113659119 0 -0.5 0.1002287123372993 0 -0.5 0.12576698976809231 0 -0.5 0.12576698976809231 0 -0.48324002811898392 0.14307343191934349 0 -0.5 0.15130526719888529 0 -0.5 0.12576698976809231 0 -0.47209351792259402 0.12673400522167511 0 -0.48324002811898392 0.14307343191934349 0 -0.47209351792259402 0.12673400522167511 0 -0.48324002811898392 0.14307343191934349 0 -0.46587724345775888 0.14629055191489021 0 -0.48324002811898392 0.14307343191934349 0 -0.47822937921456682 0.16527034549317429 0 -0.46587724345775888 0.14629055191489021 0 -0.48324002811898392 0.14307343191934349 0 -0.5 0.15130526719888529 0 -0.47822937921456682 0.16527034549317429 0 -0.5 0.15130526719888529 0 -0.5 0.1768435446296783 0 -0.47822937921456682 0.16527034549317429 0 -0.5 0.1768435446296783 0 -0.47822937921456682 0.16527034549317429 0 -0.48045244448741442 0.19344482521834941 0 -0.47822937921456682 0.16527034549317429 0 -0.46090488897482962 0.18450782837622731 0 -0.48045244448741442 0.19344482521834941 0 -0.47822937921456682 0.16527034549317429 0 -0.45691590223102868 0.16557067200273101 0 -0.46090488897482962 0.18450782837622731 0 -0.47822937921456682 0.16527034549317429 0 -0.45691590223102868 0.16557067200273101 0 -0.46587724345775888 0.14629055191489021 0 -0.46090488897482962 0.18450782837622731 0 -0.44135733346224482 0.1755708315341051 0 -0.44067879750512862 0.19602711431800909 0 -0.46090488897482962 0.18450782837622731 0 -0.44135733346224482 0.1755708315341051 0 -0.45691590223102868 0.16557067200273101 0 -0.46090488897482962 0.18450782837622731 0 -0.44135733346224482 0.1755708315341051 0 -0.45691590223102868 0.16557067200273101 0 -0.44135733346224482 0.1755708315341051 0 -0.43821066604574349 0.15621380269525831 0 -0.43821066604574349 0.15621380269525831 0 -0.44325292732725768 0.13619566172046199 0 -0.46587724345775888 0.14629055191489021 0 -0.43821066604574349 0.15621380269525831 0 -0.46587724345775888 0.14629055191489021 0 -0.43257162568432511 0.12355777738738249 0 -0.45089622782402122 0.1226167371315041 0 -0.44325292732725768 0.13619566172046199 0 -0.45089622782402122 0.1226167371315041 0 -0.44325292732725768 0.13619566172046199 0 -0.45089622782402122 0.1226167371315041 0 -0.44325292732725768 0.13619566172046199 0 -0.45852569689628142 0.13313701962731189 0 -0.44325292732725768 0.13619566172046199 0 -0.45852569689628142 0.13313701962731189 0 -0.46587724345775888 0.14629055191489021 0 -0.45089622782402122 0.1226167371315041 0 -0.47209351792259402 0.12673400522167511 0 -0.45852569689628142 0.13313701962731189 0 -0.47209351792259402 0.12673400522167511 0 -0.45852569689628142 0.13313701962731189 0 -0.46587724345775888 0.14629055191489021 0 -0.45691590223102868 0.16557067200273101 0 -0.43821066604574349 0.15621380269525831 0 -0.46587724345775888 0.14629055191489021 0 -0.4766906091662621 0.2207066880856004 0 -0.46087805730186399 0.2442769255366096 0 -0.48217572555669991 0.25029396605485921 0 -0.5 0.2305326019969621 0 -0.5 0.25868338193345303 0 -0.48217572555669991 0.25029396605485921 0 -0.5 0.2305326019969621 0 -0.4766906091662621 0.2207066880856004 0 -0.48217572555669991 0.25029396605485921 0 -0.4766906091662621 0.2207066880856004 0 -0.48045244448741442 0.19344482521834941 0 -0.46190103350742617 0.20296769518509911 0 -0.5 0.2305326019969621 0 -0.4766906091662621 0.2207066880856004 0 -0.49999999999999922 0.20238182206047131 0 -0.4766906091662621 0.2207066880856004 0 -0.49999999999999922 0.20238182206047131 0 -0.48045244448741442 0.19344482521834941 0 -0.49999999999999922 0.20238182206047131 0 -0.48045244448741442 0.19344482521834941 0 -0.5 0.1768435446296783 0 -0.49999999999999922 0.20238182206047131 0 -0.48045244448741442 0.19344482521834941 0 -0.46090488897482962 0.18450782837622731 0 -0.48045244448741442 0.19344482521834941 0 -0.46090488897482962 0.18450782837622731 0 -0.48045244448741442 0.19344482521834941 0 -0.46190103350742617 0.20296769518509911 0 -0.46090488897482962 0.18450782837622731 0 -0.46190103350742617 0.20296769518509911 0 -0.44067879750512862 0.19602711431800909 0 -0.44067879750512862 0.19602711431800909 0 -0.45077842740349627 0.2201520199273094 0 -0.46190103350742617 0.20296769518509911 0 -0.44067879750512862 0.19602711431800909 0 -0.45077842740349627 0.2201520199273094 0 -0.44067879750512862 0.19602711431800909 0 -0.45077842740349627 0.2201520199273094 0 -0.42856451439274001 0.2093562472951718 0 -0.4766906091662621 0.2207066880856004 0 -0.46190103350742617 0.20296769518509911 0 -0.45077842740349627 0.2201520199273094 0 -0.45077842740349627 0.2201520199273094 0 -0.46087805730186399 0.2442769255366096 0 -0.4766906091662621 0.2207066880856004 0 -0.45077842740349627 0.2201520199273094 0 -0.46087805730186399 0.2442769255366096 0 -0.45077842740349627 0.2201520199273094 0 -0.44057175147848598 0.23923967503611829 0 -0.42737106223134802 0.2269697967323864 0 -0.44057175147848598 0.23923967503611829 0 -0.46087805730186399 0.2442769255366096 0 -0.44064366031254681 0.25883292783477407 0 -0.45077842740349627 0.2201520199273094 0 -0.44057175147848598 0.23923967503611829 0 -0.46087805730186399 0.2442769255366096 0 -0.4178674716704745 0.24859260188043569 0 -0.42737106223134802 0.2269697967323864 0 -0.4070156140997036 0.232582086713713 0 -0.44057175147848598 0.23923967503611829 0 -0.4178674716704745 0.24859260188043569 0 -0.44064366031254681 0.25883292783477407 0 -0.44057175147848598 0.23923967503611829 0 -0.4178674716704745 0.24859260188043569 0 -0.42737106223134802 0.2269697967323864 0 -0.45077842740349627 0.2201520199273094 0 -0.42737106223134802 0.2269697967323864 0 -0.42856451439274001 0.2093562472951718 0 -0.42737106223134802 0.2269697967323864 0 -0.4070156140997036 0.232582086713713 0 -0.40850654499327471 0.21329798617179649 0 -0.40850654499327471 0.21329798617179649 0 -0.42856451439274001 0.2093562472951718 0 -0.41548773983045251 0.1903343193263573 0 -0.42737106223134802 0.2269697967323864 0 -0.40850654499327471 0.21329798617179649 0 -0.42856451439274001 0.2093562472951718 0 -0.44067879750512862 0.19602711431800909 0 -0.42856451439274001 0.2093562472951718 0 -0.41548773983045251 0.1903343193263573 0 -0.41548773983045251 0.1903343193263573 0 -0.38922874937010382 0.2010666596882805 0 -0.38287751122171271 0.1760603042559945 0 -0.40850654499327471 0.21329798617179649 0 -0.41548773983045251 0.1903343193263573 0 -0.38922874937010382 0.2010666596882805 0 -0.38922874937010382 0.2010666596882805 0 -0.38287751122171271 0.1760603042559945 0 -0.37141185313106712 0.19494062480448121 0 -0.38922874937010382 0.2010666596882805 0 -0.37090803276211037 0.2116761130607675 0 -0.37141185313106712 0.19494062480448121 0 -0.38922874937010382 0.2010666596882805 0 -0.38556770841020271 0.22516649184971241 0 -0.37090803276211037 0.2116761130607675 0 -0.40850654499327471 0.21329798617179649 0 -0.38922874937010382 0.2010666596882805 0 -0.38556770841020271 0.22516649184971241 0 -0.4070156140997036 0.232582086713713 0 -0.40850654499327471 0.21329798617179649 0 -0.38556770841020271 0.22516649184971241 0 -0.39383175507615048 0.24673430455711989 0 -0.36979603848182652 0.24487600723380409 0 -0.38556770841020271 0.22516649184971241 0 -0.39383175507615048 0.24673430455711989 0 -0.36979603848182652 0.24487600723380409 0 -0.39383175507615048 0.24673430455711989 0 -0.36979603848182652 0.24487600723380409 0 -0.3800601359770836 0.25564484595707843 0 -0.4070156140997036 0.232582086713713 0 -0.38556770841020271 0.22516649184971241 0 -0.39383175507615048 0.24673430455711989 0 -0.4178674716704745 0.24859260188043569 0 -0.4070156140997036 0.232582086713713 0 -0.39383175507615048 0.24673430455711989 0 -0.4178674716704745 0.24859260188043569 0 -0.39383175507615048 0.24673430455711989 0 -0.41320524529068592 0.1368960367759364 0 -0.42755691059634809 0.1438000664109331 0 -0.4105440886337281 0.16613705347562641 0 -0.43257162568432511 0.12355777738738249 0 -0.41320524529068592 0.1368960367759364 0 -0.42755691059634809 0.1438000664109331 0 -0.43257162568432511 0.12355777738738249 0 -0.44325292732725768 0.13619566172046199 0 -0.42755691059634809 0.1438000664109331 0 -0.43821066604574349 0.15621380269525831 0 -0.42755691059634809 0.1438000664109331 0 -0.4105440886337281 0.16613705347562641 0 -0.43821066604574349 0.15621380269525831 0 -0.44325292732725768 0.13619566172046199 0 -0.42755691059634809 0.1438000664109331 0 -0.44135733346224482 0.1755708315341051 0 -0.43821066604574349 0.15621380269525831 0 -0.4105440886337281 0.16613705347562641 0 -0.43821066604574349 0.15621380269525831 0 -0.4105440886337281 0.16613705347562641 0 -0.44135733346224482 0.1755708315341051 0 -0.44067879750512862 0.19602711431800909 0 -0.41548773983045251 0.1903343193263573 0 -0.44135733346224482 0.1755708315341051 0 -0.41548773983045251 0.1903343193263573 0 -0.4105440886337281 0.16613705347562641 0 -0.41548773983045251 0.1903343193263573 0 -0.4105440886337281 0.16613705347562641 0 -0.38287751122171271 0.1760603042559945 0 -0.4105440886337281 0.16613705347562641 0 -0.38287751122171271 0.1760603042559945 0 -0.4105440886337281 0.16613705347562641 0 -0.38287751122171271 0.1760603042559945 0 -0.39221711619560379 0.15549059109051699 0 -0.38287751122171271 0.1760603042559945 0 -0.39221711619560379 0.15549059109051699 0 -0.37243397884595048 0.1472495613862331 0 -0.39221711619560379 0.15549059109051699 0 -0.39411947243213141 0.13685358375671691 0 -0.37243397884595048 0.1472495613862331 0 -0.41320524529068592 0.1368960367759364 0 -0.39221711619560379 0.15549059109051699 0 -0.39411947243213141 0.13685358375671691 0 -0.41320524529068592 0.1368960367759364 0 -0.4105440886337281 0.16613705347562641 0 -0.39221711619560379 0.15549059109051699 0 -0.39931050979208671 0.1182757043989533 0 -0.41320524529068592 0.1368960367759364 0 -0.39411947243213141 0.13685358375671691 0 -0.39931050979208671 0.1182757043989533 0 -0.38244713528919438 0.1241996252201293 0 -0.39411947243213141 0.13685358375671691 0 -0.38244713528919438 0.1241996252201293 0 -0.39411947243213141 0.13685358375671691 0 -0.37243397884595048 0.1472495613862331 0 -0.38244713528919438 0.1241996252201293 0 -0.37243397884595048 0.1472495613862331 0 -0.36439870644666089 0.1212341828275862 0 -0.3459542505013864 0.14087345620550551 0 -0.37243397884595048 0.1472495613862331 0 -0.36439870644666089 0.1212341828275862 0 -0.3459542505013864 0.14087345620550551 0 -0.36439870644666089 0.1212341828275862 0 -0.3459542505013864 0.14087345620550551 0 -0.37243397884595048 0.1472495613862331 0 -0.35354480155926599 0.16351199504570679 0 -0.38287751122171271 0.1760603042559945 0 -0.37243397884595048 0.1472495613862331 0 -0.35354480155926599 0.16351199504570679 0 -0.38287751122171271 0.1760603042559945 0 -0.35521093380969732 0.18598355503636249 0 -0.35354480155926599 0.16351199504570679 0 -0.38287751122171271 0.1760603042559945 0 -0.35521093380969732 0.18598355503636249 0 -0.38287751122171271 0.1760603042559945 0 -0.35521093380969732 0.18598355503636249 0 -0.37141185313106712 0.19494062480448121 0 -0.35521093380969732 0.18598355503636249 0 -0.35354480155926599 0.16351199504570679 0 -0.33583313302943579 0.17561064495494291 0 -0.35354480155926599 0.16351199504570679 0 -0.33583313302943579 0.17561064495494291 0 -0.32945983981277499 0.15376060535086861 0 -0.35521093380969732 0.18598355503636249 0 -0.33583313302943579 0.17561064495494291 0 -0.32754435639768192 0.19590680581673081 0 -0.31580975532149258 0.1715278167202432 0 -0.32754435639768192 0.19590680581673081 0 -0.31580975532149258 0.1715278167202432 0 -0.32754435639768192 0.19590680581673081 0 -0.30213231122994122 0.18830801107753661 0 -0.33583313302943579 0.17561064495494291 0 -0.31580975532149258 0.1715278167202432 0 -0.32754435639768192 0.19590680581673081 0 -0.33583313302943579 0.17561064495494291 0 -0.31580975532149258 0.1715278167202432 0 -0.32945983981277499 0.15376060535086861 0 -0.31580975532149258 0.1715278167202432 0 -0.316408976186418 0.15152519494454711 0 -0.32945983981277499 0.15376060535086861 0 -0.316408976186418 0.15152519494454711 0 -0.31451175745496862 0.13857620596136161 0 -0.32945983981277499 0.15376060535086861 0 -0.31451175745496862 0.13857620596136161 0 -0.32990175970401059 0.12822842922316299 0 -0.31311029200171292 0.1247724457694396 0 -0.31451175745496862 0.13857620596136161 0 -0.32990175970401059 0.12822842922316299 0 -0.32945983981277499 0.15376060535086861 0 -0.3459542505013864 0.14087345620550551 0 -0.32990175970401059 0.12822842922316299 0 -0.34276666178134457 0.1127328780662749 0 -0.3459542505013864 0.14087345620550551 0 -0.35354480155926599 0.16351199504570679 0 -0.32945983981277499 0.15376060535086861 0 -0.3459542505013864 0.14087345620550551 0 -0.32990175970401059 0.12822842922316299 0 -0.32945983981277499 0.15376060535086861 0 -0.34576032188750261 0.2430177099104871 0 -0.36979603848182652 0.24487600723380409 0 -0.35943176330833182 0.22804723608059979 0 -0.34576032188750261 0.2430177099104871 0 -0.36979603848182652 0.24487600723380409 0 -0.35668930213428429 0.25176810683765333 0 -0.34576032188750261 0.2430177099104871 0 -0.36979603848182652 0.24487600723380409 0 -0.34576032188750261 0.2430177099104871 0 -0.35668930213428429 0.25176810683765333 0 -0.38556770841020271 0.22516649184971241 0 -0.36979603848182652 0.24487600723380409 0 -0.35943176330833182 0.22804723608059979 0 -0.38556770841020271 0.22516649184971241 0 -0.35943176330833182 0.22804723608059979 0 -0.37090803276211037 0.2116761130607675 0 -0.34576032188750261 0.2430177099104871 0 -0.35943176330833182 0.22804723608059979 0 -0.34063805723499713 0.22310936582478191 0 -0.35943176330833182 0.22804723608059979 0 -0.35293883885677502 0.2063129139177505 0 -0.34063805723499713 0.22310936582478191 0 -0.35943176330833182 0.22804723608059979 0 -0.35293883885677502 0.2063129139177505 0 -0.37090803276211037 0.2116761130607675 0 -0.35293883885677502 0.2063129139177505 0 -0.37090803276211037 0.2116761130607675 0 -0.37141185313106712 0.19494062480448121 0 -0.35521093380969732 0.18598355503636249 0 -0.35293883885677502 0.2063129139177505 0 -0.37141185313106712 0.19494062480448121 0 -0.35521093380969732 0.18598355503636249 0 -0.35293883885677502 0.2063129139177505 0 -0.32754435639768192 0.19590680581673081 0 -0.35521093380969732 0.18598355503636249 0 -0.32754435639768192 0.19590680581673081 0 -0.32754435639768192 0.19590680581673081 0 -0.29948847043911753 0.2059696910116047 0 -0.32754435639768192 0.19590680581673081 0 -0.32262439616331101 0.22449370046104461 0 -0.29948847043911753 0.2059696910116047 0 -0.32754435639768192 0.19590680581673081 0 -0.34063805723499713 0.22310936582478191 0 -0.35293883885677502 0.2063129139177505 0 -0.32754435639768192 0.19590680581673081 0 -0.34063805723499713 0.22310936582478191 0 -0.32754435639768192 0.19590680581673081 0 -0.34063805723499713 0.22310936582478191 0 -0.32262439616331101 0.22449370046104461 0 -0.34576032188750261 0.2430177099104871 0 -0.34063805723499713 0.22310936582478191 0 -0.32262439616331101 0.22449370046104461 0 -0.34576032188750261 0.2430177099104871 0 -0.32262439616331101 0.22449370046104461 0 -0.32262439616331101 0.22449370046104461 0 -0.31675613276567488 0.24323027128106531 0 -0.30775894989116898 0.2347039152385143 0 -0.31675613276567488 0.24323027128106531 0 -0.3337651185026837 0.2420903127906579 0 -0.3259942009214159 0.2540923271119605 0 -0.32262439616331101 0.22449370046104461 0 -0.31675613276567488 0.24323027128106531 0 -0.3337651185026837 0.2420903127906579 0 -0.34576032188750261 0.2430177099104871 0 -0.32262439616331101 0.22449370046104461 0 -0.3337651185026837 0.2420903127906579 0 -0.3337651185026837 0.2420903127906579 0 -0.33766831174027923 0.25190742216087603 0 -0.3259942009214159 0.2540923271119605 0 -0.34576032188750261 0.2430177099104871 0 -0.3337651185026837 0.2420903127906579 0 -0.34576032188750261 0.2430177099104871 0 -0.3337651185026837 0.2420903127906579 0 -0.33766831174027923 0.25190742216087603 0 -0.29367258029158622 0.23600448089314821 0 -0.2788220018267038 0.24688355220206959 0 -0.29110970588793988 0.25613925754107048 0 -0.29367258029158622 0.23600448089314821 0 -0.27828121858129401 0.23045178511893599 0 -0.2788220018267038 0.24688355220206959 0 -0.29367258029158622 0.23600448089314821 0 -0.30217818509366878 0.2467752935355807 0 -0.29110970588793988 0.25613925754107048 0 -0.31675613276567488 0.24323027128106531 0 -0.30217818509366878 0.2467752935355807 0 -0.31059422902754291 0.25701610270224118 0 -0.31675613276567488 0.24323027128106531 0 -0.30217818509366878 0.2467752935355807 0 -0.30775894989116898 0.2347039152385143 0 -0.29367258029158622 0.23600448089314821 0 -0.30217818509366878 0.2467752935355807 0 -0.30775894989116898 0.2347039152385143 0 -0.32262439616331101 0.22449370046104461 0 -0.30775894989116898 0.2347039152385143 0 -0.30356345514160421 0.22301583002173281 0 -0.29367258029158622 0.23600448089314821 0 -0.30775894989116898 0.2347039152385143 0 -0.30356345514160421 0.22301583002173281 0 -0.29367258029158622 0.23600448089314821 0 -0.30356345514160421 0.22301583002173281 0 -0.28942102353585653 0.22212430834242219 0 -0.29367258029158622 0.23600448089314821 0 -0.28942102353585653 0.22212430834242219 0 -0.27828121858129401 0.23045178511893599 0 -0.29948847043911753 0.2059696910116047 0 -0.2713774302627916 0.2160523585281719 0 -0.28942102353585653 0.22212430834242219 0 -0.29948847043911753 0.2059696910116047 0 -0.2713774302627916 0.2160523585281719 0 -0.29948847043911753 0.2059696910116047 0 -0.28628345856967252 0.19539696668815659 0 -0.2713774302627916 0.2160523585281719 0 -0.30356345514160421 0.22301583002173281 0 -0.28942102353585653 0.22212430834242219 0 -0.29948847043911753 0.2059696910116047 0 -0.32262439616331101 0.22449370046104461 0 -0.30356345514160421 0.22301583002173281 0 -0.29948847043911753 0.2059696910116047 0 -0.32262439616331101 0.22449370046104461 0 -0.29948847043911753 0.2059696910116047 0 -0.32754435639768192 0.19590680581673081 0 -0.29948847043911753 0.2059696910116047 0 -0.30213231122994122 0.18830801107753661 0 -0.29948847043911753 0.2059696910116047 0 -0.30213231122994122 0.18830801107753661 0 -0.28628345856967252 0.19539696668815659 0 -0.30213231122994122 0.18830801107753661 0 -0.28628345856967252 0.19539696668815659 0 -0.28878635627731081 0.18457441100274191 0 -0.29948847043911753 0.2059696910116047 0 -0.28628345856967252 0.19539696668815659 0 -0.28628345856967252 0.19539696668815659 0 -0.28878635627731081 0.18457441100274191 0 -0.27779150406468639 0.18742436343848631 0 -0.2719048322161261 0.20028556930790059 0 -0.25868442527529367 0.1944791856907285 0 -0.27779150406468639 0.18742436343848631 0 -0.25868442527529367 0.1944791856907285 0 -0.27779150406468639 0.18742436343848631 0 -0.28628345856967252 0.19539696668815659 0 -0.2719048322161261 0.20028556930790059 0 -0.27779150406468639 0.18742436343848631 0 -0.25868442527529367 0.1944791856907285 0 -0.25290558257003232 0.2059153662565848 0 -0.23957734648590101 0.2015340079429708 0 -0.2719048322161261 0.20028556930790059 0 -0.25868442527529367 0.1944791856907285 0 -0.26290407683836758 0.20629351054825071 0 -0.25868442527529367 0.1944791856907285 0 -0.26290407683836758 0.20629351054825071 0 -0.25290558257003232 0.2059153662565848 0 -0.26290407683836758 0.20629351054825071 0 -0.25290558257003232 0.2059153662565848 0 -0.25882139574064988 0.21558550992665179 0 -0.25290558257003232 0.2059153662565848 0 -0.25882139574064988 0.21558550992665179 0 -0.2445406685099486 0.2116846171743218 0 -0.26290407683836758 0.20629351054825071 0 -0.25882139574064988 0.21558550992665179 0 -0.2713774302627916 0.2160523585281719 0 -0.2719048322161261 0.20028556930790059 0 -0.26290407683836758 0.20629351054825071 0 -0.2713774302627916 0.2160523585281719 0 -0.28628345856967252 0.19539696668815659 0 -0.2719048322161261 0.20028556930790059 0 -0.2713774302627916 0.2160523585281719 0 -0.28942102353585653 0.22212430834242219 0 -0.2713774302627916 0.2160523585281719 0 -0.27828121858129401 0.23045178511893599 0 -0.27828121858129401 0.23045178511893599 0 -0.26885074758489752 0.2270100260661255 0 -0.26840717558027749 0.24007666300691449 0 -0.2713774302627916 0.2160523585281719 0 -0.26885074758489752 0.2270100260661255 0 -0.25887615750702231 0.2270603743274747 0 -0.2713774302627916 0.2160523585281719 0 -0.27828121858129401 0.23045178511893599 0 -0.26885074758489752 0.2270100260661255 0 -0.2713774302627916 0.2160523585281719 0 -0.24326639008646531 0.22613502604473801 0 -0.25882139574064988 0.21558550992665179 0 -0.2713774302627916 0.2160523585281719 0 -0.24326639008646531 0.22613502604473801 0 -0.2713774302627916 0.2160523585281719 0 -0.25887615750702231 0.2270603743274747 0 -0.24326639008646531 0.22613502604473801 0 -0.25011857251462483 0.23304199510033061 0 -0.25887615750702231 0.2270603743274747 0 -0.24326639008646531 0.22613502604473801 0 -0.25011857251462483 0.23304199510033061 0 -0.25887615750702231 0.2270603743274747 0 -0.25852367428766532 0.23612268828481611 0 -0.26885074758489752 0.2270100260661255 0 -0.25887615750702231 0.2270603743274747 0 -0.25852367428766532 0.23612268828481611 0 -0.25852367428766532 0.23612268828481611 0 -0.25654248230236881 0.24794234615054991 0 -0.26840717558027749 0.24007666300691449 0 -0.26885074758489752 0.2270100260661255 0 -0.25852367428766532 0.23612268828481611 0 -0.26840717558027749 0.24007666300691449 0 -0.25011857251462483 0.23304199510033061 0 -0.25852367428766532 0.23612268828481611 0 -0.2483469102368013 0.2416047250575018 0 -0.25852367428766532 0.23612268828481611 0 -0.25654248230236881 0.24794234615054991 0 -0.2483469102368013 0.2416047250575018 0 -0.25654248230236881 0.24794234615054991 0 -0.26840717558027749 0.24007666300691449 0 -0.26681787323025352 0.25205751075495297 0 -0.27828121858129401 0.23045178511893599 0 -0.26840717558027749 0.24007666300691449 0 -0.2788220018267038 0.24688355220206959 0 -0.26840717558027749 0.24007666300691449 0 -0.2788220018267038 0.24688355220206959 0 -0.26681787323025352 0.25205751075495297 0 -0.29124668222022337 0.15020866927009 0 -0.28779622209632411 0.1421302549145039 0 -0.30407515424530318 0.14714882762375539 0 -0.28779622209632411 0.1421302549145039 0 -0.28722259610802958 0.13351348070280389 0 -0.30407515424530318 0.14714882762375539 0 -0.29124668222022337 0.15020866927009 0 -0.30407515424530318 0.14714882762375539 0 -0.29151932170997658 0.16198795839985519 0 -0.29124668222022337 0.15020866927009 0 -0.28159603082928969 0.1495676361422455 0 -0.29151932170997658 0.16198795839985519 0 -0.29124668222022337 0.15020866927009 0 -0.28159603082928969 0.1495676361422455 0 -0.28779622209632411 0.1421302549145039 0 -0.28159603082928969 0.1495676361422455 0 -0.28779622209632411 0.1421302549145039 0 -0.27746898202471082 0.13637318447544161 0 -0.28779622209632411 0.1421302549145039 0 -0.28722259610802958 0.13351348070280389 0 -0.27746898202471082 0.13637318447544161 0 -0.28722259610802958 0.13351348070280389 0 -0.29226962025468939 0.13222555643125089 0 -0.30407515424530318 0.14714882762375539 0 -0.29226962025468939 0.13222555643125089 0 -0.30407515424530318 0.14714882762375539 0 -0.29234055316911361 0.12276983852726769 0 -0.28722259610802958 0.13351348070280389 0 -0.28544017749631151 0.1254700788711765 0 -0.29226962025468939 0.13222555643125089 0 -0.28722259610802958 0.13351348070280389 0 -0.28544017749631151 0.1254700788711765 0 -0.27841010121023829 0.1259100655302231 0 -0.28544017749631151 0.1254700788711765 0 -0.29226962025468939 0.13222555643125089 0 -0.29234055316911361 0.12276983852726769 0 -0.31451175745496862 0.13857620596136161 0 -0.30407515424530318 0.14714882762375539 0 -0.29234055316911361 0.12276983852726769 0 -0.30407515424530318 0.14714882762375539 0 -0.29234055316911361 0.12276983852726769 0 -0.31451175745496862 0.13857620596136161 0 -0.29234055316911361 0.12276983852726769 0 -0.31311029200171292 0.1247724457694396 0 -0.31451175745496862 0.13857620596136161 0 -0.29234055316911361 0.12276983852726769 0 -0.316408976186418 0.15152519494454711 0 -0.31451175745496862 0.13857620596136161 0 -0.30407515424530318 0.14714882762375539 0 -0.31580975532149258 0.1715278167202432 0 -0.30407515424530318 0.14714882762375539 0 -0.29151932170997658 0.16198795839985519 0 -0.31580975532149258 0.1715278167202432 0 -0.29537837780579501 0.17629535431120469 0 -0.29151932170997658 0.16198795839985519 0 -0.31580975532149258 0.1715278167202432 0 -0.316408976186418 0.15152519494454711 0 -0.30407515424530318 0.14714882762375539 0 -0.31580975532149258 0.1715278167202432 0 -0.30407515424530318 0.14714882762375539 0 -0.31580975532149258 0.1715278167202432 0 -0.30213231122994122 0.18830801107753661 0 -0.29537837780579501 0.17629535431120469 0 -0.30213231122994122 0.18830801107753661 0 -0.29537837780579501 0.17629535431120469 0 -0.28878635627731081 0.18457441100274191 0 -0.29537837780579501 0.17629535431120469 0 -0.28234612971645889 0.17544735949832499 0 -0.28878635627731081 0.18457441100274191 0 -0.28234612971645889 0.17544735949832499 0 -0.28878635627731081 0.18457441100274191 0 -0.27779150406468639 0.18742436343848631 0 -0.28159603082928969 0.1495676361422455 0 -0.29151932170997658 0.16198795839985519 0 -0.27136979260127458 0.1646399994931447 0 -0.28234612971645889 0.17544735949832499 0 -0.29151932170997658 0.16198795839985519 0 -0.27136979260127458 0.1646399994931447 0 -0.29537837780579501 0.17629535431120469 0 -0.28234612971645889 0.17544735949832499 0 -0.29151932170997658 0.16198795839985519 0 -0.25868442527529367 0.1944791856907285 0 -0.27779150406468639 0.18742436343848631 0 -0.26972833327113321 0.1775850494299793 0 -0.28234612971645889 0.17544735949832499 0 -0.27779150406468639 0.18742436343848631 0 -0.26972833327113321 0.1775850494299793 0 -0.28234612971645889 0.17544735949832499 0 -0.27136979260127458 0.1646399994931447 0 -0.26972833327113321 0.1775850494299793 0 -0.27136979260127458 0.1646399994931447 0 -0.26972833327113321 0.1775850494299793 0 -0.25594996207948578 0.17584900181966229 0 -0.25868442527529367 0.1944791856907285 0 -0.26972833327113321 0.1775850494299793 0 -0.25594996207948578 0.17584900181966229 0 -0.25868442527529367 0.1944791856907285 0 -0.25594996207948578 0.17584900181966229 0 -0.24518116470478141 0.18644185592393681 0 -0.27136979260127458 0.1646399994931447 0 -0.25594996207948578 0.17584900181966229 0 -0.25546120793328753 0.1602216454260274 0 -0.25594996207948578 0.17584900181966229 0 -0.25546120793328753 0.1602216454260274 0 -0.23922518674812709 0.17190008703582821 0 -0.27136979260127458 0.1646399994931447 0 -0.25546120793328753 0.1602216454260274 0 -0.26802432658991521 0.14331470421497869 0 -0.25546120793328753 0.1602216454260274 0 -0.26802432658991521 0.14331470421497869 0 -0.24273677164763449 0.14540443456652299 0 -0.28159603082928969 0.1495676361422455 0 -0.27136979260127458 0.1646399994931447 0 -0.26802432658991521 0.14331470421497869 0 -0.27136979260127458 0.1646399994931447 0 -0.26802432658991521 0.14331470421497869 0 -0.28159603082928969 0.1495676361422455 0 -0.26802432658991521 0.14331470421497869 0 -0.27746898202471082 0.13637318447544161 0 -0.26802432658991521 0.14331470421497869 0 -0.26467886057855577 0.1219894089368128 0 -0.26802432658991521 0.14331470421497869 0 -0.27746898202471082 0.13637318447544161 0 -0.26467886057855577 0.1219894089368128 0 -0.28722259610802958 0.13351348070280389 0 -0.27841010121023829 0.1259100655302231 0 -0.27746898202471082 0.13637318447544161 0 -0.27841010121023829 0.1259100655302231 0 -0.27746898202471082 0.13637318447544161 0 -0.26467886057855577 0.1219894089368128 0 -0.26802432658991521 0.14331470421497869 0 -0.25542207884081181 0.13240433245388311 0 -0.26467886057855577 0.1219894089368128 0 -0.26802432658991521 0.14331470421497869 0 -0.25542207884081181 0.13240433245388311 0 -0.24273677164763449 0.14540443456652299 0 -0.2561522602211721 0.11035624559928579 0 -0.26467886057855577 0.1219894089368128 0 -0.24624835654714189 0.118908782097218 0 -0.2561522602211721 0.11035624559928579 0 -0.26467886057855577 0.1219894089368128 0 -0.2613333945671964 0.1006641136586468 0 -0.25542207884081181 0.13240433245388311 0 -0.26467886057855577 0.1219894089368128 0 -0.24624835654714189 0.118908782097218 0 -0.26467886057855577 0.1219894089368128 0 -0.2613333945671964 0.1006641136586468 0 -0.2561522602211721 0.11035624559928579 0 -0.24975994144664779 0.09241312962791276 0 -0.24624835654714189 0.118908782097218 0 -0.2561522602211721 0.11035624559928579 0 -0.2613333945671964 0.1006641136586468 0 -0.24975994144664779 0.09241312962791276 0 -0.2613333945671964 0.1006641136586468 0 -0.24975994144664779 0.09241312962791276 0 -0.2613333945671964 0.1006641136586468 0 -0.25957121678731648 0.089431310407630749 0 -0.24975994144664779 0.09241312962791276 0 -0.2613333945671964 0.1006641136586468 0 -0.25957121678731648 0.089431310407630749 0 -0.2613333945671964 0.1006641136586468 0 -0.2677140150966244 0.092948432089817429 0 -0.25957121678731648 0.089431310407630749 0 -0.2613333945671964 0.1006641136586468 0 -0.27291852617317891 0.099920323272956468 0 -0.2677140150966244 0.092948432089817429 0 -0.27291852617317891 0.099920323272956468 0 -0.27732393745212641 0.091190942441358516 0 -0.2677140150966244 0.092948432089817429 0 -0.2613333945671964 0.1006641136586468 0 -0.27683697386815492 0.1117169760929575 0 -0.2613333945671964 0.1006641136586468 0 -0.27291852617317891 0.099920323272956468 0 -0.27683697386815492 0.1117169760929575 0 -0.27291852617317891 0.099920323272956468 0 -0.27683697386815492 0.1117169760929575 0 -0.28159211042947951 0.1020884740435838 0 -0.27291852617317891 0.099920323272956468 0 -0.28159211042947951 0.1020884740435838 0 -0.27732393745212641 0.091190942441358516 0 -0.26467886057855577 0.1219894089368128 0 -0.2613333945671964 0.1006641136586468 0 -0.27683697386815492 0.1117169760929575 0 -0.26467886057855577 0.1219894089368128 0 -0.27683697386815492 0.1117169760929575 0 -0.27973073874467741 0.1200954314185962 0 -0.27841010121023829 0.1259100655302231 0 -0.26467886057855577 0.1219894089368128 0 -0.27973073874467741 0.1200954314185962 0 -0.28544017749631151 0.1254700788711765 0 -0.27841010121023829 0.1259100655302231 0 -0.27973073874467741 0.1200954314185962 0 -0.27683697386815492 0.1117169760929575 0 -0.29234055316911361 0.12276983852726769 0 -0.27683697386815492 0.1117169760929575 0 -0.27973073874467741 0.1200954314185962 0 -0.29234055316911361 0.12276983852726769 0 -0.28544017749631151 0.1254700788711765 0 -0.27973073874467741 0.1200954314185962 0 -0.29234055316911361 0.12276983852726769 0 -0.27683697386815492 0.1117169760929575 0 -0.29234055316911361 0.12276983852726769 0 -0.29157854723539622 0.1211867481240283 0 -0.29234055316911361 0.12276983852726769 0 -0.29157854723539622 0.1211867481240283 0 -0.3041213735496639 0.1173248100144092 0 -0.29234055316911361 0.12276983852726769 0 -0.29157854723539622 0.1211867481240283 0 -0.29157854723539622 0.1211867481240283 0 -0.28816178403274312 0.11408831910015781 0 -0.27683697386815492 0.1117169760929575 0 -0.29157854723539622 0.1211867481240283 0 -0.28816178403274312 0.11408831910015781 0 -0.28816178403274312 0.11408831910015781 0 -0.28159211042947951 0.1020884740435838 0 -0.29370736177931428 0.091246635442586363 0 -0.29157854723539622 0.1211867481240283 0 -0.28816178403274312 0.11408831910015781 0 -0.29370736177931428 0.091246635442586363 0 -0.29157854723539622 0.1211867481240283 0 -0.29370736177931428 0.091246635442586363 0 -0.27683697386815492 0.1117169760929575 0 -0.28816178403274312 0.11408831910015781 0 -0.28159211042947951 0.1020884740435838 0 -0.29157854723539622 0.1211867481240283 0 -0.30513657843771241 0.101800956164355 0 -0.29370736177931428 0.091246635442586363 0 -0.28159211042947951 0.1020884740435838 0 -0.29370736177931428 0.091246635442586363 0 -0.27732393745212641 0.091190942441358516 0 -0.29157854723539622 0.1211867481240283 0 -0.30513657843771241 0.101800956164355 0 -0.3041213735496639 0.1173248100144092 0 -0.29234055316911361 0.12276983852726769 0 -0.3041213735496639 0.1173248100144092 0 -0.31311029200171292 0.1247724457694396 0 -0.30513657843771241 0.101800956164355 0 -0.3041213735496639 0.1173248100144092 0 -0.31938176339054147 0.1132000580185267 0 -0.3041213735496639 0.1173248100144092 0 -0.31938176339054147 0.1132000580185267 0 -0.31311029200171292 0.1247724457694396 0 -0.29570346008562221 0.061370404495474082 0 -0.31364519567580718 0.082365160113531247 0 -0.32417033824182939 0.063116242046799775 0 -0.29370736177931428 0.091246635442586363 0 -0.29570346008562221 0.061370404495474082 0 -0.31364519567580718 0.082365160113531247 0 -0.30513657843771241 0.101800956164355 0 -0.29370736177931428 0.091246635442586363 0 -0.31364519567580718 0.082365160113531247 0 -0.29370736177931428 0.091246635442586363 0 -0.27718249591623523 0.075231532859718162 0 -0.27732393745212641 0.091190942441358516 0 -0.29370736177931428 0.091246635442586363 0 -0.29570346008562221 0.061370404495474082 0 -0.29370736177931428 0.091246635442586363 0 -0.27718249591623523 0.075231532859718162 0 -0.29570346008562221 0.061370404495474082 0 -0.27718249591623523 0.075231532859718162 0 -0.2674941510825663 0.060234722703477767 0 -0.29570346008562221 0.061370404495474082 0 -0.27718249591623523 0.075231532859718162 0 -0.26742300050330392 0.083535470668494552 0 -0.26512178122053809 0.072385913868576512 0 -0.27718249591623523 0.075231532859718162 0 -0.26512178122053809 0.072385913868576512 0 -0.2674941510825663 0.060234722703477767 0 -0.27718249591623523 0.075231532859718162 0 -0.27732393745212641 0.091190942441358516 0 -0.26742300050330392 0.083535470668494552 0 -0.27732393745212641 0.091190942441358516 0 -0.26742300050330392 0.083535470668494552 0 -0.2677140150966244 0.092948432089817429 0 -0.25299446161211869 0.068007989310433864 0 -0.24975994144664779 0.09241312962791276 0 -0.25783235709467051 0.079032014305447637 0 -0.25299446161211869 0.068007989310433864 0 -0.24975994144664779 0.09241312962791276 0 -0.26742300050330392 0.083535470668494552 0 -0.2677140150966244 0.092948432089817429 0 -0.25957121678731648 0.089431310407630749 0 -0.26742300050330392 0.083535470668494552 0 -0.25783235709467051 0.079032014305447637 0 -0.26512178122053809 0.072385913868576512 0 -0.26742300050330392 0.083535470668494552 0 -0.25957121678731648 0.089431310407630749 0 -0.25783235709467051 0.079032014305447637 0 -0.25957121678731648 0.089431310407630749 0 -0.25783235709467051 0.079032014305447637 0 -0.24975994144664779 0.09241312962791276 0 -0.26512178122053809 0.072385913868576512 0 -0.25299446161211869 0.068007989310433864 0 -0.2674941510825663 0.060234722703477767 0 -0.25783235709467051 0.079032014305447637 0 -0.26512178122053809 0.072385913868576512 0 -0.25299446161211869 0.068007989310433864 0 -0.25299446161211869 0.068007989310433864 0 -0.25632073375013392 0.04291056091006621 0 -0.2478510699036621 0.047134690305077498 0 -0.25299446161211869 0.068007989310433864 0 -0.25632073375013392 0.04291056091006621 0 -0.25299446161211869 0.068007989310433864 0 -0.26738886839737519 0.04395879899459023 0 -0.2674941510825663 0.060234722703477767 0 -0.25299446161211869 0.068007989310433864 0 -0.25632073375013392 0.04291056091006621 0 -0.26738886839737519 0.04395879899459023 0 -0.25299446161211869 0.068007989310433864 0 -0.26738886839737519 0.04395879899459023 0 -0.25632073375013392 0.04291056091006621 0 -0.26738886839737519 0.04395879899459023 0 -0.25964700588814971 0.017813132509698529 0 -0.25632073375013392 0.04291056091006621 0 -0.24639898478570879 0.038766985903960813 0 -0.2478510699036621 0.047134690305077498 0 -0.25632073375013392 0.04291056091006621 0 -0.25011764088669941 0.02697989722910352 0 -0.24639898478570879 0.038766985903960813 0 -0.26738886839737519 0.04395879899459023 0 -0.28161314221796963 0.01968710335779043 0 -0.28482441905157158 0.045092195076015043 0 -0.26738886839737519 0.04395879899459023 0 -0.28161314221796963 0.01968710335779043 0 -0.26738886839737519 0.04395879899459023 0 -0.2674941510825663 0.060234722703477767 0 -0.28482441905157158 0.045092195076015043 0 -0.26297327802616549 -0.007284295890669118 0 -0.25964700588814971 0.017813132509698529 0 -0.2740535381829538 0.002859602543604707 0 -0.24871960323422521 -0.0040779935892079214 0 -0.26297327802616549 -0.007284295890669118 0 -0.25964700588814971 0.017813132509698529 0 -0.26297327802616549 -0.007284295890669118 0 -0.25964700588814971 0.017813132509698529 0 -0.25632073375013392 0.04291056091006621 0 -0.25964700588814971 0.017813132509698529 0 -0.25011764088669941 0.02697989722910352 0 -0.25632073375013392 0.04291056091006621 0 -0.25964700588814971 0.017813132509698529 0 -0.26738886839737519 0.04395879899459023 0 -0.25964700588814971 0.017813132509698529 0 -0.28161314221796963 0.01968710335779043 0 -0.25964700588814971 0.017813132509698529 0 -0.2740535381829538 0.002859602543604707 0 -0.28161314221796963 0.01968710335779043 0 -0.29583741603856339 -0.0045845922790098536 0 -0.2740535381829538 0.002859602543604707 0 -0.28161314221796963 0.01968710335779043 0 -0.29583741603856339 -0.0045845922790098536 0 -0.28161314221796963 0.01968710335779043 0 -0.29583741603856339 -0.0045845922790098536 0 -0.28161314221796963 0.01968710335779043 0 -0.30362272910130572 0.015071065935376011 0 -0.28161314221796963 0.01968710335779043 0 -0.30362272910130572 0.015071065935376011 0 -0.29769955839193019 0.031494173548361787 0 -0.30362272910130572 0.015071065935376011 0 -0.29769955839193019 0.031494173548361787 0 -0.3218782592077063 0.026697859096088 0 -0.29583741603856339 -0.0045845922790098536 0 -0.30362272910130572 0.015071065935376011 0 -0.32108526965035911 0.002060785953649905 0 -0.2674941510825663 0.060234722703477767 0 -0.29570346008562221 0.061370404495474082 0 -0.28482441905157158 0.045092195076015043 0 -0.28161314221796963 0.01968710335779043 0 -0.28482441905157158 0.045092195076015043 0 -0.29769955839193019 0.031494173548361787 0 -0.29570346008562221 0.061370404495474082 0 -0.29769955839193019 0.031494173548361787 0 -0.29570346008562221 0.061370404495474082 0 -0.28482441905157158 0.045092195076015043 0 -0.29769955839193019 0.031494173548361787 0 -0.29570346008562221 0.061370404495474082 0 -0.29769955839193019 0.031494173548361787 0 -0.31325872883305722 0.046587726113792027 0 -0.29769955839193019 0.031494173548361787 0 -0.31325872883305722 0.046587726113792027 0 -0.3218782592077063 0.026697859096088 0 -0.29570346008562221 0.061370404495474082 0 -0.31325872883305722 0.046587726113792027 0 -0.32417033824182939 0.063116242046799775 0 -0.31325872883305722 0.046587726113792027 0 -0.33540189063302861 0.047388736750722332 0 -0.32417033824182939 0.063116242046799775 0 -0.31325872883305722 0.046587726113792027 0 -0.33540189063302861 0.047388736750722332 0 -0.3218782592077063 0.026697859096088 0 -0.33540189063302861 0.047388736750722332 0 -0.3218782592077063 0.026697859096088 0 -0.3509267554652265 0.03040484938267728 0 -0.33540189063302861 0.047388736750722332 0 -0.35038353159444852 0.065388771526327549 0 -0.32417033824182939 0.063116242046799775 0 -0.30362272910130572 0.015071065935376011 0 -0.32108526965035911 0.002060785953649905 0 -0.3218782592077063 0.026697859096088 0 -0.3218782592077063 0.026697859096088 0 -0.34633312326215482 0.0087061641863099039 0 -0.3509267554652265 0.03040484938267728 0 -0.32108526965035911 0.002060785953649905 0 -0.34633312326215482 0.0087061641863099039 0 -0.32108526965035911 0.002060785953649905 0 -0.3218782592077063 0.026697859096088 0 -0.34633312326215482 0.0087061641863099039 0 -0.34633312326215482 0.0087061641863099039 0 -0.37158097687395047 0.0153515424189699 0 -0.35999683847671909 -0.012408625360805579 0 -0.34633312326215482 0.0087061641863099039 0 -0.37158097687395047 0.0153515424189699 0 -0.34633312326215482 0.0087061641863099039 0 -0.3509267554652265 0.03040484938267728 0 -0.37158097687395047 0.0153515424189699 0 -0.3509267554652265 0.03040484938267728 0 -0.37158097687395047 0.0153515424189699 0 -0.37310467998658048 0.033205643054502923 0 -0.33540189063302861 0.047388736750722332 0 -0.36370318070167962 0.048460228983828568 0 -0.35038353159444852 0.065388771526327549 0 -0.33540189063302861 0.047388736750722332 0 -0.3509267554652265 0.03040484938267728 0 -0.36370318070167962 0.048460228983828568 0 -0.37987359111232638 0.042726657548247719 0 -0.37310467998658048 0.033205643054502923 0 -0.36370318070167962 0.048460228983828568 0 -0.3509267554652265 0.03040484938267728 0 -0.37310467998658048 0.033205643054502923 0 -0.36370318070167962 0.048460228983828568 0 -0.38155454120004317 0.054287033044786361 0 -0.36370318070167962 0.048460228983828568 0 -0.36784155453162448 0.061165022003685038 0 -0.36370318070167962 0.048460228983828568 0 -0.36784155453162448 0.061165022003685038 0 -0.35038353159444852 0.065388771526327549 0 -0.36784155453162448 0.061165022003685038 0 -0.37349743117770789 0.075547985462423001 0 -0.35038353159444852 0.065388771526327549 0 -0.38155454120004317 0.054287033044786361 0 -0.36784155453162448 0.061165022003685038 0 -0.37349743117770789 0.075547985462423001 0 -0.37349743117770789 0.075547985462423001 0 -0.35038353159444852 0.065388771526327549 0 -0.3509438089689545 0.084872696778424545 0 -0.35038353159444852 0.065388771526327549 0 -0.3509438089689545 0.084872696778424545 0 -0.333445349258987 0.078167520840418739 0 -0.37349743117770789 0.075547985462423001 0 -0.3509438089689545 0.084872696778424545 0 -0.36081428239478969 0.1013891129283626 0 -0.37349743117770789 0.075547985462423001 0 -0.3509438089689545 0.084872696778424545 0 -0.3828431623919355 0.1015949094496669 0 -0.37349743117770789 0.075547985462423001 0 -0.36081428239478969 0.1013891129283626 0 -0.3828431623919355 0.1015949094496669 0 -0.36081428239478969 0.1013891129283626 0 -0.36439870644666089 0.1212341828275862 0 -0.3828431623919355 0.1015949094496669 0 -0.36439870644666089 0.1212341828275862 0 -0.36081428239478969 0.1013891129283626 0 -0.36439870644666089 0.1212341828275862 0 -0.34276666178134457 0.1127328780662749 0 -0.3459542505013864 0.14087345620550551 0 -0.36439870644666089 0.1212341828275862 0 -0.34276666178134457 0.1127328780662749 0 -0.3509438089689545 0.084872696778424545 0 -0.36081428239478969 0.1013891129283626 0 -0.34276666178134457 0.1127328780662749 0 -0.34276666178134457 0.1127328780662749 0 -0.31938176339054147 0.1132000580185267 0 -0.32808387181389548 0.095094733737010634 0 -0.3509438089689545 0.084872696778424545 0 -0.34276666178134457 0.1127328780662749 0 -0.32808387181389548 0.095094733737010634 0 -0.32990175970401059 0.12822842922316299 0 -0.34276666178134457 0.1127328780662749 0 -0.31938176339054147 0.1132000580185267 0 -0.32990175970401059 0.12822842922316299 0 -0.31938176339054147 0.1132000580185267 0 -0.31311029200171292 0.1247724457694396 0 -0.30513657843771241 0.101800956164355 0 -0.31938176339054147 0.1132000580185267 0 -0.32808387181389548 0.095094733737010634 0 -0.32808387181389548 0.095094733737010634 0 -0.31364519567580718 0.082365160113531247 0 -0.333445349258987 0.078167520840418739 0 -0.30513657843771241 0.101800956164355 0 -0.32808387181389548 0.095094733737010634 0 -0.31364519567580718 0.082365160113531247 0 -0.31364519567580718 0.082365160113531247 0 -0.32417033824182939 0.063116242046799775 0 -0.333445349258987 0.078167520840418739 0 -0.35038353159444852 0.065388771526327549 0 -0.32417033824182939 0.063116242046799775 0 -0.333445349258987 0.078167520840418739 0 -0.3509438089689545 0.084872696778424545 0 -0.32808387181389548 0.095094733737010634 0 -0.333445349258987 0.078167520840418739 0 -0.41243932107201742 0.48508410512194883 0 -0.43017281174298672 0.5 0 -0.34498130892432338 0.50000000000000155 0 -0.378074167078991 0.47710847516297489 0 -0.41243932107201742 0.48508410512194883 0 -0.34498130892432338 0.50000000000000155 0 -0.39556188928894109 0.46991328556264911 0 -0.378074167078991 0.47710847516297489 0 -0.41243932107201742 0.48508410512194883 0 -0.39556188928894109 0.46991328556264911 0 -0.41005370557258097 0.46511704713897378 0 -0.41243932107201742 0.48508410512194883 0 -0.39556188928894109 0.46991328556264911 0 -0.378074167078991 0.47710847516297489 0 -0.38185403092472631 0.46046903355988072 0 -0.39681415542208481 0.44826445017703181 0 -0.3691168313735429 0.44869358970905188 0 -0.38185403092472631 0.46046903355988072 0 -0.39681415542208481 0.44826445017703181 0 -0.3691168313735429 0.44869358970905188 0 -0.39681415542208481 0.44826445017703181 0 -0.38220472950674328 0.43285739042239468 0 -0.3691168313735429 0.44869358970905188 0 -0.39681415542208481 0.44826445017703181 0 -0.39607094530208331 0.46094095410963382 0 -0.41005370557258097 0.46511704713897378 0 -0.39556188928894109 0.46991328556264911 0 -0.38185403092472631 0.46046903355988072 0 -0.39607094530208331 0.46094095410963382 0 -0.38185403092472631 0.46046903355988072 0 -0.39681415542208481 0.44826445017703181 0 -0.39607094530208331 0.46094095410963382 0 -0.39556188928894109 0.46991328556264911 0 -0.39607094530208331 0.46094095410963382 0 -0.41005370557258097 0.46511704713897378 0 -0.41005370557258097 0.46511704713897378 0 -0.42451147947062662 0.44783531064501148 0 -0.42759467031169851 0.47757387497952958 0 -0.39681415542208481 0.44826445017703181 0 -0.41005370557258097 0.46511704713897378 0 -0.42451147947062662 0.44783531064501148 0 -0.39681415542208481 0.44826445017703181 0 -0.42451147947062662 0.44783531064501148 0 -0.40107126945449789 0.42734472616511959 0 -0.39681415542208481 0.44826445017703181 0 -0.42451147947062662 0.44783531064501148 0 -0.43564062049140201 0.43816660827706411 0 -0.42451147947062662 0.44783531064501148 0 -0.44967431964708487 0.44744544014926629 0 -0.43564062049140201 0.43816660827706411 0 -0.42451147947062662 0.44783531064501148 0 -0.42526849945817052 0.42968250407153741 0 -0.42451147947062662 0.44783531064501148 0 -0.44967431964708487 0.44744544014926629 0 -0.42451147947062662 0.44783531064501148 0 -0.44319805221748398 0.45345129793102279 0 -0.43759193102936422 0.46357923544508389 0 -0.42451147947062662 0.44783531064501148 0 -0.42759467031169851 0.47757387497952958 0 -0.42451147947062662 0.44783531064501148 0 -0.42759467031169851 0.47757387497952958 0 -0.43759193102936422 0.46357923544508389 0 -0.42759467031169851 0.47757387497952958 0 -0.41243932107201742 0.48508410512194883 0 -0.44162621404801089 0.48648417582636261 0 -0.41005370557258097 0.46511704713897378 0 -0.42759467031169851 0.47757387497952958 0 -0.41243932107201742 0.48508410512194883 0 -0.41243932107201742 0.48508410512194883 0 -0.44162621404801089 0.48648417582636261 0 -0.41243932107201742 0.48508410512194883 0 -0.43017281174298672 0.5 0 -0.44162621404801089 0.48648417582636261 0 -0.43017281174298672 0.5 0 -0.47081310702400458 0.4878842465307765 0 -0.5 0.5 0 -0.43017281174298672 0.5 0 -0.44162621404801089 0.48648417582636261 0 -0.47081310702400458 0.4878842465307765 0 -0.42759467031169851 0.47757387497952958 0 -0.44162621404801089 0.48648417582636261 0 -0.45015133009734343 0.47465598876030918 0 -0.42759467031169851 0.47757387497952958 0 -0.45015133009734343 0.47465598876030918 0 -0.43759193102936422 0.46357923544508389 0 -0.45015133009734343 0.47465598876030918 0 -0.45783982609035362 0.46870353854139818 0 -0.44935800685203892 0.46364400178695647 0 -0.44162621404801089 0.48648417582636261 0 -0.45015133009734343 0.47465598876030918 0 -0.47081310702400458 0.4878842465307765 0 -0.45015133009734343 0.47465598876030918 0 -0.46623555532593342 0.47472284821205679 0 -0.47081310702400458 0.4878842465307765 0 -0.45015133009734343 0.47465598876030918 0 -0.46623555532593342 0.47472284821205679 0 -0.45783982609035362 0.46870353854139818 0 -0.44162621404801089 0.48648417582636261 0 -0.47081310702400458 0.4878842465307765 0 -0.46623555532593342 0.47472284821205679 0 -0.47081310702400458 0.4878842465307765 0 -0.48585567440613969 0.47922158082141608 0 -0.46623555532593342 0.47472284821205679 0 -0.48585567440613969 0.47922158082141608 0 -0.47159902610874238 0.46130507116933278 0 -0.48585567440613969 0.47922158082141608 0 -0.50000000000000067 0.46915884440764299 0 -0.47159902610874238 0.46130507116933278 0 -0.48585567440613969 0.47922158082141608 0 -0.50000000000000067 0.46915884440764299 0 -0.49999999999999839 0.48928431723519028 0 -0.47081310702400458 0.4878842465307765 0 -0.5 0.5 0 -0.49999999999999839 0.48928431723519028 0 -0.47081310702400458 0.4878842465307765 0 -0.49999999999999839 0.48928431723519028 0 -0.47081310702400458 0.4878842465307765 0 -0.48585567440613969 0.47922158082141608 0 -0.49999999999999839 0.48928431723519028 0 -0.50000000000000155 0.44666569915777571 0 -0.47483715982354319 0.447055569653521 0 -0.48046844558178181 0.42712340665522103 0 -0.50000000000000155 0.44666569915777571 0 -0.47483715982354319 0.447055569653521 0 -0.50000000000000155 0.44666569915777571 0 -0.48660904648307179 0.45604629609706809 0 -0.47483715982354319 0.447055569653521 0 -0.50000000000000067 0.46915884440764299 0 -0.50000000000000155 0.44666569915777571 0 -0.48660904648307179 0.45604629609706809 0 -0.50000000000000067 0.46915884440764299 0 -0.47159902610874238 0.46130507116933278 0 -0.50000000000000067 0.46915884440764299 0 -0.48660904648307179 0.45604629609706809 0 -0.47159902610874238 0.46130507116933278 0 -0.48660904648307179 0.45604629609706809 0 -0.47159902610874238 0.46130507116933278 0 -0.47483715982354319 0.447055569653521 0 -0.47159902610874238 0.46130507116933278 0 -0.47483715982354319 0.447055569653521 0 -0.44967431964708487 0.44744544014926629 0 -0.47483715982354319 0.447055569653521 0 -0.44967431964708487 0.44744544014926629 0 -0.46152482071272022 0.42396497655288712 0 -0.47483715982354319 0.447055569653521 0 -0.44967431964708487 0.44744544014926629 0 -0.47159902610874238 0.46130507116933278 0 -0.44319805221748398 0.45345129793102279 0 -0.44967431964708487 0.44744544014926629 0 -0.47159902610874238 0.46130507116933278 0 -0.45783982609035362 0.46870353854139818 0 -0.44935800685203892 0.46364400178695647 0 -0.47159902610874238 0.46130507116933278 0 -0.44935800685203892 0.46364400178695647 0 -0.44319805221748398 0.45345129793102279 0 -0.47159902610874238 0.46130507116933278 0 -0.44319805221748398 0.45345129793102279 0 -0.46623555532593342 0.47472284821205679 0 -0.47159902610874238 0.46130507116933278 0 -0.45783982609035362 0.46870353854139818 0 -0.45015133009734343 0.47465598876030918 0 -0.44935800685203892 0.46364400178695647 0 -0.43759193102936422 0.46357923544508389 0 -0.44935800685203892 0.46364400178695647 0 -0.44319805221748398 0.45345129793102279 0 -0.43759193102936422 0.46357923544508389 0 -0.43564062049140201 0.43816660827706411 0 -0.44967431964708487 0.44744544014926629 0 -0.44310818338972591 0.4277031782424412 0 -0.42451147947062662 0.44783531064501148 0 -0.44319805221748398 0.45345129793102279 0 -0.44967431964708487 0.44744544014926629 0 -0.44967431964708487 0.44744544014926629 0 -0.44310818338972591 0.4277031782424412 0 -0.46152482071272022 0.42396497655288712 0 -0.44310818338972591 0.4277031782424412 0 -0.44909750917251429 0.41521973920343141 0 -0.46152482071272022 0.42396497655288712 0 -0.44310818338972591 0.4277031782424412 0 -0.43763201273079999 0.41070704093857069 0 -0.44909750917251429 0.41521973920343141 0 -0.43763201273079999 0.41070704093857069 0 -0.44909750917251429 0.41521973920343141 0 -0.44683109493707568 0.40310836352607632 0 -0.44909750917251429 0.41521973920343141 0 -0.45882774969176882 0.40335462690365492 0 -0.44683109493707568 0.40310836352607632 0 -0.46152482071272022 0.42396497655288712 0 -0.47663778434226739 0.40466466451434369 0 -0.45882774969176882 0.40335462690365492 0 -0.44909750917251429 0.41521973920343141 0 -0.46152482071272022 0.42396497655288712 0 -0.45882774969176882 0.40335462690365492 0 -0.47483715982354319 0.447055569653521 0 -0.46152482071272022 0.42396497655288712 0 -0.48046844558178181 0.42712340665522103 0 -0.46152482071272022 0.42396497655288712 0 -0.48046844558178181 0.42712340665522103 0 -0.47663778434226739 0.40466466451434369 0 -0.48046844558178181 0.42712340665522103 0 -0.5 0.4187132252473374 0 -0.47663778434226739 0.40466466451434369 0 -0.50000000000000155 0.44666569915777571 0 -0.48046844558178181 0.42712340665522103 0 -0.5 0.4187132252473374 0 -0.5 0.39076075133689908 0 -0.47738260747938688 0.38355570025050523 0 -0.48316273409446647 0.36473836765122392 0 -0.5 0.39076075133689908 0 -0.47663778434226739 0.40466466451434369 0 -0.47738260747938688 0.38355570025050523 0 -0.5 0.4187132252473374 0 -0.5 0.39076075133689908 0 -0.47663778434226739 0.40466466451434369 0 -0.47663778434226739 0.40466466451434369 0 -0.47738260747938688 0.38355570025050523 0 -0.46583382714114518 0.38999500547001809 0 -0.47738260747938688 0.38355570025050523 0 -0.46583382714114518 0.38999500547001809 0 -0.4663254681888726 0.36666845787598218 0 -0.44999552600343062 0.39173157780560469 0 -0.45665855824840662 0.36777659553231312 0 -0.4663254681888726 0.36666845787598218 0 -0.46583382714114518 0.38999500547001809 0 -0.44999552600343062 0.39173157780560469 0 -0.4663254681888726 0.36666845787598218 0 -0.44999552600343062 0.39173157780560469 0 -0.4663254681888726 0.36666845787598218 0 -0.44999552600343062 0.39173157780560469 0 -0.45665855824840662 0.36777659553231312 0 -0.46583382714114518 0.38999500547001809 0 -0.45882774969176882 0.40335462690365492 0 -0.44999552600343062 0.39173157780560469 0 -0.47663778434226739 0.40466466451434369 0 -0.46583382714114518 0.38999500547001809 0 -0.45882774969176882 0.40335462690365492 0 -0.43763201273079999 0.41070704093857069 0 -0.44999552600343062 0.39173157780560469 0 -0.43763201273079999 0.41070704093857069 0 -0.44999552600343062 0.39173157780560469 0 -0.43477851133476342 0.39533236306559499 0 -0.43763201273079999 0.41070704093857069 0 -0.44683109493707568 0.40310836352607632 0 -0.44999552600343062 0.39173157780560469 0 -0.45882774969176882 0.40335462690365492 0 -0.44683109493707568 0.40310836352607632 0 -0.44999552600343062 0.39173157780560469 0 -0.44683109493707568 0.40310836352607632 0 -0.44999552600343062 0.39173157780560469 0 -0.44999552600343062 0.39173157780560469 0 -0.44362821082605169 0.37988517939320621 0 -0.45158349353155852 0.36835836057985388 0 -0.44999552600343062 0.39173157780560469 0 -0.45158349353155852 0.36835836057985388 0 -0.45665855824840662 0.36777659553231312 0 -0.44999552600343062 0.39173157780560469 0 -0.44362821082605169 0.37988517939320621 0 -0.43477851133476342 0.39533236306559499 0 -0.42970453393634189 0.38309046607745878 0 -0.416686326583803 0.37235869419549011 0 -0.43413491005768079 0.37035852738767178 0 -0.42970453393634189 0.38309046607745878 0 -0.41929471087941073 0.39751756634533059 0 -0.416686326583803 0.37235869419549011 0 -0.44362821082605169 0.37988517939320621 0 -0.42970453393634189 0.38309046607745878 0 -0.43413491005768079 0.37035852738767178 0 -0.44362821082605169 0.37988517939320621 0 -0.42970453393634189 0.38309046607745878 0 -0.43477851133476342 0.39533236306559499 0 -0.41929471087941073 0.39751756634533059 0 -0.40481594634516471 0.38838250342542158 0 -0.416686326583803 0.37235869419549011 0 -0.41929471087941073 0.39751756634533059 0 -0.416686326583803 0.37235869419549011 0 -0.41929471087941073 0.39751756634533059 0 -0.40481594634516471 0.38838250342542158 0 -0.40342004388724823 0.40610022749272601 0 -0.43763201273079999 0.41070704093857069 0 -0.41929471087941073 0.39751756634533059 0 -0.43477851133476342 0.39533236306559499 0 -0.42970453393634189 0.38309046607745878 0 -0.41929471087941073 0.39751756634533059 0 -0.43477851133476342 0.39533236306559499 0 -0.43763201273079999 0.41070704093857069 0 -0.42526849945817052 0.42968250407153741 0 -0.42190309517501873 0.422676438495171 0 -0.43763201273079999 0.41070704093857069 0 -0.41929471087941073 0.39751756634533059 0 -0.42190309517501873 0.422676438495171 0 -0.43763201273079999 0.41070704093857069 0 -0.42526849945817052 0.42968250407153741 0 -0.43564062049140201 0.43816660827706411 0 -0.44310818338972591 0.4277031782424412 0 -0.42526849945817052 0.42968250407153741 0 -0.44310818338972591 0.4277031782424412 0 -0.43763201273079999 0.41070704093857069 0 -0.42526849945817052 0.42968250407153741 0 -0.42451147947062662 0.44783531064501148 0 -0.42190309517501873 0.422676438495171 0 -0.42451147947062662 0.44783531064501148 0 -0.42526849945817052 0.42968250407153741 0 -0.42190309517501873 0.422676438495171 0 -0.42451147947062662 0.44783531064501148 0 -0.42190309517501873 0.422676438495171 0 -0.40107126945449789 0.42734472616511959 0 -0.41929471087941073 0.39751756634533059 0 -0.42190309517501873 0.422676438495171 0 -0.40342004388724823 0.40610022749272601 0 -0.41929471087941073 0.39751756634533059 0 -0.42190309517501873 0.422676438495171 0 -0.42190309517501873 0.422676438495171 0 -0.40107126945449789 0.42734472616511959 0 -0.40342004388724823 0.40610022749272601 0 -0.40107126945449789 0.42734472616511959 0 -0.38170962224127192 0.41187051275180431 0 -0.40342004388724823 0.40610022749272601 0 -0.39681415542208481 0.44826445017703181 0 -0.40107126945449789 0.42734472616511959 0 -0.38220472950674328 0.43285739042239468 0 -0.40107126945449789 0.42734472616511959 0 -0.38220472950674328 0.43285739042239468 0 -0.38170962224127192 0.41187051275180431 0 -0.38220472950674328 0.43285739042239468 0 -0.38170962224127192 0.41187051275180431 0 -0.3623117690423191 0.42811367330896583 0 -0.38170962224127192 0.41187051275180431 0 -0.38886328153102828 0.39118485432906919 0 -0.37160749487881228 0.39270695931296012 0 -0.38886328153102828 0.39118485432906919 0 -0.3958153688443336 0.37475117476449238 0 -0.37494441110486432 0.37714365533349459 0 -0.38886328153102828 0.39118485432906919 0 -0.37494441110486432 0.37714365533349459 0 -0.37160749487881228 0.39270695931296012 0 -0.3958153688443336 0.37475117476449238 0 -0.37494441110486432 0.37714365533349459 0 -0.38886328153102828 0.39118485432906919 0 -0.40481594634516471 0.38838250342542158 0 -0.3958153688443336 0.37475117476449238 0 -0.40481594634516471 0.38838250342542158 0 -0.3958153688443336 0.37475117476449238 0 -0.416686326583803 0.37235869419549011 0 -0.38170962224127192 0.41187051275180431 0 -0.38886328153102828 0.39118485432906919 0 -0.40342004388724823 0.40610022749272601 0 -0.38886328153102828 0.39118485432906919 0 -0.40481594634516471 0.38838250342542158 0 -0.40342004388724823 0.40610022749272601 0 -0.39045160135311929 0.35268342407278952 0 -0.40864067534698201 0.33925706815793699 0 -0.39045160135311929 0.35268342407278952 0 -0.40864067534698201 0.33925706815793699 0 -0.41512724002854368 0.35732070329041232 0 -0.40361124677119031 0.36567017709670041 0 -0.39045160135311929 0.35268342407278952 0 -0.41512724002854368 0.35732070329041232 0 -0.40361124677119031 0.36567017709670041 0 -0.3958153688443336 0.37475117476449238 0 -0.416686326583803 0.37235869419549011 0 -0.40361124677119031 0.36567017709670041 0 -0.38457880094209951 0.36895906347804552 0 -0.39045160135311929 0.35268342407278952 0 -0.40361124677119031 0.36567017709670041 0 -0.3958153688443336 0.37475117476449238 0 -0.38457880094209951 0.36895906347804552 0 -0.38457880094209951 0.36895906347804552 0 -0.39045160135311929 0.35268342407278952 0 -0.37226252735925658 0.36610977998764199 0 -0.39045160135311929 0.35268342407278952 0 -0.37226252735925658 0.36610977998764199 0 -0.3958153688443336 0.37475117476449238 0 -0.38457880094209951 0.36895906347804552 0 -0.37494441110486432 0.37714365533349459 0 -0.38457880094209951 0.36895906347804552 0 -0.37226252735925658 0.36610977998764199 0 -0.37494441110486432 0.37714365533349459 0 -0.39045160135311929 0.35268342407278952 0 -0.37127954351941572 0.34916240377925312 0 -0.37226252735925658 0.36610977998764199 0 -0.39045160135311929 0.35268342407278952 0 -0.37899652861451177 0.33239336013233117 0 -0.37127954351941572 0.34916240377925312 0 -0.39045160135311929 0.35268342407278952 0 -0.37899652861451177 0.33239336013233117 0 -0.3944825356043874 0.33579708965077948 0 -0.37899652861451177 0.33239336013233117 0 -0.40045644996042051 0.3207408679639166 0 -0.38306414714844939 0.31006768725441353 0 -0.37899652861451177 0.33239336013233117 0 -0.38306414714844939 0.31006768725441353 0 -0.36858999563224049 0.31841924705142421 0 -0.39045160135311929 0.35268342407278952 0 -0.3944825356043874 0.33579708965077948 0 -0.40864067534698201 0.33925706815793699 0 -0.37899652861451177 0.33239336013233117 0 -0.40045644996042051 0.3207408679639166 0 -0.3944825356043874 0.33579708965077948 0 -0.40045644996042051 0.3207408679639166 0 -0.3944825356043874 0.33579708965077948 0 -0.40864067534698201 0.33925706815793699 0 -0.40864067534698201 0.33925706815793699 0 -0.4268297493408445 0.32583071224308441 0 -0.40864067534698201 0.33925706815793699 0 -0.41355749492670751 0.3237293555425651 0 -0.4268297493408445 0.32583071224308441 0 -0.40864067534698201 0.33925706815793699 0 -0.4268297493408445 0.32583071224308441 0 -0.42348860781157049 0.34604891681357108 0 -0.40045644996042051 0.3207408679639166 0 -0.41355749492670751 0.3237293555425651 0 -0.41828518704459799 0.31115090713050569 0 -0.40045644996042051 0.3207408679639166 0 -0.41828518704459799 0.31115090713050569 0 -0.40055350609195273 0.30637257862856049 0 -0.40045644996042051 0.3207408679639166 0 -0.40864067534698201 0.33925706815793699 0 -0.41355749492670751 0.3237293555425651 0 -0.41355749492670751 0.3237293555425651 0 -0.4268297493408445 0.32583071224308441 0 -0.41828518704459799 0.31115090713050569 0 -0.4268297493408445 0.32583071224308441 0 -0.43044414599989611 0.30740817964886491 0 -0.41828518704459799 0.31115090713050569 0 -0.4268297493408445 0.32583071224308441 0 -0.43709634356477661 0.31825237438320281 0 -0.43044414599989611 0.30740817964886491 0 -0.4268297493408445 0.32583071224308441 0 -0.41828518704459799 0.31115090713050569 0 -0.4268297493408445 0.32583071224308441 0 -0.43709634356477661 0.31825237438320281 0 -0.4268297493408445 0.32583071224308441 0 -0.43709634356477661 0.31825237438320281 0 -0.43732986870894569 0.3293474340043786 0 -0.4268297493408445 0.32583071224308441 0 -0.44102563623230301 0.35021965643258712 0 -0.4268297493408445 0.32583071224308441 0 -0.42348860781157049 0.34604891681357108 0 -0.44102563623230301 0.35021965643258712 0 -0.4268297493408445 0.32583071224308441 0 -0.43732986870894569 0.3293474340043786 0 -0.44102563623230301 0.35021965643258712 0 -0.42581973810917961 0.35761644394383429 0 -0.42348860781157049 0.34604891681357108 0 -0.44102563623230301 0.35021965643258712 0 -0.42581973810917961 0.35761644394383429 0 -0.43111727906729741 0.36340937576485022 0 -0.44102563623230301 0.35021965643258712 0 -0.40864067534698201 0.33925706815793699 0 -0.42348860781157049 0.34604891681357108 0 -0.41512724002854368 0.35732070329041232 0 -0.42581973810917961 0.35761644394383429 0 -0.42348860781157049 0.34604891681357108 0 -0.41512724002854368 0.35732070329041232 0 -0.3958153688443336 0.37475117476449238 0 -0.416686326583803 0.37235869419549011 0 -0.40361124677119031 0.36567017709670041 0 -0.41512724002854368 0.35732070329041232 0 -0.416686326583803 0.37235869419549011 0 -0.41512724002854368 0.35732070329041232 0 -0.416686326583803 0.37235869419549011 0 -0.42581973810917961 0.35761644394383429 0 -0.41512724002854368 0.35732070329041232 0 -0.416686326583803 0.37235869419549011 0 -0.416686326583803 0.37235869419549011 0 -0.43413491005768079 0.37035852738767178 0 -0.416686326583803 0.37235869419549011 0 -0.43111727906729741 0.36340937576485022 0 -0.43413491005768079 0.37035852738767178 0 -0.43111727906729741 0.36340937576485022 0 -0.43791978435352058 0.36649355686466722 0 -0.44102563623230301 0.35021965643258712 0 -0.42581973810917961 0.35761644394383429 0 -0.416686326583803 0.37235869419549011 0 -0.43111727906729741 0.36340937576485022 0 -0.43111727906729741 0.36340937576485022 0 -0.43413491005768079 0.37035852738767178 0 -0.43791978435352058 0.36649355686466722 0 -0.43413491005768079 0.37035852738767178 0 -0.43791978435352058 0.36649355686466722 0 -0.45158349353155852 0.36835836057985388 0 -0.44362821082605169 0.37988517939320621 0 -0.43413491005768079 0.37035852738767178 0 -0.45158349353155852 0.36835836057985388 0 -0.43413491005768079 0.37035852738767178 0 -0.45158349353155852 0.36835836057985388 0 -0.43791978435352058 0.36649355686466722 0 -0.45158349353155852 0.36835836057985388 0 -0.44102563623230301 0.35021965643258712 0 -0.43791978435352058 0.36649355686466722 0 -0.44102563623230301 0.35021965643258712 0 -0.45158349353155852 0.36835836057985388 0 -0.44102563623230301 0.35021965643258712 0 -0.45272100407410931 0.35486968110082712 0 -0.45158349353155852 0.36835836057985388 0 -0.44102563623230301 0.35021965643258712 0 -0.44102563623230301 0.35021965643258712 0 -0.45272100407410931 0.35486968110082712 0 -0.45233657014073742 0.33966217775839702 0 -0.45665855824840662 0.36777659553231312 0 -0.46464787934125318 0.33905332989010911 0 -0.45272100407410931 0.35486968110082712 0 -0.45665855824840662 0.36777659553231312 0 -0.46464787934125318 0.33905332989010911 0 -0.45272100407410931 0.35486968110082712 0 -0.46464787934125318 0.33905332989010911 0 -0.45233657014073742 0.33966217775839702 0 -0.45665855824840662 0.36777659553231312 0 -0.4663254681888726 0.36666845787598218 0 -0.46464787934125318 0.33905332989010911 0 -0.45158349353155852 0.36835836057985388 0 -0.45665855824840662 0.36777659553231312 0 -0.45158349353155852 0.36835836057985388 0 -0.45272100407410931 0.35486968110082712 0 -0.45665855824840662 0.36777659553231312 0 -0.45665855824840662 0.36777659553231312 0 -0.4663254681888726 0.36666845787598218 0 -0.4663254681888726 0.36666845787598218 0 -0.48316273409446647 0.36473836765122392 0 -0.47755031212591659 0.34944061918613389 0 -0.4663254681888726 0.36666845787598218 0 -0.48316273409446647 0.36473836765122392 0 -0.47738260747938688 0.38355570025050523 0 -0.4663254681888726 0.36666845787598218 0 -0.48316273409446647 0.36473836765122392 0 -0.4663254681888726 0.36666845787598218 0 -0.47755031212591659 0.34944061918613389 0 -0.46464787934125318 0.33905332989010911 0 -0.4663254681888726 0.36666845787598218 0 -0.47755031212591659 0.34944061918613389 0 -0.48316273409446647 0.36473836765122392 0 -0.47755031212591659 0.34944061918613389 0 -0.48989764045668061 0.34961933087531161 0 -0.48989764045668061 0.34961933087531161 0 -0.50000000000005962 0.3628082774264606 0 -0.5 0.33889660961644791 0 -0.47755031212591659 0.34944061918613389 0 -0.48989764045668061 0.34961933087531161 0 -0.48877515606295968 0.33221278049628489 0 -0.48316273409446647 0.36473836765122392 0 -0.48989764045668061 0.34961933087531161 0 -0.50000000000005962 0.3628082774264606 0 -0.48316273409446647 0.36473836765122392 0 -0.50000000000005962 0.3628082774264606 0 -0.5 0.39076075133689908 0 -0.48316273409446647 0.36473836765122392 0 -0.50000000000005962 0.3628082774264606 0 -0.50000000000000167 0.31498494180643521 0 -0.48877515606295968 0.33221278049628489 0 -0.50000000000000167 0.31498494180643521 0 -0.48877515606295968 0.33221278049628489 0 -0.47263720043410329 0.31033006424790599 0 -0.50000000000000167 0.31498494180643521 0 -0.5 0.33889660961644791 0 -0.48877515606295968 0.33221278049628489 0 -0.48989764045668061 0.34961933087531161 0 -0.5 0.33889660961644791 0 -0.48877515606295968 0.33221278049628489 0 -0.47755031212591659 0.34944061918613389 0 -0.48877515606295968 0.33221278049628489 0 -0.47755031212591659 0.34944061918613389 0 -0.48877515606295968 0.33221278049628489 0 -0.46464787934125318 0.33905332989010911 0 -0.48877515606295968 0.33221278049628489 0 -0.46464787934125318 0.33905332989010911 0 -0.47263720043410329 0.31033006424790599 0 -0.45830078430371812 0.32564093181158471 0 -0.46464787934125318 0.33905332989010911 0 -0.47263720043410329 0.31033006424790599 0 -0.45830078430371812 0.32564093181158471 0 -0.45634751292085779 0.31449475903477192 0 -0.47263720043410329 0.31033006424790599 0 -0.46464787934125318 0.33905332989010911 0 -0.47263720043410329 0.31033006424790599 0 -0.45830078430371812 0.32564093181158471 0 -0.45634751292085779 0.31449475903477192 0 -0.44581810195804761 0.32510831400904228 0 -0.45830078430371812 0.32564093181158471 0 -0.46464787934125318 0.33905332989010911 0 -0.45233657014073742 0.33966217775839702 0 -0.43732986870894569 0.3293474340043786 0 -0.44102563623230301 0.35021965643258712 0 -0.44581810195804761 0.32510831400904228 0 -0.44102563623230301 0.35021965643258712 0 -0.45233657014073742 0.33966217775839702 0 -0.44581810195804761 0.32510831400904228 0 -0.44102563623230301 0.35021965643258712 0 -0.44581810195804761 0.32510831400904228 0 -0.45830078430371812 0.32564093181158471 0 -0.45233657014073742 0.33966217775839702 0 -0.44581810195804761 0.32510831400904228 0 -0.45634751292085779 0.31449475903477192 0 -0.44581810195804761 0.32510831400904228 0 -0.45061056768379198 0.29999697158549748 0 -0.44581810195804761 0.32510831400904228 0 -0.45061056768379198 0.29999697158549748 0 -0.43709634356477661 0.31825237438320281 0 -0.44581810195804761 0.32510831400904228 0 -0.45061056768379198 0.29999697158549748 0 -0.43709634356477661 0.31825237438320281 0 -0.43732986870894569 0.3293474340043786 0 -0.44581810195804761 0.32510831400904228 0 -0.43709634356477661 0.31825237438320281 0 -0.45061056768379198 0.29999697158549748 0 -0.43044414599989611 0.30740817964886491 0 -0.45061056768379198 0.29999697158549748 0 -0.44141641186568947 0.28335848044653911 0 -0.45540303340953642 0.27488562916195258 0 -0.45061056768379198 0.29999697158549748 0 -0.45540303340953642 0.27488562916195258 0 -0.45061056768379198 0.29999697158549748 0 -0.44141641186568947 0.28335848044653911 0 -0.42739971700312768 0.29359138266606022 0 -0.45061056768379198 0.29999697158549748 0 -0.47058828708747308 0.28941420173905102 0 -0.45540303340953642 0.27488562916195258 0 -0.45634751292085779 0.31449475903477192 0 -0.45061056768379198 0.29999697158549748 0 -0.47263720043410329 0.31033006424790599 0 -0.45061056768379198 0.29999697158549748 0 -0.47263720043410329 0.31033006424790599 0 -0.47058828708747308 0.28941420173905102 0 -0.47263720043410329 0.31033006424790599 0 -0.47058828708747308 0.28941420173905102 0 -0.48831712650880149 0.30090955183819118 0 -0.47058828708747308 0.28941420173905102 0 -0.48831712650880149 0.30090955183819118 0 -0.48534313772553439 0.27575618243023481 0 -0.5 0.28683416186994409 0 -0.48831712650880149 0.30090955183819118 0 -0.48534313772553439 0.27575618243023481 0 -0.50000000000000167 0.31498494180643521 0 -0.5 0.28683416186994409 0 -0.48831712650880149 0.30090955183819118 0 -0.50000000000000167 0.31498494180643521 0 -0.47263720043410329 0.31033006424790599 0 -0.48831712650880149 0.30090955183819118 0 -0.5 0.25868338193345303 0 -0.48534313772553439 0.27575618243023481 0 -0.48217572555669991 0.25029396605485921 0 -0.5 0.28683416186994409 0 -0.5 0.25868338193345303 0 -0.48534313772553439 0.27575618243023481 0 -0.47058828708747308 0.28941420173905102 0 -0.48534313772553439 0.27575618243023481 0 -0.4709776872002317 0.26840183114590987 0 -0.48534313772553439 0.27575618243023481 0 -0.4709776872002317 0.26840183114590987 0 -0.48217572555669991 0.25029396605485921 0 -0.46087805730186399 0.2442769255366096 0 -0.4709776872002317 0.26840183114590987 0 -0.48217572555669991 0.25029396605485921 0 -0.46087805730186399 0.2442769255366096 0 -0.4709776872002317 0.26840183114590987 0 -0.45687271841111199 0.26016587859611129 0 -0.46087805730186399 0.2442769255366096 0 -0.4709776872002317 0.26840183114590987 0 -0.47058828708747308 0.28941420173905102 0 -0.4709776872002317 0.26840183114590987 0 -0.45540303340953642 0.27488562916195258 0 -0.4709776872002317 0.26840183114590987 0 -0.45687271841111199 0.26016587859611129 0 -0.45540303340953642 0.27488562916195258 0 -0.44141641186568947 0.28335848044653911 0 -0.45540303340953642 0.27488562916195258 0 -0.44064366031254681 0.25883292783477407 0 -0.45687271841111199 0.26016587859611129 0 -0.45540303340953642 0.27488562916195258 0 -0.44064366031254681 0.25883292783477407 0 -0.46087805730186399 0.2442769255366096 0 -0.45687271841111199 0.26016587859611129 0 -0.44064366031254681 0.25883292783477407 0 -0.4178674716704745 0.24859260188043569 0 -0.44064366031254681 0.25883292783477407 0 -0.4156438445103437 0.26428180949398278 0 -0.4178674716704745 0.24859260188043569 0 -0.39383175507615048 0.24673430455711989 0 -0.4156438445103437 0.26428180949398278 0 -0.4156438445103437 0.26428180949398278 0 -0.41369854419644742 0.28138534396616949 0 -0.40095425801461337 0.27140254451730872 0 -0.4156438445103437 0.26428180949398278 0 -0.42768719517170167 0.27517563508410642 0 -0.41369854419644742 0.28138534396616949 0 -0.44064366031254681 0.25883292783477407 0 -0.4156438445103437 0.26428180949398278 0 -0.42768719517170167 0.27517563508410642 0 -0.44141641186568947 0.28335848044653911 0 -0.44064366031254681 0.25883292783477407 0 -0.42768719517170167 0.27517563508410642 0 -0.42768719517170167 0.27517563508410642 0 -0.42739971700312768 0.29359138266606022 0 -0.41369854419644742 0.28138534396616949 0 -0.44141641186568947 0.28335848044653911 0 -0.42768719517170167 0.27517563508410642 0 -0.42739971700312768 0.29359138266606022 0 -0.42739971700312768 0.29359138266606022 0 -0.43044414599989611 0.30740817964886491 0 -0.41828518704459799 0.31115090713050569 0 -0.45061056768379198 0.29999697158549748 0 -0.42739971700312768 0.29359138266606022 0 -0.43044414599989611 0.30740817964886491 0 -0.41828518704459799 0.31115090713050569 0 -0.40974062474835282 0.29647110201792631 0 -0.40055350609195273 0.30637257862856049 0 -0.42739971700312768 0.29359138266606022 0 -0.41828518704459799 0.31115090713050569 0 -0.40974062474835282 0.29647110201792631 0 -0.41828518704459799 0.31115090713050569 0 -0.40974062474835282 0.29647110201792631 0 -0.42739971700312768 0.29359138266606022 0 -0.40974062474835282 0.29647110201792631 0 -0.41369854419644742 0.28138534396616949 0 -0.40974062474835282 0.29647110201792631 0 -0.41369854419644742 0.28138534396616949 0 -0.4014248202584858 0.28449728805593988 0 -0.40974062474835282 0.29647110201792631 0 -0.4014248202584858 0.28449728805593988 0 -0.39122112155794292 0.29343232877604059 0 -0.4014248202584858 0.28449728805593988 0 -0.39122112155794292 0.29343232877604059 0 -0.39150955277507249 0.27979512100225429 0 -0.40974062474835282 0.29647110201792631 0 -0.39122112155794292 0.29343232877604059 0 -0.40055350609195273 0.30637257862856049 0 -0.39122112155794292 0.29343232877604059 0 -0.40055350609195273 0.30637257862856049 0 -0.38306414714844939 0.31006768725441353 0 -0.40045644996042051 0.3207408679639166 0 -0.40055350609195273 0.30637257862856049 0 -0.38306414714844939 0.31006768725441353 0 -0.39122112155794292 0.29343232877604059 0 -0.38306414714844939 0.31006768725441353 0 -0.37683359765921881 0.29604502953502632 0 -0.38306414714844939 0.31006768725441353 0 -0.37683359765921881 0.29604502953502632 0 -0.36904735906117692 0.30491268756979178 0 -0.39122112155794292 0.29343232877604059 0 -0.37753665926117341 0.28145968092078372 0 -0.39150955277507249 0.27979512100225429 0 -0.39122112155794292 0.29343232877604059 0 -0.37683359765921881 0.29604502953502632 0 -0.37753665926117341 0.28145968092078372 0 -0.37753665926117341 0.28145968092078372 0 -0.38618424125775008 0.26731162788285012 0 -0.37042850909260733 0.26365744415453929 0 -0.37753665926117341 0.28145968092078372 0 -0.38618424125775008 0.26731162788285012 0 -0.39150955277507249 0.27979512100225429 0 -0.38618424125775008 0.26731162788285012 0 -0.3800601359770836 0.25564484595707843 0 -0.37042850909260733 0.26365744415453929 0 -0.39383175507615048 0.24673430455711989 0 -0.38618424125775008 0.26731162788285012 0 -0.3800601359770836 0.25564484595707843 0 -0.39383175507615048 0.24673430455711989 0 -0.38618424125775008 0.26731162788285012 0 -0.40095425801461337 0.27140254451730872 0 -0.39383175507615048 0.24673430455711989 0 -0.4156438445103437 0.26428180949398278 0 -0.40095425801461337 0.27140254451730872 0 -0.41369854419644742 0.28138534396616949 0 -0.4014248202584858 0.28449728805593988 0 -0.40095425801461337 0.27140254451730872 0 -0.4014248202584858 0.28449728805593988 0 -0.40095425801461337 0.27140254451730872 0 -0.39150955277507249 0.27979512100225429 0 -0.38618424125775008 0.26731162788285012 0 -0.40095425801461337 0.27140254451730872 0 -0.39150955277507249 0.27979512100225429 0 -0.35624264216159851 0.26692392367329132 0 -0.34958313212897801 0.28068732799209711 0 -0.36348844495546823 0.27725170446421432 0 -0.35624264216159851 0.26692392367329132 0 -0.34958313212897801 0.28068732799209711 0 -0.34460555929745962 0.26921893705496852 0 -0.35624264216159851 0.26692392367329132 0 -0.34460555929745962 0.26921893705496852 0 -0.34697734082226322 0.25750955995071401 0 -0.34576032188750261 0.2430177099104871 0 -0.34697734082226322 0.25750955995071401 0 -0.35668930213428429 0.25176810683765333 0 -0.35624264216159851 0.26692392367329132 0 -0.34697734082226322 0.25750955995071401 0 -0.35668930213428429 0.25176810683765333 0 -0.36979603848182652 0.24487600723380409 0 -0.3800601359770836 0.25564484595707843 0 -0.37042850909260733 0.26365744415453929 0 -0.36979603848182652 0.24487600723380409 0 -0.35668930213428429 0.25176810683765333 0 -0.37042850909260733 0.26365744415453929 0 -0.35624264216159851 0.26692392367329132 0 -0.35668930213428429 0.25176810683765333 0 -0.37042850909260733 0.26365744415453929 0 -0.37753665926117341 0.28145968092078372 0 -0.37042850909260733 0.26365744415453929 0 -0.36348844495546823 0.27725170446421432 0 -0.35624264216159851 0.26692392367329132 0 -0.37042850909260733 0.26365744415453929 0 -0.36348844495546823 0.27725170446421432 0 -0.37753665926117341 0.28145968092078372 0 -0.36348844495546823 0.27725170446421432 0 -0.36237945001730981 0.29167961246987761 0 -0.37683359765921881 0.29604502953502632 0 -0.37753665926117341 0.28145968092078372 0 -0.36237945001730981 0.29167961246987761 0 -0.36237945001730981 0.29167961246987761 0 -0.36904735906117692 0.30491268756979178 0 -0.35436960484866598 0.30835186153821742 0 -0.38306414714844939 0.31006768725441353 0 -0.36904735906117692 0.30491268756979178 0 -0.36858999563224049 0.31841924705142421 0 -0.37683359765921881 0.29604502953502632 0 -0.36237945001730981 0.29167961246987761 0 -0.36904735906117692 0.30491268756979178 0 -0.36904735906117692 0.30491268756979178 0 -0.35436960484866598 0.30835186153821742 0 -0.36858999563224049 0.31841924705142421 0 -0.36237945001730981 0.29167961246987761 0 -0.35436960484866598 0.30835186153821742 0 -0.34631958848915712 0.29533466071809961 0 -0.35436960484866598 0.30835186153821742 0 -0.34631958848915712 0.29533466071809961 0 -0.33979220454979142 0.31071345061811501 0 -0.34958313212897801 0.28068732799209711 0 -0.36237945001730981 0.29167961246987761 0 -0.34631958848915712 0.29533466071809961 0 -0.34958313212897801 0.28068732799209711 0 -0.36348844495546823 0.27725170446421432 0 -0.36237945001730981 0.29167961246987761 0 -0.34958313212897801 0.28068732799209711 0 -0.34631958848915712 0.29533466071809961 0 -0.34022236290331259 0.28689350219970022 0 -0.34022236290331259 0.28689350219970022 0 -0.33263584364497112 0.29376382242241761 0 -0.33235088735014412 0.27778819766618668 0 -0.34958313212897801 0.28068732799209711 0 -0.34022236290331259 0.28689350219970022 0 -0.33235088735014412 0.27778819766618668 0 -0.34631958848915712 0.29533466071809961 0 -0.34022236290331259 0.28689350219970022 0 -0.33263584364497112 0.29376382242241761 0 -0.34631958848915712 0.29533466071809961 0 -0.33263584364497112 0.29376382242241761 0 -0.33979220454979142 0.31071345061811501 0 -0.33263584364497112 0.29376382242241761 0 -0.33979220454979142 0.31071345061811501 0 -0.32225152494696357 0.30519136294451632 0 -0.33979220454979142 0.31071345061811501 0 -0.32225152494696357 0.30519136294451632 0 -0.32050500863926162 0.32143421940170591 0 -0.32225152494696357 0.30519136294451632 0 -0.31600986614681509 0.28598559706135068 0 -0.3059242016741931 0.30419429933517872 0 -0.32225152494696357 0.30519136294451632 0 -0.3059242016741931 0.30419429933517872 0 -0.32050500863926162 0.32143421940170591 0 -0.33263584364497112 0.29376382242241761 0 -0.31600986614681509 0.28598559706135068 0 -0.33235088735014412 0.27778819766618668 0 -0.33263584364497112 0.29376382242241761 0 -0.32225152494696357 0.30519136294451632 0 -0.31600986614681509 0.28598559706135068 0 -0.31600986614681509 0.28598559706135068 0 -0.32068951940444029 0.26790089084751378 0 -0.33235088735014412 0.27778819766618668 0 -0.31600986614681509 0.28598559706135068 0 -0.32068951940444029 0.26790089084751378 0 -0.30415111502286041 0.27175037667304741 0 -0.34958313212897801 0.28068732799209711 0 -0.34460555929745962 0.26921893705496852 0 -0.33235088735014412 0.27778819766618668 0 -0.32068951940444029 0.26790089084751378 0 -0.33235088735014412 0.27778819766618668 0 -0.3350767586176196 0.26297647451005662 0 -0.34460555929745962 0.26921893705496852 0 -0.33235088735014412 0.27778819766618668 0 -0.3350767586176196 0.26297647451005662 0 -0.34576032188750261 0.2430177099104871 0 -0.34697734082226322 0.25750955995071401 0 -0.33766831174027923 0.25190742216087603 0 -0.34697734082226322 0.25750955995071401 0 -0.33766831174027923 0.25190742216087603 0 -0.3350767586176196 0.26297647451005662 0 -0.34460555929745962 0.26921893705496852 0 -0.34697734082226322 0.25750955995071401 0 -0.3350767586176196 0.26297647451005662 0 -0.33766831174027923 0.25190742216087603 0 -0.3350767586176196 0.26297647451005662 0 -0.3259942009214159 0.2540923271119605 0 -0.32068951940444029 0.26790089084751378 0 -0.3350767586176196 0.26297647451005662 0 -0.3259942009214159 0.2540923271119605 0 -0.32068951940444029 0.26790089084751378 0 -0.3259942009214159 0.2540923271119605 0 -0.31059422902754291 0.25701610270224118 0 -0.31675613276567488 0.24323027128106531 0 -0.3259942009214159 0.2540923271119605 0 -0.31059422902754291 0.25701610270224118 0 -0.31059422902754291 0.25701610270224118 0 -0.30415111502286041 0.27175037667304741 0 -0.29110970588793988 0.25613925754107048 0 -0.32068951940444029 0.26790089084751378 0 -0.31059422902754291 0.25701610270224118 0 -0.30415111502286041 0.27175037667304741 0 -0.30217818509366878 0.2467752935355807 0 -0.31059422902754291 0.25701610270224118 0 -0.29110970588793988 0.25613925754107048 0 -0.30415111502286041 0.27175037667304741 0 -0.28563661865709172 0.27624293320277571 0 -0.30156515401869721 0.28719965839772971 0 -0.30415111502286041 0.27175037667304741 0 -0.28563661865709172 0.27624293320277571 0 -0.29110970588793988 0.25613925754107048 0 -0.28563661865709172 0.27624293320277571 0 -0.29110970588793988 0.25613925754107048 0 -0.27310944347268512 0.26507655227474569 0 -0.2788220018267038 0.24688355220206959 0 -0.27310944347268512 0.26507655227474569 0 -0.26681787323025352 0.25205751075495297 0 -0.27310944347268512 0.26507655227474569 0 -0.26681787323025352 0.25205751075495297 0 -0.25720826296923222 0.26030844014048549 0 -0.2788220018267038 0.24688355220206959 0 -0.29110970588793988 0.25613925754107048 0 -0.27310944347268512 0.26507655227474569 0 -0.28563661865709172 0.27624293320277571 0 -0.27310944347268512 0.26507655227474569 0 -0.26811218076419141 0.28451072254818283 0 -0.27310944347268512 0.26507655227474569 0 -0.2592517531347957 0.27209140955001893 0 -0.26811218076419141 0.28451072254818283 0 -0.27310944347268512 0.26507655227474569 0 -0.2592517531347957 0.27209140955001893 0 -0.25720826296923222 0.26030844014048549 0 -0.2592517531347957 0.27209140955001893 0 -0.26811218076419141 0.28451072254818283 0 -0.24630518530193979 0.28228024887108583 0 -0.2592517531347957 0.27209140955001893 0 -0.24630518530193979 0.28228024887108583 0 -0.24640150770589969 0.26895924206875887 0 -0.2592517531347957 0.27209140955001893 0 -0.25720826296923222 0.26030844014048549 0 -0.24640150770589969 0.26895924206875887 0 -0.25654248230236881 0.24794234615054991 0 -0.25720826296923222 0.26030844014048549 0 -0.23890969400241849 0.2552092714717491 0 -0.25654248230236881 0.24794234615054991 0 -0.26681787323025352 0.25205751075495297 0 -0.25720826296923222 0.26030844014048549 0 -0.27170755469338648 0.30251000137415668 0 -0.25660522254022211 0.31349603112584118 0 -0.24779582667689801 0.29879862025807941 0 -0.26811218076419141 0.28451072254818283 0 -0.24630518530193979 0.28228024887108583 0 -0.24779582667689801 0.29879862025807941 0 -0.26811218076419141 0.28451072254818283 0 -0.27170755469338648 0.30251000137415668 0 -0.24779582667689801 0.29879862025807941 0 -0.26811218076419141 0.28451072254818283 0 -0.27170755469338648 0.30251000137415668 0 -0.28767960465644321 0.29247720304046548 0 -0.28563661865709172 0.27624293320277571 0 -0.26811218076419141 0.28451072254818283 0 -0.28767960465644321 0.29247720304046548 0 -0.27170755469338648 0.30251000137415668 0 -0.27978905663688203 0.31886633809321802 0 -0.25660522254022211 0.31349603112584118 0 -0.27170755469338648 0.30251000137415668 0 -0.28941460447016032 0.30771777946374301 0 -0.27978905663688203 0.31886633809321802 0 -0.28941460447016032 0.30771777946374301 0 -0.28767960465644321 0.29247720304046548 0 -0.3059242016741931 0.30419429933517872 0 -0.27170755469338648 0.30251000137415668 0 -0.28941460447016032 0.30771777946374301 0 -0.28767960465644321 0.29247720304046548 0 -0.28563661865709172 0.27624293320277571 0 -0.28767960465644321 0.29247720304046548 0 -0.30156515401869721 0.28719965839772971 0 -0.28767960465644321 0.29247720304046548 0 -0.30156515401869721 0.28719965839772971 0 -0.3059242016741931 0.30419429933517872 0 -0.31600986614681509 0.28598559706135068 0 -0.30156515401869721 0.28719965839772971 0 -0.3059242016741931 0.30419429933517872 0 -0.31600986614681509 0.28598559706135068 0 -0.30415111502286041 0.27175037667304741 0 -0.30156515401869721 0.28719965839772971 0 -0.28941460447016032 0.30771777946374301 0 -0.3059242016741931 0.30419429933517872 0 -0.29789820909539161 0.32441314964172391 0 -0.3059242016741931 0.30419429933517872 0 -0.29789820909539161 0.32441314964172391 0 -0.32050500863926162 0.32143421940170591 0 -0.29789820909539161 0.32441314964172391 0 -0.31097585248077031 0.33933499786898053 0 -0.29594269831042802 0.348020880981943 0 -0.29789820909539161 0.32441314964172391 0 -0.31097585248077031 0.33933499786898053 0 -0.32050500863926162 0.32143421940170591 0 -0.29789820909539161 0.32441314964172391 0 -0.27977059946285349 0.33766830524317298 0 -0.29594269831042802 0.348020880981943 0 -0.29789820909539161 0.32441314964172391 0 -0.27978905663688203 0.31886633809321802 0 -0.27977059946285349 0.33766830524317298 0 -0.28941460447016032 0.30771777946374301 0 -0.29789820909539161 0.32441314964172391 0 -0.27978905663688203 0.31886633809321802 0 -0.27978905663688203 0.31886633809321802 0 -0.26526726925086541 0.32882955429235827 0 -0.25660522254022211 0.31349603112584118 0 -0.27978905663688203 0.31886633809321802 0 -0.25660522254022211 0.31349603112584118 0 -0.27977059946285349 0.33766830524317298 0 -0.26526726925086541 0.32882955429235827 0 -0.26216581938548222 0.3461653264023048 0 -0.27978905663688203 0.31886633809321802 0 -0.27977059946285349 0.33766830524317298 0 -0.26526726925086541 0.32882955429235827 0 -0.26216581938548222 0.3461653264023048 0 -0.24612677491409371 0.35319075287423141 0 -0.2447481306184201 0.33170364097804639 0 -0.26526726925086541 0.32882955429235827 0 -0.26216581938548222 0.3461653264023048 0 -0.2447481306184201 0.33170364097804639 0 -0.26526726925086541 0.32882955429235827 0 -0.25660522254022211 0.31349603112584118 0 -0.2447481306184201 0.33170364097804639 0 -0.26024848530979072 0.3703699593034655 0 -0.26216581938548222 0.3461653264023048 0 -0.24612677491409371 0.35319075287423141 0 -0.27977059946285349 0.33766830524317298 0 -0.26216581938548222 0.3461653264023048 0 -0.2775605440980724 0.35971458204749029 0 -0.26024848530979072 0.3703699593034655 0 -0.26216581938548222 0.3461653264023048 0 -0.2775605440980724 0.35971458204749029 0 -0.26024848530979072 0.3703699593034655 0 -0.2775605440980724 0.35971458204749029 0 -0.27832114180492618 0.38821977829820192 0 -0.2775605440980724 0.35971458204749029 0 -0.29418910507965151 0.36985584651121961 0 -0.27832114180492618 0.38821977829820192 0 -0.27977059946285349 0.33766830524317298 0 -0.2775605440980724 0.35971458204749029 0 -0.29594269831042802 0.348020880981943 0 -0.2775605440980724 0.35971458204749029 0 -0.29418910507965151 0.36985584651121961 0 -0.29594269831042802 0.348020880981943 0 -0.29418910507965151 0.36985584651121961 0 -0.29594269831042802 0.348020880981943 0 -0.3132502477365236 0.35987069613130118 0 -0.31097585248077031 0.33933499786898053 0 -0.29594269831042802 0.348020880981943 0 -0.3132502477365236 0.35987069613130118 0 -0.29418910507965151 0.36985584651121961 0 -0.3132502477365236 0.35987069613130118 0 -0.30750428779507022 0.3848744545907164 0 -0.32318486512581951 0.37198731964308679 0 -0.3132502477365236 0.35987069613130118 0 -0.33529749118647018 0.36167499696709859 0 -0.32318486512581951 0.37198731964308679 0 -0.3132502477365236 0.35987069613130118 0 -0.30750428779507022 0.3848744545907164 0 -0.32318486512581951 0.37198731964308679 0 -0.33529749118647018 0.36167499696709859 0 -0.3366874337852136 0.38152913088322882 0 -0.33529749118647018 0.36167499696709859 0 -0.34483811867601633 0.37089436549804788 0 -0.3366874337852136 0.38152913088322882 0 -0.33529749118647018 0.36167499696709859 0 -0.3366874337852136 0.38152913088322882 0 -0.33529749118647018 0.36167499696709859 0 -0.34297858975908768 0.34676041194156448 0 -0.32728309862224658 0.34293604318822829 0 -0.31097585248077031 0.33933499786898053 0 -0.3132502477365236 0.35987069613130118 0 -0.32728309862224658 0.34293604318822829 0 -0.3132502477365236 0.35987069613130118 0 -0.33529749118647018 0.36167499696709859 0 -0.32728309862224658 0.34293604318822829 0 -0.31097585248077031 0.33933499786898053 0 -0.32728309862224658 0.34293604318822829 0 -0.32050500863926162 0.32143421940170591 0 -0.33979220454979142 0.31071345061811501 0 -0.32050500863926162 0.32143421940170591 0 -0.34060313133925868 0.33026867051627418 0 -0.34297858975908768 0.34676041194156448 0 -0.32728309862224658 0.34293604318822829 0 -0.34060313133925868 0.33026867051627418 0 -0.32728309862224658 0.34293604318822829 0 -0.32050500863926162 0.32143421940170591 0 -0.34060313133925868 0.33026867051627418 0 -0.34060313133925868 0.33026867051627418 0 -0.35814980271231822 0.33726074914914639 0 -0.3530404294993934 0.32156915890519328 0 -0.34297858975908768 0.34676041194156448 0 -0.34060313133925868 0.33026867051627418 0 -0.35814980271231822 0.33726074914914639 0 -0.33979220454979142 0.31071345061811501 0 -0.34060313133925868 0.33026867051627418 0 -0.3530404294993934 0.32156915890519328 0 -0.35436960484866598 0.30835186153821742 0 -0.33979220454979142 0.31071345061811501 0 -0.3530404294993934 0.32156915890519328 0 -0.35436960484866598 0.30835186153821742 0 -0.3530404294993934 0.32156915890519328 0 -0.36858999563224049 0.31841924705142421 0 -0.35814980271231822 0.33726074914914639 0 -0.3530404294993934 0.32156915890519328 0 -0.36858999563224049 0.31841924705142421 0 -0.37899652861451177 0.33239336013233117 0 -0.35814980271231822 0.33726074914914639 0 -0.36858999563224049 0.31841924705142421 0 -0.37899652861451177 0.33239336013233117 0 -0.35814980271231822 0.33726074914914639 0 -0.37127954351941572 0.34916240377925312 0 -0.37127954351941572 0.34916240377925312 0 -0.37226252735925658 0.36610977998764199 0 -0.3541708873106903 0.36063432134297169 0 -0.35814980271231822 0.33726074914914639 0 -0.37127954351941572 0.34916240377925312 0 -0.3541708873106903 0.36063432134297169 0 -0.37226252735925658 0.36610977998764199 0 -0.35407345336539492 0.37953613590249557 0 -0.37494441110486432 0.37714365533349459 0 -0.37226252735925658 0.36610977998764199 0 -0.35407345336539492 0.37953613590249557 0 -0.37226252735925658 0.36610977998764199 0 -0.3541708873106903 0.36063432134297169 0 -0.35407345336539492 0.37953613590249557 0 -0.33529749118647018 0.36167499696709859 0 -0.34483811867601633 0.37089436549804788 0 -0.3541708873106903 0.36063432134297169 0 -0.34483811867601633 0.37089436549804788 0 -0.3541708873106903 0.36063432134297169 0 -0.35407345336539492 0.37953613590249557 0 -0.34297858975908768 0.34676041194156448 0 -0.35814980271231822 0.33726074914914639 0 -0.3541708873106903 0.36063432134297169 0 -0.33529749118647018 0.36167499696709859 0 -0.34297858975908768 0.34676041194156448 0 -0.3541708873106903 0.36063432134297169 0 -0.35844670615150231 0.40379963824793552 0 -0.35407345336539492 0.37953613590249557 0 -0.33740906671120569 0.39183703623405147 0 -0.35844670615150231 0.40379963824793552 0 -0.339414287018103 0.42047988273756298 0 -0.33740906671120569 0.39183703623405147 0 -0.35407345336539492 0.37953613590249557 0 -0.3366874337852136 0.38152913088322882 0 -0.35407345336539492 0.37953613590249557 0 -0.33740906671120569 0.39183703623405147 0 -0.34483811867601633 0.37089436549804788 0 -0.35407345336539492 0.37953613590249557 0 -0.3366874337852136 0.38152913088322882 0 -0.35407345336539492 0.37953613590249557 0 -0.37494441110486432 0.37714365533349459 0 -0.37160749487881228 0.39270695931296012 0 -0.35407345336539492 0.37953613590249557 0 -0.37494441110486432 0.37714365533349459 0 -0.38170962224127192 0.41187051275180431 0 -0.35844670615150231 0.40379963824793552 0 -0.37160749487881228 0.39270695931296012 0 -0.35844670615150231 0.40379963824793552 0 -0.35407345336539492 0.37953613590249557 0 -0.37160749487881228 0.39270695931296012 0 -0.38170962224127192 0.41187051275180431 0 -0.35844670615150231 0.40379963824793552 0 -0.3623117690423191 0.42811367330896583 0 -0.38220472950674328 0.43285739042239468 0 -0.3623117690423191 0.42811367330896583 0 -0.3691168313735429 0.44869358970905188 0 -0.3623117690423191 0.42811367330896583 0 -0.339414287018103 0.42047988273756298 0 -0.34141950732500109 0.44912272924107433 0 -0.35844670615150231 0.40379963824793552 0 -0.3623117690423191 0.42811367330896583 0 -0.339414287018103 0.42047988273756298 0 -0.339414287018103 0.42047988273756298 0 -0.33026705170019421 0.40734153885390068 0 -0.33740906671120569 0.39183703623405147 0 -0.339414287018103 0.42047988273756298 0 -0.33026705170019421 0.40734153885390068 0 -0.32557878789449429 0.41715847467586242 0 -0.339414287018103 0.42047988273756298 0 -0.33589137862375179 0.4402560127297932 0 -0.34141950732500109 0.44912272924107433 0 -0.339414287018103 0.42047988273756298 0 -0.34141950732500109 0.44912272924107433 0 -0.339414287018103 0.42047988273756298 0 -0.32894276260193589 0.42890161816084832 0 -0.33589137862375179 0.4402560127297932 0 -0.339414287018103 0.42047988273756298 0 -0.32894276260193589 0.42890161816084832 0 -0.32557878789449429 0.41715847467586242 0 -0.32894276260193589 0.42890161816084832 0 -0.32224500618143498 0.43874531441988263 0 -0.33589137862375179 0.4402560127297932 0 -0.32894276260193589 0.42890161816084832 0 -0.32029978443326851 0.42768180537680628 0 -0.32224500618143498 0.43874531441988263 0 -0.32894276260193589 0.42890161816084832 0 -0.32029978443326851 0.42768180537680628 0 -0.32557878789449429 0.41715847467586242 0 -0.32029978443326851 0.42768180537680628 0 -0.31069996627040342 0.41861365717112131 0 -0.31134610440991939 0.4339107914155515 0 -0.32029978443326851 0.42768180537680628 0 -0.31134610440991939 0.4339107914155515 0 -0.32224500618143498 0.43874531441988263 0 -0.33026705170019421 0.40734153885390068 0 -0.32557878789449429 0.41715847467586242 0 -0.31783655095641827 0.40628458660201039 0 -0.32029978443326851 0.42768180537680628 0 -0.32557878789449429 0.41715847467586242 0 -0.31069996627040342 0.41861365717112131 0 -0.32557878789449429 0.41715847467586242 0 -0.31783655095641827 0.40628458660201039 0 -0.31069996627040342 0.41861365717112131 0 -0.32559335217903179 0.40055886499514221 0 -0.30475563143990853 0.40394826610756829 0 -0.314566472235633 0.39549919037692571 0 -0.32559335217903179 0.40055886499514221 0 -0.3366874337852136 0.38152913088322882 0 -0.31783655095641827 0.40628458660201039 0 -0.32559335217903179 0.40055886499514221 0 -0.30475563143990853 0.40394826610756829 0 -0.314566472235633 0.39549919037692571 0 -0.32559335217903179 0.40055886499514221 0 -0.30475563143990853 0.40394826610756829 0 -0.33026705170019421 0.40734153885390068 0 -0.31783655095641827 0.40628458660201039 0 -0.32559335217903179 0.40055886499514221 0 -0.31783655095641827 0.40628458660201039 0 -0.32559335217903179 0.40055886499514221 0 -0.32559335217903179 0.40055886499514221 0 -0.33740906671120569 0.39183703623405147 0 -0.3366874337852136 0.38152913088322882 0 -0.33026705170019421 0.40734153885390068 0 -0.32559335217903179 0.40055886499514221 0 -0.33740906671120569 0.39183703623405147 0 -0.339414287018103 0.42047988273756298 0 -0.33740906671120569 0.39183703623405147 0 -0.32559335217903179 0.40055886499514221 0 -0.33740906671120569 0.39183703623405147 0 -0.35407345336539492 0.37953613590249557 0 -0.33740906671120569 0.39183703623405147 0 -0.3366874337852136 0.38152913088322882 0 -0.33740906671120569 0.39183703623405147 0 -0.3366874337852136 0.38152913088322882 0 -0.32318486512581951 0.37198731964308679 0 -0.3366874337852136 0.38152913088322882 0 -0.30750428779507022 0.3848744545907164 0 -0.314566472235633 0.39549919037692571 0 -0.3366874337852136 0.38152913088322882 0 -0.30750428779507022 0.3848744545907164 0 -0.3366874337852136 0.38152913088322882 0 -0.30750428779507022 0.3848744545907164 0 -0.30750428779507022 0.3848744545907164 0 -0.30359365076288641 0.39105642379191341 0 -0.29177707249975249 0.39439764141422018 0 -0.314566472235633 0.39549919037692571 0 -0.30750428779507022 0.3848744545907164 0 -0.30359365076288641 0.39105642379191341 0 -0.30475563143990853 0.40394826610756829 0 -0.30359365076288641 0.39105642379191341 0 -0.2839885134091592 0.40743331475793632 0 -0.314566472235633 0.39549919037692571 0 -0.30475563143990853 0.40394826610756829 0 -0.30359365076288641 0.39105642379191341 0 -0.30359365076288641 0.39105642379191341 0 -0.2839885134091592 0.40743331475793632 0 -0.30475563143990853 0.40394826610756829 0 -0.2839885134091592 0.40743331475793632 0 -0.30359365076288641 0.39105642379191341 0 -0.29177707249975249 0.39439764141422018 0 -0.2839885134091592 0.40743331475793632 0 -0.29177707249975249 0.39439764141422018 0 -0.28374783411604471 0.39844565432958068 0 -0.27832114180492618 0.38821977829820192 0 -0.29177707249975249 0.39439764141422018 0 -0.28374783411604471 0.39844565432958068 0 -0.2839885134091592 0.40743331475793632 0 -0.28374783411604471 0.39844565432958068 0 -0.27813671337326012 0.40059815276356142 0 -0.2839885134091592 0.40743331475793632 0 -0.30750428779507022 0.3848744545907164 0 -0.29177707249975249 0.39439764141422018 0 -0.27832114180492618 0.38821977829820192 0 -0.29418910507965151 0.36985584651121961 0 -0.30750428779507022 0.3848744545907164 0 -0.27832114180492618 0.38821977829820192 0 -0.30750428779507022 0.3848744545907164 0 -0.27832114180492618 0.38821977829820192 0 -0.26775305172768948 0.3980157195655708 0 -0.2578675454450472 0.40077020676184522 0 -0.27514309119780472 0.40891771556376533 0 -0.27832114180492618 0.38821977829820192 0 -0.27813671337326012 0.40059815276356142 0 -0.26775305172768948 0.3980157195655708 0 -0.2578675454450472 0.40077020676184522 0 -0.27514309119780472 0.40891771556376533 0 -0.28374783411604471 0.39844565432958068 0 -0.27832114180492618 0.38821977829820192 0 -0.27813671337326012 0.40059815276356142 0 -0.27813671337326012 0.40059815276356142 0 -0.27514309119780472 0.40891771556376533 0 -0.2839885134091592 0.40743331475793632 0 -0.27813671337326012 0.40059815276356142 0 -0.26775305172768948 0.3980157195655708 0 -0.27514309119780472 0.40891771556376533 0 -0.26775305172768948 0.3980157195655708 0 -0.2578675454450472 0.40077020676184522 0 -0.24913799581478269 0.39156510200568828 0 -0.27832114180492618 0.38821977829820192 0 -0.26775305172768948 0.3980157195655708 0 -0.24913799581478269 0.39156510200568828 0 -0.2578675454450472 0.40077020676184522 0 -0.27175481544075292 0.4094863214645319 0 -0.25138894679653978 0.39670402176288438 0 -0.25799899758709022 0.41179476379988972 0 -0.24502064870914461 0.40440191990292279 0 -0.25138894679653978 0.39670402176288438 0 -0.25799899758709022 0.41179476379988972 0 -0.2578675454450472 0.40077020676184522 0 -0.25138894679653978 0.39670402176288438 0 -0.25799899758709022 0.41179476379988972 0 -0.2578675454450472 0.40077020676184522 0 -0.25138894679653978 0.39670402176288438 0 -0.2578675454450472 0.40077020676184522 0 -0.25138894679653978 0.39670402176288438 0 -0.24913799581478269 0.39156510200568828 0 -0.25138894679653978 0.39670402176288438 0 -0.24913799581478269 0.39156510200568828 0 -0.26024848530979072 0.3703699593034655 0 -0.27832114180492618 0.38821977829820192 0 -0.24913799581478269 0.39156510200568828 0 -0.27832114180492618 0.38821977829820192 0 -0.24913799581478269 0.39156510200568828 0 -0.26356239645684371 0.42449600012206562 0 -0.24586107928910189 0.43928256019460898 0 -0.26356239645684371 0.42449600012206562 0 -0.24586107928910189 0.43928256019460898 0 -0.2494440366010621 0.42572282038709919 0 -0.26356239645684371 0.42449600012206562 0 -0.25421330052887658 0.41890509318774832 0 -0.2494440366010621 0.42572282038709919 0 -0.25421330052887658 0.41890509318774832 0 -0.24696442795170381 0.41364653793428319 0 -0.2494440366010621 0.42572282038709919 0 -0.25421330052887658 0.41890509318774832 0 -0.25799899758709022 0.41179476379988972 0 -0.24696442795170381 0.41364653793428319 0 -0.25799899758709022 0.41179476379988972 0 -0.24696442795170381 0.41364653793428319 0 -0.25799899758709022 0.41179476379988972 0 -0.27175481544075292 0.4094863214645319 0 -0.2578675454450472 0.40077020676184522 0 -0.25799899758709022 0.41179476379988972 0 -0.27175481544075292 0.4094863214645319 0 -0.26356239645684371 0.42449600012206562 0 -0.25799899758709022 0.41179476379988972 0 -0.26356239645684371 0.42449600012206562 0 -0.25421330052887658 0.41890509318774832 0 -0.25799899758709022 0.41179476379988972 0 -0.26356239645684371 0.42449600012206562 0 -0.25799899758709022 0.41179476379988972 0 -0.26712221061243852 0.41505411598845199 0 -0.26356239645684371 0.42449600012206562 0 -0.27733678199764378 0.41298975020116879 0 -0.26356239645684371 0.42449600012206562 0 -0.27733678199764378 0.41298975020116879 0 -0.27984377285705542 0.41943735844217378 0 -0.26356239645684371 0.42449600012206562 0 -0.26712221061243852 0.41505411598845199 0 -0.27733678199764378 0.41298975020116879 0 -0.2578675454450472 0.40077020676184522 0 -0.27175481544075292 0.4094863214645319 0 -0.27514309119780472 0.40891771556376533 0 -0.25799899758709022 0.41179476379988972 0 -0.26712221061243852 0.41505411598845199 0 -0.27175481544075292 0.4094863214645319 0 -0.26712221061243852 0.41505411598845199 0 -0.27175481544075292 0.4094863214645319 0 -0.27733678199764378 0.41298975020116879 0 -0.27514309119780472 0.40891771556376533 0 -0.2839885134091592 0.40743331475793632 0 -0.27514309119780472 0.40891771556376533 0 -0.27966083909449652 0.41104837998849131 0 -0.2839885134091592 0.40743331475793632 0 -0.27175481544075292 0.4094863214645319 0 -0.27514309119780472 0.40891771556376533 0 -0.27175481544075292 0.4094863214645319 0 -0.27514309119780472 0.40891771556376533 0 -0.27733678199764378 0.41298975020116879 0 -0.27175481544075292 0.4094863214645319 0 -0.27733678199764378 0.41298975020116879 0 -0.27733678199764378 0.41298975020116879 0 -0.27966083909449652 0.41104837998849131 0 -0.28129754649380151 0.41508522022680039 0 -0.27514309119780472 0.40891771556376533 0 -0.27733678199764378 0.41298975020116879 0 -0.27966083909449652 0.41104837998849131 0 -0.27733678199764378 0.41298975020116879 0 -0.27966083909449652 0.41104837998849131 0 -0.27514309119780472 0.40891771556376533 0 -0.27966083909449652 0.41104837998849131 0 -0.27733678199764378 0.41298975020116879 0 -0.27984377285705542 0.41943735844217378 0 -0.28129754649380151 0.41508522022680039 0 -0.26356239645684371 0.42449600012206562 0 -0.28007807928828971 0.43075051033505413 0 -0.27480151524739432 0.45015490165939392 0 -0.26356239645684371 0.42449600012206562 0 -0.27984377285705542 0.41943735844217378 0 -0.28007807928828971 0.43075051033505413 0 -0.26356239645684371 0.42449600012206562 0 -0.27480151524739432 0.45015490165939392 0 -0.29032205070280082 0.4236693574536628 0 -0.29832317042842038 0.41347249589169499 0 -0.30064335527773012 0.42926110027814812 0 -0.28007807928828971 0.43075051033505413 0 -0.29032205070280082 0.4236693574536628 0 -0.28999862548914318 0.43670721559163522 0 -0.27984377285705542 0.41943735844217378 0 -0.28007807928828971 0.43075051033505413 0 -0.29032205070280082 0.4236693574536628 0 -0.29032205070280082 0.4236693574536628 0 -0.28999862548914318 0.43670721559163522 0 -0.30064335527773012 0.42926110027814812 0 -0.30475563143990853 0.40394826610756829 0 -0.2839885134091592 0.40743331475793632 0 -0.29832317042842038 0.41347249589169499 0 -0.27966083909449652 0.41104837998849131 0 -0.2839885134091592 0.40743331475793632 0 -0.27966083909449652 0.41104837998849131 0 -0.2839885134091592 0.40743331475793632 0 -0.28687181669834783 0.41444922788867788 0 -0.27966083909449652 0.41104837998849131 0 -0.28687181669834783 0.41444922788867788 0 -0.27966083909449652 0.41104837998849131 0 -0.28687181669834783 0.41444922788867788 0 -0.28129754649380151 0.41508522022680039 0 -0.27984377285705542 0.41943735844217378 0 -0.29032205070280082 0.4236693574536628 0 -0.28687181669834783 0.41444922788867788 0 -0.27984377285705542 0.41943735844217378 0 -0.28687181669834783 0.41444922788867788 0 -0.28129754649380151 0.41508522022680039 0 -0.29032205070280082 0.4236693574536628 0 -0.28687181669834783 0.41444922788867788 0 -0.29832317042842038 0.41347249589169499 0 -0.2839885134091592 0.40743331475793632 0 -0.28687181669834783 0.41444922788867788 0 -0.29832317042842038 0.41347249589169499 0 -0.29832317042842038 0.41347249589169499 0 -0.31069996627040342 0.41861365717112131 0 -0.30064335527773012 0.42926110027814812 0 -0.30475563143990853 0.40394826610756829 0 -0.29832317042842038 0.41347249589169499 0 -0.31069996627040342 0.41861365717112131 0 -0.31783655095641827 0.40628458660201039 0 -0.30475563143990853 0.40394826610756829 0 -0.31069996627040342 0.41861365717112131 0 -0.31069996627040342 0.41861365717112131 0 -0.30064335527773012 0.42926110027814812 0 -0.31134610440991939 0.4339107914155515 0 -0.28999862548914318 0.43670721559163522 0 -0.30064335527773012 0.42926110027814812 0 -0.30414812692949977 0.44970020823191748 0 -0.30064335527773012 0.42926110027814812 0 -0.31134610440991939 0.4339107914155515 0 -0.30414812692949977 0.44970020823191748 0 -0.30414812692949977 0.44970020823191748 0 -0.29667309209226372 0.46393126440182408 0 -0.31450938790470118 0.46396544834397979 0 -0.29667309209226372 0.46393126440182408 0 -0.30744275467276427 0.47558255707591629 0 -0.31450938790470118 0.46396544834397979 0 -0.29667309209226372 0.46393126440182408 0 -0.27480151524739432 0.45015490165939392 0 -0.2832101322529294 0.46935176929918088 0 -0.30414812692949977 0.44970020823191748 0 -0.29667309209226372 0.46393126440182408 0 -0.27480151524739432 0.45015490165939392 0 -0.30414812692949977 0.44970020823191748 0 -0.27480151524739432 0.45015490165939392 0 -0.28999862548914318 0.43670721559163522 0 -0.30414812692949977 0.44970020823191748 0 -0.27480151524739432 0.45015490165939392 0 -0.28007807928828971 0.43075051033505413 0 -0.28999862548914318 0.43670721559163522 0 -0.27480151524739432 0.45015490165939392 0 -0.27480151524739432 0.45015490165939392 0 -0.2691109566324642 0.4669719423792531 0 -0.2832101322529294 0.46935176929918088 0 -0.27480151524739432 0.45015490165939392 0 -0.2691109566324642 0.4669719423792531 0 -0.25524466154051773 0.45045791356887982 0 -0.27480151524739432 0.45015490165939392 0 -0.2832101322529294 0.46935176929918088 0 -0.2691109566324642 0.4669719423792531 0 -0.25524466154051773 0.45045791356887982 0 -0.2691109566324642 0.4669719423792531 0 -0.25255929397980348 0.46010590210588131 0 -0.25524466154051773 0.45045791356887982 0 -0.2691109566324642 0.4669719423792531 0 -0.25255929397980348 0.46010590210588131 0 -0.25219420533222892 0.47105905712232082 0 -0.25255929397980348 0.46010590210588131 0 -0.25524466154051773 0.45045791356887982 0 -0.24697958940160589 0.45058597175903659 0 -0.25524466154051773 0.45045791356887982 0 -0.24697958940160589 0.45058597175903659 0 -0.26356239645684371 0.42449600012206562 0 -0.25524466154051773 0.45045791356887982 0 -0.24586107928910189 0.43928256019460898 0 -0.26356239645684371 0.42449600012206562 0 -0.27480151524739432 0.45015490165939392 0 -0.25524466154051773 0.45045791356887982 0 -0.27480151524739432 0.45015490165939392 0 -0.25524466154051773 0.45045791356887982 0 -0.25524466154051773 0.45045791356887982 0 -0.24586107928910189 0.43928256019460898 0 -0.26273624075647811 0.48115970348304321 0 -0.26680625310088207 0.5 0 -0.24259253699240529 0.48428154672401502 0 -0.26273624075647811 0.48115970348304321 0 -0.25219420533222892 0.47105905712232082 0 -0.24259253699240529 0.48428154672401502 0 -0.2691109566324642 0.4669719423792531 0 -0.26273624075647811 0.48115970348304321 0 -0.25219420533222892 0.47105905712232082 0 -0.2691109566324642 0.4669719423792531 0 -0.28297725172440991 0.483485971189627 0 -0.2691109566324642 0.4669719423792531 0 -0.26273624075647811 0.48115970348304321 0 -0.28297725172440991 0.483485971189627 0 -0.2691109566324642 0.4669719423792531 0 -0.28297725172440991 0.483485971189627 0 -0.2832101322529294 0.46935176929918088 0 -0.26273624075647811 0.48115970348304321 0 -0.26680625310088207 0.5 0 -0.28297725172440991 0.483485971189627 0 -0.26680625310088207 0.5 0 -0.29684354681635589 0.50000000000000056 0 -0.28297725172440991 0.483485971189627 0 -0.29161874925846348 0.48854863693896849 0 -0.29684354681635589 0.50000000000000056 0 -0.28297725172440991 0.483485971189627 0 -0.29684354681635589 0.50000000000000056 0 -0.28297725172440991 0.483485971189627 0 -0.29161874925846348 0.48854863693896849 0 -0.2832101322529294 0.46935176929918088 0 -0.29161874925846348 0.48854863693896849 0 -0.2832101322529294 0.46935176929918088 0 -0.29561775255046119 0.47608209604421742 0 -0.29161874925846348 0.48854863693896849 0 -0.28297725172440991 0.483485971189627 0 -0.2832101322529294 0.46935176929918088 0 -0.29161874925846348 0.48854863693896849 0 -0.29561775255046119 0.47608209604421742 0 -0.30277828405113438 0.48602893564542388 0 -0.29667309209226372 0.46393126440182408 0 -0.2832101322529294 0.46935176929918088 0 -0.29561775255046119 0.47608209604421742 0 -0.29667309209226372 0.46393126440182408 0 -0.29561775255046119 0.47608209604421742 0 -0.30744275467276427 0.47558255707591629 0 -0.29561775255046119 0.47608209604421742 0 -0.30744275467276427 0.47558255707591629 0 -0.30277828405113438 0.48602893564542388 0 -0.30744275467276427 0.47558255707591629 0 -0.31214078893370067 0.48469793586647292 0 -0.31709999015770157 0.47621880861095178 0 -0.30744275467276427 0.47558255707591629 0 -0.30277828405113438 0.48602893564542388 0 -0.31214078893370067 0.48469793586647292 0 -0.29684354681635589 0.50000000000000056 0 -0.30835152980431868 0.49602008388634838 0 -0.31996337402596192 0.50000000000000044 0 -0.29684354681635589 0.50000000000000056 0 -0.30277828405113438 0.48602893564542388 0 -0.30835152980431868 0.49602008388634838 0 -0.29161874925846348 0.48854863693896849 0 -0.29684354681635589 0.50000000000000056 0 -0.30277828405113438 0.48602893564542388 0 -0.30277828405113438 0.48602893564542388 0 -0.31214078893370067 0.48469793586647292 0 -0.30835152980431868 0.49602008388634838 0 -0.30835152980431868 0.49602008388634838 0 -0.32290051131713648 0.48898315907322282 0 -0.30835152980431868 0.49602008388634838 0 -0.31996337402596192 0.50000000000000044 0 -0.32290051131713648 0.48898315907322282 0 -0.31996337402596192 0.50000000000000044 0 -0.32290051131713648 0.48898315907322282 0 -0.3361449139042979 0.49007414610048528 0 -0.31214078893370067 0.48469793586647292 0 -0.30835152980431868 0.49602008388634838 0 -0.32290051131713648 0.48898315907322282 0 -0.31996337402596192 0.50000000000000044 0 -0.32290051131713648 0.48898315907322282 0 -0.31996337402596192 0.50000000000000044 0 -0.3361449139042979 0.49007414610048528 0 -0.34498130892432338 0.50000000000000155 0 -0.32290051131713648 0.48898315907322282 0 -0.3361449139042979 0.49007414610048528 0 -0.34351212101387768 0.4790139150003232 0 -0.3361449139042979 0.49007414610048528 0 -0.34351212101387768 0.4790139150003232 0 -0.34498130892432338 0.50000000000000155 0 -0.32290051131713648 0.48898315907322282 0 -0.34351212101387768 0.4790139150003232 0 -0.32819762496437249 0.4691143369388312 0 -0.32290051131713648 0.48898315907322282 0 -0.34351212101387768 0.4790139150003232 0 -0.32290051131713648 0.48898315907322282 0 -0.32819762496437249 0.4691143369388312 0 -0.31709999015770157 0.47621880861095178 0 -0.32290051131713648 0.48898315907322282 0 -0.32819762496437249 0.4691143369388312 0 -0.31214078893370067 0.48469793586647292 0 -0.32290051131713648 0.48898315907322282 0 -0.31709999015770157 0.47621880861095178 0 -0.30744275467276427 0.47558255707591629 0 -0.31709999015770157 0.47621880861095178 0 -0.31450938790470118 0.46396544834397979 0 -0.32819762496437249 0.4691143369388312 0 -0.31709999015770157 0.47621880861095178 0 -0.31450938790470118 0.46396544834397979 0 -0.30414812692949977 0.44970020823191748 0 -0.31450938790470118 0.46396544834397979 0 -0.33349473861160528 0.44924551480443892 0 -0.32819762496437249 0.4691143369388312 0 -0.31450938790470118 0.46396544834397979 0 -0.33349473861160528 0.44924551480443892 0 -0.30414812692949977 0.44970020823191748 0 -0.32224500618143498 0.43874531441988263 0 -0.33349473861160528 0.44924551480443892 0 -0.31134610440991939 0.4339107914155515 0 -0.30414812692949977 0.44970020823191748 0 -0.32224500618143498 0.43874531441988263 0 -0.30414812692949977 0.44970020823191748 0 -0.33349473861160528 0.44924551480443892 0 -0.33589137862375179 0.4402560127297932 0 -0.33349473861160528 0.44924551480443892 0 -0.32224500618143498 0.43874531441988263 0 -0.33589137862375179 0.4402560127297932 0 -0.33349473861160528 0.44924551480443892 0 -0.33349473861160528 0.44924551480443892 0 -0.34141950732500109 0.44912272924107433 0 -0.33589137862375179 0.4402560127297932 0 -0.33349473861160528 0.44924551480443892 0 -0.34141950732500109 0.44912272924107433 0 -0.34351212101387768 0.4790139150003232 0 -0.32819762496437249 0.4691143369388312 0 -0.34141950732500109 0.44912272924107433 0 -0.32819762496437249 0.4691143369388312 0 -0.33349473861160528 0.44924551480443892 0 -0.34141950732500109 0.44912272924107433 0 -0.32819762496437249 0.4691143369388312 0 -0.33349473861160528 0.44924551480443892 0 -0.34351212101387768 0.4790139150003232 0 -0.34141950732500109 0.44912272924107433 0 -0.34141950732500109 0.44912272924107433 0 -0.3691168313735429 0.44869358970905188 0 -0.36268307596930072 0.46974147428009932 0 -0.34351212101387768 0.4790139150003232 0 -0.34141950732500109 0.44912272924107433 0 -0.36268307596930072 0.46974147428009932 0 -0.34141950732500109 0.44912272924107433 0 -0.3691168313735429 0.44869358970905188 0 -0.3623117690423191 0.42811367330896583 0 -0.34141950732500109 0.44912272924107433 0 -0.3691168313735429 0.44869358970905188 0 -0.38185403092472631 0.46046903355988072 0 -0.3691168313735429 0.44869358970905188 0 -0.36268307596930072 0.46974147428009932 0 -0.38185403092472631 0.46046903355988072 0 -0.36268307596930072 0.46974147428009932 0 -0.378074167078991 0.47710847516297489 0 -0.36268307596930072 0.46974147428009932 0 -0.34498130892432338 0.50000000000000155 0 -0.378074167078991 0.47710847516297489 0 -0.38185403092472631 0.46046903355988072 0 -0.36268307596930072 0.46974147428009932 0 -0.34351212101387768 0.4790139150003232 0 -0.34498130892432338 0.50000000000000155 0 -0.34351212101387768 0.4790139150003232 0 -0.36268307596930072 0.46974147428009932 0 -0.34498130892432338 0.50000000000000155 0 -0.34351212101387768 0.4790139150003232 0 -0.36268307596930072 0.46974147428009932 0 -0.1463040127391472 0.46995028449659199 0 -0.14665707823898669 0.5 0 -0.16708803338487249 0.48437247475292072 0 -0.14665707823898669 0.5 0 -0.1226249472228496 0.47589201616063281 0 -0.11661978452351281 0.5 0 -0.1463040127391472 0.46995028449659199 0 -0.14665707823898669 0.5 0 -0.1226249472228496 0.47589201616063281 0 -0.1463040127391472 0.46995028449659199 0 -0.12995853342774449 0.45639030594032159 0 -0.1226249472228496 0.47589201616063281 0 -0.12995853342774449 0.45639030594032159 0 -0.12977079363683691 0.43907038919481872 0 -0.14674425721545831 0.4454804271149394 0 -0.1463040127391472 0.46995028449659199 0 -0.12995853342774449 0.45639030594032159 0 -0.14674425721545831 0.4454804271149394 0 -0.1463040127391472 0.46995028449659199 0 -0.14674425721545831 0.4454804271149394 0 -0.1645635821040918 0.45686125184834142 0 -0.14674425721545831 0.4454804271149394 0 -0.1645635821040918 0.45686125184834142 0 -0.16203913082331101 0.42935002894376201 0 -0.1645635821040918 0.45686125184834142 0 -0.16203913082331101 0.42935002894376201 0 -0.1645635821040918 0.45686125184834142 0 -0.1835209699087629 0.45058204633875493 0 -0.16203913082331101 0.42935002894376201 0 -0.1645635821040918 0.45686125184834142 0 -0.1835209699087629 0.45058204633875493 0 -0.18003915241587881 0.46990128730738051 0 -0.18003915241587881 0.46990128730738051 0 -0.16708803338487249 0.48437247475292072 0 -0.1852697032049308 0.48528982996976022 0 -0.1645635821040918 0.45686125184834142 0 -0.18003915241587881 0.46990128730738051 0 -0.16708803338487249 0.48437247475292072 0 -0.1645635821040918 0.45686125184834142 0 -0.16708803338487249 0.48437247475292072 0 -0.1463040127391472 0.46995028449659199 0 -0.1645635821040918 0.45686125184834142 0 -0.16708803338487249 0.48437247475292072 0 -0.14665707823898669 0.5 0 -0.16708803338487249 0.48437247475292072 0 -0.1766943719544605 0.5 0 -0.16708803338487249 0.48437247475292072 0 -0.1766943719544605 0.5 0 -0.1852697032049308 0.48528982996976022 0 -0.1852697032049308 0.48528982996976022 0 -0.199753473476736 0.47240083362712498 0 -0.20673166566993431 0.5 0 -0.1766943719544605 0.5 0 -0.1852697032049308 0.48528982996976022 0 -0.20673166566993431 0.5 0 -0.18003915241587881 0.46990128730738051 0 -0.1852697032049308 0.48528982996976022 0 -0.199753473476736 0.47240083362712498 0 -0.199753473476736 0.47240083362712498 0 -0.22213965908450289 0.48500700294272642 0 -0.22298761142243911 0.46639217953704398 0 -0.199753473476736 0.47240083362712498 0 -0.20673166566993431 0.5 0 -0.22213965908450289 0.48500700294272642 0 -0.20673166566993431 0.5 0 -0.22213965908450289 0.48500700294272642 0 -0.23676895938540821 0.5 0 -0.22213965908450289 0.48500700294272642 0 -0.24259253699240529 0.48428154672401502 0 -0.23676895938540821 0.5 0 -0.24259253699240529 0.48428154672401502 0 -0.22298761142243911 0.46639217953704398 0 -0.22213965908450289 0.48500700294272642 0 -0.24259253699240529 0.48428154672401502 0 -0.22298761142243911 0.46639217953704398 0 -0.25219420533222892 0.47105905712232082 0 -0.24259253699240529 0.48428154672401502 0 -0.2392670569922003 0.46145462569991641 0 -0.24259253699240529 0.48428154672401502 0 -0.2392670569922003 0.46145462569991641 0 -0.22298761142243911 0.46639217953704398 0 -0.26680625310088207 0.5 0 -0.24259253699240529 0.48428154672401502 0 -0.23676895938540821 0.5 0 -0.23628948349456269 0.44727806554964378 0 -0.24697958940160589 0.45058597175903659 0 -0.2392670569922003 0.46145462569991641 0 -0.23628948349456269 0.44727806554964378 0 -0.24586107928910189 0.43928256019460898 0 -0.23628948349456269 0.44727806554964378 0 -0.24586107928910189 0.43928256019460898 0 -0.2357174140740875 0.43686629174287711 0 -0.25524466154051773 0.45045791356887982 0 -0.24586107928910189 0.43928256019460898 0 -0.24697958940160589 0.45058597175903659 0 -0.23628948349456269 0.44727806554964378 0 -0.24586107928910189 0.43928256019460898 0 -0.24697958940160589 0.45058597175903659 0 -0.25255929397980348 0.46010590210588131 0 -0.24697958940160589 0.45058597175903659 0 -0.2392670569922003 0.46145462569991641 0 -0.25255929397980348 0.46010590210588131 0 -0.25219420533222892 0.47105905712232082 0 -0.2392670569922003 0.46145462569991641 0 -0.23628948349456269 0.44727806554964378 0 -0.2392670569922003 0.46145462569991641 0 -0.22499810434977699 0.45177676187442323 0 -0.2392670569922003 0.46145462569991641 0 -0.22298761142243911 0.46639217953704398 0 -0.22499810434977699 0.45177676187442323 0 -0.23628948349456269 0.44727806554964378 0 -0.22499810434977699 0.45177676187442323 0 -0.2230636839872103 0.43525612623543852 0 -0.23628948349456269 0.44727806554964378 0 -0.2230636839872103 0.43525612623543852 0 -0.2357174140740875 0.43686629174287711 0 -0.22499810434977699 0.45177676187442323 0 -0.20338268585247299 0.44850281235007328 0 -0.2230636839872103 0.43525612623543852 0 -0.199753473476736 0.47240083362712498 0 -0.22298761142243911 0.46639217953704398 0 -0.20338268585247299 0.44850281235007328 0 -0.22298761142243911 0.46639217953704398 0 -0.20338268585247299 0.44850281235007328 0 -0.22298761142243911 0.46639217953704398 0 -0.22499810434977699 0.45177676187442323 0 -0.20338268585247299 0.44850281235007328 0 -0.1835209699087629 0.45058204633875493 0 -0.199753473476736 0.47240083362712498 0 -0.20338268585247299 0.44850281235007328 0 -0.1835209699087629 0.45058204633875493 0 -0.18003915241587881 0.46990128730738051 0 -0.199753473476736 0.47240083362712498 0 -0.1835209699087629 0.45058204633875493 0 -0.20338268585247299 0.44850281235007328 0 -0.18377776028250681 0.43061344516310252 0 -0.20338268585247299 0.44850281235007328 0 -0.18377776028250681 0.43061344516310252 0 -0.19003047925724001 0.41583253168645279 0 -0.20530003066306129 0.42459523633101143 0 -0.18377776028250681 0.43061344516310252 0 -0.20338268585247299 0.44850281235007328 0 -0.20530003066306129 0.42459523633101143 0 -0.18377776028250681 0.43061344516310252 0 -0.19003047925724001 0.41583253168645279 0 -0.20382656384682049 0.40970668363424428 0 -0.18649613136397949 0.39874586703695358 0 -0.19003047925724001 0.41583253168645279 0 -0.20382656384682049 0.40970668363424428 0 -0.20530003066306129 0.42459523633101143 0 -0.20382656384682049 0.40970668363424428 0 -0.2243236135621465 0.41363257026153938 0 -0.21347758318541499 0.39565292803472568 0 -0.20382656384682049 0.40970668363424428 0 -0.20530003066306129 0.42459523633101143 0 -0.2243236135621465 0.41363257026153938 0 -0.20530003066306129 0.42459523633101143 0 -0.2230636839872103 0.43525612623543852 0 -0.2243236135621465 0.41363257026153938 0 -0.20338268585247299 0.44850281235007328 0 -0.20530003066306129 0.42459523633101143 0 -0.2230636839872103 0.43525612623543852 0 -0.2230636839872103 0.43525612623543852 0 -0.2243236135621465 0.41363257026153938 0 -0.23509234642562421 0.42645756522807421 0 -0.2230636839872103 0.43525612623543852 0 -0.2357174140740875 0.43686629174287711 0 -0.23509234642562421 0.42645756522807421 0 -0.2243236135621465 0.41363257026153938 0 -0.23672076602477041 0.41606014457259771 0 -0.23449434574000519 0.40599234828976039 0 -0.2243236135621465 0.41363257026153938 0 -0.23672076602477041 0.41606014457259771 0 -0.23509234642562421 0.42645756522807421 0 -0.2243236135621465 0.41363257026153938 0 -0.23509234642562421 0.42645756522807421 0 -0.23672076602477041 0.41606014457259771 0 -0.24696442795170381 0.41364653793428319 0 -0.23449434574000519 0.40599234828976039 0 -0.24696442795170381 0.41364653793428319 0 -0.24502064870914461 0.40440191990292279 0 -0.23449434574000519 0.40599234828976039 0 -0.25799899758709022 0.41179476379988972 0 -0.24696442795170381 0.41364653793428319 0 -0.24502064870914461 0.40440191990292279 0 -0.23672076602477041 0.41606014457259771 0 -0.24696442795170381 0.41364653793428319 0 -0.2494440366010621 0.42572282038709919 0 -0.24586107928910189 0.43928256019460898 0 -0.2494440366010621 0.42572282038709919 0 -0.23509234642562421 0.42645756522807421 0 -0.24586107928910189 0.43928256019460898 0 -0.2357174140740875 0.43686629174287711 0 -0.23509234642562421 0.42645756522807421 0 -0.24586107928910189 0.43928256019460898 0 -0.23509234642562421 0.42645756522807421 0 -0.23672076602477041 0.41606014457259771 0 -0.2494440366010621 0.42572282038709919 0 -0.23509234642562421 0.42645756522807421 0 -0.24411802937363289 0.39214055102519668 0 -0.2404590350068502 0.39255998903249562 0 -0.22101084068535989 0.37763770726065848 0 -0.26024848530979072 0.3703699593034655 0 -0.24913799581478269 0.39156510200568828 0 -0.23941288544781261 0.36936268080203799 0 -0.24913799581478269 0.39156510200568828 0 -0.23941288544781261 0.36936268080203799 0 -0.23661648006544631 0.38111958191283207 0 -0.24913799581478269 0.39156510200568828 0 -0.23941288544781261 0.36936268080203799 0 -0.23661648006544631 0.38111958191283207 0 -0.24913799581478269 0.39156510200568828 0 -0.24411802937363289 0.39214055102519668 0 -0.24913799581478269 0.39156510200568828 0 -0.24411802937363289 0.39214055102519668 0 -0.25138894679653978 0.39670402176288438 0 -0.24502064870914461 0.40440191990292279 0 -0.2404590350068502 0.39255998903249562 0 -0.25138894679653978 0.39670402176288438 0 -0.2404590350068502 0.39255998903249562 0 -0.25138894679653978 0.39670402176288438 0 -0.24913799581478269 0.39156510200568828 0 -0.24411802937363289 0.39214055102519668 0 -0.25138894679653978 0.39670402176288438 0 -0.24411802937363289 0.39214055102519668 0 -0.25138894679653978 0.39670402176288438 0 -0.24411802937363289 0.39214055102519668 0 -0.2404590350068502 0.39255998903249562 0 -0.24411802937363289 0.39214055102519668 0 -0.2404590350068502 0.39255998903249562 0 -0.24502064870914461 0.40440191990292279 0 -0.23449434574000519 0.40599234828976039 0 -0.2404590350068502 0.39255998903249562 0 -0.23449434574000519 0.40599234828976039 0 -0.2404590350068502 0.39255998903249562 0 -0.21347758318541499 0.39565292803472568 0 -0.2243236135621465 0.41363257026153938 0 -0.23449434574000519 0.40599234828976039 0 -0.21347758318541499 0.39565292803472568 0 -0.2404590350068502 0.39255998903249562 0 -0.21347758318541499 0.39565292803472568 0 -0.2404590350068502 0.39255998903249562 0 -0.221085804139599 0.38342316804451643 0 -0.22101084068535989 0.37763770726065848 0 -0.23661648006544631 0.38111958191283207 0 -0.24411802937363289 0.39214055102519668 0 -0.22101084068535989 0.37763770726065848 0 -0.2404590350068502 0.39255998903249562 0 -0.221085804139599 0.38342316804451643 0 -0.21347758318541499 0.39565292803472568 0 -0.2404590350068502 0.39255998903249562 0 -0.221085804139599 0.38342316804451643 0 -0.24411802937363289 0.39214055102519668 0 -0.22101084068535989 0.37763770726065848 0 -0.23661648006544631 0.38111958191283207 0 -0.22101084068535989 0.37763770726065848 0 -0.23065118581439151 0.37351301940004261 0 -0.221085804139599 0.38342316804451643 0 -0.20842966453144809 0.38455749837150821 0 -0.2017125732723469 0.37428634705653913 0 -0.221085804139599 0.38342316804451643 0 -0.22101084068535989 0.37763770726065848 0 -0.2017125732723469 0.37428634705653913 0 -0.221085804139599 0.38342316804451643 0 -0.2017125732723469 0.37428634705653913 0 -0.221085804139599 0.38342316804451643 0 -0.20842966453144809 0.38455749837150821 0 -0.21347758318541499 0.39565292803472568 0 -0.20842966453144809 0.38455749837150821 0 -0.21347758318541499 0.39565292803472568 0 -0.1995464564716016 0.38646210363214928 0 -0.20842966453144809 0.38455749837150821 0 -0.1995464564716016 0.38646210363214928 0 -0.2017125732723469 0.37428634705653913 0 -0.20382656384682049 0.40970668363424428 0 -0.21347758318541499 0.39565292803472568 0 -0.18649613136397949 0.39874586703695358 0 -0.21347758318541499 0.39565292803472568 0 -0.1995464564716016 0.38646210363214928 0 -0.18649613136397949 0.39874586703695358 0 -0.21347758318541499 0.39565292803472568 0 -0.18649613136397949 0.39874586703695358 0 -0.1995464564716016 0.38646210363214928 0 -0.18761633000481839 0.37906787766101968 0 -0.18649613136397949 0.39874586703695358 0 -0.1995464564716016 0.38646210363214928 0 -0.18761633000481839 0.37906787766101968 0 -0.2017125732723469 0.37428634705653913 0 -0.18761633000481839 0.37906787766101968 0 -0.17283928971787549 0.38085846123544009 0 -0.18233934240509489 0.36514952606856171 0 -0.18761633000481839 0.37906787766101968 0 -0.17283928971787549 0.38085846123544009 0 -0.18649613136397949 0.39874586703695358 0 -0.17283928971787549 0.38085846123544009 0 -0.15662938306608731 0.37961534121847917 0 -0.15865942783827849 0.39251835669863772 0 -0.15951467954254381 0.40183880603918121 0 -0.15865942783827849 0.39251835669863772 0 -0.18649613136397949 0.39874586703695358 0 -0.15951467954254381 0.40183880603918121 0 -0.15865942783827849 0.39251835669863772 0 -0.17283928971787549 0.38085846123544009 0 -0.15865942783827849 0.39251835669863772 0 -0.18649613136397949 0.39874586703695358 0 -0.15951467954254381 0.40183880603918121 0 -0.18649613136397949 0.39874586703695358 0 -0.17506847404612161 0.41485366263185569 0 -0.15951467954254381 0.40183880603918121 0 -0.18649613136397949 0.39874586703695358 0 -0.19003047925724001 0.41583253168645279 0 -0.18649613136397949 0.39874586703695358 0 -0.17506847404612161 0.41485366263185569 0 -0.19003047925724001 0.41583253168645279 0 -0.17506847404612161 0.41485366263185569 0 -0.18377776028250681 0.43061344516310252 0 -0.17506847404612161 0.41485366263185569 0 -0.18377776028250681 0.43061344516310252 0 -0.16203913082331101 0.42935002894376201 0 -0.1835209699087629 0.45058204633875493 0 -0.18377776028250681 0.43061344516310252 0 -0.16203913082331101 0.42935002894376201 0 -0.15951467954254381 0.40183880603918121 0 -0.16203913082331101 0.42935002894376201 0 -0.15951467954254381 0.40183880603918121 0 -0.17506847404612161 0.41485366263185569 0 -0.16203913082331101 0.42935002894376201 0 -0.15951467954254381 0.40183880603918121 0 -0.16203913082331101 0.42935002894376201 0 -0.14115691126755589 0.42392576984205288 0 -0.15951467954254381 0.40183880603918121 0 -0.14115691126755589 0.42392576984205288 0 -0.13066566531432561 0.40514582753946249 0 -0.14674425721545831 0.4454804271149394 0 -0.16203913082331101 0.42935002894376201 0 -0.14115691126755589 0.42392576984205288 0 -0.12977079363683691 0.43907038919481872 0 -0.14115691126755589 0.42392576984205288 0 -0.1160836341082873 0.42448770314428969 0 -0.12977079363683691 0.43907038919481872 0 -0.14674425721545831 0.4454804271149394 0 -0.14115691126755589 0.42392576984205288 0 -0.14115691126755589 0.42392576984205288 0 -0.13066566531432561 0.40514582753946249 0 -0.1160836341082873 0.42448770314428969 0 -0.13066566531432561 0.40514582753946249 0 -0.14503122231730059 0.38843664951969908 0 -0.120758474690823 0.379867519792427 0 -0.14503122231730059 0.38843664951969908 0 -0.1439597034517455 0.37163404583000692 0 -0.120758474690823 0.379867519792427 0 -0.1439597034517455 0.37163404583000692 0 -0.120758474690823 0.379867519792427 0 -0.15662938306608731 0.37961534121847917 0 -0.14503122231730059 0.38843664951969908 0 -0.1439597034517455 0.37163404583000692 0 -0.15662938306608731 0.37961534121847917 0 -0.15865942783827849 0.39251835669863772 0 -0.14503122231730059 0.38843664951969908 0 -0.15951467954254381 0.40183880603918121 0 -0.15865942783827849 0.39251835669863772 0 -0.14503122231730059 0.38843664951969908 0 -0.15951467954254381 0.40183880603918121 0 -0.13066566531432561 0.40514582753946249 0 -0.15951467954254381 0.40183880603918121 0 -0.13066566531432561 0.40514582753946249 0 -0.14503122231730059 0.38843664951969908 0 -0.15056710139065549 0.35344684995841991 0 -0.1439597034517455 0.37163404583000692 0 -0.1290972904713337 0.35924150358891138 0 -0.1439597034517455 0.37163404583000692 0 -0.16716093221266801 0.36340057186758679 0 -0.15662938306608731 0.37961534121847917 0 -0.1439597034517455 0.37163404583000692 0 -0.16716093221266801 0.36340057186758679 0 -0.15056710139065549 0.35344684995841991 0 -0.1439597034517455 0.37163404583000692 0 -0.16716093221266801 0.36340057186758679 0 -0.1439597034517455 0.37163404583000692 0 -0.1290972904713337 0.35924150358891138 0 -0.120758474690823 0.379867519792427 0 -0.15056710139065549 0.35344684995841991 0 -0.1290972904713337 0.35924150358891138 0 -0.13262596489288281 0.34092667502800228 0 -0.1290972904713337 0.35924150358891138 0 -0.13262596489288281 0.34092667502800228 0 -0.11690141705398779 0.34688146143841359 0 -0.13262596489288281 0.34092667502800228 0 -0.1285820859322612 0.31962633220251518 0 -0.15168927462053469 0.33412917596705288 0 -0.13262596489288281 0.34092667502800228 0 -0.1285820859322612 0.31962633220251518 0 -0.1209512604642947 0.33425720415068261 0 -0.1285820859322612 0.31962633220251518 0 -0.13762962224453201 0.31400234578622133 0 -0.15168927462053469 0.33412917596705288 0 -0.1285820859322612 0.31962633220251518 0 -0.15168927462053469 0.33412917596705288 0 -0.1285820859322612 0.31962633220251518 0 -0.13762962224453201 0.31400234578622133 0 -0.13762962224453201 0.31400234578622133 0 -0.15440641795647411 0.31623323545438931 0 -0.15168927462053469 0.33412917596705288 0 -0.15056710139065549 0.35344684995841991 0 -0.13262596489288281 0.34092667502800228 0 -0.15168927462053469 0.33412917596705288 0 -0.15168927462053469 0.33412917596705288 0 -0.17139663416470349 0.32546972036017607 0 -0.17479646330880991 0.34863201973158808 0 -0.15168927462053469 0.33412917596705288 0 -0.17479646330880991 0.34863201973158808 0 -0.15440641795647411 0.31623323545438931 0 -0.15168927462053469 0.33412917596705288 0 -0.17139663416470349 0.32546972036017607 0 -0.15440641795647411 0.31623323545438931 0 -0.17139663416470349 0.32546972036017607 0 -0.1644166530425816 0.30785219434675132 0 -0.17139663416470349 0.32546972036017607 0 -0.18134231851663629 0.31103765370691361 0 -0.1644166530425816 0.30785219434675132 0 -0.17139663416470349 0.32546972036017607 0 -0.19311487969396071 0.3247994596681425 0 -0.18134231851663629 0.31103765370691361 0 -0.17139663416470349 0.32546972036017607 0 -0.18612385047582389 0.33764625443435847 0 -0.19311487969396071 0.3247994596681425 0 -0.17139663416470349 0.32546972036017607 0 -0.18612385047582389 0.33764625443435847 0 -0.17479646330880991 0.34863201973158808 0 -0.17479646330880991 0.34863201973158808 0 -0.18233934240509489 0.36514952606856171 0 -0.1979036519970849 0.36313486349612328 0 -0.17479646330880991 0.34863201973158808 0 -0.1979036519970849 0.36313486349612328 0 -0.17479646330880991 0.34863201973158808 0 -0.16716093221266801 0.36340057186758679 0 -0.18233934240509489 0.36514952606856171 0 -0.18612385047582389 0.33764625443435847 0 -0.17479646330880991 0.34863201973158808 0 -0.19306845086387719 0.34897419199554469 0 -0.15056710139065549 0.35344684995841991 0 -0.15168927462053469 0.33412917596705288 0 -0.17479646330880991 0.34863201973158808 0 -0.15056710139065549 0.35344684995841991 0 -0.17479646330880991 0.34863201973158808 0 -0.16716093221266801 0.36340057186758679 0 -0.17283928971787549 0.38085846123544009 0 -0.15662938306608731 0.37961534121847917 0 -0.16716093221266801 0.36340057186758679 0 -0.17283928971787549 0.38085846123544009 0 -0.16716093221266801 0.36340057186758679 0 -0.18233934240509489 0.36514952606856171 0 -0.18761633000481839 0.37906787766101968 0 -0.18233934240509489 0.36514952606856171 0 -0.2017125732723469 0.37428634705653913 0 -0.18233934240509489 0.36514952606856171 0 -0.2017125732723469 0.37428634705653913 0 -0.18233934240509489 0.36514952606856171 0 -0.1979036519970849 0.36313486349612328 0 -0.2017125732723469 0.37428634705653913 0 -0.17479646330880991 0.34863201973158808 0 -0.1979036519970849 0.36313486349612328 0 -0.19306845086387719 0.34897419199554469 0 -0.1979036519970849 0.36313486349612328 0 -0.19306845086387719 0.34897419199554469 0 -0.2053540294960812 0.35175343995483582 0 -0.19306845086387719 0.34897419199554469 0 -0.2053540294960812 0.35175343995483582 0 -0.20348954013057671 0.34237881836723272 0 -0.1979036519970849 0.36313486349612328 0 -0.2053540294960812 0.35175343995483582 0 -0.21580502447803679 0.35769952956772388 0 -0.2053540294960812 0.35175343995483582 0 -0.2142167156685359 0.3434639954892883 0 -0.20348954013057671 0.34237881836723272 0 -0.2053540294960812 0.35175343995483582 0 -0.21580502447803679 0.35769952956772388 0 -0.2142167156685359 0.3434639954892883 0 -0.22101084068535989 0.37763770726065848 0 -0.1979036519970849 0.36313486349612328 0 -0.22101084068535989 0.37763770726065848 0 -0.1979036519970849 0.36313486349612328 0 -0.21507101355485719 0.36610105198728682 0 -0.22101084068535989 0.37763770726065848 0 -0.1979036519970849 0.36313486349612328 0 -0.2017125732723469 0.37428634705653913 0 -0.1979036519970849 0.36313486349612328 0 -0.21580502447803679 0.35769952956772388 0 -0.21507101355485719 0.36610105198728682 0 -0.22101084068535989 0.37763770726065848 0 -0.23065118581439151 0.37351301940004261 0 -0.22556453705894711 0.36593210762464162 0 -0.22101084068535989 0.37763770726065848 0 -0.21507101355485719 0.36610105198728682 0 -0.22556453705894711 0.36593210762464162 0 -0.22556453705894711 0.36593210762464162 0 -0.2296877750808427 0.34716025959838759 0 -0.23941288544781261 0.36936268080203799 0 -0.23065118581439151 0.37351301940004261 0 -0.22556453705894711 0.36593210762464162 0 -0.23941288544781261 0.36936268080203799 0 -0.21580502447803679 0.35769952956772388 0 -0.21507101355485719 0.36610105198728682 0 -0.22556453705894711 0.36593210762464162 0 -0.21580502447803679 0.35769952956772388 0 -0.22556453705894711 0.36593210762464162 0 -0.2296877750808427 0.34716025959838759 0 -0.21580502447803679 0.35769952956772388 0 -0.2296877750808427 0.34716025959838759 0 -0.2142167156685359 0.3434639954892883 0 -0.2296877750808427 0.34716025959838759 0 -0.23941288544781261 0.36936268080203799 0 -0.2296877750808427 0.34716025959838759 0 -0.24612677491409371 0.35319075287423141 0 -0.23941288544781261 0.36936268080203799 0 -0.2296877750808427 0.34716025959838759 0 -0.24612677491409371 0.35319075287423141 0 -0.2447481306184201 0.33170364097804639 0 -0.26024848530979072 0.3703699593034655 0 -0.24612677491409371 0.35319075287423141 0 -0.23941288544781261 0.36936268080203799 0 -0.23661648006544631 0.38111958191283207 0 -0.23065118581439151 0.37351301940004261 0 -0.23941288544781261 0.36936268080203799 0 -0.25660522254022211 0.31349603112584118 0 -0.2447481306184201 0.33170364097804639 0 -0.23342138844356219 0.3081257241584644 0 -0.2296877750808427 0.34716025959838759 0 -0.2199626647138728 0.32495783839473708 0 -0.2296877750808427 0.34716025959838759 0 -0.2199626647138728 0.32495783839473708 0 -0.2142167156685359 0.3434639954892883 0 -0.2296877750808427 0.34716025959838759 0 -0.2447481306184201 0.33170364097804639 0 -0.2199626647138728 0.32495783839473708 0 -0.2447481306184201 0.33170364097804639 0 -0.2199626647138728 0.32495783839473708 0 -0.23342138844356219 0.3081257241584644 0 -0.2199626647138728 0.32495783839473708 0 -0.20501882120596079 0.31855438066048958 0 -0.2102375543469025 0.30275541719108701 0 -0.2199626647138728 0.32495783839473708 0 -0.2102375543469025 0.30275541719108701 0 -0.2199626647138728 0.32495783839473708 0 -0.20501882120596079 0.31855438066048958 0 -0.20551302569029881 0.32935616499297538 0 -0.2199626647138728 0.32495783839473708 0 -0.2142167156685359 0.3434639954892883 0 -0.20551302569029881 0.32935616499297538 0 -0.2142167156685359 0.3434639954892883 0 -0.20551302569029881 0.32935616499297538 0 -0.20348954013057671 0.34237881836723272 0 -0.20551302569029881 0.32935616499297538 0 -0.20348954013057671 0.34237881836723272 0 -0.19311487969396071 0.3247994596681425 0 -0.18612385047582389 0.33764625443435847 0 -0.19306845086387719 0.34897419199554469 0 -0.20348954013057671 0.34237881836723272 0 -0.18612385047582389 0.33764625443435847 0 -0.20348954013057671 0.34237881836723272 0 -0.19311487969396071 0.3247994596681425 0 -0.20501882120596079 0.31855438066048958 0 -0.19311487969396071 0.3247994596681425 0 -0.19626598158476941 0.31090302305550582 0 -0.20501882120596079 0.31855438066048958 0 -0.20551302569029881 0.32935616499297538 0 -0.19311487969396071 0.3247994596681425 0 -0.19311487969396071 0.3247994596681425 0 -0.19626598158476941 0.31090302305550582 0 -0.18134231851663629 0.31103765370691361 0 -0.18816989864042211 0.29764366196112513 0 -0.19626598158476941 0.31090302305550582 0 -0.18134231851663629 0.31103765370691361 0 -0.18816989864042211 0.29764366196112513 0 -0.2102375543469025 0.30275541719108701 0 -0.18816989864042211 0.29764366196112513 0 -0.19626598158476941 0.31090302305550582 0 -0.2102375543469025 0.30275541719108701 0 -0.18816989864042211 0.29764366196112513 0 -0.19888532149202851 0.29367703316029459 0 -0.2102375543469025 0.30275541719108701 0 -0.19888532149202851 0.29367703316029459 0 -0.21110872248603521 0.28469234648091452 0 -0.1948118653506036 0.28000077038320392 0 -0.18816989864042211 0.29764366196112513 0 -0.19888532149202851 0.29367703316029459 0 -0.1948118653506036 0.28000077038320392 0 -0.19888532149202851 0.29367703316029459 0 -0.21110872248603521 0.28469234648091452 0 -0.20877082857603979 0.29940688312554509 0 -0.21110872248603521 0.28469234648091452 0 -0.20877082857603979 0.29940688312554509 0 -0.2243450917342473 0.29458053512295529 0 -0.20501882120596079 0.31855438066048958 0 -0.19626598158476941 0.31090302305550582 0 -0.2102375543469025 0.30275541719108701 0 -0.19888532149202851 0.29367703316029459 0 -0.20877082857603979 0.29940688312554509 0 -0.2102375543469025 0.30275541719108701 0 -0.20877082857603979 0.29940688312554509 0 -0.2102375543469025 0.30275541719108701 0 -0.20877082857603979 0.29940688312554509 0 -0.2102375543469025 0.30275541719108701 0 -0.2243450917342473 0.29458053512295529 0 -0.2102375543469025 0.30275541719108701 0 -0.23342138844356219 0.3081257241584644 0 -0.2243450917342473 0.29458053512295529 0 -0.2199626647138728 0.32495783839473708 0 -0.2102375543469025 0.30275541719108701 0 -0.23342138844356219 0.3081257241584644 0 -0.2102375543469025 0.30275541719108701 0 -0.23342138844356219 0.3081257241584644 0 -0.2243450917342473 0.29458053512295529 0 -0.24630518530193979 0.28228024887108583 0 -0.2303326431211121 0.27490684031045559 0 -0.21110872248603521 0.28469234648091452 0 -0.2243450917342473 0.29458053512295529 0 -0.2303326431211121 0.27490684031045559 0 -0.2243450917342473 0.29458053512295529 0 -0.24630518530193979 0.28228024887108583 0 -0.24779582667689801 0.29879862025807941 0 -0.25660522254022211 0.31349603112584118 0 -0.23342138844356219 0.3081257241584644 0 -0.24779582667689801 0.29879862025807941 0 -0.23342138844356219 0.3081257241584644 0 -0.2243450917342473 0.29458053512295529 0 -0.24779582667689801 0.29879862025807941 0 -0.25660522254022211 0.31349603112584118 0 -0.23342138844356219 0.3081257241584644 0 -0.25720826296923222 0.26030844014048549 0 -0.23890969400241849 0.2552092714717491 0 -0.24640150770589969 0.26895924206875887 0 -0.23890969400241849 0.2552092714717491 0 -0.24640150770589969 0.26895924206875887 0 -0.2303326431211121 0.27490684031045559 0 -0.24630518530193979 0.28228024887108583 0 -0.24640150770589969 0.26895924206875887 0 -0.2303326431211121 0.27490684031045559 0 -0.2303326431211121 0.27490684031045559 0 -0.22397017858154419 0.25378571841630942 0 -0.20950658464217969 0.26558201678303212 0 -0.23890969400241849 0.2552092714717491 0 -0.2303326431211121 0.27490684031045559 0 -0.22397017858154419 0.25378571841630942 0 -0.22397017858154419 0.25378571841630942 0 -0.20950658464217969 0.26558201678303212 0 -0.21515534991013979 0.23621769356130559 0 -0.20950658464217969 0.26558201678303212 0 -0.20205513456322161 0.25178325309228428 0 -0.21515534991013979 0.23621769356130559 0 -0.20950658464217969 0.26558201678303212 0 -0.21515534991013979 0.23621769356130559 0 -0.21110872248603521 0.28469234648091452 0 -0.2303326431211121 0.27490684031045559 0 -0.20950658464217969 0.26558201678303212 0 -0.21110872248603521 0.28469234648091452 0 -0.20950658464217969 0.26558201678303212 0 -0.1948118653506036 0.28000077038320392 0 -0.20950658464217969 0.26558201678303212 0 -0.1948118653506036 0.28000077038320392 0 -0.1942146469821355 0.25985776193562099 0 -0.1948118653506036 0.28000077038320392 0 -0.1942146469821355 0.25985776193562099 0 -0.18394990849736209 0.27104735856483181 0 -0.20950658464217969 0.26558201678303212 0 -0.20205513456322161 0.25178325309228428 0 -0.1942146469821355 0.25985776193562099 0 -0.1942146469821355 0.25985776193562099 0 -0.18022676601160781 0.25971411722105892 0 -0.18934395671843121 0.24547554008917871 0 -0.20205513456322161 0.25178325309228428 0 -0.1942146469821355 0.25985776193562099 0 -0.18934395671843121 0.24547554008917871 0 -0.18022676601160781 0.25971411722105892 0 -0.1635325635267233 0.25473338661705341 0 -0.18934395671843121 0.24547554008917871 0 -0.16640709793714159 0.25178510800628517 0 -0.1635325635267233 0.25473338661705341 0 -0.18934395671843121 0.24547554008917871 0 -0.1635325635267233 0.25473338661705341 0 -0.18934395671843121 0.24547554008917871 0 -0.1942146469821355 0.25985776193562099 0 -0.18022676601160781 0.25971411722105892 0 -0.18394990849736209 0.27104735856483181 0 -0.16640709793714159 0.25178510800628517 0 -0.1635325635267233 0.25473338661705341 0 -0.1416660054735496 0.26147643959154859 0 -0.18022676601160781 0.25971411722105892 0 -0.1635325635267233 0.25473338661705341 0 -0.1700927543333868 0.26745653889860938 0 -0.1635325635267233 0.25473338661705341 0 -0.15630436576957249 0.26783384057365073 0 -0.1700927543333868 0.26745653889860938 0 -0.16122559381220711 0.27830335767223202 0 -0.1700927543333868 0.26745653889860938 0 -0.17606928005684469 0.28401231821137418 0 -0.16122559381220711 0.27830335767223202 0 -0.15630436576957249 0.26783384057365073 0 -0.1700927543333868 0.26745653889860938 0 -0.1948118653506036 0.28000077038320392 0 -0.18394990849736209 0.27104735856483181 0 -0.17606928005684469 0.28401231821137418 0 -0.1700927543333868 0.26745653889860938 0 -0.18394990849736209 0.27104735856483181 0 -0.17606928005684469 0.28401231821137418 0 -0.18022676601160781 0.25971411722105892 0 -0.1700927543333868 0.26745653889860938 0 -0.18394990849736209 0.27104735856483181 0 -0.18816989864042211 0.29764366196112513 0 -0.1948118653506036 0.28000077038320392 0 -0.17606928005684469 0.28401231821137418 0 -0.18816989864042211 0.29764366196112513 0 -0.17606928005684469 0.28401231821137418 0 -0.17409632809297379 0.2986214039847524 0 -0.18134231851663629 0.31103765370691361 0 -0.17409632809297379 0.2986214039847524 0 -0.1644166530425816 0.30785219434675132 0 -0.18816989864042211 0.29764366196112513 0 -0.18134231851663629 0.31103765370691361 0 -0.17409632809297379 0.2986214039847524 0 -0.1644166530425816 0.30785219434675132 0 -0.16048349020838429 0.29256119169759781 0 -0.14689990571001879 0.29971274081174482 0 -0.17409632809297379 0.2986214039847524 0 -0.1644166530425816 0.30785219434675132 0 -0.16048349020838429 0.29256119169759781 0 -0.16122559381220711 0.27830335767223202 0 -0.17606928005684469 0.28401231821137418 0 -0.16048349020838429 0.29256119169759781 0 -0.17606928005684469 0.28401231821137418 0 -0.17409632809297379 0.2986214039847524 0 -0.16048349020838429 0.29256119169759781 0 -0.16122559381220711 0.27830335767223202 0 -0.16048349020838429 0.29256119169759781 0 -0.14500491170199559 0.27719948008881018 0 -0.16048349020838429 0.29256119169759781 0 -0.14689990571001879 0.29971274081174482 0 -0.14500491170199559 0.27719948008881018 0 -0.14689990571001879 0.29971274081174482 0 -0.1344265674828477 0.28905460819995221 0 -0.14500491170199559 0.27719948008881018 0 -0.13762962224453201 0.31400234578622133 0 -0.15440641795647411 0.31623323545438931 0 -0.14689990571001879 0.29971274081174482 0 -0.15440641795647411 0.31623323545438931 0 -0.1644166530425816 0.30785219434675132 0 -0.14689990571001879 0.29971274081174482 0 -0.1285820859322612 0.31962633220251518 0 -0.13762962224453201 0.31400234578622133 0 -0.12624963853575569 0.30282393446501837 0 -0.13762962224453201 0.31400234578622133 0 -0.14689990571001879 0.29971274081174482 0 -0.13630143349328849 0.30139840731573408 0 -0.13762962224453201 0.31400234578622133 0 -0.13630143349328849 0.30139840731573408 0 -0.12624963853575569 0.30282393446501837 0 -0.13630143349328849 0.30139840731573408 0 -0.12624963853575569 0.30282393446501837 0 -0.1344265674828477 0.28905460819995221 0 -0.12624963853575569 0.30282393446501837 0 -0.1344265674828477 0.28905460819995221 0 -0.1171588836187393 0.29008528626871172 0 -0.14689990571001879 0.29971274081174482 0 -0.13630143349328849 0.30139840731573408 0 -0.1344265674828477 0.28905460819995221 0 -0.1344265674828477 0.28905460819995221 0 -0.14500491170199559 0.27719948008881018 0 -0.1169249130099576 0.27116777117681201 0 -0.1416660054735496 0.26147643959154859 0 -0.1169249130099576 0.27116777117681201 0 -0.1416660054735496 0.26147643959154859 0 -0.14500491170199559 0.27719948008881018 0 -0.1169249130099576 0.27116777117681201 0 -0.1416660054735496 0.26147643959154859 0 -0.12482003396909221 0.25114211634600742 0 -0.1454021730550242 0.2477900580711265 0 -0.1416660054735496 0.26147643959154859 0 -0.12482003396909221 0.25114211634600742 0 -0.1169249130099576 0.27116777117681201 0 -0.16640709793714159 0.25178510800628517 0 -0.1416660054735496 0.26147643959154859 0 -0.1635325635267233 0.25473338661705341 0 -0.15630436576957249 0.26783384057365073 0 -0.1416660054735496 0.26147643959154859 0 -0.16640709793714159 0.25178510800628517 0 -0.1416660054735496 0.26147643959154859 0 -0.1454021730550242 0.2477900580711265 0 -0.16122559381220711 0.27830335767223202 0 -0.15630436576957249 0.26783384057365073 0 -0.14500491170199559 0.27719948008881018 0 -0.15630436576957249 0.26783384057365073 0 -0.1416660054735496 0.26147643959154859 0 -0.14500491170199559 0.27719948008881018 0 -0.1004403613419224 0.26585836479791702 0 -0.1024735894668701 0.282102976649661 0 -0.089350011498297549 0.27282927673882212 0 -0.1004403613419224 0.26585836479791702 0 -0.1169249130099576 0.27116777117681201 0 -0.1024735894668701 0.282102976649661 0 -0.1004403613419224 0.26585836479791702 0 -0.09620545477027273 0.25483607137557501 0 -0.090946640045185614 0.26103686098013329 0 -0.1004403613419224 0.26585836479791702 0 -0.106741559260951 0.25317723186649882 0 -0.1169249130099576 0.27116777117681201 0 -0.1004403613419224 0.26585836479791702 0 -0.09620545477027273 0.25483607137557501 0 -0.106741559260951 0.25317723186649882 0 -0.09620545477027273 0.25483607137557501 0 -0.106741559260951 0.25317723186649882 0 -0.095237997476510378 0.24369107460290629 0 -0.106741559260951 0.25317723186649882 0 -0.12482003396909221 0.25114211634600742 0 -0.1169249130099576 0.27116777117681201 0 -0.1169249130099576 0.27116777117681201 0 -0.1171588836187393 0.29008528626871172 0 -0.1024735894668701 0.282102976649661 0 -0.1344265674828477 0.28905460819995221 0 -0.1169249130099576 0.27116777117681201 0 -0.1171588836187393 0.29008528626871172 0 -0.1285820859322612 0.31962633220251518 0 -0.12624963853575569 0.30282393446501837 0 -0.1057197095982655 0.30527714085211483 0 -0.12624963853575569 0.30282393446501837 0 -0.1171588836187393 0.29008528626871172 0 -0.1057197095982655 0.30527714085211483 0 -0.1285820859322612 0.31962633220251518 0 -0.1057197095982655 0.30527714085211483 0 -0.1057197095982655 0.30527714085211483 0 -0.082857333264271388 0.29092794950171191 0 -0.1171588836187393 0.29008528626871172 0 -0.1057197095982655 0.30527714085211483 0 -0.1024735894668701 0.282102976649661 0 -0.1057197095982655 0.30527714085211483 0 -0.1024735894668701 0.282102976649661 0 -0.082857333264271388 0.29092794950171191 0 -0.1024735894668701 0.282102976649661 0 -0.082857333264271388 0.29092794950171191 0 -0.089350011498297549 0.27282927673882212 0 -0.082857333264271388 0.29092794950171191 0 -0.073200861516193289 0.30625372060589512 0 -0.091617542507726121 0.31540738968816789 0 -0.1057197095982655 0.30527714085211483 0 -0.082857333264271388 0.29092794950171191 0 -0.091617542507726121 0.31540738968816789 0 -0.073200861516193289 0.30625372060589512 0 -0.06054487518405012 0.29485890056366021 0 -0.056373579938761922 0.31148407157542118 0 -0.082857333264271388 0.29092794950171191 0 -0.073200861516193289 0.30625372060589512 0 -0.06054487518405012 0.29485890056366021 0 -0.082857333264271388 0.29092794950171191 0 -0.059994956930278023 0.27657875815130761 0 -0.082857333264271388 0.29092794950171191 0 -0.059994956930278023 0.27657875815130761 0 -0.06054487518405012 0.29485890056366021 0 -0.082857333264271388 0.29092794950171191 0 -0.071406673801664669 0.27461838112121761 0 -0.059994956930278023 0.27657875815130761 0 -0.082857333264271388 0.29092794950171191 0 -0.071406673801664669 0.27461838112121761 0 -0.080046681495921562 0.27674801397143728 0 -0.07263166394277798 0.26476253730223759 0 -0.059994956930278023 0.27657875815130761 0 -0.072094490764828392 0.26318992429816129 0 -0.05857118242373268 0.27568514969452163 0 -0.071406673801664669 0.27461838112121761 0 -0.07263166394277798 0.26476253730223759 0 -0.059994956930278023 0.27657875815130761 0 -0.072094490764828392 0.26318992429816129 0 -0.05857118242373268 0.27568514969452163 0 -0.060001075490807632 0.26672011371211768 0 -0.07263166394277798 0.26476253730223759 0 -0.072094490764828392 0.26318992429816129 0 -0.05857118242373268 0.27568514969452163 0 -0.07263166394277798 0.26476253730223759 0 -0.059994956930278023 0.27657875815130761 0 -0.05857118242373268 0.27568514969452163 0 -0.071406673801664669 0.27461838112121761 0 -0.078524776596185564 0.26920476482511219 0 -0.07263166394277798 0.26476253730223759 0 -0.078524776596185564 0.26920476482511219 0 -0.079209018086475513 0.26403426834450711 0 -0.07263166394277798 0.26476253730223759 0 -0.071406673801664669 0.27461838112121761 0 -0.080046681495921562 0.27674801397143728 0 -0.078524776596185564 0.26920476482511219 0 -0.082857333264271388 0.29092794950171191 0 -0.080046681495921562 0.27674801397143728 0 -0.089350011498297549 0.27282927673882212 0 -0.080046681495921562 0.27674801397143728 0 -0.078524776596185564 0.26920476482511219 0 -0.089350011498297549 0.27282927673882212 0 -0.078524776596185564 0.26920476482511219 0 -0.089350011498297549 0.27282927673882212 0 -0.083934869965011497 0.2639578605436253 0 -0.078524776596185564 0.26920476482511219 0 -0.083934869965011497 0.2639578605436253 0 -0.079209018086475513 0.26403426834450711 0 -0.089350011498297549 0.27282927673882212 0 -0.090946640045185614 0.26103686098013329 0 -0.083934869965011497 0.2639578605436253 0 -0.1004403613419224 0.26585836479791702 0 -0.089350011498297549 0.27282927673882212 0 -0.090946640045185614 0.26103686098013329 0 -0.09620545477027273 0.25483607137557501 0 -0.089439320898220445 0.25230245455238071 0 -0.095237997476510378 0.24369107460290629 0 -0.089439320898220445 0.25230245455238071 0 -0.090946640045185614 0.26103686098013329 0 -0.086202157441140154 0.25816835737933558 0 -0.09620545477027273 0.25483607137557501 0 -0.089439320898220445 0.25230245455238071 0 -0.090946640045185614 0.26103686098013329 0 -0.089439320898220445 0.25230245455238071 0 -0.086202157441140154 0.25816835737933558 0 -0.085268370955278228 0.25294631645316801 0 -0.089439320898220445 0.25230245455238071 0 -0.085617799105924666 0.25069469890180152 0 -0.085268370955278228 0.25294631645316801 0 -0.090946640045185614 0.26103686098013329 0 -0.086202157441140154 0.25816835737933558 0 -0.083934869965011497 0.2639578605436253 0 -0.086202157441140154 0.25816835737933558 0 -0.083934869965011497 0.2639578605436253 0 -0.081421585342004998 0.26059829436737098 0 -0.081421585342004998 0.26059829436737098 0 -0.085268370955278228 0.25294631645316801 0 -0.07263166394277798 0.26476253730223759 0 -0.085268370955278228 0.25294631645316801 0 -0.07263166394277798 0.26476253730223759 0 -0.083934869965011497 0.2639578605436253 0 -0.079209018086475513 0.26403426834450711 0 -0.081421585342004998 0.26059829436737098 0 -0.085617799105924666 0.25069469890180152 0 -0.085268370955278228 0.25294631645316801 0 -0.072094490764828392 0.26318992429816129 0 -0.085617799105924666 0.25069469890180152 0 -0.079065520241485915 0.25100537302428427 0 -0.075644370570544267 0.25585658612223777 0 -0.085617799105924666 0.25069469890180152 0 -0.072094490764828392 0.26318992429816129 0 -0.086202157441140154 0.25816835737933558 0 -0.081421585342004998 0.26059829436737098 0 -0.085268370955278228 0.25294631645316801 0 -0.079065520241485915 0.25100537302428427 0 -0.07427874433702801 0.25393861420498642 0 -0.075135886009683822 0.24985715318892979 0 -0.079065520241485915 0.25100537302428427 0 -0.07427874433702801 0.25393861420498642 0 -0.075644370570544267 0.25585658612223777 0 -0.085617799105924666 0.25069469890180152 0 -0.075644370570544267 0.25585658612223777 0 -0.072094490764828392 0.26318992429816129 0 -0.07427874433702801 0.25393861420498642 0 -0.075644370570544267 0.25585658612223777 0 -0.071077371186762439 0.25688595538282888 0 -0.07427874433702801 0.25393861420498642 0 -0.071077371186762439 0.25688595538282888 0 -0.069477213224122786 0.25212352833607982 0 -0.075644370570544267 0.25585658612223777 0 -0.071077371186762439 0.25688595538282888 0 -0.071732297787236235 0.25942495092136508 0 -0.07427874433702801 0.25393861420498642 0 -0.069477213224122786 0.25212352833607982 0 -0.075135886009683822 0.24985715318892979 0 -0.079209018086475513 0.26403426834450711 0 -0.081421585342004998 0.26059829436737098 0 -0.07263166394277798 0.26476253730223759 0 -0.085268370955278228 0.25294631645316801 0 -0.07263166394277798 0.26476253730223759 0 -0.072094490764828392 0.26318992429816129 0 -0.075644370570544267 0.25585658612223777 0 -0.071732297787236235 0.25942495092136508 0 -0.072094490764828392 0.26318992429816129 0 -0.071077371186762439 0.25688595538282888 0 -0.071732297787236235 0.25942495092136508 0 -0.069411156795765802 0.2599726462606482 0 -0.071732297787236235 0.25942495092136508 0 -0.072094490764828392 0.26318992429816129 0 -0.069411156795765802 0.2599726462606482 0 -0.072094490764828392 0.26318992429816129 0 -0.065488825472158591 0.26168125526568459 0 -0.060001075490807632 0.26672011371211768 0 -0.069411156795765802 0.2599726462606482 0 -0.065488825472158591 0.26168125526568459 0 -0.065898753814250616 0.25579333114418329 0 -0.072094490764828392 0.26318992429816129 0 -0.069411156795765802 0.2599726462606482 0 -0.065488825472158591 0.26168125526568459 0 -0.065488825472158591 0.26168125526568459 0 -0.065898753814250616 0.25579333114418329 0 -0.059405319268608002 0.2576922090059604 0 -0.069477213224122786 0.25212352833607982 0 -0.065898753814250616 0.25579333114418329 0 -0.060155289290419377 0.2492581413369018 0 -0.071077371186762439 0.25688595538282888 0 -0.069411156795765802 0.2599726462606482 0 -0.065898753814250616 0.25579333114418329 0 -0.071077371186762439 0.25688595538282888 0 -0.069477213224122786 0.25212352833607982 0 -0.065898753814250616 0.25579333114418329 0 -0.059405319268608002 0.2576922090059604 0 -0.050473894944840447 0.25505037615492249 0 -0.060155289290419377 0.2492581413369018 0 -0.065898753814250616 0.25579333114418329 0 -0.059405319268608002 0.2576922090059604 0 -0.060155289290419377 0.2492581413369018 0 -0.065488825472158591 0.26168125526568459 0 -0.059405319268608002 0.2576922090059604 0 -0.060354218885658513 0.2628401218640779 0 -0.059405319268608002 0.2576922090059604 0 -0.054910962756912617 0.26249985887375182 0 -0.050473894944840447 0.25505037615492249 0 -0.065488825472158591 0.26168125526568459 0 -0.060354218885658513 0.2628401218640779 0 -0.060001075490807632 0.26672011371211768 0 -0.060354218885658513 0.2628401218640779 0 -0.054910962756912617 0.26249985887375182 0 -0.060001075490807632 0.26672011371211768 0 -0.059405319268608002 0.2576922090059604 0 -0.060354218885658513 0.2628401218640779 0 -0.054910962756912617 0.26249985887375182 0 -0.054910962756912617 0.26249985887375182 0 -0.050473894944840447 0.25505037615492249 0 -0.047992931262780252 0.26643446308280289 0 -0.054910962756912617 0.26249985887375182 0 -0.054418321830847577 0.26784047595086069 0 -0.047992931262780252 0.26643446308280289 0 -0.059994956930278023 0.27657875815130761 0 -0.05857118242373268 0.27568514969452163 0 -0.05857118242373268 0.27568514969452163 0 -0.057361286105882953 0.27120684665955003 0 -0.060001075490807632 0.26672011371211768 0 -0.057361286105882953 0.27120684665955003 0 -0.054418321830847577 0.26784047595086069 0 -0.053423417138090033 0.27126272492492348 0 -0.05857118242373268 0.27568514969452163 0 -0.057361286105882953 0.27120684665955003 0 -0.053423417138090033 0.27126272492492348 0 -0.054910962756912617 0.26249985887375182 0 -0.060001075490807632 0.26672011371211768 0 -0.054418321830847577 0.26784047595086069 0 -0.057361286105882953 0.27120684665955003 0 -0.060001075490807632 0.26672011371211768 0 -0.054418321830847577 0.26784047595086069 0 -0.05857118242373268 0.27568514969452163 0 -0.04907957960004658 0.27323236214651347 0 -0.053423417138090033 0.27126272492492348 0 -0.054418321830847577 0.26784047595086069 0 -0.047992931262780252 0.26643446308280289 0 -0.053423417138090033 0.27126272492492348 0 -0.047992931262780252 0.26643446308280289 0 -0.04907957960004658 0.27323236214651347 0 -0.053423417138090033 0.27126272492492348 0 -0.05857118242373268 0.27568514969452163 0 -0.04907957960004658 0.27323236214651347 0 -0.048106430332227799 0.27762001101374462 0 -0.037721560864408449 0.27046559963163153 0 -0.021817306850607159 0.27315750721672 0 -0.039764129653318381 0.29306243323196818 0 -0.048106430332227799 0.27762001101374462 0 -0.037721560864408449 0.27046559963163153 0 -0.039764129653318381 0.29306243323196818 0 -0.04907957960004658 0.27323236214651347 0 -0.048106430332227799 0.27762001101374462 0 -0.037721560864408449 0.27046559963163153 0 -0.047992931262780252 0.26643446308280289 0 -0.04907957960004658 0.27323236214651347 0 -0.037721560864408449 0.27046559963163153 0 -0.047992931262780252 0.26643446308280289 0 -0.037721560864408449 0.27046559963163153 0 -0.036353893942215387 0.25409255585965079 0 -0.037721560864408449 0.27046559963163153 0 -0.036353893942215387 0.25409255585965079 0 -0.020936654409663649 0.25565986487002079 0 -0.050473894944840447 0.25505037615492249 0 -0.036353893942215387 0.25409255585965079 0 -0.044594207894327727 0.24188732741784091 0 -0.050473894944840447 0.25505037615492249 0 -0.047992931262780252 0.26643446308280289 0 -0.036353893942215387 0.25409255585965079 0 -0.037721560864408449 0.27046559963163153 0 -0.020936654409663649 0.25565986487002079 0 -0.021817306850607159 0.27315750721672 0 -0.021817306850607159 0.27315750721672 0 -0.0045653944237659403 0.27106774986792348 0 -0.003870484047894238 0.25325258120147331 0 -0.0045653944237659403 0.27106774986792348 0 -0.0064647886647679594 0.28727353837947239 0 0.0039125193680558971 0.27831308366147178 0 -0.021817306850607159 0.27315750721672 0 -0.0045653944237659403 0.27106774986792348 0 -0.0064647886647679594 0.28727353837947239 0 -0.021817306850607159 0.27315750721672 0 -0.003870484047894238 0.25325258120147331 0 -0.0045653944237659403 0.27106774986792348 0 -0.003870484047894238 0.25325258120147331 0 0.0068480974455401916 0.26366255629670587 0 -0.020936654409663649 0.25565986487002079 0 -0.003870484047894238 0.25325258120147331 0 -0.001870537191094847 0.24783164157960649 0 -0.020936654409663649 0.25565986487002079 0 -0.021817306850607159 0.27315750721672 0 -0.003870484047894238 0.25325258120147331 0 -0.013868191632293201 0.300315567009516 0 -0.0088254007675241507 0.3104834745808136 0 -0.00098271012149963666 0.30301770253450322 0 -0.013868191632293201 0.300315567009516 0 -0.0088254007675241507 0.3104834745808136 0 -0.022493862441402921 0.30901976231337791 0 -0.0088254007675241507 0.3104834745808136 0 -0.00098271012149963666 0.30301770253450322 0 -0.00091589086326776211 0.31522573641359419 0 -0.013868191632293201 0.300315567009516 0 -0.00098271012149963666 0.30301770253450322 0 -0.0064647886647679594 0.28727353837947239 0 -0.013868191632293201 0.300315567009516 0 -0.0064647886647679594 0.28727353837947239 0 -0.01939950582363021 0.29103795640948588 0 -0.021817306850607159 0.27315750721672 0 -0.039764129653318381 0.29306243323196818 0 -0.021817306850607159 0.27315750721672 0 -0.0064647886647679594 0.28727353837947239 0 -0.01939950582363021 0.29103795640948588 0 -0.021817306850607159 0.27315750721672 0 -0.028536338426933889 0.29410165166818369 0 -0.039764129653318381 0.29306243323196818 0 -0.021817306850607159 0.27315750721672 0 -0.01939950582363021 0.29103795640948588 0 -0.028536338426933889 0.29410165166818369 0 -0.013868191632293201 0.300315567009516 0 -0.01939950582363021 0.29103795640948588 0 -0.021579837256222409 0.298775140838971 0 -0.01939950582363021 0.29103795640948588 0 -0.028536338426933889 0.29410165166818369 0 -0.021579837256222409 0.298775140838971 0 -0.022493862441402921 0.30901976231337791 0 -0.039764129653318381 0.29306243323196818 0 -0.028536338426933889 0.29410165166818369 0 -0.021579837256222409 0.298775140838971 0 -0.022493862441402921 0.30901976231337791 0 -0.022493862441402921 0.30901976231337791 0 -0.027345775235421751 0.30710806780976491 0 -0.039764129653318381 0.29306243323196818 0 -0.028536338426933889 0.29410165166818369 0 -0.022493862441402921 0.30901976231337791 0 -0.039764129653318381 0.29306243323196818 0 -0.013868191632293201 0.300315567009516 0 -0.021579837256222409 0.298775140838971 0 -0.022493862441402921 0.30901976231337791 0 -0.022493862441402921 0.30901976231337791 0 -0.027345775235421751 0.30710806780976491 0 -0.01373692268703003 0.31983331395618197 0 -0.027345775235421751 0.30710806780976491 0 -0.032577756228225389 0.31387405599338558 0 -0.0268486916354908 0.31477554500333571 0 -0.027345775235421751 0.30710806780976491 0 -0.038300269383663113 0.30579775759341449 0 -0.032577756228225389 0.31387405599338558 0 -0.038300269383663113 0.30579775759341449 0 -0.039764129653318381 0.29306243323196818 0 -0.056373579938761922 0.31148407157542118 0 -0.038300269383663113 0.30579775759341449 0 -0.041417828179039919 0.31516047214394138 0 -0.032577756228225389 0.31387405599338558 0 -0.038300269383663113 0.30579775759341449 0 -0.056373579938761922 0.31148407157542118 0 -0.041417828179039919 0.31516047214394138 0 -0.027345775235421751 0.30710806780976491 0 -0.038300269383663113 0.30579775759341449 0 -0.039764129653318381 0.29306243323196818 0 -0.027345775235421751 0.30710806780976491 0 -0.039764129653318381 0.29306243323196818 0 -0.059994956930278023 0.27657875815130761 0 -0.039764129653318381 0.29306243323196818 0 -0.059994956930278023 0.27657875815130761 0 -0.05857118242373268 0.27568514969452163 0 -0.039764129653318381 0.29306243323196818 0 -0.059994956930278023 0.27657875815130761 0 -0.039764129653318381 0.29306243323196818 0 -0.06054487518405012 0.29485890056366021 0 -0.05857118242373268 0.27568514969452163 0 -0.039764129653318381 0.29306243323196818 0 -0.05857118242373268 0.27568514969452163 0 -0.048106430332227799 0.27762001101374462 0 -0.039764129653318381 0.29306243323196818 0 -0.039764129653318381 0.29306243323196818 0 -0.056373579938761922 0.31148407157542118 0 -0.039764129653318381 0.29306243323196818 0 -0.06054487518405012 0.29485890056366021 0 -0.056373579938761922 0.31148407157542118 0 -0.056373579938761922 0.31148407157542118 0 -0.055516414524114467 0.33039200112146361 0 -0.065984489707490157 0.32857881263688088 0 -0.056373579938761922 0.31148407157542118 0 -0.055516414524114467 0.33039200112146361 0 -0.045679841474636877 0.32441293137153993 0 -0.056373579938761922 0.31148407157542118 0 -0.041417828179039919 0.31516047214394138 0 -0.045679841474636877 0.32441293137153993 0 -0.055516414524114467 0.33039200112146361 0 -0.045931904220332179 0.33859320753743011 0 -0.069653495455117787 0.34297845244490621 0 -0.055516414524114467 0.33039200112146361 0 -0.045931904220332179 0.33859320753743011 0 -0.045679841474636877 0.32441293137153993 0 -0.045931904220332179 0.33859320753743011 0 -0.036446209099589372 0.33232598293804511 0 -0.02919469878918041 0.34283259050196452 0 -0.045931904220332179 0.33859320753743011 0 -0.036446209099589372 0.33232598293804511 0 -0.045679841474636877 0.32441293137153993 0 -0.041417828179039919 0.31516047214394138 0 -0.045679841474636877 0.32441293137153993 0 -0.035038712300424879 0.32209700197413071 0 -0.036446209099589372 0.33232598293804511 0 -0.035038712300424879 0.32209700197413071 0 -0.027552019211783661 0.32867218935381581 0 -0.036446209099589372 0.33232598293804511 0 -0.045679841474636877 0.32441293137153993 0 -0.035038712300424879 0.32209700197413071 0 -0.041417828179039919 0.31516047214394138 0 -0.035038712300424879 0.32209700197413071 0 -0.032577756228225389 0.31387405599338558 0 -0.035038712300424879 0.32209700197413071 0 -0.032577756228225389 0.31387405599338558 0 -0.026898314464621261 0.32026906674113159 0 -0.032577756228225389 0.31387405599338558 0 -0.026898314464621261 0.32026906674113159 0 -0.0268486916354908 0.31477554500333571 0 -0.027345775235421751 0.30710806780976491 0 -0.0268486916354908 0.31477554500333571 0 -0.022307643898984032 0.31758429862781418 0 -0.026898314464621261 0.32026906674113159 0 -0.0268486916354908 0.31477554500333571 0 -0.022307643898984032 0.31758429862781418 0 -0.027345775235421751 0.30710806780976491 0 -0.022307643898984032 0.31758429862781418 0 -0.01373692268703003 0.31983331395618197 0 -0.027345775235421751 0.30710806780976491 0 -0.01373692268703003 0.31983331395618197 0 -0.022307643898984032 0.31758429862781418 0 -0.02017796204293474 0.32540211794616442 0 -0.01373692268703003 0.31983331395618197 0 -0.026898314464621261 0.32026906674113159 0 -0.022307643898984032 0.31758429862781418 0 -0.02017796204293474 0.32540211794616442 0 -0.026898314464621261 0.32026906674113159 0 -0.02017796204293474 0.32540211794616442 0 -0.027552019211783661 0.32867218935381581 0 -0.035038712300424879 0.32209700197413071 0 -0.026898314464621261 0.32026906674113159 0 -0.027552019211783661 0.32867218935381581 0 -0.02919469878918041 0.34283259050196452 0 -0.02055930409474015 0.33542585521799922 0 -0.012998570162705701 0.34808614638675323 0 -0.027552019211783661 0.32867218935381581 0 -0.02919469878918041 0.34283259050196452 0 -0.02055930409474015 0.33542585521799922 0 -0.036446209099589372 0.33232598293804511 0 -0.027552019211783661 0.32867218935381581 0 -0.02919469878918041 0.34283259050196452 0 -0.02017796204293474 0.32540211794616442 0 -0.02055930409474015 0.33542585521799922 0 -0.01174829118573857 0.33036129293879718 0 -0.02017796204293474 0.32540211794616442 0 -0.027552019211783661 0.32867218935381581 0 -0.02055930409474015 0.33542585521799922 0 -0.01174829118573857 0.33036129293879718 0 -0.012998570162705701 0.34808614638675323 0 0.0021953080243909532 0.3292347266183353 0 -0.02055930409474015 0.33542585521799922 0 -0.01174829118573857 0.33036129293879718 0 -0.012998570162705701 0.34808614638675323 0 -0.012998570162705701 0.34808614638675323 0 0.002002667747446269 0.34500089505608922 0 0.0021953080243909532 0.3292347266183353 0 -0.012998570162705701 0.34808614638675323 0 0.0021953080243909532 0.3292347266183353 0 -0.01174829118573857 0.33036129293879718 0 -0.005223595229487607 0.32497709139478742 0 0.0021953080243909532 0.3292347266183353 0 -0.022493862441402921 0.30901976231337791 0 -0.005223595229487607 0.32497709139478742 0 -0.01373692268703003 0.31983331395618197 0 -0.022493862441402921 0.30901976231337791 0 -0.005223595229487607 0.32497709139478742 0 -0.0088254007675241507 0.3104834745808136 0 -0.022493862441402921 0.30901976231337791 0 -0.005223595229487607 0.32497709139478742 0 -0.005223595229487607 0.32497709139478742 0 -0.00091589086326776211 0.31522573641359419 0 0.0021953080243909532 0.3292347266183353 0 -0.0088254007675241507 0.3104834745808136 0 -0.005223595229487607 0.32497709139478742 0 -0.00091589086326776211 0.31522573641359419 0 -0.02017796204293474 0.32540211794616442 0 -0.01174829118573857 0.33036129293879718 0 -0.01373692268703003 0.31983331395618197 0 -0.01174829118573857 0.33036129293879718 0 -0.005223595229487607 0.32497709139478742 0 -0.01373692268703003 0.31983331395618197 0 -0.002472024106327787 0.35561964142679181 0 -0.017907033281536779 0.36282906244638591 0 0.0079661978052537122 0.3727543674471257 0 -0.017907033281536779 0.36282906244638591 0 0.0079661978052537122 0.3727543674471257 0 -0.017907033281536779 0.36282906244638591 0 -0.014793623710019511 0.38309793303379269 0 0.0079661978052537122 0.3727543674471257 0 -0.002472024106327787 0.35561964142679181 0 -0.012998570162705701 0.34808614638675323 0 0.002002667747446269 0.34500089505608922 0 -0.002472024106327787 0.35561964142679181 0 -0.012998570162705701 0.34808614638675323 0 -0.017907033281536779 0.36282906244638591 0 -0.017907033281536779 0.36282906244638591 0 -0.043780264368327278 0.35290375744564612 0 -0.02919469878918041 0.34283259050196452 0 -0.017907033281536779 0.36282906244638591 0 -0.043780264368327278 0.35290375744564612 0 -0.02919469878918041 0.34283259050196452 0 -0.012998570162705701 0.34808614638675323 0 -0.017907033281536779 0.36282906244638591 0 -0.017907033281536779 0.36282906244638591 0 -0.031486608754313777 0.37231470846558401 0 -0.043780264368327278 0.35290375744564612 0 -0.017907033281536779 0.36282906244638591 0 -0.031486608754313777 0.37231470846558401 0 -0.014793623710019511 0.38309793303379269 0 -0.031486608754313777 0.37231470846558401 0 -0.043780264368327278 0.35290375744564612 0 -0.053658472431945332 0.3589703914551311 0 -0.031486608754313777 0.37231470846558401 0 -0.057581432952178407 0.36910729547245552 0 -0.045931904220332179 0.33859320753743011 0 -0.02919469878918041 0.34283259050196452 0 -0.043780264368327278 0.35290375744564612 0 -0.043780264368327278 0.35290375744564612 0 -0.069653495455117787 0.34297845244490621 0 -0.043780264368327278 0.35290375744564612 0 -0.053658472431945332 0.3589703914551311 0 -0.069653495455117787 0.34297845244490621 0 -0.045931904220332179 0.33859320753743011 0 -0.043780264368327278 0.35290375744564612 0 -0.069653495455117787 0.34297845244490621 0 -0.031486608754313777 0.37231470846558401 0 -0.057581432952178407 0.36910729547245552 0 -0.05356776187311147 0.37973672811033399 0 -0.031486608754313777 0.37231470846558401 0 -0.053658472431945332 0.3589703914551311 0 -0.057581432952178407 0.36910729547245552 0 -0.053658472431945332 0.3589703914551311 0 -0.057581432952178407 0.36910729547245552 0 -0.065321168072655686 0.35894958335565802 0 -0.057581432952178407 0.36910729547245552 0 -0.068396208906977521 0.37581254320529561 0 -0.05356776187311147 0.37973672811033399 0 -0.057581432952178407 0.36910729547245552 0 -0.083676257150043051 0.36589988247932709 0 -0.068396208906977521 0.37581254320529561 0 -0.057581432952178407 0.36910729547245552 0 -0.083676257150043051 0.36589988247932709 0 -0.065321168072655686 0.35894958335565802 0 -0.057581432952178407 0.36910729547245552 0 -0.083676257150043051 0.36589988247932709 0 -0.083676257150043051 0.36589988247932709 0 -0.080410365292909652 0.38046497426184189 0 -0.068396208906977521 0.37581254320529561 0 -0.083676257150043051 0.36589988247932709 0 -0.097991850832038124 0.37358924325128118 0 -0.080410365292909652 0.38046497426184189 0 -0.083676257150043051 0.36589988247932709 0 -0.086408140692523977 0.34584183297127669 0 -0.065321168072655686 0.35894958335565802 0 -0.083676257150043051 0.36589988247932709 0 -0.086408140692523977 0.34584183297127669 0 -0.095583729712884924 0.35565374009547318 0 -0.086408140692523977 0.34584183297127669 0 -0.065321168072655686 0.35894958335565802 0 -0.053658472431945332 0.3589703914551311 0 -0.065321168072655686 0.35894958335565802 0 -0.069653495455117787 0.34297845244490621 0 -0.086408140692523977 0.34584183297127669 0 -0.065321168072655686 0.35894958335565802 0 -0.069653495455117787 0.34297845244490621 0 -0.069653495455117787 0.34297845244490621 0 -0.065984489707490157 0.32857881263688088 0 -0.076303342188981271 0.32162748520900752 0 -0.055516414524114467 0.33039200112146361 0 -0.069653495455117787 0.34297845244490621 0 -0.065984489707490157 0.32857881263688088 0 -0.073200861516193289 0.30625372060589512 0 -0.056373579938761922 0.31148407157542118 0 -0.076303342188981271 0.32162748520900752 0 -0.056373579938761922 0.31148407157542118 0 -0.065984489707490157 0.32857881263688088 0 -0.076303342188981271 0.32162748520900752 0 -0.076303342188981271 0.32162748520900752 0 -0.091617542507726121 0.31540738968816789 0 -0.095526726541908247 0.33305314744416642 0 -0.073200861516193289 0.30625372060589512 0 -0.076303342188981271 0.32162748520900752 0 -0.091617542507726121 0.31540738968816789 0 -0.069653495455117787 0.34297845244490621 0 -0.076303342188981271 0.32162748520900752 0 -0.095526726541908247 0.33305314744416642 0 -0.069653495455117787 0.34297845244490621 0 -0.095526726541908247 0.33305314744416642 0 -0.086408140692523977 0.34584183297127669 0 -0.069653495455117787 0.34297845244490621 0 -0.095526726541908247 0.33305314744416642 0 -0.086408140692523977 0.34584183297127669 0 -0.1074951133123923 0.33273408258689552 0 -0.086408140692523977 0.34584183297127669 0 -0.095526726541908247 0.33305314744416642 0 -0.1074951133123923 0.33273408258689552 0 -0.086408140692523977 0.34584183297127669 0 -0.1074951133123923 0.33273408258689552 0 -0.1024794396610649 0.34818077544509057 0 -0.095526726541908247 0.33305314744416642 0 -0.1074951133123923 0.33273408258689552 0 -0.1019079681589633 0.32267539554514157 0 -0.1074951133123923 0.33273408258689552 0 -0.11690141705398779 0.34688146143841359 0 -0.1024794396610649 0.34818077544509057 0 -0.1057197095982655 0.30527714085211483 0 -0.091617542507726121 0.31540738968816789 0 -0.1019079681589633 0.32267539554514157 0 -0.1057197095982655 0.30527714085211483 0 -0.1019079681589633 0.32267539554514157 0 -0.1109262192504706 0.32007823779666678 0 -0.091617542507726121 0.31540738968816789 0 -0.095526726541908247 0.33305314744416642 0 -0.1019079681589633 0.32267539554514157 0 -0.1074951133123923 0.33273408258689552 0 -0.1019079681589633 0.32267539554514157 0 -0.1109262192504706 0.32007823779666678 0 -0.1285820859322612 0.31962633220251518 0 -0.1057197095982655 0.30527714085211483 0 -0.1109262192504706 0.32007823779666678 0 -0.1285820859322612 0.31962633220251518 0 -0.1074951133123923 0.33273408258689552 0 -0.1285820859322612 0.31962633220251518 0 -0.1074951133123923 0.33273408258689552 0 -0.1109262192504706 0.32007823779666678 0 -0.13262596489288281 0.34092667502800228 0 -0.1209512604642947 0.33425720415068261 0 -0.11690141705398779 0.34688146143841359 0 -0.1285820859322612 0.31962633220251518 0 -0.1074951133123923 0.33273408258689552 0 -0.1209512604642947 0.33425720415068261 0 -0.1074951133123923 0.33273408258689552 0 -0.1209512604642947 0.33425720415068261 0 -0.11690141705398779 0.34688146143841359 0 -0.11690141705398779 0.34688146143841359 0 -0.10977108134790781 0.3626924694861986 0 -0.1024794396610649 0.34818077544509057 0 -0.1290972904713337 0.35924150358891138 0 -0.11690141705398779 0.34688146143841359 0 -0.10977108134790781 0.3626924694861986 0 -0.1290972904713337 0.35924150358891138 0 -0.10977108134790781 0.3626924694861986 0 -0.120758474690823 0.379867519792427 0 -0.10977108134790781 0.3626924694861986 0 -0.097991850832038124 0.37358924325128118 0 -0.120758474690823 0.379867519792427 0 -0.083676257150043051 0.36589988247932709 0 -0.10977108134790781 0.3626924694861986 0 -0.083676257150043051 0.36589988247932709 0 -0.10977108134790781 0.3626924694861986 0 -0.095583729712884924 0.35565374009547318 0 -0.083676257150043051 0.36589988247932709 0 -0.10977108134790781 0.3626924694861986 0 -0.097991850832038124 0.37358924325128118 0 -0.086408140692523977 0.34584183297127669 0 -0.095583729712884924 0.35565374009547318 0 -0.1024794396610649 0.34818077544509057 0 -0.10977108134790781 0.3626924694861986 0 -0.095583729712884924 0.35565374009547318 0 -0.1024794396610649 0.34818077544509057 0 -0.097557245929900588 0.38810099375484708 0 -0.113224489770713 0.3954436724256632 0 -0.10181665108610739 0.40845284903974338 0 -0.097557245929900588 0.38810099375484708 0 -0.10181665108610739 0.40845284903974338 0 -0.086674387760718799 0.40116204526297061 0 -0.097991850832038124 0.37358924325128118 0 -0.097557245929900588 0.38810099375484708 0 -0.120758474690823 0.379867519792427 0 -0.097557245929900588 0.38810099375484708 0 -0.120758474690823 0.379867519792427 0 -0.097557245929900588 0.38810099375484708 0 -0.120758474690823 0.379867519792427 0 -0.113224489770713 0.3954436724256632 0 -0.13066566531432561 0.40514582753946249 0 -0.120758474690823 0.379867519792427 0 -0.113224489770713 0.3954436724256632 0 -0.13066566531432561 0.40514582753946249 0 -0.113224489770713 0.3954436724256632 0 -0.10181665108610739 0.40845284903974338 0 -0.13066566531432561 0.40514582753946249 0 -0.10181665108610739 0.40845284903974338 0 -0.13066566531432561 0.40514582753946249 0 -0.1160836341082873 0.42448770314428969 0 -0.10181665108610739 0.40845284903974338 0 -0.1160836341082873 0.42448770314428969 0 -0.09446608398359771 0.43173366402718161 0 -0.1098261682431419 0.45066800799214252 0 -0.1160836341082873 0.42448770314428969 0 -0.09446608398359771 0.43173366402718161 0 -0.10181665108610739 0.40845284903974338 0 -0.10181665108610739 0.40845284903974338 0 -0.072967636857888984 0.4117598705400245 0 -0.086674387760718799 0.40116204526297061 0 -0.10181665108610739 0.40845284903974338 0 -0.072967636857888984 0.4117598705400245 0 -0.09446608398359771 0.43173366402718161 0 -0.10181665108610739 0.40845284903974338 0 -0.072967636857888984 0.4117598705400245 0 -0.09446608398359771 0.43173366402718161 0 -0.071857572714943641 0.43740765708737428 0 -0.072967636857888984 0.4117598705400245 0 -0.071857572714943641 0.43740765708737428 0 -0.072967636857888984 0.4117598705400245 0 -0.059203855239170863 0.42654704576834979 0 -0.074356017168978245 0.39633446771726721 0 -0.066024163959633272 0.38473643765379228 0 -0.054931571548655779 0.39113112840484332 0 -0.072967636857888984 0.4117598705400245 0 -0.074356017168978245 0.39633446771726721 0 -0.051154788408055853 0.40456794167968718 0 -0.074356017168978245 0.39633446771726721 0 -0.051154788408055853 0.40456794167968718 0 -0.072967636857888984 0.4117598705400245 0 -0.074356017168978245 0.39633446771726721 0 -0.086674387760718799 0.40116204526297061 0 -0.097557245929900588 0.38810099375484708 0 -0.074356017168978245 0.39633446771726721 0 -0.086674387760718799 0.40116204526297061 0 -0.097557245929900588 0.38810099375484708 0 -0.074356017168978245 0.39633446771726721 0 -0.097557245929900588 0.38810099375484708 0 -0.074356017168978245 0.39633446771726721 0 -0.080410365292909652 0.38046497426184189 0 -0.097991850832038124 0.37358924325128118 0 -0.097557245929900588 0.38810099375484708 0 -0.080410365292909652 0.38046497426184189 0 -0.080410365292909652 0.38046497426184189 0 -0.066024163959633272 0.38473643765379228 0 -0.068396208906977521 0.37581254320529561 0 -0.074356017168978245 0.39633446771726721 0 -0.080410365292909652 0.38046497426184189 0 -0.066024163959633272 0.38473643765379228 0 -0.066024163959633272 0.38473643765379228 0 -0.068396208906977521 0.37581254320529561 0 -0.05356776187311147 0.37973672811033399 0 -0.066024163959633272 0.38473643765379228 0 -0.05356776187311147 0.37973672811033399 0 -0.054931571548655779 0.39113112840484332 0 -0.05356776187311147 0.37973672811033399 0 -0.054931571548655779 0.39113112840484332 0 -0.0429865851169101 0.38531825546003362 0 -0.074356017168978245 0.39633446771726721 0 -0.054931571548655779 0.39113112840484332 0 -0.051154788408055853 0.40456794167968718 0 -0.054931571548655779 0.39113112840484332 0 -0.051154788408055853 0.40456794167968718 0 -0.040509191453686789 0.3961155708191525 0 -0.051154788408055853 0.40456794167968718 0 -0.040509191453686789 0.3961155708191525 0 -0.035189793255689578 0.40645185332893191 0 -0.054931571548655779 0.39113112840484332 0 -0.040509191453686789 0.3961155708191525 0 -0.0429865851169101 0.38531825546003362 0 -0.040509191453686789 0.3961155708191525 0 -0.030934552884102389 0.38699628326869823 0 -0.02489675538558174 0.39813494856492798 0 -0.040509191453686789 0.3961155708191525 0 -0.02489675538558174 0.39813494856492798 0 -0.035189793255689578 0.40645185332893191 0 -0.031486608754313777 0.37231470846558401 0 -0.05356776187311147 0.37973672811033399 0 -0.0429865851169101 0.38531825546003362 0 -0.040509191453686789 0.3961155708191525 0 -0.0429865851169101 0.38531825546003362 0 -0.030934552884102389 0.38699628326869823 0 -0.031486608754313777 0.37231470846558401 0 -0.0429865851169101 0.38531825546003362 0 -0.030934552884102389 0.38699628326869823 0 -0.031486608754313777 0.37231470846558401 0 -0.030934552884102389 0.38699628326869823 0 -0.014793623710019511 0.38309793303379269 0 -0.030934552884102389 0.38699628326869823 0 -0.02489675538558174 0.39813494856492798 0 -0.014793623710019511 0.38309793303379269 0 -0.02489675538558174 0.39813494856492798 0 -0.011547381867858929 0.39888805189097631 0 -0.014793623710019511 0.38309793303379269 0 -0.02489675538558174 0.39813494856492798 0 -0.011547381867858929 0.39888805189097631 0 -0.015269608401452641 0.4183739135405864 0 -0.011547381867858929 0.39888805189097631 0 -0.014793623710019511 0.38309793303379269 0 0.0064299632138935837 0.39871103747722619 0 -0.011547381867858929 0.39888805189097631 0 -0.015269608401452641 0.4183739135405864 0 0.0064299632138935837 0.39871103747722619 0 -0.014793623710019511 0.38309793303379269 0 0.0064299632138935837 0.39871103747722619 0 0.0079661978052537122 0.3727543674471257 0 -0.015269608401452641 0.4183739135405864 0 -0.005161699211731278 0.44168291228677098 0 0.01357940582676553 0.42168093504086751 0 -0.015269608401452641 0.4183739135405864 0 0.01357940582676553 0.42168093504086751 0 -0.015269608401452641 0.4183739135405864 0 -0.044118622629670867 0.41506689204030539 0 -0.02489675538558174 0.39813494856492798 0 -0.015269608401452641 0.4183739135405864 0 -0.035189793255689578 0.40645185332893191 0 -0.015269608401452641 0.4183739135405864 0 -0.02765201633337451 0.43527927216994411 0 -0.044118622629670867 0.41506689204030539 0 -0.015269608401452641 0.4183739135405864 0 -0.02765201633337451 0.43527927216994411 0 -0.005161699211731278 0.44168291228677098 0 -0.02765201633337451 0.43527927216994411 0 -0.044118622629670867 0.41506689204030539 0 -0.047871588754179947 0.44195376340569481 0 -0.051154788408055853 0.40456794167968718 0 -0.044118622629670867 0.41506689204030539 0 -0.035189793255689578 0.40645185332893191 0 -0.015269608401452641 0.4183739135405864 0 -0.044118622629670867 0.41506689204030539 0 -0.035189793255689578 0.40645185332893191 0 -0.072967636857888984 0.4117598705400245 0 -0.051154788408055853 0.40456794167968718 0 -0.044118622629670867 0.41506689204030539 0 -0.072967636857888984 0.4117598705400245 0 -0.044118622629670867 0.41506689204030539 0 -0.072967636857888984 0.4117598705400245 0 -0.044118622629670867 0.41506689204030539 0 -0.059203855239170863 0.42654704576834979 0 -0.071857572714943641 0.43740765708737428 0 -0.059203855239170863 0.42654704576834979 0 -0.047871588754179947 0.44195376340569481 0 -0.044118622629670867 0.41506689204030539 0 -0.059203855239170863 0.42654704576834979 0 -0.047871588754179947 0.44195376340569481 0 -0.071857572714943641 0.43740765708737428 0 -0.047871588754179947 0.44195376340569481 0 -0.066753447507484062 0.45827177139158271 0 -0.047871588754179947 0.44195376340569481 0 -0.048071171271582308 0.46294822839945482 0 -0.066753447507484062 0.45827177139158271 0 -0.048071171271582308 0.46294822839945482 0 -0.061649322300024512 0.47913588569579102 0 -0.066753447507484062 0.45827177139158271 0 -0.048071171271582308 0.46294822839945482 0 -0.025838562669837799 0.45931887957636242 0 -0.039086878544672229 0.47919811185452382 0 -0.047871588754179947 0.44195376340569481 0 -0.048071171271582308 0.46294822839945482 0 -0.025838562669837799 0.45931887957636242 0 -0.02765201633337451 0.43527927216994411 0 -0.047871588754179947 0.44195376340569481 0 -0.025838562669837799 0.45931887957636242 0 -0.02765201633337451 0.43527927216994411 0 -0.025838562669837799 0.45931887957636242 0 -0.005161699211731278 0.44168291228677098 0 -0.025838562669837799 0.45931887957636242 0 -0.005161699211731278 0.44168291228677098 0 0.00081862258307463542 0.47122466767660098 0 -0.0041142838192221856 0.5 0 -0.01906546057110833 0.48216072100596208 0 0.00081862258307463542 0.47122466767660098 0 -0.025838562669837799 0.45931887957636242 0 -0.01906546057110833 0.48216072100596208 0 0.00081862258307463542 0.47122466767660098 0 -0.025838562669837799 0.45931887957636242 0 -0.01906546057110833 0.48216072100596208 0 -0.039086878544672229 0.47919811185452382 0 -0.01906546057110833 0.48216072100596208 0 -0.03032974045589365 0.5 0 -0.039086878544672229 0.47919811185452382 0 -0.0041142838192221856 0.5 0 -0.01906546057110833 0.48216072100596208 0 -0.03032974045589365 0.5 0 -0.03032974045589365 0.5 0 -0.039086878544672229 0.47919811185452382 0 -0.056545197092565107 0.49999999999999928 0 -0.048071171271582308 0.46294822839945482 0 -0.039086878544672229 0.47919811185452382 0 -0.061649322300024512 0.47913588569579102 0 -0.039086878544672229 0.47919811185452382 0 -0.061649322300024512 0.47913588569579102 0 -0.056545197092565107 0.49999999999999928 0 -0.061649322300024512 0.47913588569579102 0 -0.056545197092565107 0.49999999999999928 0 -0.061649322300024512 0.47913588569579102 0 -0.056545197092565107 0.49999999999999928 0 -0.086582490808038926 0.5 0 -0.061649322300024512 0.47913588569579102 0 -0.086582490808038926 0.5 0 -0.092606337840515821 0.47398547616873749 0 -0.061649322300024512 0.47913588569579102 0 -0.092606337840515821 0.47398547616873749 0 -0.066753447507484062 0.45827177139158271 0 -0.061649322300024512 0.47913588569579102 0 -0.066753447507484062 0.45827177139158271 0 -0.071857572714943641 0.43740765708737428 0 -0.066753447507484062 0.45827177139158271 0 -0.071857572714943641 0.43740765708737428 0 -0.066753447507484062 0.45827177139158271 0 -0.08710192205793664 0.45041331533340367 0 -0.09446608398359771 0.43173366402718161 0 -0.071857572714943641 0.43740765708737428 0 -0.08710192205793664 0.45041331533340367 0 -0.092606337840515821 0.47398547616873749 0 -0.066753447507484062 0.45827177139158271 0 -0.08710192205793664 0.45041331533340367 0 -0.092606337840515821 0.47398547616873749 0 -0.1098261682431419 0.45066800799214252 0 -0.1226249472228496 0.47589201616063281 0 -0.092606337840515821 0.47398547616873749 0 -0.08710192205793664 0.45041331533340367 0 -0.1098261682431419 0.45066800799214252 0 -0.09446608398359771 0.43173366402718161 0 -0.08710192205793664 0.45041331533340367 0 -0.1098261682431419 0.45066800799214252 0 -0.12995853342774449 0.45639030594032159 0 -0.12977079363683691 0.43907038919481872 0 -0.1098261682431419 0.45066800799214252 0 -0.12977079363683691 0.43907038919481872 0 -0.1160836341082873 0.42448770314428969 0 -0.1098261682431419 0.45066800799214252 0 -0.12995853342774449 0.45639030594032159 0 -0.1098261682431419 0.45066800799214252 0 -0.1226249472228496 0.47589201616063281 0 -0.092606337840515821 0.47398547616873749 0 -0.1226249472228496 0.47589201616063281 0 -0.11661978452351281 0.5 0 -0.086582490808038926 0.5 0 -0.092606337840515821 0.47398547616873749 0 -0.11661978452351281 0.5 0 -0.1707267976927096 0.068345700503675874 0 -0.15380336285653881 0.075213570240376781 0 -0.1503191421190844 0.053228741419763158 0 -0.16628592996199371 0.087963639152873585 0 -0.1707267976927096 0.068345700503675874 0 -0.15380336285653881 0.075213570240376781 0 -0.1707267976927096 0.068345700503675874 0 -0.18065394859924719 0.058488054617235247 0 -0.18821481111929009 0.068542770659300478 0 -0.1707267976927096 0.068345700503675874 0 -0.18574028278353469 0.083012376857244274 0 -0.18821481111929009 0.068542770659300478 0 -0.16628592996199371 0.087963639152873585 0 -0.1707267976927096 0.068345700503675874 0 -0.18574028278353469 0.083012376857244274 0 -0.18574028278353469 0.083012376857244274 0 -0.17871853060990539 0.097473273719537484 0 -0.19452300167293321 0.098926355950817502 0 -0.16628592996199371 0.087963639152873585 0 -0.18574028278353469 0.083012376857244274 0 -0.17871853060990539 0.097473273719537484 0 -0.17871853060990539 0.097473273719537484 0 -0.1795921839691928 0.1137234297492036 0 -0.19452300167293321 0.098926355950817502 0 -0.17871853060990539 0.097473273719537484 0 -0.1795921839691928 0.1137234297492036 0 -0.16503771075714291 0.1042753213294261 0 -0.1795921839691928 0.1137234297492036 0 -0.1553101726969425 0.1213831170205121 0 -0.18159097272231961 0.13199034971662871 0 -0.1795921839691928 0.1137234297492036 0 -0.1958614891945708 0.11623984339433401 0 -0.18159097272231961 0.13199034971662871 0 -0.1795921839691928 0.1137234297492036 0 -0.16503771075714291 0.1042753213294261 0 -0.1553101726969425 0.1213831170205121 0 -0.16628592996199371 0.087963639152873585 0 -0.16503771075714291 0.1042753213294261 0 -0.14566503906861619 0.09597096238202775 0 -0.16628592996199371 0.087963639152873585 0 -0.17871853060990539 0.097473273719537484 0 -0.16503771075714291 0.1042753213294261 0 -0.14566503906861619 0.09597096238202775 0 -0.1553101726969425 0.1213831170205121 0 -0.1302023445878227 0.10861760500362561 0 -0.16503771075714291 0.1042753213294261 0 -0.14566503906861619 0.09597096238202775 0 -0.1553101726969425 0.1213831170205121 0 -0.14566503906861619 0.09597096238202775 0 -0.1553101726969425 0.1213831170205121 0 -0.1553101726969425 0.1213831170205121 0 -0.13361982876037509 0.1219535430397881 0 -0.14206377924227739 0.12910454724138831 0 -0.1553101726969425 0.1213831170205121 0 -0.13361982876037509 0.1219535430397881 0 -0.1302023445878227 0.10861760500362561 0 -0.13361982876037509 0.1219535430397881 0 -0.1302023445878227 0.10861760500362561 0 -0.1187112036788254 0.1166523724522722 0 -0.1302023445878227 0.10861760500362561 0 -0.1201298763552133 0.08504932372035312 0 -0.14566503906861619 0.09597096238202775 0 -0.1302023445878227 0.10861760500362561 0 -0.1201298763552133 0.08504932372035312 0 -0.14566503906861619 0.09597096238202775 0 -0.13601990544028991 0.070558807743543422 0 -0.1201298763552133 0.08504932372035312 0 -0.16628592996199371 0.087963639152873585 0 -0.14566503906861619 0.09597096238202775 0 -0.15380336285653881 0.075213570240376781 0 -0.14566503906861619 0.09597096238202775 0 -0.15380336285653881 0.075213570240376781 0 -0.13601990544028991 0.070558807743543422 0 -0.14566503906861619 0.09597096238202775 0 -0.13601990544028991 0.070558807743543422 0 -0.15380336285653881 0.075213570240376781 0 -0.13601990544028991 0.070558807743543422 0 -0.1503191421190844 0.053228741419763158 0 -0.13601990544028991 0.070558807743543422 0 -0.1263747718119636 0.045146653105059081 0 -0.13601990544028991 0.070558807743543422 0 -0.1263747718119636 0.045146653105059081 0 -0.1503191421190844 0.053228741419763158 0 -0.1263747718119636 0.045146653105059081 0 -0.13975310874396479 0.033515371632837659 0 -0.1226569289783727 0.027918965290285858 0 -0.1263747718119636 0.045146653105059081 0 -0.13975310874396479 0.033515371632837659 0 -0.1503191421190844 0.053228741419763158 0 -0.13975310874396479 0.033515371632837659 0 -0.1503191421190844 0.053228741419763158 0 -0.1573753169294673 0.026549981124480201 0 -0.1164388837083003 -0.0026345546631316862 0 -0.13211260120916571 -0.006208574162898362 0 -0.13690710031888381 0.01195771323067427 0 -0.1164388837083003 -0.0026345546631316862 0 -0.13690710031888381 0.01195771323067427 0 -0.13975310874396479 0.033515371632837659 0 -0.13690710031888381 0.01195771323067427 0 -0.1226569289783727 0.027918965290285858 0 -0.13690710031888381 0.01195771323067427 0 -0.119100077078059 0.0113822785190929 0 -0.1226569289783727 0.027918965290285858 0 -0.13690710031888381 0.01195771323067427 0 -0.1573753169294673 0.026549981124480201 0 -0.13690710031888381 0.01195771323067427 0 -0.15835162420705179 0.0087119178024780992 0 -0.1573753169294673 0.026549981124480201 0 -0.13975310874396479 0.033515371632837659 0 -0.13690710031888381 0.01195771323067427 0 -0.1573753169294673 0.026549981124480201 0 -0.1463954756695956 -0.0058153693874122246 0 -0.13690710031888381 0.01195771323067427 0 -0.15835162420705179 0.0087119178024780992 0 -0.16242646614593281 -0.0071964109301604576 0 -0.15835162420705179 0.0087119178024780992 0 -0.17341675758933661 0.0047366988330417251 0 -0.15835162420705179 0.0087119178024780992 0 -0.17209452390948671 0.01653063586105186 0 -0.17341675758933661 0.0047366988330417251 0 -0.15835162420705179 0.0087119178024780992 0 -0.1573753169294673 0.026549981124480201 0 -0.17209452390948671 0.01653063586105186 0 -0.1573753169294673 0.026549981124480201 0 -0.18058664112085951 0.026901407623794539 0 -0.17209452390948671 0.01653063586105186 0 -0.18058664112085951 0.026901407623794539 0 -0.182361801370159 0.014700691700443091 0 -0.19240517395585971 0.02320220996875685 0 -0.18058664112085951 0.026901407623794539 0 -0.17209452390948671 0.01653063586105186 0 -0.182361801370159 0.014700691700443091 0 -0.17209452390948671 0.01653063586105186 0 -0.182361801370159 0.014700691700443091 0 -0.17341675758933661 0.0047366988330417251 0 -0.182361801370159 0.014700691700443091 0 -0.17341675758933661 0.0047366988330417251 0 -0.1884722209359557 0.0015402469942710109 0 -0.1707267976927096 0.068345700503675874 0 -0.1503191421190844 0.053228741419763158 0 -0.1673837477761119 0.049550945336688107 0 -0.1503191421190844 0.053228741419763158 0 -0.1573753169294673 0.026549981124480201 0 -0.1673837477761119 0.049550945336688107 0 -0.1573753169294673 0.026549981124480201 0 -0.1673837477761119 0.049550945336688107 0 -0.17784353354005081 0.041142249018286073 0 -0.1573753169294673 0.026549981124480201 0 -0.17784353354005081 0.041142249018286073 0 -0.1573753169294673 0.026549981124480201 0 -0.18058664112085951 0.026901407623794539 0 -0.17784353354005081 0.041142249018286073 0 -0.18058664112085951 0.026901407623794539 0 -0.17784353354005081 0.041142249018286073 0 -0.18698720605841401 0.037726498666899942 0 -0.18058664112085951 0.026901407623794539 0 -0.18698720605841401 0.037726498666899942 0 -0.19229269648161951 0.030284862126969819 0 -0.17784353354005081 0.041142249018286073 0 -0.18065394859924719 0.058488054617235247 0 -0.1983117501506349 0.055734516912090817 0 -0.1707267976927096 0.068345700503675874 0 -0.1673837477761119 0.049550945336688107 0 -0.18065394859924719 0.058488054617235247 0 -0.1673837477761119 0.049550945336688107 0 -0.17784353354005081 0.041142249018286073 0 -0.18065394859924719 0.058488054617235247 0 -0.1983117501506349 0.055734516912090817 0 -0.19535846205324831 0.039468363440423662 0 -0.2052743871427419 0.046529018316259038 0 -0.1983117501506349 0.055734516912090817 0 -0.19535846205324831 0.039468363440423662 0 -0.17784353354005081 0.041142249018286073 0 -0.1983117501506349 0.055734516912090817 0 -0.18065394859924719 0.058488054617235247 0 -0.1983117501506349 0.055734516912090817 0 -0.18821481111929009 0.068542770659300478 0 -0.17784353354005081 0.041142249018286073 0 -0.18698720605841401 0.037726498666899942 0 -0.1983117501506349 0.055734516912090817 0 -0.19535846205324831 0.039468363440423662 0 -0.19240517395585971 0.02320220996875685 0 -0.18698720605841401 0.037726498666899942 0 -0.1983117501506349 0.055734516912090817 0 -0.19535846205324831 0.039468363440423662 0 -0.18698720605841401 0.037726498666899942 0 -0.19535846205324831 0.039468363440423662 0 -0.19229269648161951 0.030284862126969819 0 -0.19535846205324831 0.039468363440423662 0 -0.21171584130828819 0.038687388388554643 0 -0.20664067392704369 0.027100069308282859 0 -0.21171584130828819 0.038687388388554643 0 -0.20664067392704369 0.027100069308282859 0 -0.22602361709770091 0.032734658083066033 0 -0.2052743871427419 0.046529018316259038 0 -0.21171584130828819 0.038687388388554643 0 -0.2157114950587968 0.052225804523966003 0 -0.19535846205324831 0.039468363440423662 0 -0.2052743871427419 0.046529018316259038 0 -0.21171584130828819 0.038687388388554643 0 -0.21171584130828819 0.038687388388554643 0 -0.2157114950587968 0.052225804523966003 0 -0.22426384166699759 0.045720483761733897 0 -0.1983117501506349 0.055734516912090817 0 -0.2052743871427419 0.046529018316259038 0 -0.2157114950587968 0.052225804523966003 0 -0.1983117501506349 0.055734516912090817 0 -0.2157114950587968 0.052225804523966003 0 -0.2202386263203229 0.071366697146932931 0 -0.19284016040793381 -0.0041886765566805789 0 -0.19240517395585971 0.02320220996875685 0 -0.1884722209359557 0.0015402469942710109 0 -0.19240517395585971 0.02320220996875685 0 -0.19284016040793381 -0.0041886765566805789 0 -0.20084076352851871 -0.00020028152259580351 0 -0.2009087588340554 0.01224060768866086 0 -0.19284016040793381 -0.0041886765566805789 0 -0.1884722209359557 0.0015402469942710109 0 -0.19240517395585971 0.02320220996875685 0 -0.182361801370159 0.014700691700443091 0 -0.1884722209359557 0.0015402469942710109 0 -0.19240517395585971 0.02320220996875685 0 -0.19284016040793381 -0.0041886765566805789 0 -0.2009087588340554 0.01224060768866086 0 -0.19240517395585971 0.02320220996875685 0 -0.19535846205324831 0.039468363440423662 0 -0.19240517395585971 0.02320220996875685 0 -0.20664067392704369 0.027100069308282859 0 -0.19535846205324831 0.039468363440423662 0 -0.19240517395585971 0.02320220996875685 0 -0.19229269648161951 0.030284862126969819 0 -0.2009087588340554 0.01224060768866086 0 -0.19240517395585971 0.02320220996875685 0 -0.20664067392704369 0.027100069308282859 0 -0.18058664112085951 0.026901407623794539 0 -0.19240517395585971 0.02320220996875685 0 -0.19229269648161951 0.030284862126969819 0 -0.19240517395585971 0.02320220996875685 0 -0.19229269648161951 0.030284862126969819 0 -0.20664067392704369 0.027100069308282859 0 -0.21343219031310981 0.016267188280235122 0 -0.22602361709770091 0.032734658083066033 0 -0.2009087588340554 0.01224060768866086 0 -0.20664067392704369 0.027100069308282859 0 -0.21343219031310981 0.016267188280235122 0 -0.20084076352851871 -0.00020028152259580351 0 -0.21343219031310981 0.016267188280235122 0 -0.21437324906605321 0.0021701380236543101 0 -0.20084076352851871 -0.00020028152259580351 0 -0.21343219031310981 0.016267188280235122 0 -0.20084076352851871 -0.00020028152259580351 0 -0.2009087588340554 0.01224060768866086 0 -0.21343219031310981 0.016267188280235122 0 -0.21343219031310981 0.016267188280235122 0 -0.21437324906605321 0.0021701380236543101 0 -0.22341946018948841 0.0073469415472674372 0 -0.22346190016105291 -0.0051988592664399917 0 -0.22341946018948841 0.0073469415472674372 0 -0.23785897178045259 0.005694125113922267 0 -0.22346190016105291 -0.0051988592664399917 0 -0.21437324906605321 0.0021701380236543101 0 -0.22341946018948841 0.0073469415472674372 0 -0.21343219031310981 0.016267188280235122 0 -0.22341946018948841 0.0073469415472674372 0 -0.2279709896267734 0.017802115584965479 0 -0.22341946018948841 0.0073469415472674372 0 -0.2279709896267734 0.017802115584965479 0 -0.23785897178045259 0.005694125113922267 0 -0.21343219031310981 0.016267188280235122 0 -0.22602361709770091 0.032734658083066033 0 -0.21343219031310981 0.016267188280235122 0 -0.2279709896267734 0.017802115584965479 0 -0.22602361709770091 0.032734658083066033 0 -0.2279709896267734 0.017802115584965479 0 -0.23823700783137131 0.02744812649990986 0 -0.22602361709770091 0.032734658083066033 0 -0.25011764088669941 0.02697989722910352 0 -0.23823700783137131 0.02744812649990986 0 -0.23785897178045259 0.005694125113922267 0 -0.23823700783137131 0.02744812649990986 0 -0.23785897178045259 0.005694125113922267 0 -0.2279709896267734 0.017802115584965479 0 -0.23823700783137131 0.02744812649990986 0 -0.23785897178045259 0.005694125113922267 0 -0.25964700588814971 0.017813132509698529 0 -0.25011764088669941 0.02697989722910352 0 -0.23785897178045259 0.005694125113922267 0 -0.25011764088669941 0.02697989722910352 0 -0.23823700783137131 0.02744812649990986 0 -0.24639898478570879 0.038766985903960813 0 -0.24871960323422521 -0.0040779935892079214 0 -0.25964700588814971 0.017813132509698529 0 -0.23785897178045259 0.005694125113922267 0 -0.2157114950587968 0.052225804523966003 0 -0.22753319782584699 0.056097726584084177 0 -0.2202386263203229 0.071366697146932931 0 -0.22753319782584699 0.056097726584084177 0 -0.22426384166699759 0.045720483761733897 0 -0.23861504388229121 0.049202127885897493 0 -0.2157114950587968 0.052225804523966003 0 -0.22753319782584699 0.056097726584084177 0 -0.22426384166699759 0.045720483761733897 0 -0.22602361709770091 0.032734658083066033 0 -0.23861504388229121 0.049202127885897493 0 -0.23823700783137131 0.02744812649990986 0 -0.22602361709770091 0.032734658083066033 0 -0.23861504388229121 0.049202127885897493 0 -0.22426384166699759 0.045720483761733897 0 -0.22602361709770091 0.032734658083066033 0 -0.23861504388229121 0.049202127885897493 0 -0.21171584130828819 0.038687388388554643 0 -0.22426384166699759 0.045720483761733897 0 -0.22602361709770091 0.032734658083066033 0 -0.23823700783137131 0.02744812649990986 0 -0.24639898478570879 0.038766985903960813 0 -0.23861504388229121 0.049202127885897493 0 -0.23823700783137131 0.02744812649990986 0 -0.23861504388229121 0.049202127885897493 0 -0.24639898478570879 0.038766985903960813 0 -0.2478510699036621 0.047134690305077498 0 -0.23861504388229121 0.049202127885897493 0 -0.25299446161211869 0.068007989310433864 0 -0.2478510699036621 0.047134690305077498 0 -0.23861504388229121 0.049202127885897493 0 -0.25299446161211869 0.068007989310433864 0 -0.23861504388229121 0.049202127885897493 0 -0.25299446161211869 0.068007989310433864 0 -0.23861504388229121 0.049202127885897493 0 -0.24494090442466271 0.067277775370188364 0 -0.23861504388229121 0.049202127885897493 0 -0.2388369822008265 0.061973519601890639 0 -0.24494090442466271 0.067277775370188364 0 -0.22753319782584699 0.056097726584084177 0 -0.23861504388229121 0.049202127885897493 0 -0.2388369822008265 0.061973519601890639 0 -0.23861504388229121 0.049202127885897493 0 -0.2388369822008265 0.061973519601890639 0 -0.25299446161211869 0.068007989310433864 0 -0.2421655024900124 0.086998877381773004 0 -0.25299446161211869 0.068007989310433864 0 -0.24494090442466271 0.067277775370188364 0 -0.2421655024900124 0.086998877381773004 0 -0.2388369822008265 0.061973519601890639 0 -0.24494090442466271 0.067277775370188364 0 -0.2202386263203229 0.071366697146932931 0 -0.24494090442466271 0.067277775370188364 0 -0.2421655024900124 0.086998877381773004 0 -0.2202386263203229 0.071366697146932931 0 -0.25299446161211869 0.068007989310433864 0 -0.24975994144664779 0.09241312962791276 0 -0.2421655024900124 0.086998877381773004 0 -0.24975994144664779 0.09241312962791276 0 -0.2421655024900124 0.086998877381773004 0 -0.2421655024900124 0.086998877381773004 0 -0.22299547814652149 0.092323877471825425 0 -0.2202386263203229 0.071366697146932931 0 -0.22299547814652149 0.092323877471825425 0 -0.2202386263203229 0.071366697146932931 0 -0.2137466696328105 0.081494266939153764 0 -0.2421655024900124 0.086998877381773004 0 -0.2202386263203229 0.071366697146932931 0 -0.22753319782584699 0.056097726584084177 0 -0.2388369822008265 0.061973519601890639 0 -0.2202386263203229 0.071366697146932931 0 -0.2202386263203229 0.071366697146932931 0 -0.2137466696328105 0.081494266939153764 0 -0.20111845716046789 0.071193329417477247 0 -0.1983117501506349 0.055734516912090817 0 -0.2202386263203229 0.071366697146932931 0 -0.20111845716046789 0.071193329417477247 0 -0.1983117501506349 0.055734516912090817 0 -0.2202386263203229 0.071366697146932931 0 -0.22299547814652149 0.092323877471825425 0 -0.2137466696328105 0.081494266939153764 0 -0.2039251641702991 0.086652141922863996 0 -0.2137466696328105 0.081494266939153764 0 -0.2039251641702991 0.086652141922863996 0 -0.20111845716046789 0.071193329417477247 0 -0.18574028278353469 0.083012376857244274 0 -0.2039251641702991 0.086652141922863996 0 -0.19452300167293321 0.098926355950817502 0 -0.18574028278353469 0.083012376857244274 0 -0.2039251641702991 0.086652141922863996 0 -0.20111845716046789 0.071193329417477247 0 -0.2039251641702991 0.086652141922863996 0 -0.20111845716046789 0.071193329417477247 0 -0.18574028278353469 0.083012376857244274 0 -0.18821481111929009 0.068542770659300478 0 -0.20111845716046789 0.071193329417477247 0 -0.1983117501506349 0.055734516912090817 0 -0.20111845716046789 0.071193329417477247 0 -0.1983117501506349 0.055734516912090817 0 -0.18821481111929009 0.068542770659300478 0 -0.20111845716046789 0.071193329417477247 0 -0.1795921839691928 0.1137234297492036 0 -0.1958614891945708 0.11623984339433401 0 -0.19452300167293321 0.098926355950817502 0 -0.1958614891945708 0.11623984339433401 0 -0.2117988771352011 0.11698598412094641 0 -0.20079817369296671 0.13149764879812501 0 -0.1958614891945708 0.11623984339433401 0 -0.19452300167293321 0.098926355950817502 0 -0.2093787599965648 0.10321161373311449 0 -0.2039251641702991 0.086652141922863996 0 -0.19452300167293321 0.098926355950817502 0 -0.2093787599965648 0.10321161373311449 0 -0.22299547814652149 0.092323877471825425 0 -0.2039251641702991 0.086652141922863996 0 -0.2093787599965648 0.10321161373311449 0 -0.2093787599965648 0.10321161373311449 0 -0.2117988771352011 0.11698598412094641 0 -0.2277182301833405 0.11165108814713449 0 -0.1958614891945708 0.11623984339433401 0 -0.2093787599965648 0.10321161373311449 0 -0.2117988771352011 0.11698598412094641 0 -0.2277182301833405 0.11165108814713449 0 -0.23164498060561689 0.129762607256418 0 -0.2167983943909739 0.13038921856064339 0 -0.2117988771352011 0.11698598412094641 0 -0.2277182301833405 0.11165108814713449 0 -0.2167983943909739 0.13038921856064339 0 -0.2421655024900124 0.086998877381773004 0 -0.22299547814652149 0.092323877471825425 0 -0.2277182301833405 0.11165108814713449 0 -0.22299547814652149 0.092323877471825425 0 -0.2093787599965648 0.10321161373311449 0 -0.2277182301833405 0.11165108814713449 0 -0.2421655024900124 0.086998877381773004 0 -0.2277182301833405 0.11165108814713449 0 -0.24110869959886261 0.10474707174480311 0 -0.2421655024900124 0.086998877381773004 0 -0.2277182301833405 0.11165108814713449 0 -0.24975994144664779 0.09241312962791276 0 -0.2421655024900124 0.086998877381773004 0 -0.24110869959886261 0.10474707174480311 0 -0.24975994144664779 0.09241312962791276 0 -0.24624835654714189 0.118908782097218 0 -0.24975994144664779 0.09241312962791276 0 -0.24110869959886261 0.10474707174480311 0 -0.24624835654714189 0.118908782097218 0 -0.2277182301833405 0.11165108814713449 0 -0.24110869959886261 0.10474707174480311 0 -0.24624835654714189 0.118908782097218 0 -0.2277182301833405 0.11165108814713449 0 -0.24624835654714189 0.118908782097218 0 -0.23164498060561689 0.129762607256418 0 -0.25542207884081181 0.13240433245388311 0 -0.24624835654714189 0.118908782097218 0 -0.24273677164763449 0.14540443456652299 0 -0.24624835654714189 0.118908782097218 0 -0.24273677164763449 0.14540443456652299 0 -0.24624835654714189 0.118908782097218 0 -0.23164498060561689 0.129762607256418 0 -0.24273677164763449 0.14540443456652299 0 -0.23164498060561689 0.129762607256418 0 -0.22398504343634279 0.14605012953366561 0 -0.24273677164763449 0.14540443456652299 0 -0.23164498060561689 0.129762607256418 0 -0.22398504343634279 0.14605012953366561 0 -0.2167983943909739 0.13038921856064339 0 -0.22398504343634279 0.14605012953366561 0 -0.24273677164763449 0.14540443456652299 0 -0.22906380471203591 0.1639165192438268 0 -0.24273677164763449 0.14540443456652299 0 -0.23922518674812709 0.17190008703582821 0 -0.22906380471203591 0.1639165192438268 0 -0.24273677164763449 0.14540443456652299 0 -0.23922518674812709 0.17190008703582821 0 -0.25546120793328753 0.1602216454260274 0 -0.24273677164763449 0.14540443456652299 0 -0.23922518674812709 0.17190008703582821 0 -0.23922518674812709 0.17190008703582821 0 -0.24518116470478141 0.18644185592393681 0 -0.2247670362042716 0.18625267471951959 0 -0.25594996207948578 0.17584900181966229 0 -0.23922518674812709 0.17190008703582821 0 -0.24518116470478141 0.18644185592393681 0 -0.2247670362042716 0.18625267471951959 0 -0.22906380471203591 0.1639165192438268 0 -0.23922518674812709 0.17190008703582821 0 -0.2247670362042716 0.18625267471951959 0 -0.22906380471203591 0.1639165192438268 0 -0.2247670362042716 0.18625267471951959 0 -0.22906380471203591 0.1639165192438268 0 -0.21268851054470339 0.17574401312013749 0 -0.22398504343634279 0.14605012953366561 0 -0.22906380471203591 0.1639165192438268 0 -0.2118042391864445 0.16005253926636201 0 -0.2118042391864445 0.16005253926636201 0 -0.21268851054470339 0.17574401312013749 0 -0.20025494251714879 0.1727177853547591 0 -0.22906380471203591 0.1639165192438268 0 -0.2118042391864445 0.16005253926636201 0 -0.21268851054470339 0.17574401312013749 0 -0.2118042391864445 0.16005253926636201 0 -0.20025494251714879 0.1727177853547591 0 -0.19941856684663969 0.15916661497801821 0 -0.2247670362042716 0.18625267471951959 0 -0.21268851054470339 0.17574401312013749 0 -0.2132608162640402 0.19353841498064009 0 -0.21268851054470339 0.17574401312013749 0 -0.2132608162640402 0.19353841498064009 0 -0.20111808983135079 0.18761932268032239 0 -0.21268851054470339 0.17574401312013749 0 -0.20025494251714879 0.1727177853547591 0 -0.20111808983135079 0.18761932268032239 0 -0.20025494251714879 0.1727177853547591 0 -0.1909508272933878 0.18319904976806059 0 -0.20111808983135079 0.18761932268032239 0 -0.1909508272933878 0.18319904976806059 0 -0.18859066079248271 0.17109233724513551 0 -0.18409502334342931 0.18031023136216379 0 -0.20025494251714879 0.1727177853547591 0 -0.1909508272933878 0.18319904976806059 0 -0.18859066079248271 0.17109233724513551 0 -0.20025494251714879 0.1727177853547591 0 -0.19941856684663969 0.15916661497801821 0 -0.18859066079248271 0.17109233724513551 0 -0.19941856684663969 0.15916661497801821 0 -0.18859066079248271 0.17109233724513551 0 -0.1884889511422759 0.15763518517649019 0 -0.19941856684663969 0.15916661497801821 0 -0.1884889511422759 0.15763518517649019 0 -0.19572342493571049 0.14603368476039841 0 -0.1884889511422759 0.15763518517649019 0 -0.19572342493571049 0.14603368476039841 0 -0.1804750044254172 0.14733536669991401 0 -0.19941856684663969 0.15916661497801821 0 -0.19572342493571049 0.14603368476039841 0 -0.2091054619646357 0.14608493038727691 0 -0.19572342493571049 0.14603368476039841 0 -0.20079817369296671 0.13149764879812501 0 -0.2091054619646357 0.14608493038727691 0 -0.19572342493571049 0.14603368476039841 0 -0.20079817369296671 0.13149764879812501 0 -0.18159097272231961 0.13199034971662871 0 -0.1958614891945708 0.11623984339433401 0 -0.20079817369296671 0.13149764879812501 0 -0.18159097272231961 0.13199034971662871 0 -0.20079817369296671 0.13149764879812501 0 -0.2167983943909739 0.13038921856064339 0 -0.2091054619646357 0.14608493038727691 0 -0.2117988771352011 0.11698598412094641 0 -0.20079817369296671 0.13149764879812501 0 -0.2167983943909739 0.13038921856064339 0 -0.22398504343634279 0.14605012953366561 0 -0.2167983943909739 0.13038921856064339 0 -0.2091054619646357 0.14608493038727691 0 -0.22398504343634279 0.14605012953366561 0 -0.2118042391864445 0.16005253926636201 0 -0.2091054619646357 0.14608493038727691 0 -0.2118042391864445 0.16005253926636201 0 -0.19941856684663969 0.15916661497801821 0 -0.2091054619646357 0.14608493038727691 0 -0.22397017858154419 0.25378571841630942 0 -0.2321996903762493 0.23950935794921921 0 -0.21515534991013979 0.23621769356130559 0 -0.23890969400241849 0.2552092714717491 0 -0.22397017858154419 0.25378571841630942 0 -0.2321996903762493 0.23950935794921921 0 -0.25654248230236881 0.24794234615054991 0 -0.23890969400241849 0.2552092714717491 0 -0.2483469102368013 0.2416047250575018 0 -0.23890969400241849 0.2552092714717491 0 -0.2321996903762493 0.23950935794921921 0 -0.240055189693127 0.24401840520523091 0 -0.23890969400241849 0.2552092714717491 0 -0.240055189693127 0.24401840520523091 0 -0.2483469102368013 0.2416047250575018 0 -0.25011857251462483 0.23304199510033061 0 -0.2483469102368013 0.2416047250575018 0 -0.24274069265435169 0.23694240255342891 0 -0.240055189693127 0.24401840520523091 0 -0.2483469102368013 0.2416047250575018 0 -0.24274069265435169 0.23694240255342891 0 -0.2321996903762493 0.23950935794921921 0 -0.240055189693127 0.24401840520523091 0 -0.24274069265435169 0.23694240255342891 0 -0.25882139574064988 0.21558550992665179 0 -0.24326639008646531 0.22613502604473801 0 -0.23735533930248759 0.22399397738120519 0 -0.25882139574064988 0.21558550992665179 0 -0.23735533930248759 0.22399397738120519 0 -0.2321996903762493 0.23950935794921921 0 -0.24274069265435169 0.23694240255342891 0 -0.24326639008646531 0.22613502604473801 0 -0.25011857251462483 0.23304199510033061 0 -0.24274069265435169 0.23694240255342891 0 -0.24326639008646531 0.22613502604473801 0 -0.23735533930248759 0.22399397738120519 0 -0.2158892828643246 0.23240244483575631 0 -0.22549557478043319 0.22080588581245111 0 -0.2204702676965081 0.2085888301952126 0 -0.2158892828643246 0.23240244483575631 0 -0.24326639008646531 0.22613502604473801 0 -0.23735533930248759 0.22399397738120519 0 -0.21515534991013979 0.23621769356130559 0 -0.2321996903762493 0.23950935794921921 0 -0.24326639008646531 0.22613502604473801 0 -0.21515534991013979 0.23621769356130559 0 -0.23735533930248759 0.22399397738120519 0 -0.22549557478043319 0.22080588581245111 0 -0.2158892828643246 0.23240244483575631 0 -0.23735533930248759 0.22399397738120519 0 -0.22549557478043319 0.22080588581245111 0 -0.2332294022215585 0.2135648709852124 0 -0.23735533930248759 0.22399397738120519 0 -0.2158892828643246 0.23240244483575631 0 -0.21515534991013979 0.23621769356130559 0 -0.24326639008646531 0.22613502604473801 0 -0.21515534991013979 0.23621769356130559 0 -0.2204702676965081 0.2085888301952126 0 -0.2332294022215585 0.2135648709852124 0 -0.23957734648590101 0.2015340079429708 0 -0.2204702676965081 0.2085888301952126 0 -0.23957734648590101 0.2015340079429708 0 -0.22549557478043319 0.22080588581245111 0 -0.2204702676965081 0.2085888301952126 0 -0.2332294022215585 0.2135648709852124 0 -0.25882139574064988 0.21558550992665179 0 -0.23735533930248759 0.22399397738120519 0 -0.2445406685099486 0.2116846171743218 0 -0.23735533930248759 0.22399397738120519 0 -0.2332294022215585 0.2135648709852124 0 -0.2445406685099486 0.2116846171743218 0 -0.25290558257003232 0.2059153662565848 0 -0.2445406685099486 0.2116846171743218 0 -0.23957734648590101 0.2015340079429708 0 -0.2332294022215585 0.2135648709852124 0 -0.2445406685099486 0.2116846171743218 0 -0.23957734648590101 0.2015340079429708 0 -0.25868442527529367 0.1944791856907285 0 -0.24518116470478141 0.18644185592393681 0 -0.23957734648590101 0.2015340079429708 0 -0.25868442527529367 0.1944791856907285 0 -0.23957734648590101 0.2015340079429708 0 -0.24518116470478141 0.18644185592393681 0 -0.2247670362042716 0.18625267471951959 0 -0.23957734648590101 0.2015340079429708 0 -0.2247670362042716 0.18625267471951959 0 -0.2204702676965081 0.2085888301952126 0 -0.23957734648590101 0.2015340079429708 0 -0.2247670362042716 0.18625267471951959 0 -0.2204702676965081 0.2085888301952126 0 -0.2132608162640402 0.19353841498064009 0 -0.2247670362042716 0.18625267471951959 0 -0.2204702676965081 0.2085888301952126 0 -0.2204702676965081 0.2085888301952126 0 -0.2132608162640402 0.19353841498064009 0 -0.2038994572761873 0.2019846682879933 0 -0.2132608162640402 0.19353841498064009 0 -0.2038994572761873 0.2019846682879933 0 -0.20111808983135079 0.18761932268032239 0 -0.2038994572761873 0.2019846682879933 0 -0.20111808983135079 0.18761932268032239 0 -0.1876876999874163 0.19865763750281321 0 -0.1909508272933878 0.18319904976806059 0 -0.20111808983135079 0.18761932268032239 0 -0.1876876999874163 0.19865763750281321 0 -0.1876876999874163 0.19865763750281321 0 -0.19588708351280121 0.21766557063899369 0 -0.1813881098742485 0.21240685064485701 0 -0.2038994572761873 0.2019846682879933 0 -0.1876876999874163 0.19865763750281321 0 -0.19588708351280121 0.21766557063899369 0 -0.2204702676965081 0.2085888301952126 0 -0.2038994572761873 0.2019846682879933 0 -0.19588708351280121 0.21766557063899369 0 -0.2204702676965081 0.2085888301952126 0 -0.19588708351280121 0.21766557063899369 0 -0.20714092375015219 0.22333367657392131 0 -0.2204702676965081 0.2085888301952126 0 -0.19588708351280121 0.21766557063899369 0 -0.2204702676965081 0.2085888301952126 0 -0.2158892828643246 0.23240244483575631 0 -0.20714092375015219 0.22333367657392131 0 -0.2204702676965081 0.2085888301952126 0 -0.2158892828643246 0.23240244483575631 0 -0.2158892828643246 0.23240244483575631 0 -0.21515534991013979 0.23621769356130559 0 -0.2158892828643246 0.23240244483575631 0 -0.20714092375015219 0.22333367657392131 0 -0.20268522951721191 0.2351202423960736 0 -0.19588708351280121 0.21766557063899369 0 -0.20714092375015219 0.22333367657392131 0 -0.1916015466754461 0.22956543389250711 0 -0.19588708351280121 0.21766557063899369 0 -0.1916015466754461 0.22956543389250711 0 -0.18130803535289591 0.22469134199459051 0 -0.1916015466754461 0.22956543389250711 0 -0.19355739274210149 0.23586023291091751 0 -0.18879460437501441 0.23666147893406761 0 -0.20714092375015219 0.22333367657392131 0 -0.1916015466754461 0.22956543389250711 0 -0.20268522951721191 0.2351202423960736 0 -0.1916015466754461 0.22956543389250711 0 -0.20268522951721191 0.2351202423960736 0 -0.19355739274210149 0.23586023291091751 0 -0.20268522951721191 0.2351202423960736 0 -0.19355739274210149 0.23586023291091751 0 -0.1911481904007335 0.24209377642102189 0 -0.18934395671843121 0.24547554008917871 0 -0.21515534991013979 0.23621769356130559 0 -0.20205513456322161 0.25178325309228428 0 -0.18934395671843121 0.24547554008917871 0 -0.21515534991013979 0.23621769356130559 0 -0.1911481904007335 0.24209377642102189 0 -0.18934395671843121 0.24547554008917871 0 -0.21515534991013979 0.23621769356130559 0 -0.1911481904007335 0.24209377642102189 0 -0.18879460437501441 0.23666147893406761 0 -0.1835099813808144 0.23926379049406121 0 -0.19355739274210149 0.23586023291091751 0 -0.1911481904007335 0.24209377642102189 0 -0.18879460437501441 0.23666147893406761 0 -0.2158892828643246 0.23240244483575631 0 -0.1911481904007335 0.24209377642102189 0 -0.21515534991013979 0.23621769356130559 0 -0.2158892828643246 0.23240244483575631 0 -0.1911481904007335 0.24209377642102189 0 -0.2158892828643246 0.23240244483575631 0 -0.20268522951721191 0.2351202423960736 0 -0.1911481904007335 0.24209377642102189 0 -0.16640709793714159 0.25178510800628517 0 -0.15931663775898139 0.24502172656609611 0 -0.1454021730550242 0.2477900580711265 0 -0.15931663775898139 0.24502172656609611 0 -0.16442923684464661 0.23945794607268919 0 -0.16472786999155131 0.24524664662173731 0 -0.16640709793714159 0.25178510800628517 0 -0.15931663775898139 0.24502172656609611 0 -0.16472786999155131 0.24524664662173731 0 -0.16442923684464661 0.23945794607268919 0 -0.1616889273111683 0.23270687902957429 0 -0.15420330564601761 0.2366627919003565 0 -0.15931663775898139 0.24502172656609611 0 -0.16442923684464661 0.23945794607268919 0 -0.15420330564601761 0.2366627919003565 0 -0.16442923684464661 0.23945794607268919 0 -0.1687585074254358 0.2447218058418788 0 -0.17343714785970901 0.23914306330365639 0 -0.16442923684464661 0.23945794607268919 0 -0.17343714785970901 0.23914306330365639 0 -0.1700819097482682 0.23038945803389899 0 -0.16640709793714159 0.25178510800628517 0 -0.1687585074254358 0.2447218058418788 0 -0.17618547314287791 0.24445338700972469 0 -0.16442923684464661 0.23945794607268919 0 -0.1687585074254358 0.2447218058418788 0 -0.16472786999155131 0.24524664662173731 0 -0.16640709793714159 0.25178510800628517 0 -0.1687585074254358 0.2447218058418788 0 -0.16472786999155131 0.24524664662173731 0 -0.16640709793714159 0.25178510800628517 0 -0.1911481904007335 0.24209377642102189 0 -0.18934395671843121 0.24547554008917871 0 -0.16640709793714159 0.25178510800628517 0 -0.1911481904007335 0.24209377642102189 0 -0.17618547314287791 0.24445338700972469 0 -0.16640709793714159 0.25178510800628517 0 -0.1911481904007335 0.24209377642102189 0 -0.1687585074254358 0.2447218058418788 0 -0.17618547314287791 0.24445338700972469 0 -0.17343714785970901 0.23914306330365639 0 -0.1911481904007335 0.24209377642102189 0 -0.17618547314287791 0.24445338700972469 0 -0.1835099813808144 0.23926379049406121 0 -0.18879460437501441 0.23666147893406761 0 -0.1835099813808144 0.23926379049406121 0 -0.1812584987439313 0.23454156217529259 0 -0.1835099813808144 0.23926379049406121 0 -0.1812584987439313 0.23454156217529259 0 -0.17896818076631221 0.23949247172250351 0 -0.1812584987439313 0.23454156217529259 0 -0.17896818076631221 0.23949247172250351 0 -0.17343714785970901 0.23914306330365639 0 -0.1812584987439313 0.23454156217529259 0 -0.17343714785970901 0.23914306330365639 0 -0.1700819097482682 0.23038945803389899 0 -0.17618547314287791 0.24445338700972469 0 -0.17896818076631221 0.23949247172250351 0 -0.17343714785970901 0.23914306330365639 0 -0.17618547314287791 0.24445338700972469 0 -0.1835099813808144 0.23926379049406121 0 -0.17896818076631221 0.23949247172250351 0 -0.1812584987439313 0.23454156217529259 0 -0.18130803535289591 0.22469134199459051 0 -0.1700819097482682 0.23038945803389899 0 -0.1916015466754461 0.22956543389250711 0 -0.1812584987439313 0.23454156217529259 0 -0.18130803535289591 0.22469134199459051 0 -0.1916015466754461 0.22956543389250711 0 -0.18879460437501441 0.23666147893406761 0 -0.1812584987439313 0.23454156217529259 0 -0.18130803535289591 0.22469134199459051 0 -0.1700819097482682 0.23038945803389899 0 -0.17013986969931361 0.21716240338336931 0 -0.1700819097482682 0.23038945803389899 0 -0.1580412570057409 0.2243173201113525 0 -0.17013986969931361 0.21716240338336931 0 -0.16442923684464661 0.23945794607268919 0 -0.1700819097482682 0.23038945803389899 0 -0.1616889273111683 0.23270687902957429 0 -0.1700819097482682 0.23038945803389899 0 -0.1616889273111683 0.23270687902957429 0 -0.1580412570057409 0.2243173201113525 0 -0.1616889273111683 0.23270687902957429 0 -0.1580412570057409 0.2243173201113525 0 -0.15420330564601761 0.2366627919003565 0 -0.1580412570057409 0.2243173201113525 0 -0.158796983185609 0.20942353313562431 0 -0.17013986969931361 0.21716240338336931 0 -0.158796983185609 0.20942353313562431 0 -0.17013986969931361 0.21716240338336931 0 -0.17197066737214101 0.2039589054065343 0 -0.18130803535289591 0.22469134199459051 0 -0.17013986969931361 0.21716240338336931 0 -0.1813881098742485 0.21240685064485701 0 -0.1876876999874163 0.19865763750281321 0 -0.1813881098742485 0.21240685064485701 0 -0.17197066737214101 0.2039589054065343 0 -0.17013986969931361 0.21716240338336931 0 -0.1813881098742485 0.21240685064485701 0 -0.17197066737214101 0.2039589054065343 0 -0.19588708351280121 0.21766557063899369 0 -0.18130803535289591 0.22469134199459051 0 -0.1813881098742485 0.21240685064485701 0 -0.1876876999874163 0.19865763750281321 0 -0.17197066737214101 0.2039589054065343 0 -0.17463536916032921 0.19279524081048199 0 -0.1909508272933878 0.18319904976806059 0 -0.1876876999874163 0.19865763750281321 0 -0.18256860339873371 0.18844998172084559 0 -0.1876876999874163 0.19865763750281321 0 -0.18256860339873371 0.18844998172084559 0 -0.17463536916032921 0.19279524081048199 0 -0.17463536916032921 0.19279524081048199 0 -0.159487532468855 0.19422984572316099 0 -0.15654286632722131 0.17830820856867119 0 -0.17197066737214101 0.2039589054065343 0 -0.17463536916032921 0.19279524081048199 0 -0.159487532468855 0.19422984572316099 0 -0.158796983185609 0.20942353313562431 0 -0.17197066737214101 0.2039589054065343 0 -0.159487532468855 0.19422984572316099 0 -0.159487532468855 0.19422984572316099 0 -0.14647231503389441 0.2006428584962604 0 -0.14265021278802861 0.18478698062909979 0 -0.158796983185609 0.20942353313562431 0 -0.159487532468855 0.19422984572316099 0 -0.14647231503389441 0.2006428584962604 0 -0.14647231503389441 0.2006428584962604 0 -0.13044624474727001 0.19443587513216451 0 -0.14265021278802861 0.18478698062909979 0 -0.14647231503389441 0.2006428584962604 0 -0.13044624474727001 0.19443587513216451 0 -0.13713454689100879 0.2069443978596951 0 -0.13713454689100879 0.2069443978596951 0 -0.12558399385134261 0.21485380126813711 0 -0.1460356339315283 0.21784505654221839 0 -0.13044624474727001 0.19443587513216451 0 -0.13713454689100879 0.2069443978596951 0 -0.12558399385134261 0.21485380126813711 0 -0.158796983185609 0.20942353313562431 0 -0.14647231503389441 0.2006428584962604 0 -0.1460356339315283 0.21784505654221839 0 -0.14647231503389441 0.2006428584962604 0 -0.13713454689100879 0.2069443978596951 0 -0.1460356339315283 0.21784505654221839 0 -0.1580412570057409 0.2243173201113525 0 -0.158796983185609 0.20942353313562431 0 -0.1460356339315283 0.21784505654221839 0 -0.1580412570057409 0.2243173201113525 0 -0.1460356339315283 0.21784505654221839 0 -0.1432296446156531 0.2309138090761651 0 -0.1580412570057409 0.2243173201113525 0 -0.1432296446156531 0.2309138090761651 0 -0.15420330564601761 0.2366627919003565 0 -0.12558399385134261 0.21485380126813711 0 -0.1460356339315283 0.21784505654221839 0 -0.1432296446156531 0.2309138090761651 0 -0.12558399385134261 0.21485380126813711 0 -0.1432296446156531 0.2309138090761651 0 -0.12945881261479511 0.23576484522574839 0 -0.12482003396909221 0.25114211634600742 0 -0.12945881261479511 0.23576484522574839 0 -0.1454021730550242 0.2477900580711265 0 -0.1432296446156531 0.2309138090761651 0 -0.12945881261479511 0.23576484522574839 0 -0.1454021730550242 0.2477900580711265 0 -0.1432296446156531 0.2309138090761651 0 -0.1454021730550242 0.2477900580711265 0 -0.15420330564601761 0.2366627919003565 0 -0.15931663775898139 0.24502172656609611 0 -0.1454021730550242 0.2477900580711265 0 -0.15420330564601761 0.2366627919003565 0 -0.1553101726969425 0.1213831170205121 0 -0.1649553063252687 0.14679527165899639 0 -0.1553101726969425 0.1213831170205121 0 -0.1649553063252687 0.14679527165899639 0 -0.18159097272231961 0.13199034971662871 0 -0.19572342493571049 0.14603368476039841 0 -0.18159097272231961 0.13199034971662871 0 -0.1804750044254172 0.14733536669991401 0 -0.1649553063252687 0.14679527165899639 0 -0.18159097272231961 0.13199034971662871 0 -0.1804750044254172 0.14733536669991401 0 -0.1649553063252687 0.14679527165899639 0 -0.1804750044254172 0.14733536669991401 0 -0.17931245426605619 0.16153049089077681 0 -0.1884889511422759 0.15763518517649019 0 -0.1804750044254172 0.14733536669991401 0 -0.17931245426605619 0.16153049089077681 0 -0.1649553063252687 0.14679527165899639 0 -0.17931245426605619 0.16153049089077681 0 -0.17460043995359309 0.17220742629748159 0 -0.18859066079248271 0.17109233724513551 0 -0.1884889511422759 0.15763518517649019 0 -0.17931245426605619 0.16153049089077681 0 -0.18859066079248271 0.17109233724513551 0 -0.17931245426605619 0.16153049089077681 0 -0.18043285742659701 0.17521980900883949 0 -0.17931245426605619 0.16153049089077681 0 -0.18043285742659701 0.17521980900883949 0 -0.17460043995359309 0.17220742629748159 0 -0.18256860339873371 0.18844998172084559 0 -0.18409502334342931 0.18031023136216379 0 -0.177838878718863 0.18073978156195961 0 -0.1909508272933878 0.18319904976806059 0 -0.18256860339873371 0.18844998172084559 0 -0.18409502334342931 0.18031023136216379 0 -0.18859066079248271 0.17109233724513551 0 -0.18409502334342931 0.18031023136216379 0 -0.18043285742659701 0.17521980900883949 0 -0.18409502334342931 0.18031023136216379 0 -0.18043285742659701 0.17521980900883949 0 -0.177838878718863 0.18073978156195961 0 -0.18043285742659701 0.17521980900883949 0 -0.17460043995359309 0.17220742629748159 0 -0.177838878718863 0.18073978156195961 0 -0.17460043995359309 0.17220742629748159 0 -0.177838878718863 0.18073978156195961 0 -0.18043285742659701 0.17521980900883949 0 -0.17460043995359309 0.17220742629748159 0 -0.18256860339873371 0.18844998172084559 0 -0.17463536916032921 0.19279524081048199 0 -0.177838878718863 0.18073978156195961 0 -0.17463536916032921 0.19279524081048199 0 -0.15654286632722131 0.17830820856867119 0 -0.17460043995359309 0.17220742629748159 0 -0.177838878718863 0.18073978156195961 0 -0.15654286632722131 0.17830820856867119 0 -0.17463536916032921 0.19279524081048199 0 -0.177838878718863 0.18073978156195961 0 -0.15654286632722131 0.17830820856867119 0 -0.1649553063252687 0.14679527165899639 0 -0.17460043995359309 0.17220742629748159 0 -0.1649553063252687 0.14679527165899639 0 -0.17460043995359309 0.17220742629748159 0 -0.15048874591169351 0.15975398814606909 0 -0.17460043995359309 0.17220742629748159 0 -0.15654286632722131 0.17830820856867119 0 -0.15048874591169351 0.15975398814606909 0 -0.17460043995359309 0.17220742629748159 0 -0.15048874591169351 0.15975398814606909 0 -0.15654286632722131 0.17830820856867119 0 -0.13845036349411341 0.16382117632686041 0 -0.15654286632722131 0.17830820856867119 0 -0.15048874591169351 0.15975398814606909 0 -0.13845036349411341 0.16382117632686041 0 -0.159487532468855 0.19422984572316099 0 -0.15654286632722131 0.17830820856867119 0 -0.14265021278802861 0.18478698062909979 0 -0.15654286632722131 0.17830820856867119 0 -0.14265021278802861 0.18478698062909979 0 -0.13845036349411341 0.16382117632686041 0 -0.13044624474727001 0.19443587513216451 0 -0.14265021278802861 0.18478698062909979 0 -0.13029945384760061 0.17570738463773131 0 -0.13044624474727001 0.19443587513216451 0 -0.13029945384760061 0.17570738463773131 0 -0.12160897685208551 0.18404749467670031 0 -0.14265021278802861 0.18478698062909979 0 -0.13029945384760061 0.17570738463773131 0 -0.13845036349411341 0.16382117632686041 0 -0.13845036349411341 0.16382117632686041 0 -0.1203578606610054 0.1493341440850495 0 -0.15048874591169351 0.15975398814606909 0 -0.13845036349411341 0.16382117632686041 0 -0.12637705186979531 0.1473005499946542 0 -0.13845036349411341 0.16382117632686041 0 -0.1203578606610054 0.1493341440850495 0 -0.1236533737023901 0.16421824575173161 0 -0.13029945384760061 0.17570738463773131 0 -0.13845036349411341 0.16382117632686041 0 -0.1236533737023901 0.16421824575173161 0 -0.15048874591169351 0.15975398814606909 0 -0.12637705186979531 0.1473005499946542 0 -0.12637705186979531 0.1473005499946542 0 -0.13532261775112611 0.1419674705131525 0 -0.14486086892009831 0.14796125120115891 0 -0.15048874591169351 0.15975398814606909 0 -0.12637705186979531 0.1473005499946542 0 -0.14486086892009831 0.14796125120115891 0 -0.13845036349411341 0.16382117632686041 0 -0.12637705186979531 0.1473005499946542 0 -0.1203578606610054 0.1493341440850495 0 -0.12637705186979531 0.1473005499946542 0 -0.13532261775112611 0.1419674705131525 0 -0.1265249218498388 0.1393651257466289 0 -0.1649553063252687 0.14679527165899639 0 -0.14486086892009831 0.14796125120115891 0 -0.14572811450187781 0.13924533236717909 0 -0.1649553063252687 0.14679527165899639 0 -0.15048874591169351 0.15975398814606909 0 -0.14486086892009831 0.14796125120115891 0 -0.13532261775112611 0.1419674705131525 0 -0.14486086892009831 0.14796125120115891 0 -0.14572811450187781 0.13924533236717909 0 -0.1553101726969425 0.1213831170205121 0 -0.14572811450187781 0.13924533236717909 0 -0.14206377924227739 0.12910454724138831 0 -0.1553101726969425 0.1213831170205121 0 -0.1649553063252687 0.14679527165899639 0 -0.14572811450187781 0.13924533236717909 0 -0.13361982876037509 0.1219535430397881 0 -0.14206377924227739 0.12910454724138831 0 -0.13240587749365479 0.13359327159326961 0 -0.14572811450187781 0.13924533236717909 0 -0.14206377924227739 0.12910454724138831 0 -0.13240587749365479 0.13359327159326961 0 -0.13532261775112611 0.1419674705131525 0 -0.14572811450187781 0.13924533236717909 0 -0.13240587749365479 0.13359327159326961 0 -0.13240587749365479 0.13359327159326961 0 -0.1265249218498388 0.1393651257466289 0 -0.1235083858012498 0.13413809775764829 0 -0.13532261775112611 0.1419674705131525 0 -0.13240587749365479 0.13359327159326961 0 -0.1265249218498388 0.1393651257466289 0 -0.13361982876037509 0.1219535430397881 0 -0.13240587749365479 0.13359327159326961 0 -0.1214444573401622 0.12728216290200781 0 -0.13240587749365479 0.13359327159326961 0 -0.1214444573401622 0.12728216290200781 0 -0.1235083858012498 0.13413809775764829 0 -0.12637705186979531 0.1473005499946542 0 -0.11260104127055361 0.1357654415263613 0 -0.1022653578278972 0.13484711184323889 0 -0.1214444573401622 0.12728216290200781 0 -0.1173713101947414 0.1324667066775507 0 -0.1235083858012498 0.13413809775764829 0 -0.12637705186979531 0.1473005499946542 0 -0.11979536212785161 0.1379832218687847 0 -0.11260104127055361 0.1357654415263613 0 -0.1265249218498388 0.1393651257466289 0 -0.1235083858012498 0.13413809775764829 0 -0.11979536212785161 0.1379832218687847 0 -0.1173713101947414 0.1324667066775507 0 -0.1235083858012498 0.13413809775764829 0 -0.11979536212785161 0.1379832218687847 0 -0.1173713101947414 0.1324667066775507 0 -0.11979536212785161 0.1379832218687847 0 -0.11260104127055361 0.1357654415263613 0 -0.1173713101947414 0.1324667066775507 0 -0.11260104127055361 0.1357654415263613 0 -0.11129793322579611 0.12748736889432141 0 -0.11260104127055361 0.1357654415263613 0 -0.11129793322579611 0.12748736889432141 0 -0.1066919498600683 0.13120070879856921 0 -0.1214444573401622 0.12728216290200781 0 -0.1173713101947414 0.1324667066775507 0 -0.11129793322579611 0.12748736889432141 0 -0.10263198623825209 0.12596706354981521 0 -0.1066919498600683 0.13120070879856921 0 -0.1022653578278972 0.13484711184323889 0 -0.11129793322579611 0.12748736889432141 0 -0.10263198623825209 0.12596706354981521 0 -0.1066919498600683 0.13120070879856921 0 -0.11260104127055361 0.1357654415263613 0 -0.1066919498600683 0.13120070879856921 0 -0.1022653578278972 0.13484711184323889 0 -0.1022653578278972 0.13484711184323889 0 -0.1001698352258517 0.1337647963048072 0 -0.098924838288180036 0.13874507237142131 0 -0.098924838288180036 0.13874507237142131 0 -0.09513392992680475 0.14447825062686831 0 -0.091086862077997516 0.1361839127637125 0 -0.1022653578278972 0.13484711184323889 0 -0.098924838288180036 0.13874507237142131 0 -0.1013602026766719 0.14349959920351099 0 -0.1001698352258517 0.1337647963048072 0 -0.098924838288180036 0.13874507237142131 0 -0.091086862077997516 0.1361839127637125 0 -0.1022653578278972 0.13484711184323889 0 -0.1001698352258517 0.1337647963048072 0 -0.1001698352258517 0.1337647963048072 0 -0.092292959037032093 0.1268620108240977 0 -0.091086862077997516 0.1361839127637125 0 -0.10263198623825209 0.12596706354981521 0 -0.1022653578278972 0.13484711184323889 0 -0.092292959037032093 0.1268620108240977 0 -0.1022653578278972 0.13484711184323889 0 -0.1001698352258517 0.1337647963048072 0 -0.092292959037032093 0.1268620108240977 0 -0.1022653578278972 0.13484711184323889 0 -0.092292959037032093 0.1268620108240977 0 -0.09513392992680475 0.14447825062686831 0 -0.1023387457679211 0.15329661930595151 0 -0.084559492351014551 0.1582248907416422 0 -0.09513392992680475 0.14447825062686831 0 -0.1013602026766719 0.14349959920351099 0 -0.1023387457679211 0.15329661930595151 0 -0.098924838288180036 0.13874507237142131 0 -0.09513392992680475 0.14447825062686831 0 -0.1013602026766719 0.14349959920351099 0 -0.1022653578278972 0.13484711184323889 0 -0.1013602026766719 0.14349959920351099 0 -0.10813814157255611 0.14613094187007489 0 -0.1013602026766719 0.14349959920351099 0 -0.10813814157255611 0.14613094187007489 0 -0.1023387457679211 0.15329661930595151 0 -0.10813814157255611 0.14613094187007489 0 -0.1023387457679211 0.15329661930595151 0 -0.1109709029617853 0.15195257073080229 0 -0.1023387457679211 0.15329661930595151 0 -0.1109709029617853 0.15195257073080229 0 -0.1130488638456584 0.15904857766213351 0 -0.12637705186979531 0.1473005499946542 0 -0.1022653578278972 0.13484711184323889 0 -0.10813814157255611 0.14613094187007489 0 -0.1109709029617853 0.15195257073080229 0 -0.1203578606610054 0.1493341440850495 0 -0.12637705186979531 0.1473005499946542 0 -0.1022653578278972 0.13484711184323889 0 -0.1203578606610054 0.1493341440850495 0 -0.1022653578278972 0.13484711184323889 0 -0.10813814157255611 0.14613094187007489 0 -0.1203578606610054 0.1493341440850495 0 -0.1022653578278972 0.13484711184323889 0 -0.1203578606610054 0.1493341440850495 0 -0.1109709029617853 0.15195257073080229 0 -0.1203578606610054 0.1493341440850495 0 -0.1130488638456584 0.15904857766213351 0 -0.12637705186979531 0.1473005499946542 0 -0.1265249218498388 0.1393651257466289 0 -0.11979536212785161 0.1379832218687847 0 -0.1203578606610054 0.1493341440850495 0 -0.1236533737023901 0.16421824575173161 0 -0.1130488638456584 0.15904857766213351 0 -0.1236533737023901 0.16421824575173161 0 -0.1130488638456584 0.15904857766213351 0 -0.1161103266635726 0.17317994604688319 0 -0.13029945384760061 0.17570738463773131 0 -0.1236533737023901 0.16421824575173161 0 -0.1161103266635726 0.17317994604688319 0 -0.1130488638456584 0.15904857766213351 0 -0.1161103266635726 0.17317994604688319 0 -0.1017914103648942 0.1692805437915709 0 -0.12160897685208551 0.18404749467670031 0 -0.1161103266635726 0.17317994604688319 0 -0.1111724284850725 0.19124972311272059 0 -0.1161103266635726 0.17317994604688319 0 -0.1017914103648942 0.1692805437915709 0 -0.1111724284850725 0.19124972311272059 0 -0.13029945384760061 0.17570738463773131 0 -0.12160897685208551 0.18404749467670031 0 -0.1161103266635726 0.17317994604688319 0 -0.1017914103648942 0.1692805437915709 0 -0.093037644125396349 0.1827630331987242 0 -0.1111724284850725 0.19124972311272059 0 -0.1023387457679211 0.15329661930595151 0 -0.1017914103648942 0.1692805437915709 0 -0.084559492351014551 0.1582248907416422 0 -0.1023387457679211 0.15329661930595151 0 -0.1130488638456584 0.15904857766213351 0 -0.1017914103648942 0.1692805437915709 0 -0.084559492351014551 0.1582248907416422 0 -0.093037644125396349 0.1827630331987242 0 -0.084559492351014551 0.1582248907416422 0 -0.093037644125396349 0.1827630331987242 0 -0.063758287550489581 0.17193419933046999 0 -0.1017914103648942 0.1692805437915709 0 -0.084559492351014551 0.1582248907416422 0 -0.093037644125396349 0.1827630331987242 0 -0.093037644125396349 0.1827630331987242 0 -0.063758287550489581 0.17193419933046999 0 -0.073022406118837702 0.19147888340436081 0 -0.084559492351014551 0.1582248907416422 0 -0.063758287550489581 0.17193419933046999 0 -0.063401657483579746 0.1527427668626464 0 -0.063401657483579746 0.1527427668626464 0 -0.067040637682532267 0.13797898721626739 0 -0.08020003685522141 0.14248017260793491 0 -0.084559492351014551 0.1582248907416422 0 -0.063401657483579746 0.1527427668626464 0 -0.08020003685522141 0.14248017260793491 0 -0.067040637682532267 0.13797898721626739 0 -0.079381379906787328 0.12993044542930579 0 -0.062630011076309791 0.1245626149850222 0 -0.067040637682532267 0.13797898721626739 0 -0.079381379906787328 0.12993044542930579 0 -0.08020003685522141 0.14248017260793491 0 -0.079381379906787328 0.12993044542930579 0 -0.091086862077997516 0.1361839127637125 0 -0.08020003685522141 0.14248017260793491 0 -0.079381379906787328 0.12993044542930579 0 -0.092292959037032093 0.1268620108240977 0 -0.08533419384970671 0.118210476897721 0 -0.079381379906787328 0.12993044542930579 0 -0.092292959037032093 0.1268620108240977 0 -0.091086862077997516 0.1361839127637125 0 -0.09513392992680475 0.14447825062686831 0 -0.084559492351014551 0.1582248907416422 0 -0.08020003685522141 0.14248017260793491 0 -0.09513392992680475 0.14447825062686831 0 -0.091086862077997516 0.1361839127637125 0 -0.08020003685522141 0.14248017260793491 0 -0.106741559260951 0.25317723186649882 0 -0.095237997476510378 0.24369107460290629 0 -0.1099939476741599 0.23183931811288841 0 -0.12482003396909221 0.25114211634600742 0 -0.12945881261479511 0.23576484522574839 0 -0.1099939476741599 0.23183931811288841 0 -0.106741559260951 0.25317723186649882 0 -0.12482003396909221 0.25114211634600742 0 -0.1099939476741599 0.23183931811288841 0 -0.12558399385134261 0.21485380126813711 0 -0.12945881261479511 0.23576484522574839 0 -0.1099939476741599 0.23183931811288841 0 -0.1099939476741599 0.23183931811288841 0 -0.10151579589977811 0.2073011756558063 0 -0.1099939476741599 0.23183931811288841 0 -0.094888819318896395 0.22583766269023911 0 -0.10151579589977811 0.2073011756558063 0 -0.095237997476510378 0.24369107460290629 0 -0.1099939476741599 0.23183931811288841 0 -0.094888819318896395 0.22583766269023911 0 -0.12558399385134261 0.21485380126813711 0 -0.1099939476741599 0.23183931811288841 0 -0.10151579589977811 0.2073011756558063 0 -0.12558399385134261 0.21485380126813711 0 -0.10151579589977811 0.2073011756558063 0 -0.1111724284850725 0.19124972311272059 0 -0.13044624474727001 0.19443587513216451 0 -0.12558399385134261 0.21485380126813711 0 -0.1111724284850725 0.19124972311272059 0 -0.13044624474727001 0.19443587513216451 0 -0.12160897685208551 0.18404749467670031 0 -0.1111724284850725 0.19124972311272059 0 -0.093037644125396349 0.1827630331987242 0 -0.10151579589977811 0.2073011756558063 0 -0.093037644125396349 0.1827630331987242 0 -0.10151579589977811 0.2073011756558063 0 -0.1111724284850725 0.19124972311272059 0 -0.093037644125396349 0.1827630331987242 0 -0.10151579589977811 0.2073011756558063 0 -0.082519620990881823 0.20747606339703839 0 -0.093037644125396349 0.1827630331987242 0 -0.073022406118837702 0.19147888340436081 0 -0.082519620990881823 0.20747606339703839 0 -0.073022406118837702 0.19147888340436081 0 -0.06506185308766399 0.21365652306356411 0 -0.082519620990881823 0.20747606339703839 0 -0.06506185308766399 0.21365652306356411 0 -0.082519620990881823 0.20747606339703839 0 -0.08062013746235136 0.22333044650832171 0 -0.094888819318896395 0.22583766269023911 0 -0.10151579589977811 0.2073011756558063 0 -0.082519620990881823 0.20747606339703839 0 -0.094888819318896395 0.22583766269023911 0 -0.082519620990881823 0.20747606339703839 0 -0.08062013746235136 0.22333044650832171 0 -0.094888819318896395 0.22583766269023911 0 -0.08062013746235136 0.22333044650832171 0 -0.086874582401073666 0.23691649088446509 0 -0.08062013746235136 0.22333044650832171 0 -0.072941270838342273 0.23386501287931921 0 -0.086874582401073666 0.23691649088446509 0 -0.06506185308766399 0.21365652306356411 0 -0.08062013746235136 0.22333044650832171 0 -0.072941270838342273 0.23386501287931921 0 -0.06506185308766399 0.21365652306356411 0 -0.072941270838342273 0.23386501287931921 0 -0.05839565208599802 0.23357745602924579 0 -0.072941270838342273 0.23386501287931921 0 -0.069537723428715045 0.2468571884197622 0 -0.079578574683255493 0.24463728753288169 0 -0.069537723428715045 0.2468571884197622 0 -0.060155289290419377 0.2492581413369018 0 -0.05839565208599802 0.23357745602924579 0 -0.072941270838342273 0.23386501287931921 0 -0.069537723428715045 0.2468571884197622 0 -0.05839565208599802 0.23357745602924579 0 -0.069477213224122786 0.25212352833607982 0 -0.069537723428715045 0.2468571884197622 0 -0.060155289290419377 0.2492581413369018 0 -0.069537723428715045 0.2468571884197622 0 -0.075135886009683822 0.24985715318892979 0 -0.079578574683255493 0.24463728753288169 0 -0.069477213224122786 0.25212352833607982 0 -0.069537723428715045 0.2468571884197622 0 -0.075135886009683822 0.24985715318892979 0 -0.079065520241485915 0.25100537302428427 0 -0.075135886009683822 0.24985715318892979 0 -0.079578574683255493 0.24463728753288169 0 -0.079065520241485915 0.25100537302428427 0 -0.08302872548390651 0.2477917532394508 0 -0.079578574683255493 0.24463728753288169 0 -0.079578574683255493 0.24463728753288169 0 -0.086874582401073666 0.23691649088446509 0 -0.087228769182096988 0.2454296397846242 0 -0.095237997476510378 0.24369107460290629 0 -0.094888819318896395 0.22583766269023911 0 -0.086874582401073666 0.23691649088446509 0 -0.085617799105924666 0.25069469890180152 0 -0.079065520241485915 0.25100537302428427 0 -0.08302872548390651 0.2477917532394508 0 -0.085617799105924666 0.25069469890180152 0 -0.08302872548390651 0.2477917532394508 0 -0.087228769182096988 0.2454296397846242 0 -0.08302872548390651 0.2477917532394508 0 -0.079578574683255493 0.24463728753288169 0 -0.087228769182096988 0.2454296397846242 0 -0.072941270838342273 0.23386501287931921 0 -0.079578574683255493 0.24463728753288169 0 -0.086874582401073666 0.23691649088446509 0 -0.095237997476510378 0.24369107460290629 0 -0.086874582401073666 0.23691649088446509 0 -0.087228769182096988 0.2454296397846242 0 -0.089439320898220445 0.25230245455238071 0 -0.095237997476510378 0.24369107460290629 0 -0.087228769182096988 0.2454296397846242 0 -0.089439320898220445 0.25230245455238071 0 -0.085617799105924666 0.25069469890180152 0 -0.087228769182096988 0.2454296397846242 0 -0.036353893942215387 0.25409255585965079 0 -0.044594207894327727 0.24188732741784091 0 -0.02669427707948294 0.2354072287128694 0 -0.044594207894327727 0.24188732741784091 0 -0.060155289290419377 0.2492581413369018 0 -0.05839565208599802 0.23357745602924579 0 -0.050473894944840447 0.25505037615492249 0 -0.044594207894327727 0.24188732741784091 0 -0.060155289290419377 0.2492581413369018 0 -0.044594207894327727 0.24188732741784091 0 -0.05839565208599802 0.23357745602924579 0 -0.040675237428534711 0.21919648296566299 0 -0.06506185308766399 0.21365652306356411 0 -0.05839565208599802 0.23357745602924579 0 -0.040675237428534711 0.21919648296566299 0 -0.044594207894327727 0.24188732741784091 0 -0.040675237428534711 0.21919648296566299 0 -0.02669427707948294 0.2354072287128694 0 -0.040675237428534711 0.21919648296566299 0 -0.049341230262196917 0.19298447432292401 0 -0.020989828587536109 0.19900122955018179 0 -0.06506185308766399 0.21365652306356411 0 -0.040675237428534711 0.21919648296566299 0 -0.049341230262196917 0.19298447432292401 0 -0.073022406118837702 0.19147888340436081 0 -0.06506185308766399 0.21365652306356411 0 -0.049341230262196917 0.19298447432292401 0 -0.049341230262196917 0.19298447432292401 0 -0.020989828587536109 0.19900122955018179 0 -0.032550568855158578 0.1755723959300344 0 -0.020989828587536109 0.19900122955018179 0 -0.00032704064368648152 0.20092765530983911 0 -0.011524073589518499 0.1853379986820565 0 -0.00032704064368648152 0.20092765530983911 0 -0.011524073589518499 0.1853379986820565 0 0.0050868312892222364 0.18473613943969669 0 -0.020989828587536109 0.19900122955018179 0 -0.00032704064368648152 0.20092765530983911 0 -0.010229013725809449 0.2114805006895886 0 -0.00032704064368648152 0.20092765530983911 0 -0.010229013725809449 0.2114805006895886 0 0.00083036861321999231 0.2187159905759983 0 -0.010229013725809449 0.2114805006895886 0 -0.01185758420296181 0.2233384842517997 0 0.00083036861321999231 0.2187159905759983 0 -0.010229013725809449 0.2114805006895886 0 -0.02172289027739337 0.21801970967309339 0 -0.01185758420296181 0.2233384842517997 0 -0.020989828587536109 0.19900122955018179 0 -0.010229013725809449 0.2114805006895886 0 -0.02172289027739337 0.21801970967309339 0 -0.040675237428534711 0.21919648296566299 0 -0.020989828587536109 0.19900122955018179 0 -0.02172289027739337 0.21801970967309339 0 -0.02172289027739337 0.21801970967309339 0 -0.01185758420296181 0.2233384842517997 0 -0.02669427707948294 0.2354072287128694 0 -0.040675237428534711 0.21919648296566299 0 -0.02172289027739337 0.21801970967309339 0 -0.02669427707948294 0.2354072287128694 0 -0.01185758420296181 0.2233384842517997 0 -0.00293306177999853 0.23436927456393361 0 0.00083036861321999231 0.2187159905759983 0 -0.01185758420296181 0.2233384842517997 0 -0.00293306177999853 0.23436927456393361 0 -0.02669427707948294 0.2354072287128694 0 -0.001870537191094847 0.24783164157960649 0 -0.02669427707948294 0.2354072287128694 0 -0.00293306177999853 0.23436927456393361 0 -0.001870537191094847 0.24783164157960649 0 -0.02669427707948294 0.2354072287128694 0 -0.036353893942215387 0.25409255585965079 0 -0.020936654409663649 0.25565986487002079 0 -0.02669427707948294 0.2354072287128694 0 -0.020936654409663649 0.25565986487002079 0 -0.001870537191094847 0.24783164157960649 0 -0.02669427707948294 0.2354072287128694 0 -0.044405265253283588 0.1555705856821849 0 -0.025742893971642741 0.15690058726030459 0 -0.028299520307720889 0.13651348068026289 0 -0.044405265253283588 0.1555705856821849 0 -0.0498238959938627 0.13603829983738211 0 -0.028299520307720889 0.13651348068026289 0 -0.0498238959938627 0.13603829983738211 0 -0.035685597279641511 0.1232101454770458 0 -0.049315046776544698 0.12004394075435521 0 -0.0498238959938627 0.13603829983738211 0 -0.028299520307720889 0.13651348068026289 0 -0.035685597279641511 0.1232101454770458 0 -0.0498238959938627 0.13603829983738211 0 -0.049315046776544698 0.12004394075435521 0 -0.062630011076309791 0.1245626149850222 0 -0.067040637682532267 0.13797898721626739 0 -0.0498238959938627 0.13603829983738211 0 -0.062630011076309791 0.1245626149850222 0 -0.063401657483579746 0.1527427668626464 0 -0.044405265253283588 0.1555705856821849 0 -0.0498238959938627 0.13603829983738211 0 -0.063401657483579746 0.1527427668626464 0 -0.067040637682532267 0.13797898721626739 0 -0.0498238959938627 0.13603829983738211 0 -0.063758287550489581 0.17193419933046999 0 -0.063401657483579746 0.1527427668626464 0 -0.044405265253283588 0.1555705856821849 0 -0.063758287550489581 0.17193419933046999 0 -0.044405265253283588 0.1555705856821849 0 -0.032550568855158578 0.1755723959300344 0 -0.063758287550489581 0.17193419933046999 0 -0.049341230262196917 0.19298447432292401 0 -0.032550568855158578 0.1755723959300344 0 -0.063758287550489581 0.17193419933046999 0 -0.073022406118837702 0.19147888340436081 0 -0.049341230262196917 0.19298447432292401 0 -0.044405265253283588 0.1555705856821849 0 -0.032550568855158578 0.1755723959300344 0 -0.025742893971642741 0.15690058726030459 0 -0.025742893971642741 0.15690058726030459 0 -0.01182244635478462 0.16871887207651151 0 -0.01163666908726602 0.1481276019325293 0 -0.032550568855158578 0.1755723959300344 0 -0.025742893971642741 0.15690058726030459 0 -0.01182244635478462 0.16871887207651151 0 -0.020989828587536109 0.19900122955018179 0 -0.032550568855158578 0.1755723959300344 0 -0.011524073589518499 0.1853379986820565 0 -0.032550568855158578 0.1755723959300344 0 -0.011524073589518499 0.1853379986820565 0 -0.01182244635478462 0.16871887207651151 0 -0.01182244635478462 0.16871887207651151 0 0.0050868312892222364 0.18473613943969669 0 -0.011524073589518499 0.1853379986820565 0 -0.01182244635478462 0.16871887207651151 0 0.0050868312892222364 0.18473613943969669 0 -0.01182244635478462 0.16871887207651151 0 -0.00076182537475621168 0.15719379457848731 0 0.0069045787573830172 0.16849366816182459 0 -0.01182244635478462 0.16871887207651151 0 -0.00076182537475621168 0.15719379457848731 0 -0.01163666908726602 0.1481276019325293 0 -0.00076182537475621168 0.15719379457848731 0 -0.01163666908726602 0.1481276019325293 0 0.0020428085558040188 0.1450709179257999 0 -0.025742893971642741 0.15690058726030459 0 -0.01163666908726602 0.1481276019325293 0 -0.028299520307720889 0.13651348068026289 0 -0.028299520307720889 0.13651348068026289 0 -0.023058943144215919 0.1161081498428149 0 -0.035685597279641511 0.1232101454770458 0 -0.028299520307720889 0.13651348068026289 0 -0.0050375264990141569 0.12530600595019351 0 -0.023058943144215919 0.1161081498428149 0 -0.01163666908726602 0.1481276019325293 0 -0.028299520307720889 0.13651348068026289 0 -0.0050375264990141569 0.12530600595019351 0 -0.01163666908726602 0.1481276019325293 0 -0.0050375264990141569 0.12530600595019351 0 0.0020428085558040188 0.1450709179257999 0 -0.0050375264990141569 0.12530600595019351 0 -0.0090199445797101638 0.1087111402102368 0 0.0044285672517181754 0.1088793736060132 0 -0.0050375264990141569 0.12530600595019351 0 -0.0090199445797101638 0.1087111402102368 0 -0.023058943144215919 0.1161081498428149 0 -0.00046628846821422692 0.095155713336249392 0 -0.0090199445797101638 0.1087111402102368 0 0.0044285672517181754 0.1088793736060132 0 -0.00046628846821422692 0.095155713336249392 0 -0.0090199445797101638 0.1087111402102368 0 -0.017162040810729341 0.097963785366407222 0 -0.017162040810729341 0.097963785366407222 0 -0.026783298840847309 0.08269253609912694 0 -0.037647099752199591 0.1048553111858247 0 -0.017162040810729341 0.097963785366407222 0 -0.023058943144215919 0.1161081498428149 0 -0.037647099752199591 0.1048553111858247 0 -0.0090199445797101638 0.1087111402102368 0 -0.017162040810729341 0.097963785366407222 0 -0.023058943144215919 0.1161081498428149 0 -0.015120225059927659 0.068539564674947359 0 -0.0074792185064934506 0.081781337360821604 0 0.0032726508152374802 0.065830254100784247 0 -0.00046628846821422692 0.095155713336249392 0 -0.017162040810729341 0.097963785366407222 0 -0.0074792185064934506 0.081781337360821604 0 -0.00046628846821422692 0.095155713336249392 0 -0.0074792185064934506 0.081781337360821604 0 0.0078257750999893416 0.084157712595329018 0 -0.017162040810729341 0.097963785366407222 0 -0.0074792185064934506 0.081781337360821604 0 -0.026783298840847309 0.08269253609912694 0 -0.015120225059927659 0.068539564674947359 0 -0.0074792185064934506 0.081781337360821604 0 -0.026783298840847309 0.08269253609912694 0 -0.026783298840847309 0.08269253609912694 0 -0.032786094020039611 0.059166813708666541 0 -0.015120225059927659 0.068539564674947359 0 -0.026783298840847309 0.08269253609912694 0 -0.032786094020039611 0.059166813708666541 0 -0.026783298840847309 0.08269253609912694 0 -0.040860890600635878 0.072433519202265761 0 -0.032786094020039611 0.059166813708666541 0 -0.026783298840847309 0.08269253609912694 0 -0.040860890600635878 0.072433519202265761 0 -0.052290752112962711 0.086625253977788336 0 -0.026783298840847309 0.08269253609912694 0 -0.052290752112962711 0.086625253977788336 0 -0.037647099752199591 0.1048553111858247 0 -0.040860890600635878 0.072433519202265761 0 -0.052290752112962711 0.086625253977788336 0 -0.055364061708154937 0.065649614356981897 0 -0.052290752112962711 0.086625253977788336 0 -0.055364061708154937 0.065649614356981897 0 -0.072696055669198734 0.072637007182587685 0 -0.040860890600635878 0.072433519202265761 0 -0.055364061708154937 0.065649614356981897 0 -0.046887228511421297 0.05174784996231159 0 -0.023058943144215919 0.1161081498428149 0 -0.035685597279641511 0.1232101454770458 0 -0.037647099752199591 0.1048553111858247 0 -0.035685597279641511 0.1232101454770458 0 -0.037647099752199591 0.1048553111858247 0 -0.049315046776544698 0.12004394075435521 0 -0.052290752112962711 0.086625253977788336 0 -0.037647099752199591 0.1048553111858247 0 -0.057425178898765528 0.1075586368420326 0 -0.052290752112962711 0.086625253977788336 0 -0.057425178898765528 0.1075586368420326 0 -0.071301158166813747 0.095326725550790609 0 -0.037647099752199591 0.1048553111858247 0 -0.057425178898765528 0.1075586368420326 0 -0.049315046776544698 0.12004394075435521 0 -0.057425178898765528 0.1075586368420326 0 -0.049315046776544698 0.12004394075435521 0 -0.062630011076309791 0.1245626149850222 0 -0.057425178898765528 0.1075586368420326 0 -0.062630011076309791 0.1245626149850222 0 -0.071955316471951691 0.113614906219746 0 -0.079381379906787328 0.12993044542930579 0 -0.062630011076309791 0.1245626149850222 0 -0.071955316471951691 0.113614906219746 0 -0.079381379906787328 0.12993044542930579 0 -0.071955316471951691 0.113614906219746 0 -0.08533419384970671 0.118210476897721 0 -0.071955316471951691 0.113614906219746 0 -0.08533419384970671 0.118210476897721 0 -0.086388838573301402 0.1048998065267857 0 -0.08533419384970671 0.118210476897721 0 -0.086388838573301402 0.1048998065267857 0 -0.096652475259461079 0.1157452154886697 0 -0.092292959037032093 0.1268620108240977 0 -0.08533419384970671 0.118210476897721 0 -0.096652475259461079 0.1157452154886697 0 -0.086388838573301402 0.1048998065267857 0 -0.071301158166813747 0.095326725550790609 0 -0.087232861120725175 0.085895022944261698 0 -0.057425178898765528 0.1075586368420326 0 -0.071955316471951691 0.113614906219746 0 -0.071301158166813747 0.095326725550790609 0 -0.071955316471951691 0.113614906219746 0 -0.086388838573301402 0.1048998065267857 0 -0.071301158166813747 0.095326725550790609 0 -0.052290752112962711 0.086625253977788336 0 -0.071301158166813747 0.095326725550790609 0 -0.072696055669198734 0.072637007182587685 0 -0.071301158166813747 0.095326725550790609 0 -0.072696055669198734 0.072637007182587685 0 -0.087232861120725175 0.085895022944261698 0 -0.087232861120725175 0.085895022944261698 0 -0.10349498880483959 0.07822214480416198 0 -0.085758837963579887 0.057961119085406437 0 -0.087232861120725175 0.085895022944261698 0 -0.085758837963579887 0.057961119085406437 0 -0.072696055669198734 0.072637007182587685 0 -0.087232861120725175 0.085895022944261698 0 -0.085758837963579887 0.057961119085406437 0 -0.087232861120725175 0.085895022944261698 0 -0.10349498880483959 0.07822214480416198 0 -0.1078275707111903 0.1003248570043213 0 -0.10349498880483959 0.07822214480416198 0 -0.11005740812260401 0.061481042437080732 0 -0.085758837963579887 0.057961119085406437 0 -0.10349498880483959 0.07822214480416198 0 -0.1201298763552133 0.08504932372035312 0 -0.11005740812260401 0.061481042437080732 0 -0.1201298763552133 0.08504932372035312 0 -0.11005740812260401 0.061481042437080732 0 -0.13601990544028991 0.070558807743543422 0 -0.1201298763552133 0.08504932372035312 0 -0.11005740812260401 0.061481042437080732 0 -0.10349498880483959 0.07822214480416198 0 -0.1201298763552133 0.08504932372035312 0 -0.1078275707111903 0.1003248570043213 0 -0.1302023445878227 0.10861760500362561 0 -0.1187112036788254 0.1166523724522722 0 -0.1078275707111903 0.1003248570043213 0 -0.1302023445878227 0.10861760500362561 0 -0.1201298763552133 0.08504932372035312 0 -0.1078275707111903 0.1003248570043213 0 -0.1187112036788254 0.1166523724522722 0 -0.10698896594004639 0.1187282184838999 0 -0.1078275707111903 0.1003248570043213 0 -0.13361982876037509 0.1219535430397881 0 -0.1214444573401622 0.12728216290200781 0 -0.1187112036788254 0.1166523724522722 0 -0.1214444573401622 0.12728216290200781 0 -0.11129793322579611 0.12748736889432141 0 -0.1187112036788254 0.1166523724522722 0 -0.11129793322579611 0.12748736889432141 0 -0.1187112036788254 0.1166523724522722 0 -0.10698896594004639 0.1187282184838999 0 -0.10698896594004639 0.1187282184838999 0 -0.096652475259461079 0.1157452154886697 0 -0.1078275707111903 0.1003248570043213 0 -0.10263198623825209 0.12596706354981521 0 -0.10698896594004639 0.1187282184838999 0 -0.096652475259461079 0.1157452154886697 0 -0.11129793322579611 0.12748736889432141 0 -0.10263198623825209 0.12596706354981521 0 -0.10698896594004639 0.1187282184838999 0 -0.10263198623825209 0.12596706354981521 0 -0.092292959037032093 0.1268620108240977 0 -0.096652475259461079 0.1157452154886697 0 -0.086388838573301402 0.1048998065267857 0 -0.096652475259461079 0.1157452154886697 0 -0.1078275707111903 0.1003248570043213 0 -0.086388838573301402 0.1048998065267857 0 -0.087232861120725175 0.085895022944261698 0 -0.1078275707111903 0.1003248570043213 0 -0.099984939889994656 0.037912761153808462 0 -0.089912471657385321 0.01434447987053613 0 -0.10842828849418069 0.02173476081681245 0 -0.099984939889994656 0.037912761153808462 0 -0.089912471657385321 0.01434447987053613 0 -0.10842828849418069 0.02173476081681245 0 -0.09711861473746225 0.0099980029768806482 0 -0.089912471657385321 0.01434447987053613 0 -0.1103184787184923 -0.002983229773278688 0 -0.10842828849418069 0.02173476081681245 0 -0.103813528196413 0.0089506021450708618 0 -0.1103184787184923 -0.002983229773278688 0 -0.10842828849418069 0.02173476081681245 0 -0.099898419841897623 -0.00092325477833528379 0 -0.09711861473746225 0.0099980029768806482 0 -0.103813528196413 0.0089506021450708618 0 -0.099898419841897623 -0.00092325477833528379 0 -0.09711861473746225 0.0099980029768806482 0 -0.090898068884156247 0.0047172067815882367 0 -0.1103184787184923 -0.002983229773278688 0 -0.099898419841897623 -0.00092325477833528379 0 -0.103813528196413 0.0089506021450708618 0 -0.10842828849418069 0.02173476081681245 0 -0.09711861473746225 0.0099980029768806482 0 -0.103813528196413 0.0089506021450708618 0 -0.1103184787184923 -0.002983229773278688 0 -0.10842828849418069 0.02173476081681245 0 -0.119100077078059 0.0113822785190929 0 -0.1164388837083003 -0.0026345546631316862 0 -0.13690710031888381 0.01195771323067427 0 -0.119100077078059 0.0113822785190929 0 -0.1103184787184923 -0.002983229773278688 0 -0.1164388837083003 -0.0026345546631316862 0 -0.119100077078059 0.0113822785190929 0 -0.10842828849418069 0.02173476081681245 0 -0.1226569289783727 0.027918965290285858 0 -0.099984939889994656 0.037912761153808462 0 -0.10842828849418069 0.02173476081681245 0 -0.119100077078059 0.0113822785190929 0 -0.1226569289783727 0.027918965290285858 0 -0.1263747718119636 0.045146653105059081 0 -0.1226569289783727 0.027918965290285858 0 -0.099984939889994656 0.037912761153808462 0 -0.1263747718119636 0.045146653105059081 0 -0.11005740812260401 0.061481042437080732 0 -0.099984939889994656 0.037912761153808462 0 -0.13601990544028991 0.070558807743543422 0 -0.1263747718119636 0.045146653105059081 0 -0.11005740812260401 0.061481042437080732 0 -0.11005740812260401 0.061481042437080732 0 -0.099984939889994656 0.037912761153808462 0 -0.085758837963579887 0.057961119085406437 0 -0.11005740812260401 0.061481042437080732 0 -0.099984939889994656 0.037912761153808462 0 -0.085758837963579887 0.057961119085406437 0 -0.084284814806434571 0.030027215226551 0 -0.099984939889994656 0.037912761153808462 0 -0.085758837963579887 0.057961119085406437 0 -0.084284814806434571 0.030027215226551 0 -0.055364061708154937 0.065649614356981897 0 -0.072696055669198734 0.072637007182587685 0 -0.063259488320014906 0.045142527600816933 0 -0.072696055669198734 0.072637007182587685 0 -0.085758837963579887 0.057961119085406437 0 -0.063259488320014906 0.045142527600816933 0 -0.063259488320014906 0.045142527600816933 0 -0.071169518538150789 0.028372011765701779 0 -0.084284814806434571 0.030027215226551 0 -0.085758837963579887 0.057961119085406437 0 -0.063259488320014906 0.045142527600816933 0 -0.084284814806434571 0.030027215226551 0 -0.063259488320014906 0.045142527600816933 0 -0.071169518538150789 0.028372011765701779 0 -0.061550447514132182 0.019304257504775189 0 -0.071169518538150789 0.028372011765701779 0 -0.07325021160115712 0.015315436611954321 0 -0.061550447514132182 0.019304257504775189 0 -0.071169518538150789 0.028372011765701779 0 -0.084284814806434571 0.030027215226551 0 -0.07325021160115712 0.015315436611954321 0 -0.084284814806434571 0.030027215226551 0 -0.082810791649288867 0.0020933113676955811 0 -0.084284814806434571 0.030027215226551 0 -0.082810791649288867 0.0020933113676955811 0 -0.07325021160115712 0.015315436611954321 0 -0.099984939889994656 0.037912761153808462 0 -0.084284814806434571 0.030027215226551 0 -0.089912471657385321 0.01434447987053613 0 -0.084284814806434571 0.030027215226551 0 -0.089912471657385321 0.01434447987053613 0 -0.082810791649288867 0.0020933113676955811 0 -0.090898068884156247 0.0047172067815882367 0 -0.082810791649288867 0.0020933113676955811 0 -0.090898068884156247 0.0047172067815882367 0 -0.089912471657385321 0.01434447987053613 0 -0.082810791649288867 0.0020933113676955811 0 -0.09711861473746225 0.0099980029768806482 0 -0.090898068884156247 0.0047172067815882367 0 -0.089912471657385321 0.01434447987053613 0 -0.066435485497779195 -0.0032196128049521229 0 -0.07325021160115712 0.015315436611954321 0 -0.061550447514132182 0.019304257504775189 0 -0.066435485497779195 -0.0032196128049521229 0 -0.082810791649288867 0.0020933113676955811 0 -0.07325021160115712 0.015315436611954321 0 -0.050060179346269558 -0.0085325369775998625 0 -0.044424534272749908 0.013554277170302911 0 -0.050060179346269558 -0.0085325369775998625 0 -0.055410707191302949 0.0050441632942630089 0 -0.044424534272749908 0.013554277170302911 0 -0.055410707191302949 0.0050441632942630089 0 -0.061550447514132182 0.019304257504775189 0 -0.044424534272749908 0.013554277170302911 0 -0.066435485497779195 -0.0032196128049521229 0 -0.055410707191302949 0.0050441632942630089 0 -0.061550447514132182 0.019304257504775189 0 -0.061550447514132182 0.019304257504775189 0 -0.044424534272749908 0.013554277170302911 0 -0.038788889199233692 0.035641091318206627 0 -0.061550447514132182 0.019304257504775189 0 -0.038788889199233692 0.035641091318206627 0 -0.044424534272749908 0.013554277170302911 0 -0.038788889199233692 0.035641091318206627 0 -0.030735723897599859 0.020998953003056989 0 -0.044424534272749908 0.013554277170302911 0 -0.038788889199233692 0.035641091318206627 0 -0.031401804829180688 0.0027902702105055579 0 -0.044424534272749908 0.013554277170302911 0 -0.030735723897599859 0.020998953003056989 0 -0.050060179346269558 -0.0085325369775998625 0 -0.031401804829180688 0.0027902702105055579 0 -0.044424534272749908 0.013554277170302911 0 -0.055364061708154937 0.065649614356981897 0 -0.063259488320014906 0.045142527600816933 0 -0.046887228511421297 0.05174784996231159 0 -0.063259488320014906 0.045142527600816933 0 -0.046887228511421297 0.05174784996231159 0 -0.038788889199233692 0.035641091318206627 0 -0.063259488320014906 0.045142527600816933 0 -0.061550447514132182 0.019304257504775189 0 -0.038788889199233692 0.035641091318206627 0 -0.046887228511421297 0.05174784996231159 0 -0.038788889199233692 0.035641091318206627 0 -0.032786094020039611 0.059166813708666541 0 -0.040860890600635878 0.072433519202265761 0 -0.046887228511421297 0.05174784996231159 0 -0.032786094020039611 0.059166813708666541 0 -0.038788889199233692 0.035641091318206627 0 -0.032786094020039611 0.059166813708666541 0 -0.015120225059927659 0.068539564674947359 0 -0.032786094020039611 0.059166813708666541 0 -0.01775811919199877 0.050735672709496443 0 -0.038788889199233692 0.035641091318206627 0 -0.032786094020039611 0.059166813708666541 0 -0.01775811919199877 0.050735672709496443 0 -0.038788889199233692 0.035641091318206627 0 -0.01775811919199877 0.050735672709496443 0 -0.038788889199233692 0.035641091318206627 0 -0.01775811919199877 0.050735672709496443 0 -0.01986221022651051 0.031261359280118098 0 -0.01775811919199877 0.050735672709496443 0 -0.01986221022651051 0.031261359280118098 0 -0.0035468321067022301 0.035394686897551722 0 -0.01775811919199877 0.050735672709496443 0 -0.0035468321067022301 0.035394686897551722 0 -0.001802309074633411 0.050405987430637567 0 -0.01775811919199877 0.050735672709496443 0 -0.001802309074633411 0.050405987430637567 0 0.0032726508152374802 0.065830254100784247 0 -0.01775811919199877 0.050735672709496443 0 0.0032726508152374802 0.065830254100784247 0 -0.015120225059927659 0.068539564674947359 0 -0.01775811919199877 0.050735672709496443 0 0.0032726508152374802 0.065830254100784247 0 -0.031401804829180688 0.0027902702105055579 0 -0.017980597976115769 0.01298212719875058 0 -0.030735723897599859 0.020998953003056989 0 -0.01721953082408104 -0.0031172801099605988 0 -0.031401804829180688 0.0027902702105055579 0 -0.017980597976115769 0.01298212719875058 0 -0.01986221022651051 0.031261359280118098 0 -0.017980597976115769 0.01298212719875058 0 -0.030735723897599859 0.020998953003056989 0 -0.038788889199233692 0.035641091318206627 0 -0.01986221022651051 0.031261359280118098 0 -0.030735723897599859 0.020998953003056989 0 -0.01986221022651051 0.031261359280118098 0 -0.017980597976115769 0.01298212719875058 0 -0.002753628582394892 0.020016383893197511 0 -0.01986221022651051 0.031261359280118098 0 -0.0035468321067022301 0.035394686897551722 0 -0.002753628582394892 0.020016383893197511 0 -0.01721953082408104 -0.0031172801099605988 0 -0.017980597976115769 0.01298212719875058 0 -0.0045202662753825928 0.0076875810721139838 0 -0.017980597976115769 0.01298212719875058 0 -0.002753628582394892 0.020016383893197511 0 -0.0045202662753825928 0.0076875810721139838 0 0.01405214152775462 0.014977048396252191 0 0.022935506817611171 0.0096653664055293999 0 0.001300284477923656 -0.0064203740176691469 0 -0.002753628582394892 0.020016383893197511 0 -0.0045202662753825928 0.0076875810721139838 0 0.01405214152775462 0.014977048396252191 0 0.022935506817611171 0.0096653664055293999 0 0.001300284477923656 -0.0064203740176691469 0 -0.0045202662753825928 0.0076875810721139838 0 0.01405214152775462 0.014977048396252191 0 0.001300284477923656 -0.0064203740176691469 0 0.01405214152775462 0.014977048396252191 0 0.001300284477923656 -0.0064203740176691469 0 -0.002753628582394892 0.020016383893197511 0 0.01405214152775462 0.014977048396252191 0 0.0098518201001877928 0.031152975689608991 0 -0.0035468321067022301 0.035394686897551722 0 -0.002753628582394892 0.020016383893197511 0 0.0098518201001877928 0.031152975689608991 0 0.01405214152775462 0.014977048396252191 0 0.0098518201001877928 0.031152975689608991 0 0.026803998577586131 0.03637447081017306 0 0.01405214152775462 0.014977048396252191 0 0.026803998577586131 0.03637447081017306 0 0.01405214152775462 0.014977048396252191 0 0.022935506817611171 0.0096653664055293999 0 0.026803998577586131 0.03637447081017306 0 -0.001802309074633411 0.050405987430637567 0 0.010823064184929881 0.049663336014717882 0 0.0032726508152374802 0.065830254100784247 0 0.010823064184929881 0.049663336014717882 0 0.025192960476562009 0.06393198513188407 0 0.0032726508152374802 0.065830254100784247 0 -0.0035468321067022301 0.035394686897551722 0 0.0098518201001877928 0.031152975689608991 0 0.010823064184929881 0.049663336014717882 0 -0.0035468321067022301 0.035394686897551722 0 0.010823064184929881 0.049663336014717882 0 -0.0035468321067022301 0.035394686897551722 0 -0.001802309074633411 0.050405987430637567 0 0.010823064184929881 0.049663336014717882 0 0.0098518201001877928 0.031152975689608991 0 0.010823064184929881 0.049663336014717882 0 0.026803998577586131 0.03637447081017306 0 0.010823064184929881 0.049663336014717882 0 0.026803998577586131 0.03637447081017306 0 0.026221704050457751 0.050486415623915509 0 0.026221704050457751 0.050486415623915509 0 0.042066792962752987 0.05197587053888704 0 0.025192960476562009 0.06393198513188407 0 0.010823064184929881 0.049663336014717882 0 0.026221704050457751 0.050486415623915509 0 0.025192960476562009 0.06393198513188407 0 0.010823064184929881 0.049663336014717882 0 0.025192960476562009 0.06393198513188407 0 0.026803998577586131 0.03637447081017306 0 0.026221704050457751 0.050486415623915509 0 0.042066792962752987 0.05197587053888704 0 0.042066792962752987 0.05197587053888704 0 0.044570729157299593 0.02575110682872641 0 0.042066792962752987 0.05197587053888704 0 0.048654931493705818 0.03318730368921554 0 0.044570729157299593 0.02575110682872641 0 0.026803998577586131 0.03637447081017306 0 0.042066792962752987 0.05197587053888704 0 0.044570729157299593 0.02575110682872641 0 0.042066792962752987 0.05197587053888704 0 0.048654931493705818 0.03318730368921554 0 0.071746588922980692 0.051339743570067042 0 0.048654931493705818 0.03318730368921554 0 0.071746588922980692 0.051339743570067042 0 0.048654931493705818 0.03318730368921554 0 0.051599867713404288 0.030977255949683639 0 0.067838394745779518 0.035058661098566549 0 0.042066792962752987 0.05197587053888704 0 0.071746588922980692 0.051339743570067042 0 0.055468948625243479 0.066487425758776211 0 0.022935506817611171 0.0096653664055293999 0 0.046534960809677742 0.005178892940951748 0 0.027470930869090721 -0.0051934323317437137 0 0.022935506817611171 0.0096653664055293999 0 0.046534960809677742 0.005178892940951748 0 0.044570729157299593 0.02575110682872641 0 0.046534960809677742 0.005178892940951748 0 0.044570729157299593 0.02575110682872641 0 0.022935506817611171 0.0096653664055293999 0 0.044570729157299593 0.02575110682872641 0 0.022935506817611171 0.0096653664055293999 0 0.026803998577586131 0.03637447081017306 0 0.044570729157299593 0.02575110682872641 0 0.051599867713404288 0.030977255949683639 0 0.060953804518053052 0.026618853081052669 0 0.067838394745779518 0.035058661098566549 0 0.046534960809677742 0.005178892940951748 0 0.044570729157299593 0.02575110682872641 0 0.053525901953508821 0.02166825868455307 0 0.053525901953508821 0.02166825868455307 0 0.060953804518053052 0.026618853081052669 0 0.071372018687564043 0.018692197521832661 0 0.044570729157299593 0.02575110682872641 0 0.053525901953508821 0.02166825868455307 0 0.051599867713404288 0.030977255949683639 0 0.044570729157299593 0.02575110682872641 0 0.051599867713404288 0.030977255949683639 0 0.048654931493705818 0.03318730368921554 0 0.044570729157299593 0.02575110682872641 0 0.051599867713404288 0.030977255949683639 0 0.053525901953508821 0.02166825868455307 0 0.051599867713404288 0.030977255949683639 0 0.060953804518053052 0.026618853081052669 0 0.046534960809677742 0.005178892940951748 0 0.053525901953508821 0.02166825868455307 0 0.071372018687564043 0.018692197521832661 0 0.046534960809677742 0.005178892940951748 0 0.071372018687564043 0.018692197521832661 0 0.046534960809677742 0.005178892940951748 0 0.071372018687564043 0.018692197521832661 0 0.067309607389994364 -0.0035842951844848791 0 0.071372018687564043 0.018692197521832661 0 0.094181460218896534 0.00364190637146985 0 0.067309607389994364 -0.0035842951844848791 0 0.071372018687564043 0.018692197521832661 0 0.067838394745779518 0.035058661098566549 0 0.096209076565450274 0.032205502102713862 0 0.071372018687564043 0.018692197521832661 0 0.096209076565450274 0.032205502102713862 0 0.094181460218896534 0.00364190637146985 0 0.071372018687564043 0.018692197521832661 0 0.096209076565450274 0.032205502102713862 0 0.060953804518053052 0.026618853081052669 0 0.071372018687564043 0.018692197521832661 0 0.067838394745779518 0.035058661098566549 0 0.048654931493705818 0.03318730368921554 0 0.067838394745779518 0.035058661098566549 0 0.071746588922980692 0.051339743570067042 0 0.071746588922980692 0.051339743570067042 0 0.094838246352255573 0.069492183450918565 0 0.071746588922980692 0.051339743570067042 0 0.097225625102353538 0.058458644744515863 0 0.094838246352255573 0.069492183450918565 0 0.071746588922980692 0.051339743570067042 0 0.099776283558705839 0.047331916737170979 0 0.097225625102353538 0.058458644744515863 0 0.067838394745779518 0.035058661098566549 0 0.071746588922980692 0.051339743570067042 0 0.096209076565450274 0.032205502102713862 0 0.071746588922980692 0.051339743570067042 0 0.096209076565450274 0.032205502102713862 0 0.099776283558705839 0.047331916737170979 0 0.096209076565450274 0.032205502102713862 0 0.099776283558705839 0.047331916737170979 0 0.11476424203947221 0.038073451384228449 0 0.097225625102353538 0.058458644744515863 0 0.1200627830685761 0.053872097114226712 0 0.099704223609249507 0.070257282850195987 0 0.099776283558705839 0.047331916737170979 0 0.097225625102353538 0.058458644744515863 0 0.1200627830685761 0.053872097114226712 0 0.1200627830685761 0.053872097114226712 0 0.099704223609249507 0.070257282850195987 0 0.099776283558705839 0.047331916737170979 0 0.1200627830685761 0.053872097114226712 0 0.11476424203947221 0.038073451384228449 0 0.11476424203947221 0.038073451384228449 0 0.1173517244767262 0.01947082958877324 0 0.1404213425279027 0.037486911378257437 0 0.096209076565450274 0.032205502102713862 0 0.11476424203947221 0.038073451384228449 0 0.1173517244767262 0.01947082958877324 0 0.1173517244767262 0.01947082958877324 0 0.094181460218896534 0.00364190637146985 0 0.1207509512091294 -0.0041699288836110626 0 0.096209076565450274 0.032205502102713862 0 0.1173517244767262 0.01947082958877324 0 0.094181460218896534 0.00364190637146985 0 0.1076424158428451 0.094769694818306383 0 0.095544052419371639 0.10396433860893591 0 0.11057287010899471 0.1087715989292655 0 0.1076424158428451 0.094769694818306383 0 0.095544052419371639 0.10396433860893591 0 0.09528829613829147 0.090103747610343246 0 0.095544052419371639 0.10396433860893591 0 0.1034498182926475 0.11963711251952359 0 0.086795552323999089 0.12510053847008271 0 0.095544052419371639 0.10396433860893591 0 0.1034498182926475 0.11963711251952359 0 0.11057287010899471 0.1087715989292655 0 0.1034498182926475 0.11963711251952359 0 0.11057287010899471 0.1087715989292655 0 0.11418512382257991 0.12505036048169191 0 0.11057287010899471 0.1087715989292655 0 0.11418512382257991 0.12505036048169191 0 0.1251230896152585 0.1117921315195775 0 0.1205945952922607 0.101631761607534 0 0.11057287010899471 0.1087715989292655 0 0.1251230896152585 0.1117921315195775 0 0.1076424158428451 0.094769694818306383 0 0.1205945952922607 0.101631761607534 0 0.11057287010899471 0.1087715989292655 0 0.1076424158428451 0.094769694818306383 0 0.1205945952922607 0.101631761607534 0 0.1179299037815305 0.087644623331770061 0 0.1179299037815305 0.087644623331770061 0 0.1215621041912773 0.070813732342101351 0 0.1329709584553686 0.080358113788626659 0 0.1200627830685761 0.053872097114226712 0 0.1215621041912773 0.070813732342101351 0 0.099704223609249507 0.070257282850195987 0 0.1179299037815305 0.087644623331770061 0 0.1215621041912773 0.070813732342101351 0 0.099704223609249507 0.070257282850195987 0 0.1179299037815305 0.087644623331770061 0 0.094838246352255573 0.069492183450918565 0 0.099704223609249507 0.070257282850195987 0 0.094838246352255573 0.069492183450918565 0 0.098776443239460401 0.082951101511777037 0 0.090346671498905476 0.07556661657497972 0 0.097225625102353538 0.058458644744515863 0 0.094838246352255573 0.069492183450918565 0 0.099704223609249507 0.070257282850195987 0 0.1179299037815305 0.087644623331770061 0 0.094838246352255573 0.069492183450918565 0 0.098776443239460401 0.082951101511777037 0 0.1179299037815305 0.087644623331770061 0 0.094838246352255573 0.069492183450918565 0 0.1076424158428451 0.094769694818306383 0 0.1179299037815305 0.087644623331770061 0 0.098776443239460401 0.082951101511777037 0 0.1076424158428451 0.094769694818306383 0 0.098776443239460401 0.082951101511777037 0 0.09528829613829147 0.090103747610343246 0 0.09528829613829147 0.090103747610343246 0 0.086981084828276656 0.092418789404084864 0 0.085845295113662054 0.081076369523629024 0 0.098776443239460401 0.082951101511777037 0 0.085845295113662054 0.081076369523629024 0 0.090346671498905476 0.07556661657497972 0 0.098776443239460401 0.082951101511777037 0 0.09528829613829147 0.090103747610343246 0 0.085845295113662054 0.081076369523629024 0 0.085845295113662054 0.081076369523629024 0 0.078439536268662013 0.087553705745471666 0 0.071700829806710428 0.074970409261408702 0 0.086981084828276656 0.092418789404084864 0 0.078439536268662013 0.087553705745471666 0 0.079815408979445196 0.099872684588600741 0 0.086981084828276656 0.092418789404084864 0 0.085845295113662054 0.081076369523629024 0 0.078439536268662013 0.087553705745471666 0 0.071746588922980692 0.051339743570067042 0 0.094838246352255573 0.069492183450918565 0 0.081926701290243903 0.068746811813594252 0 0.094838246352255573 0.069492183450918565 0 0.090346671498905476 0.07556661657497972 0 0.081926701290243903 0.068746811813594252 0 0.085845295113662054 0.081076369523629024 0 0.090346671498905476 0.07556661657497972 0 0.081926701290243903 0.068746811813594252 0 0.085845295113662054 0.081076369523629024 0 0.081926701290243903 0.068746811813594252 0 0.071700829806710428 0.074970409261408702 0 0.071746588922980692 0.051339743570067042 0 0.081926701290243903 0.068746811813594252 0 0.071700829806710428 0.074970409261408702 0 0.071746588922980692 0.051339743570067042 0 0.071700829806710428 0.074970409261408702 0 0.055468948625243479 0.066487425758776211 0 0.078439536268662013 0.087553705745471666 0 0.067855062615215761 0.08943027594963493 0 0.079815408979445196 0.099872684588600741 0 0.078439536268662013 0.087553705745471666 0 0.071700829806710428 0.074970409261408702 0 0.067855062615215761 0.08943027594963493 0 0.071700829806710428 0.074970409261408702 0 0.067855062615215761 0.08943027594963493 0 0.058540968948903767 0.079560661945870956 0 0.065661269611630046 0.10411516333265899 0 0.079815408979445196 0.099872684588600741 0 0.067855062615215761 0.08943027594963493 0 0.065661269611630046 0.10411516333265899 0 0.079815408979445196 0.099872684588600741 0 0.095544052419371639 0.10396433860893591 0 0.086981084828276656 0.092418789404084864 0 0.079815408979445196 0.099872684588600741 0 0.095544052419371639 0.10396433860893591 0 0.09528829613829147 0.090103747610343246 0 0.086981084828276656 0.092418789404084864 0 0.095544052419371639 0.10396433860893591 0 0.079815408979445196 0.099872684588600741 0 0.086795552323999089 0.12510053847008271 0 0.065661269611630046 0.10411516333265899 0 0.086795552323999089 0.12510053847008271 0 0.065661269611630046 0.10411516333265899 0 0.066706396683507779 0.11253153796150719 0 0.086795552323999089 0.12510053847008271 0 0.066706396683507779 0.11253153796150719 0 0.075362107634504877 0.13381428190689859 0 0.066706396683507779 0.11253153796150719 0 0.086795552323999089 0.12510053847008271 0 0.075362107634504877 0.13381428190689859 0 0.066706396683507779 0.11253153796150719 0 0.056705844162043113 0.124531579884371 0 0.06454166491034416 0.13136666240297359 0 0.065661269611630046 0.10411516333265899 0 0.079815408979445196 0.099872684588600741 0 0.086795552323999089 0.12510053847008271 0 0.065661269611630046 0.10411516333265899 0 0.066706396683507779 0.11253153796150719 0 0.057508659990583327 0.1143895776697461 0 0.056705844162043113 0.124531579884371 0 0.057508659990583327 0.1143895776697461 0 0.046483319030196181 0.1199115500140492 0 0.057508659990583327 0.1143895776697461 0 0.050954004828083828 0.1085234326456874 0 0.046483319030196181 0.1199115500140492 0 0.066706396683507779 0.11253153796150719 0 0.056705844162043113 0.124531579884371 0 0.057508659990583327 0.1143895776697461 0 0.065661269611630046 0.10411516333265899 0 0.050954004828083828 0.1085234326456874 0 0.052612063189912288 0.091157898790854425 0 0.065661269611630046 0.10411516333265899 0 0.057508659990583327 0.1143895776697461 0 0.050954004828083828 0.1085234326456874 0 0.065661269611630046 0.10411516333265899 0 0.050954004828083828 0.1085234326456874 0 0.050954004828083828 0.1085234326456874 0 0.037904798406370607 0.095566168103880869 0 0.052612063189912288 0.091157898790854425 0 0.067855062615215761 0.08943027594963493 0 0.065661269611630046 0.10411516333265899 0 0.052612063189912288 0.091157898790854425 0 0.065661269611630046 0.10411516333265899 0 0.052612063189912288 0.091157898790854425 0 0.037904798406370607 0.095566168103880869 0 0.036246740044537117 0.1129317019587143 0 0.037904798406370607 0.095566168103880869 0 0.036246740044537117 0.1129317019587143 0 0.029597053893627559 0.1035348685018513 0 0.050954004828083828 0.1085234326456874 0 0.037904798406370607 0.095566168103880869 0 0.036246740044537117 0.1129317019587143 0 0.050954004828083828 0.1085234326456874 0 0.036246740044537117 0.1129317019587143 0 0.050954004828083828 0.1085234326456874 0 0.036246740044537117 0.1129317019587143 0 0.046483319030196181 0.1199115500140492 0 0.071700829806710428 0.074970409261408702 0 0.055468948625243479 0.066487425758776211 0 0.058540968948903767 0.079560661945870956 0 0.055468948625243479 0.066487425758776211 0 0.058540968948903767 0.079560661945870956 0 0.039562856768197499 0.078200634249046802 0 0.058540968948903767 0.079560661945870956 0 0.052612063189912288 0.091157898790854425 0 0.039562856768197499 0.078200634249046802 0 0.067855062615215761 0.08943027594963493 0 0.058540968948903767 0.079560661945870956 0 0.052612063189912288 0.091157898790854425 0 0.037904798406370607 0.095566168103880869 0 0.052612063189912288 0.091157898790854425 0 0.039562856768197499 0.078200634249046802 0 0.037904798406370607 0.095566168103880869 0 0.039562856768197499 0.078200634249046802 0 0.02430342082247371 0.08092483549207205 0 0.037904798406370607 0.095566168103880869 0 0.039562856768197499 0.078200634249046802 0 0.052612063189912288 0.091157898790854425 0 0.039562856768197499 0.078200634249046802 0 0.042066792962752987 0.05197587053888704 0 0.055468948625243479 0.066487425758776211 0 0.039562856768197499 0.078200634249046802 0 0.042066792962752987 0.05197587053888704 0 0.039562856768197499 0.078200634249046802 0 0.025192960476562009 0.06393198513188407 0 0.042066792962752987 0.05197587053888704 0 0.039562856768197499 0.078200634249046802 0 0.039562856768197499 0.078200634249046802 0 0.025192960476562009 0.06393198513188407 0 0.025192960476562009 0.06393198513188407 0 0.02430342082247371 0.08092483549207205 0 0.0032726508152374802 0.065830254100784247 0 0.039562856768197499 0.078200634249046802 0 0.025192960476562009 0.06393198513188407 0 0.02430342082247371 0.08092483549207205 0 0.037904798406370607 0.095566168103880869 0 0.02430342082247371 0.08092483549207205 0 0.018015762409638609 0.098617898523348818 0 0.02430342082247371 0.08092483549207205 0 0.0078257750999893416 0.084157712595329018 0 0.018015762409638609 0.098617898523348818 0 -0.00046628846821422692 0.095155713336249392 0 0.0078257750999893416 0.084157712595329018 0 0.018015762409638609 0.098617898523348818 0 -0.0074792185064934506 0.081781337360821604 0 0.0078257750999893416 0.084157712595329018 0 0.0032726508152374802 0.065830254100784247 0 0.02430342082247371 0.08092483549207205 0 0.0078257750999893416 0.084157712595329018 0 0.0032726508152374802 0.065830254100784247 0 0.02430342082247371 0.08092483549207205 0 0.0032726508152374802 0.065830254100784247 0 0.036246740044537117 0.1129317019587143 0 0.029597053893627559 0.1035348685018513 0 0.015604606772761501 0.1191188539544541 0 0.036246740044537117 0.1129317019587143 0 0.015604606772761501 0.1191188539544541 0 0.02699511270484866 0.1278015838011487 0 0.036246740044537117 0.1129317019587143 0 0.015604606772761501 0.1191188539544541 0 0.018015762409638609 0.098617898523348818 0 0.029597053893627559 0.1035348685018513 0 0.015604606772761501 0.1191188539544541 0 0.037904798406370607 0.095566168103880869 0 0.018015762409638609 0.098617898523348818 0 0.029597053893627559 0.1035348685018513 0 0.018015762409638609 0.098617898523348818 0 0.0044285672517181754 0.1088793736060132 0 0.015604606772761501 0.1191188539544541 0 -0.00046628846821422692 0.095155713336249392 0 0.018015762409638609 0.098617898523348818 0 0.0044285672517181754 0.1088793736060132 0 -0.0050375264990141569 0.12530600595019351 0 0.0044285672517181754 0.1088793736060132 0 0.015604606772761501 0.1191188539544541 0 -0.0050375264990141569 0.12530600595019351 0 0.015604606772761501 0.1191188539544541 0 -0.0050375264990141569 0.12530600595019351 0 0.015604606772761501 0.1191188539544541 0 0.01805429770671638 0.12906625440777411 0 -0.0050375264990141569 0.12530600595019351 0 0.01496806614099761 0.13961852830172211 0 0.01805429770671638 0.12906625440777411 0 -0.0050375264990141569 0.12530600595019351 0 0.01496806614099761 0.13961852830172211 0 0.0020428085558040188 0.1450709179257999 0 0.01805429770671638 0.12906625440777411 0 0.0242755477918245 0.1364766263646186 0 0.02699511270484866 0.1278015838011487 0 0.015604606772761501 0.1191188539544541 0 0.01805429770671638 0.12906625440777411 0 0.02699511270484866 0.1278015838011487 0 0.01496806614099761 0.13961852830172211 0 0.0242755477918245 0.1364766263646186 0 0.024445297307990881 0.14240532462996369 0 0.01496806614099761 0.13961852830172211 0 0.01805429770671638 0.12906625440777411 0 0.0242755477918245 0.1364766263646186 0 0.0242755477918245 0.1364766263646186 0 0.024445297307990881 0.14240532462996369 0 0.033404111722895327 0.14270372898286929 0 0.0242755477918245 0.1364766263646186 0 0.02699511270484866 0.1278015838011487 0 0.033404111722895327 0.14270372898286929 0 0.02198686544529006 0.1490133924203863 0 0.020906159124752719 0.16193305574069591 0 0.033404111722895327 0.14270372898286929 0 0.01496806614099761 0.13961852830172211 0 0.02198686544529006 0.1490133924203863 0 0.010702601255082539 0.1555579127957713 0 0.024445297307990881 0.14240532462996369 0 0.02198686544529006 0.1490133924203863 0 0.033404111722895327 0.14270372898286929 0 0.01496806614099761 0.13961852830172211 0 0.024445297307990881 0.14240532462996369 0 0.02198686544529006 0.1490133924203863 0 0.02198686544529006 0.1490133924203863 0 0.010702601255082539 0.1555579127957713 0 0.020906159124752719 0.16193305574069591 0 0.01496806614099761 0.13961852830172211 0 0.010702601255082539 0.1555579127957713 0 0.0020428085558040188 0.1450709179257999 0 -0.00076182537475621168 0.15719379457848731 0 0.010702601255082539 0.1555579127957713 0 0.0020428085558040188 0.1450709179257999 0 -0.00076182537475621168 0.15719379457848731 0 0.010702601255082539 0.1555579127957713 0 0.0069045787573830172 0.16849366816182459 0 0.0069045787573830172 0.16849366816182459 0 0.017091032301168319 0.17767840523042469 0 0.020906159124752719 0.16193305574069591 0 0.010702601255082539 0.1555579127957713 0 0.0069045787573830172 0.16849366816182459 0 0.020906159124752719 0.16193305574069591 0 0.0069045787573830172 0.16849366816182459 0 0.0050868312892222364 0.18473613943969669 0 0.017091032301168319 0.17767840523042469 0 -0.01182244635478462 0.16871887207651151 0 0.0069045787573830172 0.16849366816182459 0 0.0050868312892222364 0.18473613943969669 0 0.030561483401253978 0.17247575600702419 0 0.021996108933228668 0.20075340680288251 0 0.030561483401253978 0.17247575600702419 0 0.02896826680081396 0.18916217516444311 0 0.030561483401253978 0.17247575600702419 0 0.021996108933228668 0.20075340680288251 0 0.02896826680081396 0.18916217516444311 0 0.017091032301168319 0.17767840523042469 0 0.030561483401253978 0.17247575600702419 0 0.021996108933228668 0.20075340680288251 0 0.030561483401253978 0.17247575600702419 0 0.020906159124752719 0.16193305574069591 0 0.033404111722895327 0.14270372898286929 0 0.017091032301168319 0.17767840523042469 0 0.030561483401253978 0.17247575600702419 0 0.020906159124752719 0.16193305574069591 0 0.030561483401253978 0.17247575600702419 0 0.038522401215724797 0.14619365301053669 0 0.030561483401253978 0.17247575600702419 0 0.043092353349495072 0.15628065809730751 0 0.038522401215724797 0.14619365301053669 0 0.030561483401253978 0.17247575600702419 0 0.041014492541015898 0.16607850999641879 0 0.043092353349495072 0.15628065809730751 0 0.030561483401253978 0.17247575600702419 0 0.033404111722895327 0.14270372898286929 0 0.030561483401253978 0.17247575600702419 0 0.041014492541015898 0.16607850999641879 0 0.034256956383396611 0.17420455337954699 0 0.041014492541015898 0.16607850999641879 0 0.043092353349495072 0.15628065809730751 0 0.053452890266310248 0.1628248749384941 0 0.041014492541015898 0.16607850999641879 0 0.034256956383396611 0.17420455337954699 0 0.056614384418096457 0.18202387350072241 0 0.034256956383396611 0.17420455337954699 0 0.056614384418096457 0.18202387350072241 0 0.040268194313306027 0.18822079481978821 0 0.034256956383396611 0.17420455337954699 0 0.056614384418096457 0.18202387350072241 0 0.030561483401253978 0.17247575600702419 0 0.034256956383396611 0.17420455337954699 0 0.02896826680081396 0.18916217516444311 0 0.034256956383396611 0.17420455337954699 0 0.02896826680081396 0.18916217516444311 0 0.040268194313306027 0.18822079481978821 0 0.056614384418096457 0.18202387350072241 0 0.053452890266310248 0.1628248749384941 0 0.069135047216286202 0.16776263499435209 0 0.041014492541015898 0.16607850999641879 0 0.056614384418096457 0.18202387350072241 0 0.053452890266310248 0.1628248749384941 0 0.053452890266310248 0.1628248749384941 0 0.059804478177671462 0.15607195685930869 0 0.069135047216286202 0.16776263499435209 0 0.059804478177671462 0.15607195685930869 0 0.051721241180421589 0.14942932143023191 0 0.067956047542000311 0.14882167724640319 0 0.053452890266310248 0.1628248749384941 0 0.059804478177671462 0.15607195685930869 0 0.051721241180421589 0.14942932143023191 0 0.051721241180421589 0.14942932143023191 0 0.055977928529664718 0.1371342350156883 0 0.067956047542000311 0.14882167724640319 0 0.043092353349495072 0.15628065809730751 0 0.053452890266310248 0.1628248749384941 0 0.051721241180421589 0.14942932143023191 0 0.051721241180421589 0.14942932143023191 0 0.047895783756352797 0.1419794778809306 0 0.055977928529664718 0.1371342350156883 0 0.051721241180421589 0.14942932143023191 0 0.047895783756352797 0.1419794778809306 0 0.045196051852896241 0.14771823646163179 0 0.056705844162043113 0.124531579884371 0 0.055977928529664718 0.1371342350156883 0 0.06454166491034416 0.13136666240297359 0 0.056705844162043113 0.124531579884371 0 0.046483319030196181 0.1199115500140492 0 0.049117055338796317 0.13395009916111519 0 0.056705844162043113 0.124531579884371 0 0.055977928529664718 0.1371342350156883 0 0.049117055338796317 0.13395009916111519 0 0.047895783756352797 0.1419794778809306 0 0.055977928529664718 0.1371342350156883 0 0.049117055338796317 0.13395009916111519 0 0.046483319030196181 0.1199115500140492 0 0.038522401215724797 0.14619365301053669 0 0.036246740044537117 0.1129317019587143 0 0.02699511270484866 0.1278015838011487 0 0.033404111722895327 0.14270372898286929 0 0.046483319030196181 0.1199115500140492 0 0.033404111722895327 0.14270372898286929 0 0.038522401215724797 0.14619365301053669 0 0.046483319030196181 0.1199115500140492 0 0.049117055338796317 0.13395009916111519 0 0.038522401215724797 0.14619365301053669 0 0.036246740044537117 0.1129317019587143 0 0.046483319030196181 0.1199115500140492 0 0.033404111722895327 0.14270372898286929 0 0.036246740044537117 0.1129317019587143 0 0.033404111722895327 0.14270372898286929 0 0.030561483401253978 0.17247575600702419 0 0.033404111722895327 0.14270372898286929 0 0.038522401215724797 0.14619365301053669 0 0.043092353349495072 0.15628065809730751 0 0.038522401215724797 0.14619365301053669 0 0.045196051852896241 0.14771823646163179 0 0.043092353349495072 0.15628065809730751 0 0.051721241180421589 0.14942932143023191 0 0.045196051852896241 0.14771823646163179 0 0.047895783756352797 0.1419794778809306 0 0.038522401215724797 0.14619365301053669 0 0.045196051852896241 0.14771823646163179 0 0.047895783756352797 0.1419794778809306 0 0.049117055338796317 0.13395009916111519 0 0.038522401215724797 0.14619365301053669 0 0.024664205123059731 0.24258300526153201 0 0.014476227302727591 0.2465232514715166 0 0.022953202697293201 0.26025605444634348 0 0.024664205123059731 0.24258300526153201 0 0.014476227302727591 0.2465232514715166 0 0.012005105593323479 0.23503548612870059 0 -0.001870537191094847 0.24783164157960649 0 0.014476227302727591 0.2465232514715166 0 0.005419433481239422 0.24093991343593929 0 -0.00293306177999853 0.23436927456393361 0 0.005419433481239422 0.24093991343593929 0 0.012005105593323479 0.23503548612870059 0 -0.00293306177999853 0.23436927456393361 0 -0.001870537191094847 0.24783164157960649 0 0.005419433481239422 0.24093991343593929 0 0.014476227302727591 0.2465232514715166 0 0.005419433481239422 0.24093991343593929 0 0.012005105593323479 0.23503548612870059 0 -0.00293306177999853 0.23436927456393361 0 0.0090171199023795501 0.2259618831468084 0 0.00083036861321999231 0.2187159905759983 0 0.012005105593323479 0.23503548612870059 0 0.0090171199023795501 0.2259618831468084 0 0.025562172192737639 0.2248356186274785 0 -0.00293306177999853 0.23436927456393361 0 0.012005105593323479 0.23503548612870059 0 0.0090171199023795501 0.2259618831468084 0 0.0090171199023795501 0.2259618831468084 0 0.01246598349605765 0.21768837311211309 0 0.00083036861321999231 0.2187159905759983 0 0.024664205123059731 0.24258300526153201 0 0.012005105593323479 0.23503548612870059 0 0.025562172192737639 0.2248356186274785 0 0.0090171199023795501 0.2259618831468084 0 0.025562172192737639 0.2248356186274785 0 0.01246598349605765 0.21768837311211309 0 0.024664205123059731 0.24258300526153201 0 0.025562172192737639 0.2248356186274785 0 0.037475223227065577 0.23433575675854881 0 0.025562172192737639 0.2248356186274785 0 0.02737505020037306 0.20584859432186189 0 0.018810150586396159 0.21206496443711079 0 0.025562172192737639 0.2248356186274785 0 0.02737505020037306 0.20584859432186189 0 0.040115509469677853 0.21791695979213729 0 0.025562172192737639 0.2248356186274785 0 0.02737505020037306 0.20584859432186189 0 0.02737505020037306 0.20584859432186189 0 0.021996108933228668 0.20075340680288251 0 0.020661735394992411 0.2051586956885337 0 0.018810150586396159 0.21206496443711079 0 0.01107936932673211 0.20776860438495481 0 0.02737505020037306 0.20584859432186189 0 0.020661735394992411 0.2051586956885337 0 0.018810150586396159 0.21206496443711079 0 0.020661735394992411 0.2051586956885337 0 0.01107936932673211 0.20776860438495481 0 0.021996108933228668 0.20075340680288251 0 0.02737505020037306 0.20584859432186189 0 0.020661735394992411 0.2051586956885337 0 0.021996108933228668 0.20075340680288251 0 0.025562172192737639 0.2248356186274785 0 0.018810150586396159 0.21206496443711079 0 0.01246598349605765 0.21768837311211309 0 -0.00032704064368648152 0.20092765530983911 0 0.01107936932673211 0.20776860438495481 0 0.021996108933228668 0.20075340680288251 0 0.018810150586396159 0.21206496443711079 0 0.01246598349605765 0.21768837311211309 0 0.01107936932673211 0.20776860438495481 0 0.01246598349605765 0.21768837311211309 0 0.00083036861321999231 0.2187159905759983 0 0.01107936932673211 0.20776860438495481 0 -0.00032704064368648152 0.20092765530983911 0 0.00083036861321999231 0.2187159905759983 0 0.01107936932673211 0.20776860438495481 0 0.0050868312892222364 0.18473613943969669 0 0.021996108933228668 0.20075340680288251 0 -0.00032704064368648152 0.20092765530983911 0 0.0050868312892222364 0.18473613943969669 0 0.021996108933228668 0.20075340680288251 0 0.0050868312892222364 0.18473613943969669 0 0.017091032301168319 0.17767840523042469 0 0.021996108933228668 0.20075340680288251 0 0.02737505020037306 0.20584859432186189 0 0.02896826680081396 0.18916217516444311 0 0.02737505020037306 0.20584859432186189 0 0.02896826680081396 0.18916217516444311 0 0.03700193900540432 0.19741385818627191 0 0.02737505020037306 0.20584859432186189 0 0.021996108933228668 0.20075340680288251 0 0.02896826680081396 0.18916217516444311 0 0.020661735394992411 0.2051586956885337 0 0.021996108933228668 0.20075340680288251 0 0.02896826680081396 0.18916217516444311 0 0.03700193900540432 0.19741385818627191 0 0.040268194313306027 0.18822079481978821 0 0.03700193900540432 0.19741385818627191 0 0.047693692016563038 0.19766986165934269 0 0.040704491695965649 0.20616786496592321 0 0.03700193900540432 0.19741385818627191 0 0.040268194313306027 0.18822079481978821 0 0.047693692016563038 0.19766986165934269 0 0.056614384418096457 0.18202387350072241 0 0.047693692016563038 0.19766986165934269 0 0.064619492995452027 0.19895320399137409 0 0.047693692016563038 0.19766986165934269 0 0.054530534845554347 0.211360398661388 0 0.064619492995452027 0.19895320399137409 0 0.056614384418096457 0.18202387350072241 0 0.040268194313306027 0.18822079481978821 0 0.047693692016563038 0.19766986165934269 0 0.047693692016563038 0.19766986165934269 0 0.054530534845554347 0.211360398661388 0 0.040704491695965649 0.20616786496592321 0 0.054530534845554347 0.211360398661388 0 0.040115509469677853 0.21791695979213729 0 0.040704491695965649 0.20616786496592321 0 0.02737505020037306 0.20584859432186189 0 0.040115509469677853 0.21791695979213729 0 0.040704491695965649 0.20616786496592321 0 0.02737505020037306 0.20584859432186189 0 0.03700193900540432 0.19741385818627191 0 0.040704491695965649 0.20616786496592321 0 0.02737505020037306 0.20584859432186189 0 0.040115509469677853 0.21791695979213729 0 0.040115509469677853 0.21791695979213729 0 0.037475223227065577 0.23433575675854881 0 0.052855968738982843 0.22998532526241261 0 0.025562172192737639 0.2248356186274785 0 0.040115509469677853 0.21791695979213729 0 0.037475223227065577 0.23433575675854881 0 0.040115509469677853 0.21791695979213729 0 0.052855968738982843 0.22998532526241261 0 0.054530534845554347 0.211360398661388 0 0.040115509469677853 0.21791695979213729 0 0.052855968738982843 0.22998532526241261 0 0.054530534845554347 0.211360398661388 0 0.052855968738982843 0.22998532526241261 0 0.068624490581385283 0.2224680118417259 0 0.052855968738982843 0.22998532526241261 0 0.057252706777069617 0.24155285510882479 0 0.046835267556810181 0.24136518693743519 0 0.052855968738982843 0.22998532526241261 0 0.057252706777069617 0.24155285510882479 0 0.068500585195215541 0.2358951331561864 0 0.057252706777069617 0.24155285510882479 0 0.057872665771145082 0.25233156818004882 0 0.069474617258596091 0.25198075459793312 0 0.057252706777069617 0.24155285510882479 0 0.049834890706688811 0.25083617626142912 0 0.057872665771145082 0.25233156818004882 0 0.057252706777069617 0.24155285510882479 0 0.046835267556810181 0.24136518693743519 0 0.049834890706688811 0.25083617626142912 0 0.024664205123059731 0.24258300526153201 0 0.037475223227065577 0.23433575675854881 0 0.035513299725210952 0.25451186413660432 0 0.037475223227065577 0.23433575675854881 0 0.046835267556810181 0.24136518693743519 0 0.035513299725210952 0.25451186413660432 0 0.046835267556810181 0.24136518693743519 0 0.035513299725210952 0.25451186413660432 0 0.049834890706688811 0.25083617626142912 0 0.037475223227065577 0.23433575675854881 0 0.052855968738982843 0.22998532526241261 0 0.046835267556810181 0.24136518693743519 0 0.087485546461120264 0.24144464054337059 0 0.068500585195215541 0.2358951331561864 0 0.081686649824903104 0.22615331982377099 0 0.057252706777069617 0.24155285510882479 0 0.068500585195215541 0.2358951331561864 0 0.069474617258596091 0.25198075459793312 0 0.087485546461120264 0.24144464054337059 0 0.068500585195215541 0.2358951331561864 0 0.069474617258596091 0.25198075459793312 0 0.068500585195215541 0.2358951331561864 0 0.068624490581385283 0.2224680118417259 0 0.081686649824903104 0.22615331982377099 0 0.052855968738982843 0.22998532526241261 0 0.068500585195215541 0.2358951331561864 0 0.068624490581385283 0.2224680118417259 0 0.068624490581385283 0.2224680118417259 0 0.081686649824903104 0.22615331982377099 0 0.078049426346669115 0.214466364376658 0 0.087485546461120264 0.24144464054337059 0 0.081686649824903104 0.22615331982377099 0 0.096884110812316737 0.2232715897016905 0 0.081686649824903104 0.22615331982377099 0 0.090029457087355172 0.21088859371289961 0 0.096884110812316737 0.2232715897016905 0 0.090029457087355172 0.21088859371289961 0 0.080549568095911753 0.2029002340409555 0 0.1013292404874961 0.1976625137430732 0 0.090029457087355172 0.21088859371289961 0 0.078049426346669115 0.214466364376658 0 0.080549568095911753 0.2029002340409555 0 0.081686649824903104 0.22615331982377099 0 0.090029457087355172 0.21088859371289961 0 0.078049426346669115 0.214466364376658 0 0.069356966143790347 0.20992166246393801 0 0.064619492995452027 0.19895320399137409 0 0.080549568095911753 0.2029002340409555 0 0.068624490581385283 0.2224680118417259 0 0.078049426346669115 0.214466364376658 0 0.069356966143790347 0.20992166246393801 0 0.054530534845554347 0.211360398661388 0 0.068624490581385283 0.2224680118417259 0 0.069356966143790347 0.20992166246393801 0 0.054530534845554347 0.211360398661388 0 0.069356966143790347 0.20992166246393801 0 0.064619492995452027 0.19895320399137409 0 0.078049426346669115 0.214466364376658 0 0.069356966143790347 0.20992166246393801 0 0.080549568095911753 0.2029002340409555 0 0.056614384418096457 0.18202387350072241 0 0.064619492995452027 0.19895320399137409 0 0.078971812452796289 0.18984319362189789 0 0.064619492995452027 0.19895320399137409 0 0.078971812452796289 0.18984319362189789 0 0.080549568095911753 0.2029002340409555 0 0.078971812452796289 0.18984319362189789 0 0.1013292404874961 0.1976625137430732 0 0.078971812452796289 0.18984319362189789 0 0.1013292404874961 0.1976625137430732 0 0.092673529536499072 0.17637976979768161 0 0.078971812452796289 0.18984319362189789 0 0.080549568095911753 0.2029002340409555 0 0.1013292404874961 0.1976625137430732 0 0.1013292404874961 0.1976625137430732 0 0.10997010547507979 0.19242124157521179 0 0.1122523815813383 0.20148278934941569 0 0.1013292404874961 0.1976625137430732 0 0.1122523815813383 0.20148278934941569 0 0.1013292404874961 0.1976625137430732 0 0.10997010547507979 0.19242124157521179 0 0.10780202500590701 0.18262851184855269 0 0.10997010547507979 0.19242124157521179 0 0.12271683977436459 0.1893713934883873 0 0.1122523815813383 0.20148278934941569 0 0.10997010547507979 0.19242124157521179 0 0.12271683977436459 0.1893713934883873 0 0.10780202500590701 0.18262851184855269 0 0.12271683977436459 0.1893713934883873 0 0.1237336680517141 0.20113480667102801 0 0.1122523815813383 0.20148278934941569 0 0.1122523815813383 0.20148278934941569 0 0.12205642888132109 0.21269529571036899 0 0.1073529130113572 0.2124735767120203 0 0.1237336680517141 0.20113480667102801 0 0.1122523815813383 0.20148278934941569 0 0.12205642888132109 0.21269529571036899 0 0.12205642888132109 0.21269529571036899 0 0.1073529130113572 0.2124735767120203 0 0.11337658553521821 0.22728463968096749 0 0.1013292404874961 0.1976625137430732 0 0.1122523815813383 0.20148278934941569 0 0.1073529130113572 0.2124735767120203 0 0.1013292404874961 0.1976625137430732 0 0.1073529130113572 0.2124735767120203 0 0.09889893034963132 0.21107406846742091 0 0.1013292404874961 0.1976625137430732 0 0.1073529130113572 0.2124735767120203 0 0.090029457087355172 0.21088859371289961 0 0.1013292404874961 0.1976625137430732 0 0.09889893034963132 0.21107406846742091 0 0.1073529130113572 0.2124735767120203 0 0.09889893034963132 0.21107406846742091 0 0.096884110812316737 0.2232715897016905 0 0.090029457087355172 0.21088859371289961 0 0.09889893034963132 0.21107406846742091 0 0.096884110812316737 0.2232715897016905 0 0.096884110812316737 0.2232715897016905 0 0.11337658553521821 0.22728463968096749 0 0.1046015531214729 0.238030628478514 0 0.1073529130113572 0.2124735767120203 0 0.096884110812316737 0.2232715897016905 0 0.11337658553521821 0.22728463968096749 0 0.087485546461120264 0.24144464054337059 0 0.096884110812316737 0.2232715897016905 0 0.1046015531214729 0.238030628478514 0 0.11337658553521821 0.22728463968096749 0 0.1220369488812048 0.24667543794128571 0 0.12872550108290531 0.2269073910183694 0 0.1073529130113572 0.2124735767120203 0 0.11337658553521821 0.22728463968096749 0 0.12205642888132109 0.21269529571036899 0 0.11337658553521821 0.22728463968096749 0 0.12872550108290531 0.2269073910183694 0 0.1220369488812048 0.24667543794128571 0 0.1046015531214729 0.238030628478514 0 0.1032245739175046 0.25147683452525582 0 0.11337658553521821 0.22728463968096749 0 0.1220369488812048 0.24667543794128571 0 0.1046015531214729 0.238030628478514 0 0.087485546461120264 0.24144464054337059 0 0.1046015531214729 0.238030628478514 0 0.1032245739175046 0.25147683452525582 0 0.084017818585501947 0.15509702585228999 0 0.075362107634504877 0.13381428190689859 0 0.084017818585501947 0.15509702585228999 0 0.08947611065913319 0.14047561894018901 0 0.075362107634504877 0.13381428190689859 0 0.08947611065913319 0.14047561894018901 0 0.086795552323999089 0.12510053847008271 0 0.075362107634504877 0.13381428190689859 0 0.075362107634504877 0.13381428190689859 0 0.06454166491034416 0.13136666240297359 0 0.067956047542000311 0.14882167724640319 0 0.066706396683507779 0.11253153796150719 0 0.075362107634504877 0.13381428190689859 0 0.06454166491034416 0.13136666240297359 0 0.055977928529664718 0.1371342350156883 0 0.06454166491034416 0.13136666240297359 0 0.067956047542000311 0.14882167724640319 0 0.084017818585501947 0.15509702585228999 0 0.075362107634504877 0.13381428190689859 0 0.067956047542000311 0.14882167724640319 0 0.059804478177671462 0.15607195685930869 0 0.067956047542000311 0.14882167724640319 0 0.069135047216286202 0.16776263499435209 0 0.084017818585501947 0.15509702585228999 0 0.067956047542000311 0.14882167724640319 0 0.069135047216286202 0.16776263499435209 0 0.056614384418096457 0.18202387350072241 0 0.078971812452796289 0.18984319362189789 0 0.069135047216286202 0.16776263499435209 0 0.056614384418096457 0.18202387350072241 0 0.078971812452796289 0.18984319362189789 0 0.078971812452796289 0.18984319362189789 0 0.069135047216286202 0.16776263499435209 0 0.092673529536499072 0.17637976979768161 0 0.084017818585501947 0.15509702585228999 0 0.069135047216286202 0.16776263499435209 0 0.092673529536499072 0.17637976979768161 0 0.084017818585501947 0.15509702585228999 0 0.092673529536499072 0.17637976979768161 0 0.084017818585501947 0.15509702585228999 0 0.092673529536499072 0.17637976979768161 0 0.10492564990864681 0.16513819332230201 0 0.1013292404874961 0.1976625137430732 0 0.092673529536499072 0.17637976979768161 0 0.10780202500590701 0.18262851184855269 0 0.1013292404874961 0.1976625137430732 0 0.092673529536499072 0.17637976979768161 0 0.092673529536499072 0.17637976979768161 0 0.10492564990864681 0.16513819332230201 0 0.10780202500590701 0.18262851184855269 0 0.12271683977436459 0.1893713934883873 0 0.10780202500590701 0.18262851184855269 0 0.1290641177487365 0.16707128874493091 0 0.10492564990864681 0.16513819332230201 0 0.1079298350363677 0.1460859136075067 0 0.1290641177487365 0.16707128874493091 0 0.10492564990864681 0.16513819332230201 0 0.10780202500590701 0.18262851184855269 0 0.1290641177487365 0.16707128874493091 0 0.1079298350363677 0.1460859136075067 0 0.1290641177487365 0.16707128874493091 0 0.1079298350363677 0.1460859136075067 0 0.12740939023535991 0.1498358249073744 0 0.1290641177487365 0.16707128874493091 0 0.1189372064621934 0.14194029313389039 0 0.1079298350363677 0.1460859136075067 0 0.12740939023535991 0.1498358249073744 0 0.084017818585501947 0.15509702585228999 0 0.08947611065913319 0.14047561894018901 0 0.1079298350363677 0.1460859136075067 0 0.084017818585501947 0.15509702585228999 0 0.10492564990864681 0.16513819332230201 0 0.1079298350363677 0.1460859136075067 0 0.086795552323999089 0.12510053847008271 0 0.1079298350363677 0.1460859136075067 0 0.08947611065913319 0.14047561894018901 0 0.086795552323999089 0.12510053847008271 0 0.1079298350363677 0.1460859136075067 0 0.086795552323999089 0.12510053847008271 0 0.1079298350363677 0.1460859136075067 0 0.1062595071875575 0.13156284364253909 0 0.1034498182926475 0.11963711251952359 0 0.086795552323999089 0.12510053847008271 0 0.1062595071875575 0.13156284364253909 0 0.1034498182926475 0.11963711251952359 0 0.1062595071875575 0.13156284364253909 0 0.11418512382257991 0.12505036048169191 0 0.1189372064621934 0.14194029313389039 0 0.11418512382257991 0.12505036048169191 0 0.12897659071878101 0.13054286942938029 0 0.1189372064621934 0.14194029313389039 0 0.1062595071875575 0.13156284364253909 0 0.11418512382257991 0.12505036048169191 0 0.1189372064621934 0.14194029313389039 0 0.1079298350363677 0.1460859136075067 0 0.1062595071875575 0.13156284364253909 0 0.1189372064621934 0.14194029313389039 0 0.13741311684246091 0.14042389167338801 0 0.14182393010718941 0.1386444972899154 0 0.1189372064621934 0.14194029313389039 0 0.1321095483567335 0.13512199185861479 0 0.14182393010718941 0.1386444972899154 0 0.11418512382257991 0.12505036048169191 0 0.12897659071878101 0.13054286942938029 0 0.1395076166176695 0.1195980991317228 0 0.1189372064621934 0.14194029313389039 0 0.14182393010718941 0.1386444972899154 0 0.1189372064621934 0.14194029313389039 0 0.12897659071878101 0.13054286942938029 0 0.1321095483567335 0.13512199185861479 0 0.1321095483567335 0.13512199185861479 0 0.13870046613877021 0.1293603075812734 0 0.14182393010718941 0.1386444972899154 0 0.12897659071878101 0.13054286942938029 0 0.13870046613877021 0.1293603075812734 0 0.1395076166176695 0.1195980991317228 0 0.12897659071878101 0.13054286942938029 0 0.1321095483567335 0.13512199185861479 0 0.13870046613877021 0.1293603075812734 0 0.14182393010718941 0.1386444972899154 0 0.16471065375218541 0.13534870144594041 0 0.13870046613877021 0.1293603075812734 0 0.151935838596682 0.12775069764303459 0 0.1395076166176695 0.1195980991317228 0 0.14182393010718941 0.1386444972899154 0 0.151935838596682 0.12775069764303459 0 0.16471065375218541 0.13534870144594041 0 0.14182393010718941 0.1386444972899154 0 0.15505768054875649 0.14392043550786271 0 0.16471065375218541 0.13534870144594041 0 0.13870046613877021 0.1293603075812734 0 0.14182393010718941 0.1386444972899154 0 0.151935838596682 0.12775069764303459 0 0.13741311684246091 0.14042389167338801 0 0.15832776224411579 0.1545521873036928 0 0.13741311684246091 0.14042389167338801 0 0.14182393010718941 0.1386444972899154 0 0.15505768054875649 0.14392043550786271 0 0.13741311684246091 0.14042389167338801 0 0.15505768054875649 0.14392043550786271 0 0.15832776224411579 0.1545521873036928 0 0.13741311684246091 0.14042389167338801 0 0.14320174269230579 0.15530654175680969 0 0.15832776224411579 0.1545521873036928 0 0.13741311684246091 0.14042389167338801 0 0.14320174269230579 0.15530654175680969 0 0.12740939023535991 0.1498358249073744 0 0.1189372064621934 0.14194029313389039 0 0.13741311684246091 0.14042389167338801 0 0.12740939023535991 0.1498358249073744 0 0.14320174269230579 0.15530654175680969 0 0.12740939023535991 0.1498358249073744 0 0.1290641177487365 0.16707128874493091 0 0.12271683977436459 0.1893713934883873 0 0.1290641177487365 0.16707128874493091 0 0.15019840046110461 0.1880566638823559 0 0.1290641177487365 0.16707128874493091 0 0.15019840046110461 0.1880566638823559 0 0.1290641177487365 0.16707128874493091 0 0.15544030508302589 0.1701086287341623 0 0.15019840046110461 0.1880566638823559 0 0.14320174269230579 0.15530654175680969 0 0.1290641177487365 0.16707128874493091 0 0.15544030508302589 0.1701086287341623 0 0.14320174269230579 0.15530654175680969 0 0.15544030508302589 0.1701086287341623 0 0.15832776224411579 0.1545521873036928 0 0.17924240764577071 0.16868048293399759 0 0.15832776224411579 0.1545521873036928 0 0.15544030508302589 0.1701086287341623 0 0.17924240764577071 0.16868048293399759 0 0.15832776224411579 0.1545521873036928 0 0.17924240764577071 0.16868048293399759 0 0.17301293979783131 0.15063289982637679 0 0.15832776224411579 0.1545521873036928 0 0.15544030508302589 0.1701086287341623 0 0.17260739970612221 0.18698460778318601 0 0.15019840046110461 0.1880566638823559 0 0.15544030508302589 0.1701086287341623 0 0.17260739970612221 0.18698460778318601 0 0.17924240764577071 0.16868048293399759 0 0.17260739970612221 0.18698460778318601 0 0.17924240764577071 0.16868048293399759 0 0.19501639895113981 0.18591255168401569 0 0.17260739970612221 0.18698460778318601 0 0.19501639895113981 0.18591255168401569 0 0.17924240764577071 0.16868048293399759 0 0.19508750491256729 0.17938418907756451 0 0.17924240764577071 0.16868048293399759 0 0.18714215513407201 0.1562347323922548 0 0.17301293979783131 0.15063289982637679 0 0.17924240764577071 0.16868048293399759 0 0.18714215513407201 0.1562347323922548 0 0.19268591237252841 0.16643512416312001 0 0.18714215513407201 0.1562347323922548 0 0.17301293979783131 0.15063289982637679 0 0.1863602834409061 0.1433621590259038 0 0.17301293979783131 0.15063289982637679 0 0.1863602834409061 0.1433621590259038 0 0.16471065375218541 0.13534870144594041 0 0.1863602834409061 0.1433621590259038 0 0.1875973773971813 0.1320529056019647 0 0.16471065375218541 0.13534870144594041 0 0.1875973773971813 0.1320529056019647 0 0.17682268569249371 0.12256025531536049 0 0.16471065375218541 0.13534870144594041 0 0.1875973773971813 0.1320529056019647 0 0.1863602834409061 0.1433621590259038 0 0.16471065375218541 0.13534870144594041 0 0.1875973773971813 0.1320529056019647 0 0.151935838596682 0.12775069764303459 0 0.16471065375218541 0.13534870144594041 0 0.16483010941275919 0.11414583778175361 0 0.15505768054875649 0.14392043550786271 0 0.17301293979783131 0.15063289982637679 0 0.15832776224411579 0.1545521873036928 0 0.15505768054875649 0.14392043550786271 0 0.17301293979783131 0.15063289982637679 0 0.16471065375218541 0.13534870144594041 0 0.15019085411380001 0.233627846543495 0 0.170472016873191 0.2412030544994046 0 0.1445194278467675 0.25441497157258658 0 0.13635364760174121 0.2392830298920825 0 0.15019085411380001 0.233627846543495 0 0.1445194278467675 0.25441497157258658 0 0.1220369488812048 0.24667543794128571 0 0.13635364760174121 0.2392830298920825 0 0.12872550108290531 0.2269073910183694 0 0.1220369488812048 0.24667543794128571 0 0.13635364760174121 0.2392830298920825 0 0.1445194278467675 0.25441497157258658 0 0.13635364760174121 0.2392830298920825 0 0.12872550108290531 0.2269073910183694 0 0.139843585507823 0.22653011888719571 0 0.12872550108290531 0.2269073910183694 0 0.139843585507823 0.22653011888719571 0 0.13504209001016709 0.21555684284824209 0 0.139843585507823 0.22653011888719571 0 0.15019085411380001 0.233627846543495 0 0.14931272457267969 0.21632830712719769 0 0.15019085411380001 0.233627846543495 0 0.14931272457267969 0.21632830712719769 0 0.16343800963938199 0.2268535628144123 0 0.139843585507823 0.22653011888719571 0 0.14931272457267969 0.21632830712719769 0 0.13504209001016709 0.21555684284824209 0 0.13635364760174121 0.2392830298920825 0 0.139843585507823 0.22653011888719571 0 0.15019085411380001 0.233627846543495 0 0.14931272457267969 0.21632830712719769 0 0.1558019746630955 0.20784182269878579 0 0.1613296324966943 0.21353870044346879 0 0.14931272457267969 0.21632830712719769 0 0.1558019746630955 0.20784182269878579 0 0.1486564854865467 0.20461360787248531 0 0.1558019746630955 0.20784182269878579 0 0.1486564854865467 0.20461360787248531 0 0.1562765567101177 0.19974873476446761 0 0.14931272457267969 0.21632830712719769 0 0.1486564854865467 0.20461360787248531 0 0.14006822748333611 0.20523671912547881 0 0.14931272457267969 0.21632830712719769 0 0.13504209001016709 0.21555684284824209 0 0.14006822748333611 0.20523671912547881 0 0.12205642888132109 0.21269529571036899 0 0.12872550108290531 0.2269073910183694 0 0.13504209001016709 0.21555684284824209 0 0.12205642888132109 0.21269529571036899 0 0.13504209001016709 0.21555684284824209 0 0.13135219029385151 0.20654225137282489 0 0.1237336680517141 0.20113480667102801 0 0.12205642888132109 0.21269529571036899 0 0.13135219029385151 0.20654225137282489 0 0.13135219029385151 0.20654225137282489 0 0.14006822748333611 0.20523671912547881 0 0.1358605370427188 0.19808759250900659 0 0.13504209001016709 0.21555684284824209 0 0.13135219029385151 0.20654225137282489 0 0.14006822748333611 0.20523671912547881 0 0.12271683977436459 0.1893713934883873 0 0.15019840046110461 0.1880566638823559 0 0.12271683977436459 0.1893713934883873 0 0.1358605370427188 0.19808759250900659 0 0.15019840046110461 0.1880566638823559 0 0.1237336680517141 0.20113480667102801 0 0.13135219029385151 0.20654225137282489 0 0.1358605370427188 0.19808759250900659 0 0.12271683977436459 0.1893713934883873 0 0.1237336680517141 0.20113480667102801 0 0.1358605370427188 0.19808759250900659 0 0.1358605370427188 0.19808759250900659 0 0.1484878241269951 0.19698498946254581 0 0.15019840046110461 0.1880566638823559 0 0.1486564854865467 0.20461360787248531 0 0.14006822748333611 0.20523671912547881 0 0.1484878241269951 0.19698498946254581 0 0.14006822748333611 0.20523671912547881 0 0.1358605370427188 0.19808759250900659 0 0.1484878241269951 0.19698498946254581 0 0.1486564854865467 0.20461360787248531 0 0.1484878241269951 0.19698498946254581 0 0.1562765567101177 0.19974873476446761 0 0.1484878241269951 0.19698498946254581 0 0.1545688557232951 0.19526103280708171 0 0.1562765567101177 0.19974873476446761 0 0.1545688557232951 0.19526103280708171 0 0.1529735670937446 0.19081227729244341 0 0.1605275964055364 0.19396311436340169 0 0.1484878241269951 0.19698498946254581 0 0.1529735670937446 0.19081227729244341 0 0.15019840046110461 0.1880566638823559 0 0.1529735670937446 0.19081227729244341 0 0.15019840046110461 0.1880566638823559 0 0.1484878241269951 0.19698498946254581 0 0.1545688557232951 0.19526103280708171 0 0.1529735670937446 0.19081227729244341 0 0.17260739970612221 0.18698460778318601 0 0.15019840046110461 0.1880566638823559 0 0.17260739970612221 0.18698460778318601 0 0.1529735670937446 0.19081227729244341 0 0.1605275964055364 0.19396311436340169 0 0.17260739970612221 0.18698460778318601 0 0.1529735670937446 0.19081227729244341 0 0.15019840046110461 0.1880566638823559 0 0.1545688557232951 0.19526103280708171 0 0.1605275964055364 0.19396311436340169 0 0.1562765567101177 0.19974873476446761 0 0.1605275964055364 0.19396311436340169 0 0.1562765567101177 0.19974873476446761 0 0.16620542869641081 0.19729953457891239 0 0.1562765567101177 0.19974873476446761 0 0.16620542869641081 0.19729953457891239 0 0.16343447404943931 0.20497976328630929 0 0.16620542869641081 0.19729953457891239 0 0.17111564599517859 0.2026234830045999 0 0.17723081179302111 0.1966509570125588 0 0.16620542869641081 0.19729953457891239 0 0.17111564599517859 0.2026234830045999 0 0.16343447404943931 0.20497976328630929 0 0.17260739970612221 0.18698460778318601 0 0.1605275964055364 0.19396311436340169 0 0.16620542869641081 0.19729953457891239 0 0.17260739970612221 0.18698460778318601 0 0.16620542869641081 0.19729953457891239 0 0.17723081179302111 0.1966509570125588 0 0.17723081179302111 0.1966509570125588 0 0.19501639895113981 0.18591255168401569 0 0.17260739970612221 0.18698460778318601 0 0.17723081179302111 0.1966509570125588 0 0.19501639895113981 0.18591255168401569 0 0.17723081179302111 0.1966509570125588 0 0.19014517007825121 0.19553885524840389 0 0.19501639895113981 0.18591255168401569 0 0.18558232916515521 0.2010397241254939 0 0.17723081179302111 0.1966509570125588 0 0.19014517007825121 0.19553885524840389 0 0.18558232916515521 0.2010397241254939 0 0.17723081179302111 0.1966509570125588 0 0.17904345740364999 0.2040957342579087 0 0.17111564599517859 0.2026234830045999 0 0.17723081179302111 0.1966509570125588 0 0.17904345740364999 0.2040957342579087 0 0.17111564599517859 0.2026234830045999 0 0.17904345740364999 0.2040957342579087 0 0.17401422430706029 0.21110795429602111 0 0.18558232916515521 0.2010397241254939 0 0.17904345740364999 0.2040957342579087 0 0.18727427575783501 0.20905655285086949 0 0.17904345740364999 0.2040957342579087 0 0.18727427575783501 0.20905655285086949 0 0.17401422430706029 0.21110795429602111 0 0.18727427575783501 0.20905655285086949 0 0.18384294535839371 0.2175800976911291 0 0.17401422430706029 0.21110795429602111 0 0.18384294535839371 0.2175800976911291 0 0.17401422430706029 0.21110795429602111 0 0.17516927208524261 0.22349322941747249 0 0.17401422430706029 0.21110795429602111 0 0.16848778463209479 0.21874836174284359 0 0.17516927208524261 0.22349322941747249 0 0.17401422430706029 0.21110795429602111 0 0.16848778463209479 0.21874836174284359 0 0.1613296324966943 0.21353870044346879 0 0.17111564599517859 0.2026234830045999 0 0.17401422430706029 0.21110795429602111 0 0.16343447404943931 0.20497976328630929 0 0.17401422430706029 0.21110795429602111 0 0.16343447404943931 0.20497976328630929 0 0.1613296324966943 0.21353870044346879 0 0.1558019746630955 0.20784182269878579 0 0.1562765567101177 0.19974873476446761 0 0.16343447404943931 0.20497976328630929 0 0.1558019746630955 0.20784182269878579 0 0.16343447404943931 0.20497976328630929 0 0.1613296324966943 0.21353870044346879 0 0.15019085411380001 0.233627846543495 0 0.16343800963938199 0.2268535628144123 0 0.170472016873191 0.2412030544994046 0 0.16343800963938199 0.2268535628144123 0 0.17516927208524261 0.22349322941747249 0 0.170472016873191 0.2412030544994046 0 0.14931272457267969 0.21632830712719769 0 0.1613296324966943 0.21353870044346879 0 0.16343800963938199 0.2268535628144123 0 0.16848778463209479 0.21874836174284359 0 0.16343800963938199 0.2268535628144123 0 0.17516927208524261 0.22349322941747249 0 0.16848778463209479 0.21874836174284359 0 0.1613296324966943 0.21353870044346879 0 0.16343800963938199 0.2268535628144123 0 0.1844221325513318 0.22575727369722789 0 0.170472016873191 0.2412030544994046 0 0.1964246058996145 0.2279911374262226 0 0.17516927208524261 0.22349322941747249 0 0.1844221325513318 0.22575727369722789 0 0.170472016873191 0.2412030544994046 0 0.18384294535839371 0.2175800976911291 0 0.1844221325513318 0.22575727369722789 0 0.19406882298993519 0.2185522207097669 0 0.18384294535839371 0.2175800976911291 0 0.17516927208524261 0.22349322941747249 0 0.1844221325513318 0.22575727369722789 0 0.170472016873191 0.2412030544994046 0 0.1964246058996145 0.2279911374262226 0 0.1898230052980576 0.25015052600849719 0 0.170472016873191 0.2412030544994046 0 0.1964246058996145 0.2279911374262226 0 0.170472016873191 0.2412030544994046 0 0.1445194278467675 0.25441497157258658 0 0.21618206523040279 0.230129948276135 0 0.21064805985606991 0.25920556865035532 0 0.21618206523040279 0.230129948276135 0 0.21064805985606991 0.25920556865035532 0 0.22695336072194019 0.25057729098146658 0 0.2055832800304439 0.24335802530779341 0 0.21618206523040279 0.230129948276135 0 0.21064805985606991 0.25920556865035532 0 0.2055832800304439 0.24335802530779341 0 0.2103904514327829 0.23247940608945031 0 0.21618206523040279 0.230129948276135 0 0.20473160915546501 0.22674263240250339 0 0.1898230052980576 0.25015052600849719 0 0.1964246058996145 0.2279911374262226 0 0.20473160915546501 0.22674263240250339 0 0.1898230052980576 0.25015052600849719 0 0.2055832800304439 0.24335802530779341 0 0.20473160915546501 0.22674263240250339 0 0.1898230052980576 0.25015052600849719 0 0.1844221325513318 0.22575727369722789 0 0.1964246058996145 0.2279911374262226 0 0.19406882298993519 0.2185522207097669 0 0.1964246058996145 0.2279911374262226 0 0.19984984154973609 0.22270475191434569 0 0.20473160915546501 0.22674263240250339 0 0.1964246058996145 0.2279911374262226 0 0.19984984154973609 0.22270475191434569 0 0.19406882298993519 0.2185522207097669 0 0.19984984154973609 0.22270475191434569 0 0.20473160915546501 0.22674263240250339 0 0.20416730627307511 0.2177797821780442 0 0.19984984154973609 0.22270475191434569 0 0.20416730627307511 0.2177797821780442 0 0.19406882298993519 0.2185522207097669 0 0.20473160915546501 0.22674263240250339 0 0.21618206523040279 0.230129948276135 0 0.21964021301287179 0.20333473879650921 0 0.2055832800304439 0.24335802530779341 0 0.2103904514327829 0.23247940608945031 0 0.20473160915546501 0.22674263240250339 0 0.2103904514327829 0.23247940608945031 0 0.20473160915546501 0.22674263240250339 0 0.21618206523040279 0.230129948276135 0 0.20473160915546501 0.22674263240250339 0 0.21964021301287179 0.20333473879650921 0 0.20473160915546501 0.22674263240250339 0 0.20416730627307511 0.2177797821780442 0 0.21964021301287179 0.20333473879650921 0 0.21147642212619899 0.2065723695043031 0 0.21516534234371221 0.20278138997973269 0 0.21964021301287179 0.20333473879650921 0 0.20416730627307511 0.2177797821780442 0 0.21964021301287179 0.20333473879650921 0 0.21147642212619899 0.2065723695043031 0 0.20416730627307511 0.2177797821780442 0 0.21964021301287179 0.20333473879650921 0 0.21147642212619899 0.2065723695043031 0 0.21192643591721941 0.20181508657515429 0 0.21516534234371221 0.20278138997973269 0 0.21147642212619899 0.2065723695043031 0 0.2071159870216904 0.20916310897487639 0 0.20798630802442961 0.20462483193199371 0 0.21147642212619899 0.2065723695043031 0 0.20798630802442961 0.20462483193199371 0 0.21192643591721941 0.20181508657515429 0 0.20798630802442961 0.20462483193199371 0 0.20330777610123071 0.2080070618225654 0 0.20447178582202871 0.2025376671224566 0 0.2071159870216904 0.20916310897487639 0 0.20798630802442961 0.20462483193199371 0 0.20330777610123071 0.2080070618225654 0 0.2071159870216904 0.20916310897487639 0 0.20330777610123071 0.2080070618225654 0 0.20416730627307511 0.2177797821780442 0 0.21147642212619899 0.2065723695043031 0 0.2071159870216904 0.20916310897487639 0 0.20416730627307511 0.2177797821780442 0 0.20416730627307511 0.2177797821780442 0 0.19406882298993519 0.2185522207097669 0 0.19703531307948299 0.20971721602617049 0 0.20330777610123071 0.2080070618225654 0 0.20416730627307511 0.2177797821780442 0 0.19703531307948299 0.20971721602617049 0 0.18727427575783501 0.20905655285086949 0 0.18384294535839371 0.2175800976911291 0 0.19406882298993519 0.2185522207097669 0 0.18727427575783501 0.20905655285086949 0 0.19406882298993519 0.2185522207097669 0 0.19703531307948299 0.20971721602617049 0 0.18727427575783501 0.20905655285086949 0 0.19703531307948299 0.20971721602617049 0 0.1945882334770325 0.2010971638798271 0 0.18558232916515521 0.2010397241254939 0 0.18727427575783501 0.20905655285086949 0 0.1945882334770325 0.2010971638798271 0 0.19703531307948299 0.20971721602617049 0 0.20034861812956231 0.2038956782066233 0 0.1945882334770325 0.2010971638798271 0 0.20330777610123071 0.2080070618225654 0 0.19703531307948299 0.20971721602617049 0 0.20034861812956231 0.2038956782066233 0 0.20330777610123071 0.2080070618225654 0 0.20034861812956231 0.2038956782066233 0 0.20447178582202871 0.2025376671224566 0 0.20034861812956231 0.2038956782066233 0 0.2023399821680367 0.19811928218209701 0 0.20447178582202871 0.2025376671224566 0 0.2023399821680367 0.19811928218209701 0 0.1945882334770325 0.2010971638798271 0 0.19830807700490749 0.19299387954012431 0 0.20034861812956231 0.2038956782066233 0 0.2023399821680367 0.19811928218209701 0 0.1945882334770325 0.2010971638798271 0 0.1945882334770325 0.2010971638798271 0 0.19014517007825121 0.19553885524840389 0 0.19830807700490749 0.19299387954012431 0 0.18558232916515521 0.2010397241254939 0 0.1945882334770325 0.2010971638798271 0 0.19014517007825121 0.19553885524840389 0 0.19014517007825121 0.19553885524840389 0 0.19830807700490749 0.19299387954012431 0 0.19501639895113981 0.18591255168401569 0 0.19830807700490749 0.19299387954012431 0 0.2012919679182604 0.18858706259615141 0 0.19501639895113981 0.18591255168401569 0 0.2023399821680367 0.19811928218209701 0 0.19830807700490749 0.19299387954012431 0 0.20455034257678209 0.19152123486610251 0 0.19830807700490749 0.19299387954012431 0 0.2012919679182604 0.18858706259615141 0 0.20455034257678209 0.19152123486610251 0 0.2012919679182604 0.18858706259615141 0 0.20455034257678209 0.19152123486610251 0 0.20585741379858349 0.18665949562620271 0 0.21140385346657581 0.19144855368437791 0 0.20585741379858349 0.18665949562620271 0 0.22180079480528619 0.18463117474147231 0 0.20455034257678209 0.19152123486610251 0 0.21140385346657581 0.19144855368437791 0 0.20585741379858349 0.18665949562620271 0 0.20750610369910649 0.195006601974964 0 0.20455034257678209 0.19152123486610251 0 0.21140385346657581 0.19144855368437791 0 0.20750610369910649 0.195006601974964 0 0.21205297417004679 0.19698977433792589 0 0.21140385346657581 0.19144855368437791 0 0.2023399821680367 0.19811928218209701 0 0.20750610369910649 0.195006601974964 0 0.20455034257678209 0.19152123486610251 0 0.2023399821680367 0.19811928218209701 0 0.20750610369910649 0.195006601974964 0 0.20788537620972231 0.19945866318935371 0 0.2023399821680367 0.19811928218209701 0 0.20447178582202871 0.2025376671224566 0 0.20788537620972231 0.19945866318935371 0 0.20798630802442961 0.20462483193199371 0 0.20447178582202871 0.2025376671224566 0 0.20788537620972231 0.19945866318935371 0 0.20788537620972231 0.19945866318935371 0 0.21205297417004679 0.19698977433792589 0 0.21192643591721941 0.20181508657515429 0 0.20798630802442961 0.20462483193199371 0 0.20788537620972231 0.19945866318935371 0 0.21192643591721941 0.20181508657515429 0 0.20750610369910649 0.195006601974964 0 0.20788537620972231 0.19945866318935371 0 0.21205297417004679 0.19698977433792589 0 0.21205297417004679 0.19698977433792589 0 0.21192643591721941 0.20181508657515429 0 0.21642790658347649 0.1994303322973357 0 0.21192643591721941 0.20181508657515429 0 0.21516534234371221 0.20278138997973269 0 0.21642790658347649 0.1994303322973357 0 0.21516534234371221 0.20278138997973269 0 0.21642790658347649 0.1994303322973357 0 0.21964021301287179 0.20333473879650921 0 0.21642790658347649 0.1994303322973357 0 0.21669147485819409 0.19417684733513499 0 0.22198178864164991 0.19965824744205049 0 0.21205297417004679 0.19698977433792589 0 0.21642790658347649 0.1994303322973357 0 0.21669147485819409 0.19417684733513499 0 0.21669147485819409 0.19417684733513499 0 0.21140385346657581 0.19144855368437791 0 0.22180079480528619 0.18463117474147231 0 0.21205297417004679 0.19698977433792589 0 0.21669147485819409 0.19417684733513499 0 0.21140385346657581 0.19144855368437791 0 0.22198178864164991 0.19965824744205049 0 0.23362570829127341 0.18137621144981311 0 0.24127671145533749 0.1831355503775616 0 0.22198178864164991 0.19965824744205049 0 0.23362570829127341 0.18137621144981311 0 0.22198178864164991 0.19965824744205049 0 0.22163680698655541 0.20147077832353991 0 0.24127671145533749 0.1831355503775616 0 0.22163680698655541 0.20147077832353991 0 0.23632742605745899 0.19780400992919911 0 0.24127671145533749 0.1831355503775616 0 0.22163680698655541 0.20147077832353991 0 0.24127671145533749 0.1831355503775616 0 0.21669147485819409 0.19417684733513499 0 0.22198178864164991 0.19965824744205049 0 0.22180079480528619 0.18463117474147231 0 0.21642790658347649 0.1994303322973357 0 0.22198178864164991 0.19965824744205049 0 0.21964021301287179 0.20333473879650921 0 0.22163680698655541 0.20147077832353991 0 0.21964021301287179 0.20333473879650921 0 0.22198178864164991 0.19965824744205049 0 0.22163680698655541 0.20147077832353991 0 0.22198178864164991 0.19965824744205049 0 0.22163680698655541 0.20147077832353991 0 0.21964021301287179 0.20333473879650921 0 0.22198178864164991 0.19965824744205049 0 0.21964021301287179 0.20333473879650921 0 0.23632742605745899 0.19780400992919911 0 0.25027958451938309 0.18093784940587171 0 0.25101603294849978 0.19316925088699061 0 0.23632742605745899 0.19780400992919911 0 0.25027958451938309 0.18093784940587171 0 0.23632742605745899 0.19780400992919911 0 0.2468665209182411 0.20316312670397371 0 0.25101603294849978 0.19316925088699061 0 0.2347488444606935 0.21480294109410089 0 0.2468665209182411 0.20316312670397371 0 0.25399362891722022 0.2147551623774705 0 0.23632742605745899 0.19780400992919911 0 0.2347488444606935 0.21480294109410089 0 0.2468665209182411 0.20316312670397371 0 0.21618206523040279 0.230129948276135 0 0.22163680698655541 0.20147077832353991 0 0.2347488444606935 0.21480294109410089 0 0.21618206523040279 0.230129948276135 0 0.22163680698655541 0.20147077832353991 0 0.21964021301287179 0.20333473879650921 0 0.21618206523040279 0.230129948276135 0 0.22163680698655541 0.20147077832353991 0 0.22163680698655541 0.20147077832353991 0 0.23632742605745899 0.19780400992919911 0 0.2347488444606935 0.21480294109410089 0 0.21618206523040279 0.230129948276135 0 0.2347488444606935 0.21480294109410089 0 0.24242825524523789 0.24053549575596991 0 0.2347488444606935 0.21480294109410089 0 0.24242825524523789 0.24053549575596991 0 0.25399362891722022 0.2147551623774705 0 0.21618206523040279 0.230129948276135 0 0.24242825524523789 0.24053549575596991 0 0.22695336072194019 0.25057729098146658 0 0.21618206523040279 0.230129948276135 0 0.24242825524523789 0.24053549575596991 0 0.21395340506981039 0.1456894405384902 0 0.19971442775755141 0.1591074366056352 0 0.2132033259890922 0.1616841592063242 0 0.21395340506981039 0.1456894405384902 0 0.2132033259890922 0.1616841592063242 0 0.22213404809735759 0.15379679447076869 0 0.21395340506981039 0.1456894405384902 0 0.20030734795014901 0.1450688520873771 0 0.19971442775755141 0.1591074366056352 0 0.20559903482369571 0.12946058226852319 0 0.22360069225021009 0.126868258935081 0 0.2045868457275983 0.1190711521533024 0 0.21395340506981039 0.1456894405384902 0 0.20559903482369571 0.12946058226852319 0 0.22360069225021009 0.126868258935081 0 0.20559903482369571 0.12946058226852319 0 0.22360069225021009 0.126868258935081 0 0.21395340506981039 0.1456894405384902 0 0.20559903482369571 0.12946058226852319 0 0.20030734795014901 0.1450688520873771 0 0.20559903482369571 0.12946058226852319 0 0.19403573047099781 0.13847947083870291 0 0.20030734795014901 0.1450688520873771 0 0.20559903482369571 0.12946058226852319 0 0.1875973773971813 0.1320529056019647 0 0.19403573047099781 0.13847947083870291 0 0.20559903482369571 0.12946058226852319 0 0.1875973773971813 0.1320529056019647 0 0.20559903482369571 0.12946058226852319 0 0.1875973773971813 0.1320529056019647 0 0.1968243317936452 0.12147700584248521 0 0.1863602834409061 0.1433621590259038 0 0.1875973773971813 0.1320529056019647 0 0.19403573047099781 0.13847947083870291 0 0.1863602834409061 0.1433621590259038 0 0.19403573047099781 0.13847947083870291 0 0.20030734795014901 0.1450688520873771 0 0.18714215513407201 0.1562347323922548 0 0.1863602834409061 0.1433621590259038 0 0.20030734795014901 0.1450688520873771 0 0.18714215513407201 0.1562347323922548 0 0.20030734795014901 0.1450688520873771 0 0.19971442775755141 0.1591074366056352 0 0.17924240764577071 0.16868048293399759 0 0.19268591237252841 0.16643512416312001 0 0.19508750491256729 0.17938418907756451 0 0.18714215513407201 0.1562347323922548 0 0.19268591237252841 0.16643512416312001 0 0.19971442775755141 0.1591074366056352 0 0.19268591237252841 0.16643512416312001 0 0.20215163695161559 0.1689041262631783 0 0.19971442775755141 0.1591074366056352 0 0.19268591237252841 0.16643512416312001 0 0.20215163695161559 0.1689041262631783 0 0.19508750491256729 0.17938418907756451 0 0.19508750491256729 0.17938418907756451 0 0.20015705304742629 0.18280877856430161 0 0.2122776969845015 0.1754906964407158 0 0.17924240764577071 0.16868048293399759 0 0.19501639895113981 0.18591255168401569 0 0.19508750491256729 0.17938418907756451 0 0.19501639895113981 0.18591255168401569 0 0.20410782977103431 0.18547761374885641 0 0.2012919679182604 0.18858706259615141 0 0.19501639895113981 0.18591255168401569 0 0.20410782977103431 0.18547761374885641 0 0.19501639895113981 0.18591255168401569 0 0.20015705304742629 0.18280877856430161 0 0.20410782977103431 0.18547761374885641 0 0.19501639895113981 0.18591255168401569 0 0.19508750491256729 0.17938418907756451 0 0.20015705304742629 0.18280877856430161 0 0.19508750491256729 0.17938418907756451 0 0.20015705304742629 0.18280877856430161 0 0.20015705304742629 0.18280877856430161 0 0.20410782977103431 0.18547761374885641 0 0.19501639895113981 0.18591255168401569 0 0.20015705304742629 0.18280877856430161 0 0.19508750491256729 0.17938418907756451 0 0.2122776969845015 0.1754906964407158 0 0.20410782977103431 0.18547761374885641 0 0.22180079480528619 0.18463117474147231 0 0.20585741379858349 0.18665949562620271 0 0.20410782977103431 0.18547761374885641 0 0.22180079480528619 0.18463117474147231 0 0.20215163695161559 0.1689041262631783 0 0.19508750491256729 0.17938418907756451 0 0.2122776969845015 0.1754906964407158 0 0.20410782977103431 0.18547761374885641 0 0.2122776969845015 0.1754906964407158 0 0.22180079480528619 0.18463117474147231 0 0.20015705304742629 0.18280877856430161 0 0.20410782977103431 0.18547761374885641 0 0.2122776969845015 0.1754906964407158 0 0.2012919679182604 0.18858706259615141 0 0.20585741379858349 0.18665949562620271 0 0.20410782977103431 0.18547761374885641 0 0.20585741379858349 0.18665949562620271 0 0.20410782977103431 0.18547761374885641 0 0.20015705304742629 0.18280877856430161 0 0.2122776969845015 0.1754906964407158 0 0.2122776969845015 0.1754906964407158 0 0.2132033259890922 0.1616841592063242 0 0.22843881180922321 0.16573309889803131 0 0.20215163695161559 0.1689041262631783 0 0.19971442775755141 0.1591074366056352 0 0.2132033259890922 0.1616841592063242 0 0.20215163695161559 0.1689041262631783 0 0.2122776969845015 0.1754906964407158 0 0.2132033259890922 0.1616841592063242 0 0.22843881180922321 0.16573309889803131 0 0.22720613619560301 0.17220956680176591 0 0.24406137605986569 0.16850494461668031 0 0.2122776969845015 0.1754906964407158 0 0.22843881180922321 0.16573309889803131 0 0.2122776969845015 0.1754906964407158 0 0.22843881180922321 0.16573309889803131 0 0.22720613619560301 0.17220956680176591 0 0.2132033259890922 0.1616841592063242 0 0.22843881180922321 0.16573309889803131 0 0.22213404809735759 0.15379679447076869 0 0.22843881180922321 0.16573309889803131 0 0.22720613619560301 0.17220956680176591 0 0.22198178864164991 0.19965824744205049 0 0.22720613619560301 0.17220956680176591 0 0.22198178864164991 0.19965824744205049 0 0.22180079480528619 0.18463117474147231 0 0.22720613619560301 0.17220956680176591 0 0.22198178864164991 0.19965824744205049 0 0.22720613619560301 0.17220956680176591 0 0.23362570829127341 0.18137621144981311 0 0.2122776969845015 0.1754906964407158 0 0.22720613619560301 0.17220956680176591 0 0.2122776969845015 0.1754906964407158 0 0.22180079480528619 0.18463117474147231 0 0.22720613619560301 0.17220956680176591 0 0.24127671145533749 0.1831355503775616 0 0.24406137605986569 0.16850494461668031 0 0.26091661592412763 0.16480032243159209 0 0.22720613619560301 0.17220956680176591 0 0.23362570829127341 0.18137621144981311 0 0.24406137605986569 0.16850494461668031 0 0.23632742605745899 0.19780400992919911 0 0.24127671145533749 0.1831355503775616 0 0.25027958451938309 0.18093784940587171 0 0.23362570829127341 0.18137621144981311 0 0.24127671145533749 0.1831355503775616 0 0.24406137605986569 0.16850494461668031 0 0.22720613619560301 0.17220956680176591 0 0.24406137605986569 0.16850494461668031 0 0.24406137605986569 0.16850494461668031 0 0.24472819154328501 0.15589805884118429 0 0.26091661592412763 0.16480032243159209 0 0.22843881180922321 0.16573309889803131 0 0.24406137605986569 0.16850494461668031 0 0.24472819154328501 0.15589805884118429 0 0.22843881180922321 0.16573309889803131 0 0.24472819154328501 0.15589805884118429 0 0.22843881180922321 0.16573309889803131 0 0.24472819154328501 0.15589805884118429 0 0.23294064952131299 0.1420804792402309 0 0.24472819154328501 0.15589805884118429 0 0.2475437006404492 0.14414899757342611 0 0.23294064952131299 0.1420804792402309 0 0.22843881180922321 0.16573309889803131 0 0.23294064952131299 0.1420804792402309 0 0.22213404809735759 0.15379679447076869 0 0.22843881180922321 0.16573309889803131 0 0.23294064952131299 0.1420804792402309 0 0.21395340506981039 0.1456894405384902 0 0.23294064952131299 0.1420804792402309 0 0.22213404809735759 0.15379679447076869 0 0.23294064952131299 0.1420804792402309 0 0.22360069225021009 0.126868258935081 0 0.2374424872334113 0.1184278595824319 0 0.21395340506981039 0.1456894405384902 0 0.23294064952131299 0.1420804792402309 0 0.22360069225021009 0.126868258935081 0 0.2475437006404492 0.14414899757342611 0 0.23294064952131299 0.1420804792402309 0 0.2493254696813656 0.1321640205800898 0 0.23294064952131299 0.1420804792402309 0 0.2374424872334113 0.1184278595824319 0 0.23294064952131299 0.1420804792402309 0 0.2493254696813656 0.1321640205800898 0 0.2374424872334113 0.1184278595824319 0 0.2493254696813656 0.1321640205800898 0 0.2374424872334113 0.1184278595824319 0 0.251790880876404 0.1108994014901991 0 0.2374424872334113 0.1184278595824319 0 0.2419443249455106 0.094775239924633187 0 0.22634808819771321 0.1086948857545267 0 0.2419443249455106 0.094775239924633187 0 0.25554390584474829 0.095747355308678631 0 0.251790880876404 0.1108994014901991 0 0.2374424872334113 0.1184278595824319 0 0.2419443249455106 0.094775239924633187 0 0.251790880876404 0.1108994014901991 0 0.2374424872334113 0.1184278595824319 0 0.2419443249455106 0.094775239924633187 0 0.2419443249455106 0.094775239924633187 0 0.25554390584474829 0.095747355308678631 0 0.2419443249455106 0.094775239924633187 0 0.21700471863275711 0.092992525063937417 0 0.2419443249455106 0.094775239924633187 0 0.22634808819771321 0.1086948857545267 0 0.21700471863275711 0.092992525063937417 0 0.22360069225021009 0.126868258935081 0 0.22634808819771321 0.1086948857545267 0 0.21174821792667789 0.1104105452665501 0 0.22360069225021009 0.126868258935081 0 0.2374424872334113 0.1184278595824319 0 0.22634808819771321 0.1086948857545267 0 0.22360069225021009 0.126868258935081 0 0.2045868457275983 0.1190711521533024 0 0.21174821792667789 0.1104105452665501 0 0.2045868457275983 0.1190711521533024 0 0.21174821792667789 0.1104105452665501 0 0.20206367873740991 0.1093071862177446 0 0.21174821792667789 0.1104105452665501 0 0.20260281093669269 0.099994177497591749 0 0.21700471863275711 0.092992525063937417 0 0.20260281093669269 0.099994177497591749 0 0.19206511232000381 0.091209810203235181 0 0.21700471863275711 0.092992525063937417 0 0.22634808819771321 0.1086948857545267 0 0.21174821792667789 0.1104105452665501 0 0.21700471863275711 0.092992525063937417 0 0.21174821792667789 0.1104105452665501 0 0.20206367873740991 0.1093071862177446 0 0.20260281093669269 0.099994177497591749 0 0.20206367873740991 0.1093071862177446 0 0.19730726096872631 0.10494189784452811 0 0.20260281093669269 0.099994177497591749 0 0.19015260220784869 0.1086935764317834 0 0.19206511232000381 0.091209810203235181 0 0.19015260220784869 0.1086935764317834 0 0.19206511232000381 0.091209810203235181 0 0.18518213336176231 0.099303382235865226 0 0.1917258770156296 0.1083548299467226 0 0.19015260220784869 0.1086935764317834 0 0.19206511232000381 0.091209810203235181 0 0.19730726096872631 0.10494189784452811 0 0.1917258770156296 0.1083548299467226 0 0.19206511232000381 0.091209810203235181 0 0.20206367873740991 0.1093071862177446 0 0.19730726096872631 0.10494189784452811 0 0.195755144963219 0.1117417097194375 0 0.19730726096872631 0.10494189784452811 0 0.20260281093669269 0.099994177497591749 0 0.19206511232000381 0.091209810203235181 0 0.19730726096872631 0.10494189784452811 0 0.1917258770156296 0.1083548299467226 0 0.195755144963219 0.1117417097194375 0 0.1917258770156296 0.1083548299467226 0 0.19015260220784869 0.1086935764317834 0 0.1924689899380054 0.11698768457255521 0 0.1968243317936452 0.12147700584248521 0 0.195755144963219 0.1117417097194375 0 0.1875973773971813 0.1320529056019647 0 0.19015260220784869 0.1086935764317834 0 0.19015260220784869 0.1086935764317834 0 0.19252565353117571 0.11144445016762471 0 0.1924689899380054 0.11698768457255521 0 0.1875973773971813 0.1320529056019647 0 0.19015260220784869 0.1086935764317834 0 0.1924689899380054 0.11698768457255521 0 0.1917258770156296 0.1083548299467226 0 0.19015260220784869 0.1086935764317834 0 0.19252565353117571 0.11144445016762471 0 0.1917258770156296 0.1083548299467226 0 0.19252565353117571 0.11144445016762471 0 0.195755144963219 0.1117417097194375 0 0.19252565353117571 0.11144445016762471 0 0.1924689899380054 0.11698768457255521 0 0.195755144963219 0.1117417097194375 0 0.1875973773971813 0.1320529056019647 0 0.1924689899380054 0.11698768457255521 0 0.1968243317936452 0.12147700584248521 0 0.2045868457275983 0.1190711521533024 0 0.1968243317936452 0.12147700584248521 0 0.195755144963219 0.1117417097194375 0 0.20559903482369571 0.12946058226852319 0 0.2045868457275983 0.1190711521533024 0 0.1968243317936452 0.12147700584248521 0 0.2045868457275983 0.1190711521533024 0 0.20206367873740991 0.1093071862177446 0 0.195755144963219 0.1117417097194375 0 0.19434686588049499 0.070350497831903613 0 0.20585933032395701 0.079436322408934876 0 0.20767826332311251 0.063242412546673149 0 0.19434686588049499 0.070350497831903613 0 0.19206511232000381 0.091209810203235181 0 0.18071046949317171 0.075816907899379726 0 0.19434686588049499 0.070350497831903613 0 0.19206511232000381 0.091209810203235181 0 0.19434686588049499 0.070350497831903613 0 0.19206511232000381 0.091209810203235181 0 0.20585933032395701 0.079436322408934876 0 0.19206511232000381 0.091209810203235181 0 0.21700471863275711 0.092992525063937417 0 0.19206511232000381 0.091209810203235181 0 0.20585933032395701 0.079436322408934876 0 0.21700471863275711 0.092992525063937417 0 0.20585933032395701 0.079436322408934876 0 0.21700471863275711 0.092992525063937417 0 0.21942038840086511 0.074063772282497373 0 0.20585933032395701 0.079436322408934876 0 0.20767826332311251 0.063242412546673149 0 0.21942038840086511 0.074063772282497373 0 0.20767826332311251 0.063242412546673149 0 0.21942038840086511 0.074063772282497373 0 0.21746669424808551 0.057457493278596727 0 0.21942038840086511 0.074063772282497373 0 0.23342616123553361 0.066461751373019559 0 0.21746669424808551 0.057457493278596727 0 0.21942038840086511 0.074063772282497373 0 0.23342616123553361 0.066461751373019559 0 0.23144866694254129 0.080932321153959819 0 0.21700471863275711 0.092992525063937417 0 0.21942038840086511 0.074063772282497373 0 0.23144866694254129 0.080932321153959819 0 0.2419443249455106 0.094775239924633187 0 0.21700471863275711 0.092992525063937417 0 0.23144866694254129 0.080932321153959819 0 0.2419443249455106 0.094775239924633187 0 0.24544774149804099 0.07636831712571171 0 0.2419443249455106 0.094775239924633187 0 0.24544774149804099 0.07636831712571171 0 0.25814507412550652 0.08207270088773827 0 0.2419443249455106 0.094775239924633187 0 0.23144866694254129 0.080932321153959819 0 0.24544774149804099 0.07636831712571171 0 0.24544774149804099 0.07636831712571171 0 0.2489511580505735 0.057961394326790622 0 0.23342616123553361 0.066461751373019559 0 0.24544774149804099 0.07636831712571171 0 0.2489511580505735 0.057961394326790622 0 0.23342616123553361 0.066461751373019559 0 0.23144866694254129 0.080932321153959819 0 0.24544774149804099 0.07636831712571171 0 0.23342616123553361 0.066461751373019559 0 0.2489511580505735 0.057961394326790622 0 0.2293005988410747 0.052660986459375857 0 0.2489511580505735 0.057961394326790622 0 0.24047979706631539 0.043348441665234543 0 0.2293005988410747 0.052660986459375857 0 0.2489511580505735 0.057961394326790622 0 0.2293005988410747 0.052660986459375857 0 0.24047979706631539 0.043348441665234543 0 0.22943427677194 0.033584068266650849 0 0.25415398646272769 0.030625775086944751 0 0.2489511580505735 0.057961394326790622 0 0.24047979706631539 0.043348441665234543 0 0.25415398646272769 0.030625775086944751 0 0.24047979706631539 0.043348441665234543 0 0.22943427677194 0.033584068266650849 0 0.22403297562994889 0.043244134760033102 0 0.22943427677194 0.033584068266650849 0 0.22403297562994889 0.043244134760033102 0 0.21303144810646379 0.041537626863611857 0 0.22943427677194 0.033584068266650849 0 0.21303144810646379 0.041537626863611857 0 0.21520368693609601 0.033259041027971503 0 0.24047979706631539 0.043348441665234543 0 0.22403297562994889 0.043244134760033102 0 0.2293005988410747 0.052660986459375857 0 0.22943427677194 0.033584068266650849 0 0.21303144810646379 0.041537626863611857 0 0.2293005988410747 0.052660986459375857 0 0.20965003963157269 0.047360578591973457 0 0.22403297562994889 0.043244134760033102 0 0.2293005988410747 0.052660986459375857 0 0.20965003963157269 0.047360578591973457 0 0.2293005988410747 0.052660986459375857 0 0.21746669424808551 0.057457493278596727 0 0.20965003963157269 0.047360578591973457 0 0.23342616123553361 0.066461751373019559 0 0.2293005988410747 0.052660986459375857 0 0.21746669424808551 0.057457493278596727 0 0.2331723590802052 0.011777074170138679 0 0.25415398646272769 0.030625775086944751 0 0.25935681487488282 0.0032901558470991299 0 0.2331723590802052 0.011777074170138679 0 0.25935681487488282 0.0032901558470991299 0 0.2371090799037909 -0.0090673757815772048 0 0.22943427677194 0.033584068266650849 0 0.2331723590802052 0.011777074170138679 0 0.25415398646272769 0.030625775086944751 0 0.22943427677194 0.033584068266650849 0 0.2331723590802052 0.011777074170138679 0 0.21526886693083341 0.023763936771240949 0 0.22943427677194 0.033584068266650849 0 0.21526886693083341 0.023763936771240949 0 0.21520368693609601 0.033259041027971503 0 0.2331723590802052 0.011777074170138679 0 0.21533446997814071 0.0077553549547846202 0 0.220789283074 -0.0054652510294427546 0 0.2331723590802052 0.011777074170138679 0 0.21533446997814071 0.0077553549547846202 0 0.21526886693083341 0.023763936771240949 0 0.21533446997814071 0.0077553549547846202 0 0.19865868179560109 0.01168306813292503 0 0.19965179260945101 -0.006237775483830631 0 0.21533446997814071 0.0077553549547846202 0 0.21526886693083341 0.023763936771240949 0 0.19865868179560109 0.01168306813292503 0 0.21526886693083341 0.023763936771240949 0 0.19959851610153839 0.028859388205288841 0 0.2071379748663206 0.035013360504109407 0 0.21526886693083341 0.023763936771240949 0 0.19959851610153839 0.028859388205288841 0 0.19865868179560109 0.01168306813292503 0 0.21526886693083341 0.023763936771240949 0 0.21520368693609601 0.033259041027971503 0 0.2071379748663206 0.035013360504109407 0 0.19959851610153839 0.028859388205288841 0 0.19865868179560109 0.01168306813292503 0 0.1842346334211474 0.02086954311149174 0 0.19959851610153839 0.028859388205288841 0 0.19004397763297501 0.037822460007105027 0 0.1842346334211474 0.02086954311149174 0 0.19865868179560109 0.01168306813292503 0 0.17786381173249591 -0.0049120387614253417 0 0.19965179260945101 -0.006237775483830631 0 0.20767826332311251 0.063242412546673149 0 0.20965003963157269 0.047360578591973457 0 0.19662861944098731 0.049491185460572198 0 0.20767826332311251 0.063242412546673149 0 0.21746669424808551 0.057457493278596727 0 0.20965003963157269 0.047360578591973457 0 0.20965003963157269 0.047360578591973457 0 0.21303144810646379 0.041537626863611857 0 0.19662861944098731 0.049491185460572198 0 0.21303144810646379 0.041537626863611857 0 0.20578953414441359 0.042268255773892142 0 0.19662861944098731 0.049491185460572198 0 0.22403297562994889 0.043244134760033102 0 0.20965003963157269 0.047360578591973457 0 0.21303144810646379 0.041537626863611857 0 0.21303144810646379 0.041537626863611857 0 0.19662861944098731 0.049491185460572198 0 0.21303144810646379 0.041537626863611857 0 0.21520368693609601 0.033259041027971503 0 0.2071379748663206 0.035013360504109407 0 0.2071379748663206 0.035013360504109407 0 0.20578953414441359 0.042268255773892142 0 0.19905617622700039 0.039504014902642381 0 0.21303144810646379 0.041537626863611857 0 0.2071379748663206 0.035013360504109407 0 0.20578953414441359 0.042268255773892142 0 0.20578953414441359 0.042268255773892142 0 0.2005466532165269 0.044675313015258442 0 0.19662861944098731 0.049491185460572198 0 0.2005466532165269 0.044675313015258442 0 0.19905617622700039 0.039504014902642381 0 0.19662861944098731 0.049491185460572198 0 0.20578953414441359 0.042268255773892142 0 0.2005466532165269 0.044675313015258442 0 0.19905617622700039 0.039504014902642381 0 0.19959851610153839 0.028859388205288841 0 0.2071379748663206 0.035013360504109407 0 0.19905617622700039 0.039504014902642381 0 0.19959851610153839 0.028859388205288841 0 0.19905617622700039 0.039504014902642381 0 0.19004397763297501 0.037822460007105027 0 0.19004397763297501 0.037822460007105027 0 0.19662861944098731 0.049491185460572198 0 0.18244313802490991 0.04726106216887397 0 0.19905617622700039 0.039504014902642381 0 0.19004397763297501 0.037822460007105027 0 0.19662861944098731 0.049491185460572198 0 0.19434686588049499 0.070350497831903613 0 0.19662861944098731 0.049491185460572198 0 0.19434686588049499 0.070350497831903613 0 0.20767826332311251 0.063242412546673149 0 0.19662861944098731 0.049491185460572198 0 0.19434686588049499 0.070350497831903613 0 0.19662861944098731 0.049491185460572198 0 0.17540939911244799 0.059780161569924127 0 0.19662861944098731 0.049491185460572198 0 0.17540939911244799 0.059780161569924127 0 0.18244313802490991 0.04726106216887397 0 0.19662861944098731 0.049491185460572198 0 0.17540939911244799 0.059780161569924127 0 0.17540939911244799 0.059780161569924127 0 0.18244313802490991 0.04726106216887397 0 0.16086310720661989 0.047311323075457622 0 0.18244313802490991 0.04726106216887397 0 0.1756616298364638 0.034028231706297173 0 0.16086310720661989 0.047311323075457622 0 0.19004397763297501 0.037822460007105027 0 0.18244313802490991 0.04726106216887397 0 0.1756616298364638 0.034028231706297173 0 0.1756616298364638 0.034028231706297173 0 0.16086310720661989 0.047311323075457622 0 0.16077990198722919 0.021101725642288259 0 0.17540939911244799 0.059780161569924127 0 0.16086310720661989 0.047311323075457622 0 0.1541901787839082 0.070069137679275417 0 0.1842346334211474 0.02086954311149174 0 0.1618730276221457 0.0041269218756689969 0 0.17786381173249591 -0.0049120387614253417 0 0.19865868179560109 0.01168306813292503 0 0.1842346334211474 0.02086954311149174 0 0.17786381173249591 -0.0049120387614253417 0 0.1842346334211474 0.02086954311149174 0 0.17786381173249591 -0.0049120387614253417 0 0.19004397763297501 0.037822460007105027 0 0.1756616298364638 0.034028231706297173 0 0.1842346334211474 0.02086954311149174 0 0.1756616298364638 0.034028231706297173 0 0.1842346334211474 0.02086954311149174 0 0.16077990198722919 0.021101725642288259 0 0.1842346334211474 0.02086954311149174 0 0.16077990198722919 0.021101725642288259 0 0.1618730276221457 0.0041269218756689969 0 0.1618730276221457 0.0041269218756689969 0 0.1411603670788972 0.0101018168278833 0 0.15044925678359081 -0.010035133472833069 0 0.16077990198722919 0.021101725642288259 0 0.1618730276221457 0.0041269218756689969 0 0.1411603670788972 0.0101018168278833 0 0.16077990198722919 0.021101725642288259 0 0.1411603670788972 0.0101018168278833 0 0.1404213425279027 0.037486911378257437 0 0.16077990198722919 0.021101725642288259 0 0.1404213425279027 0.037486911378257437 0 0.1173517244767262 0.01947082958877324 0 0.1411603670788972 0.0101018168278833 0 0.1404213425279027 0.037486911378257437 0 0.1173517244767262 0.01947082958877324 0 0.1411603670788972 0.0101018168278833 0 0.1207509512091294 -0.0041699288836110626 0 0.16086310720661989 0.047311323075457622 0 0.13800152846829061 0.060542740771380332 0 0.1541901787839082 0.070069137679275417 0 0.16086310720661989 0.047311323075457622 0 0.1404213425279027 0.037486911378257437 0 0.13800152846829061 0.060542740771380332 0 0.16086310720661989 0.047311323075457622 0 0.16077990198722919 0.021101725642288259 0 0.1404213425279027 0.037486911378257437 0 0.1200627830685761 0.053872097114226712 0 0.11476424203947221 0.038073451384228449 0 0.1404213425279027 0.037486911378257437 0 0.1200627830685761 0.053872097114226712 0 0.1404213425279027 0.037486911378257437 0 0.1200627830685761 0.053872097114226712 0 0.1215621041912773 0.070813732342101351 0 0.13800152846829061 0.060542740771380332 0 0.1200627830685761 0.053872097114226712 0 0.1404213425279027 0.037486911378257437 0 0.13800152846829061 0.060542740771380332 0 0.1215621041912773 0.070813732342101351 0 0.13800152846829061 0.060542740771380332 0 0.1329709584553686 0.080358113788626659 0 0.1541901787839082 0.070069137679275417 0 0.1329709584553686 0.080358113788626659 0 0.13800152846829061 0.060542740771380332 0 0.1541901787839082 0.070069137679275417 0 0.1329709584553686 0.080358113788626659 0 0.1541901787839082 0.070069137679275417 0 0.14251785037549361 0.090480506174395348 0 0.1569454008139303 0.088451017416951494 0 0.1541901787839082 0.070069137679275417 0 0.14251785037549361 0.090480506174395348 0 0.1329709584553686 0.080358113788626659 0 0.1179299037815305 0.087644623331770061 0 0.14251785037549361 0.090480506174395348 0 0.1329709584553686 0.080358113788626659 0 0.1179299037815305 0.087644623331770061 0 0.14102156121080531 0.1057970632126216 0 0.1205945952922607 0.101631761607534 0 0.1251230896152585 0.1117921315195775 0 0.14102156121080531 0.1057970632126216 0 0.1205945952922607 0.101631761607534 0 0.1179299037815305 0.087644623331770061 0 0.14102156121080531 0.1057970632126216 0 0.1179299037815305 0.087644623331770061 0 0.14251785037549361 0.090480506174395348 0 0.14102156121080531 0.1057970632126216 0 0.1251230896152585 0.1117921315195775 0 0.1395076166176695 0.1195980991317228 0 0.14102156121080531 0.1057970632126216 0 0.11418512382257991 0.12505036048169191 0 0.1251230896152585 0.1117921315195775 0 0.1395076166176695 0.1195980991317228 0 0.11418512382257991 0.12505036048169191 0 0.1395076166176695 0.1195980991317228 0 0.1395076166176695 0.1195980991317228 0 0.16483010941275919 0.11414583778175361 0 0.1395076166176695 0.1195980991317228 0 0.15368707607566531 0.1039723971549648 0 0.16483010941275919 0.11414583778175361 0 0.151935838596682 0.12775069764303459 0 0.1395076166176695 0.1195980991317228 0 0.16483010941275919 0.11414583778175361 0 0.1395076166176695 0.1195980991317228 0 0.14102156121080531 0.1057970632126216 0 0.15368707607566531 0.1039723971549648 0 0.14251785037549361 0.090480506174395348 0 0.14102156121080531 0.1057970632126216 0 0.15368707607566531 0.1039723971549648 0 0.14251785037549361 0.090480506174395348 0 0.15368707607566531 0.1039723971549648 0 0.1569454008139303 0.088451017416951494 0 0.16636232661720249 0.096494849970703414 0 0.16483010941275919 0.11414583778175361 0 0.1770093637696476 0.1017515669725728 0 0.15368707607566531 0.1039723971549648 0 0.16636232661720249 0.096494849970703414 0 0.1569454008139303 0.088451017416951494 0 0.15368707607566531 0.1039723971549648 0 0.16636232661720249 0.096494849970703414 0 0.16483010941275919 0.11414583778175361 0 0.16471065375218541 0.13534870144594041 0 0.16483010941275919 0.11414583778175361 0 0.17682268569249371 0.12256025531536049 0 0.19015260220784869 0.1086935764317834 0 0.16483010941275919 0.11414583778175361 0 0.1875973773971813 0.1320529056019647 0 0.19015260220784869 0.1086935764317834 0 0.17682268569249371 0.12256025531536049 0 0.19015260220784869 0.1086935764317834 0 0.16483010941275919 0.11414583778175361 0 0.17682268569249371 0.12256025531536049 0 0.19015260220784869 0.1086935764317834 0 0.16483010941275919 0.11414583778175361 0 0.1770093637696476 0.1017515669725728 0 0.16636232661720249 0.096494849970703414 0 0.1770093637696476 0.1017515669725728 0 0.17760494586316741 0.090176179066172688 0 0.19015260220784869 0.1086935764317834 0 0.1770093637696476 0.1017515669725728 0 0.18518213336176231 0.099303382235865226 0 0.1770093637696476 0.1017515669725728 0 0.18518213336176231 0.099303382235865226 0 0.17760494586316741 0.090176179066172688 0 0.19206511232000381 0.091209810203235181 0 0.17760494586316741 0.090176179066172688 0 0.19206511232000381 0.091209810203235181 0 0.18518213336176231 0.099303382235865226 0 0.17760494586316741 0.090176179066172688 0 0.17760494586316741 0.090176179066172688 0 0.18071046949317171 0.075816907899379726 0 0.16705180465048719 0.079624719050149839 0 0.19206511232000381 0.091209810203235181 0 0.17760494586316741 0.090176179066172688 0 0.18071046949317171 0.075816907899379726 0 0.17540939911244799 0.059780161569924127 0 0.18071046949317171 0.075816907899379726 0 0.16705180465048719 0.079624719050149839 0 0.19434686588049499 0.070350497831903613 0 0.17540939911244799 0.059780161569924127 0 0.18071046949317171 0.075816907899379726 0 0.17540939911244799 0.059780161569924127 0 0.1541901787839082 0.070069137679275417 0 0.16705180465048719 0.079624719050149839 0 0.17540939911244799 0.059780161569924127 0 0.1541901787839082 0.070069137679275417 0 0.16636232661720249 0.096494849970703414 0 0.1569454008139303 0.088451017416951494 0 0.16705180465048719 0.079624719050149839 0 0.16636232661720249 0.096494849970703414 0 0.17760494586316741 0.090176179066172688 0 0.16705180465048719 0.079624719050149839 0 0.1541901787839082 0.070069137679275417 0 0.1569454008139303 0.088451017416951494 0 0.16705180465048719 0.079624719050149839 0 0.1117240427601245 0.47851024617933469 0 0.087776695350210585 0.46735485506698299 0 0.088822183948860406 0.48590850575596201 0 0.10160346966982731 0.5 0 0.1117240427601245 0.47851024617933469 0 0.088822183948860406 0.48590850575596201 0 0.10160346966982731 0.5 0 0.1117240427601245 0.47851024617933469 0 0.12824688977768059 0.50000000000000033 0 0.1117240427601245 0.47851024617933469 0 0.132064732583837 0.48272194778505378 0 0.12824688977768059 0.50000000000000033 0 0.1117240427601245 0.47851024617933469 0 0.1075067282982555 0.45103228260047412 0 0.13622940237324219 0.46340484625597689 0 0.1075067282982555 0.45103228260047412 0 0.12723676124630739 0.43470971013397369 0 0.13622940237324219 0.46340484625597689 0 0.1075067282982555 0.45103228260047412 0 0.12723676124630739 0.43470971013397369 0 0.1075067282982555 0.45103228260047412 0 0.09925709776475411 0.43150234408770538 0 0.12723676124630739 0.43470971013397369 0 0.1075067282982555 0.45103228260047412 0 0.081952124080281491 0.44633972594913163 0 0.09925709776475411 0.43150234408770538 0 0.1075067282982555 0.45103228260047412 0 0.087776695350210585 0.46735485506698299 0 0.1117240427601245 0.47851024617933469 0 0.1075067282982555 0.45103228260047412 0 0.087776695350210585 0.46735485506698299 0 0.087776695350210585 0.46735485506698299 0 0.081952124080281491 0.44633972594913163 0 0.069997574583156141 0.45986060267520801 0 0.1075067282982555 0.45103228260047412 0 0.087776695350210585 0.46735485506698299 0 0.081952124080281491 0.44633972594913163 0 0.081952124080281491 0.44633972594913163 0 0.069997574583156141 0.45986060267520801 0 0.061229586121682403 0.44036178762413991 0 0.081952124080281491 0.44633972594913163 0 0.061229586121682403 0.44036178762413991 0 0.071277434283204391 0.42829497804140598 0 0.069997574583156141 0.45986060267520801 0 0.068046662402165781 0.48367742753349202 0 0.050982804961440427 0.46156921720229338 0 0.087776695350210585 0.46735485506698299 0 0.068046662402165781 0.48367742753349202 0 0.087776695350210585 0.46735485506698299 0 0.069997574583156141 0.45986060267520801 0 0.068046662402165781 0.48367742753349202 0 0.087776695350210585 0.46735485506698299 0 0.068046662402165781 0.48367742753349202 0 0.088822183948860406 0.48590850575596201 0 0.10160346966982731 0.5 0 0.088822183948860406 0.48590850575596201 0 0.074960049561973885 0.5 0 0.068046662402165781 0.48367742753349202 0 0.088822183948860406 0.48590850575596201 0 0.074960049561973885 0.5 0 0.068046662402165781 0.48367742753349202 0 0.074960049561973885 0.5 0 0.048316629454120741 0.50000000000000044 0 0.068046662402165781 0.48367742753349202 0 0.048316629454120741 0.50000000000000044 0 0.068046662402165781 0.48367742753349202 0 0.048316629454120741 0.50000000000000044 0 0.038957469701901559 0.48038111874580269 0 0.068046662402165781 0.48367742753349202 0 0.038957469701901559 0.48038111874580269 0 0.050982804961440427 0.46156921720229338 0 0.048316629454120741 0.50000000000000044 0 0.038957469701901559 0.48038111874580269 0 0.022101172817449281 0.5 0 0.038957469701901559 0.48038111874580269 0 0.022101172817449281 0.5 0 0.018451431208896561 0.48091398534133251 0 0.018451431208896561 0.48091398534133251 0 0.00081862258307463542 0.47122466767660098 0 0.02891395105720846 0.4638069744837926 0 0.038957469701901559 0.48038111874580269 0 0.018451431208896561 0.48091398534133251 0 0.02891395105720846 0.4638069744837926 0 -0.0041142838192221856 0.5 0 0.018451431208896561 0.48091398534133251 0 0.00081862258307463542 0.47122466767660098 0 -0.0041142838192221856 0.5 0 0.022101172817449281 0.5 0 0.018451431208896561 0.48091398534133251 0 -0.005161699211731278 0.44168291228677098 0 0.00081862258307463542 0.47122466767660098 0 0.020470369594582882 0.44173070179094848 0 0.00081862258307463542 0.47122466767660098 0 0.02891395105720846 0.4638069744837926 0 0.020470369594582882 0.44173070179094848 0 0.02891395105720846 0.4638069744837926 0 0.020470369594582882 0.44173070179094848 0 0.041139419072379148 0.44586955479358559 0 0.020470369594582882 0.44173070179094848 0 0.041139419072379148 0.44586955479358559 0 0.042428420054983478 0.4249879565411484 0 0.038957469701901559 0.48038111874580269 0 0.02891395105720846 0.4638069744837926 0 0.050982804961440427 0.46156921720229338 0 0.02891395105720846 0.4638069744837926 0 0.041139419072379148 0.44586955479358559 0 0.050982804961440427 0.46156921720229338 0 0.069997574583156141 0.45986060267520801 0 0.050982804961440427 0.46156921720229338 0 0.061229586121682403 0.44036178762413991 0 0.041139419072379148 0.44586955479358559 0 0.050982804961440427 0.46156921720229338 0 0.061229586121682403 0.44036178762413991 0 0.042428420054983478 0.4249879565411484 0 0.071277434283204391 0.42829497804140598 0 0.041139419072379148 0.44586955479358559 0 0.061229586121682403 0.44036178762413991 0 0.042428420054983478 0.4249879565411484 0 0.061229586121682403 0.44036178762413991 0 0.042428420054983478 0.4249879565411484 0 0.071277434283204391 0.42829497804140598 0 0.056140051886602052 0.40703907104934928 0 0.042428420054983478 0.4249879565411484 0 0.071277434283204391 0.42829497804140598 0 0.056140051886602052 0.40703907104934928 0 0.042428420054983478 0.4249879565411484 0 0.030198328394267591 0.40861815847412059 0 0.020470369594582882 0.44173070179094848 0 0.042428420054983478 0.4249879565411484 0 0.01357940582676553 0.42168093504086751 0 0.042428420054983478 0.4249879565411484 0 0.01357940582676553 0.42168093504086751 0 0.030198328394267591 0.40861815847412059 0 0.01357940582676553 0.42168093504086751 0 0.0064299632138935837 0.39871103747722619 0 0.042428420054983478 0.4249879565411484 0 0.030198328394267591 0.40861815847412059 0 0.01357940582676553 0.42168093504086751 0 -0.015269608401452641 0.4183739135405864 0 0.01357940582676553 0.42168093504086751 0 0.0064299632138935837 0.39871103747722619 0 -0.005161699211731278 0.44168291228677098 0 0.020470369594582882 0.44173070179094848 0 0.01357940582676553 0.42168093504086751 0 0.030198328394267591 0.40861815847412059 0 0.0064299632138935837 0.39871103747722619 0 0.035264381814320893 0.38705338360684288 0 0.0064299632138935837 0.39871103747722619 0 0.035264381814320893 0.38705338360684288 0 0.0079661978052537122 0.3727543674471257 0 0.035264381814320893 0.38705338360684288 0 0.071218017404705264 0.38317007623967431 0 0.045955162504089743 0.36409869198297018 0 0.056140051886602052 0.40703907104934928 0 0.035264381814320893 0.38705338360684288 0 0.071218017404705264 0.38317007623967431 0 0.056140051886602052 0.40703907104934928 0 0.030198328394267591 0.40861815847412059 0 0.035264381814320893 0.38705338360684288 0 0.071218017404705264 0.38317007623967431 0 0.087047600373389267 0.409356038256387 0 0.1028177664636071 0.39041709847139539 0 0.071218017404705264 0.38317007623967431 0 0.1028177664636071 0.39041709847139539 0 0.089002692348721796 0.36658745362029149 0 0.056140051886602052 0.40703907104934928 0 0.071218017404705264 0.38317007623967431 0 0.087047600373389267 0.409356038256387 0 0.056140051886602052 0.40703907104934928 0 0.071277434283204391 0.42829497804140598 0 0.087047600373389267 0.409356038256387 0 0.061229586121682403 0.44036178762413991 0 0.071277434283204391 0.42829497804140598 0 0.071277434283204391 0.42829497804140598 0 0.09925709776475411 0.43150234408770538 0 0.071277434283204391 0.42829497804140598 0 0.087047600373389267 0.409356038256387 0 0.09925709776475411 0.43150234408770538 0 0.081952124080281491 0.44633972594913163 0 0.071277434283204391 0.42829497804140598 0 0.09925709776475411 0.43150234408770538 0 0.071277434283204391 0.42829497804140598 0 0.087047600373389267 0.409356038256387 0 0.087047600373389267 0.409356038256387 0 0.10745444971199759 0.40937588912491257 0 0.09925709776475411 0.43150234408770538 0 0.09925709776475411 0.43150234408770538 0 0.12291218917323481 0.41928044869161057 0 0.12723676124630739 0.43470971013397369 0 0.09925709776475411 0.43150234408770538 0 0.12723676124630739 0.43470971013397369 0 0.10745444971199759 0.40937588912491257 0 0.09925709776475411 0.43150234408770538 0 0.12291218917323481 0.41928044869161057 0 0.10745444971199759 0.40937588912491257 0 0.12291218917323481 0.41928044869161057 0 0.12474070720654359 0.40416091344037841 0 0.10745444971199759 0.40937588912491257 0 0.12474070720654359 0.40416091344037841 0 0.1191225926961947 0.39026688431444623 0 0.10745444971199759 0.40937588912491257 0 0.1191225926961947 0.39026688431444623 0 0.1028177664636071 0.39041709847139539 0 0.1191225926961947 0.39026688431444623 0 0.1185879325538249 0.37147815868640388 0 0.13642716119823861 0.37800357189001083 0 0.1191225926961947 0.39026688431444623 0 0.1028177664636071 0.39041709847139539 0 0.1185879325538249 0.37147815868640388 0 0.1028177664636071 0.39041709847139539 0 0.1185879325538249 0.37147815868640388 0 0.1028177664636071 0.39041709847139539 0 0.1185879325538249 0.37147815868640388 0 0.089002692348721796 0.36658745362029149 0 0.087047600373389267 0.409356038256387 0 0.1028177664636071 0.39041709847139539 0 0.087047600373389267 0.409356038256387 0 0.10745444971199759 0.40937588912491257 0 0.1028177664636071 0.39041709847139539 0 0.10581647563223801 0.3526388707920578 0 0.1004526403067962 0.34000150735157642 0 0.086121652887845304 0.34271161856891558 0 0.10581647563223801 0.3526388707920578 0 0.1185879325538249 0.37147815868640388 0 0.089002692348721796 0.36658745362029149 0 0.10581647563223801 0.3526388707920578 0 0.1185879325538249 0.37147815868640388 0 0.120086145189699 0.35226197566915618 0 0.1185879325538249 0.37147815868640388 0 0.120086145189699 0.35226197566915618 0 0.1343580986440428 0.35253921890141238 0 0.10581647563223801 0.3526388707920578 0 0.120086145189699 0.35226197566915618 0 0.12317936205375921 0.33832649833091311 0 0.10581647563223801 0.3526388707920578 0 0.12317936205375921 0.33832649833091311 0 0.10581647563223801 0.3526388707920578 0 0.12317936205375921 0.33832649833091311 0 0.1108706644280365 0.33204136953536711 0 0.12317936205375921 0.33832649833091311 0 0.1108706644280365 0.33204136953536711 0 0.1212376155566439 0.32281054036382018 0 0.1212376155566439 0.32281054036382018 0 0.11104142419815929 0.31652162469863032 0 0.120100824837353 0.30357241011644148 0 0.1108706644280365 0.33204136953536711 0 0.1212376155566439 0.32281054036382018 0 0.11104142419815929 0.31652162469863032 0 0.11104142419815929 0.31652162469863032 0 0.098750481955470287 0.32637886659905391 0 0.096862759922995451 0.31173953782700048 0 0.1108706644280365 0.33204136953536711 0 0.11104142419815929 0.31652162469863032 0 0.098750481955470287 0.32637886659905391 0 0.098750481955470287 0.32637886659905391 0 0.1004526403067962 0.34000150735157642 0 0.086121652887845304 0.34271161856891558 0 0.10581647563223801 0.3526388707920578 0 0.1108706644280365 0.33204136953536711 0 0.1004526403067962 0.34000150735157642 0 0.1108706644280365 0.33204136953536711 0 0.098750481955470287 0.32637886659905391 0 0.1004526403067962 0.34000150735157642 0 0.098750481955470287 0.32637886659905391 0 0.086121652887845304 0.34271161856891558 0 0.080232779992116768 0.32221580359333779 0 0.098750481955470287 0.32637886659905391 0 0.080232779992116768 0.32221580359333779 0 0.096862759922995451 0.31173953782700048 0 0.080232779992116768 0.32221580359333779 0 0.062956022581161161 0.33235410279866462 0 0.058825025169389117 0.30694611607815969 0 0.086121652887845304 0.34271161856891558 0 0.080232779992116768 0.32221580359333779 0 0.062956022581161161 0.33235410279866462 0 0.086121652887845304 0.34271161856891558 0 0.062956022581161161 0.33235410279866462 0 0.067087019992933219 0.35776208951916938 0 0.062956022581161161 0.33235410279866462 0 0.067087019992933219 0.35776208951916938 0 0.10581647563223801 0.3526388707920578 0 0.086121652887845304 0.34271161856891558 0 0.089002692348721796 0.36658745362029149 0 0.086121652887845304 0.34271161856891558 0 0.067087019992933219 0.35776208951916938 0 0.089002692348721796 0.36658745362029149 0 0.071218017404705264 0.38317007623967431 0 0.067087019992933219 0.35776208951916938 0 0.089002692348721796 0.36658745362029149 0 0.071218017404705264 0.38317007623967431 0 0.067087019992933219 0.35776208951916938 0 0.071218017404705264 0.38317007623967431 0 0.067087019992933219 0.35776208951916938 0 0.045955162504089743 0.36409869198297018 0 0.062956022581161161 0.33235410279866462 0 0.067087019992933219 0.35776208951916938 0 0.049243121114071253 0.34677133103086022 0 0.067087019992933219 0.35776208951916938 0 0.049243121114071253 0.34677133103086022 0 0.045955162504089743 0.36409869198297018 0 0.045955162504089743 0.36409869198297018 0 0.025778676571106451 0.36468893340465519 0 0.028976044972048261 0.34689070437302572 0 0.049243121114071253 0.34677133103086022 0 0.045955162504089743 0.36409869198297018 0 0.028976044972048261 0.34689070437302572 0 0.035264381814320893 0.38705338360684288 0 0.045955162504089743 0.36409869198297018 0 0.025778676571106451 0.36468893340465519 0 0.035264381814320893 0.38705338360684288 0 0.025778676571106451 0.36468893340465519 0 0.0079661978052537122 0.3727543674471257 0 0.028976044972048261 0.34689070437302572 0 0.01073159575981966 0.35264751961331192 0 0.01255702922205422 0.33941644123525422 0 0.025778676571106451 0.36468893340465519 0 0.028976044972048261 0.34689070437302572 0 0.01073159575981966 0.35264751961331192 0 0.01073159575981966 0.35264751961331192 0 0.002002667747446269 0.34500089505608922 0 0.01255702922205422 0.33941644123525422 0 -0.002472024106327787 0.35561964142679181 0 0.01073159575981966 0.35264751961331192 0 0.002002667747446269 0.34500089505608922 0 0.025778676571106451 0.36468893340465519 0 0.01073159575981966 0.35264751961331192 0 0.0079661978052537122 0.3727543674471257 0 -0.002472024106327787 0.35561964142679181 0 0.01073159575981966 0.35264751961331192 0 0.0079661978052537122 0.3727543674471257 0 -0.00091589086326776211 0.31522573641359419 0 0.0021953080243909532 0.3292347266183353 0 0.01738918621148761 0.31038330684991738 0 0.0021953080243909532 0.3292347266183353 0 0.01738918621148761 0.31038330684991738 0 0.0021953080243909532 0.3292347266183353 0 0.022219538941370919 0.32982517257173871 0 0.01738918621148761 0.31038330684991738 0 0.002002667747446269 0.34500089505608922 0 0.0021953080243909532 0.3292347266183353 0 0.01255702922205422 0.33941644123525422 0 0.0021953080243909532 0.3292347266183353 0 0.01255702922205422 0.33941644123525422 0 0.022219538941370919 0.32982517257173871 0 0.028976044972048261 0.34689070437302572 0 0.022219538941370919 0.32982517257173871 0 0.04094280515105278 0.33357484736285692 0 0.028976044972048261 0.34689070437302572 0 0.01255702922205422 0.33941644123525422 0 0.022219538941370919 0.32982517257173871 0 0.022219538941370919 0.32982517257173871 0 0.040722197408470023 0.31368048780476671 0 0.01738918621148761 0.31038330684991738 0 0.022219538941370919 0.32982517257173871 0 0.040722197408470023 0.31368048780476671 0 0.04094280515105278 0.33357484736285692 0 0.049243121114071253 0.34677133103086022 0 0.028976044972048261 0.34689070437302572 0 0.04094280515105278 0.33357484736285692 0 0.062956022581161161 0.33235410279866462 0 0.049243121114071253 0.34677133103086022 0 0.04094280515105278 0.33357484736285692 0 0.062956022581161161 0.33235410279866462 0 0.040722197408470023 0.31368048780476671 0 0.04094280515105278 0.33357484736285692 0 0.062956022581161161 0.33235410279866462 0 0.040722197408470023 0.31368048780476671 0 0.058825025169389117 0.30694611607815969 0 0.062956022581161161 0.33235410279866462 0 0.058825025169389117 0.30694611607815969 0 0.040722197408470023 0.31368048780476671 0 0.058825025169389117 0.30694611607815969 0 0.049841189037173182 0.29197176277291648 0 0.058825025169389117 0.30694611607815969 0 0.049841189037173182 0.29197176277291648 0 0.065823362664584009 0.293674483012757 0 0.049841189037173182 0.29197176277291648 0 0.047776942585680812 0.27268046731308149 0 0.061523827132218739 0.27956085560289839 0 0.049841189037173182 0.29197176277291648 0 0.061523827132218739 0.27956085560289839 0 0.065823362664584009 0.293674483012757 0 0.032583064398584279 0.29153188708149952 0 0.047776942585680812 0.27268046731308149 0 0.049841189037173182 0.29197176277291648 0 0.032583064398584279 0.29153188708149952 0 0.047776942585680812 0.27268046731308149 0 0.040722197408470023 0.31368048780476671 0 0.049841189037173182 0.29197176277291648 0 0.032583064398584279 0.29153188708149952 0 0.040722197408470023 0.31368048780476671 0 0.032583064398584279 0.29153188708149952 0 0.01738918621148761 0.31038330684991738 0 0.032583064398584279 0.29153188708149952 0 0.01738918621148761 0.31038330684991738 0 0.032583064398584279 0.29153188708149952 0 0.01738918621148761 0.31038330684991738 0 0.011226792291018891 0.29121017671658272 0 0.032583064398584279 0.29153188708149952 0 0.011226792291018891 0.29121017671658272 0 0.020923482554253151 0.27674154179263138 0 -0.00098271012149963666 0.30301770253450322 0 -0.0064647886647679594 0.28727353837947239 0 0.011226792291018891 0.29121017671658272 0 0.011226792291018891 0.29121017671658272 0 0.0039125193680558971 0.27831308366147178 0 0.020923482554253151 0.27674154179263138 0 -0.0064647886647679594 0.28727353837947239 0 0.011226792291018891 0.29121017671658272 0 0.0039125193680558971 0.27831308366147178 0 -0.00098271012149963666 0.30301770253450322 0 -0.00091589086326776211 0.31522573641359419 0 0.01738918621148761 0.31038330684991738 0 -0.00098271012149963666 0.30301770253450322 0 0.01738918621148761 0.31038330684991738 0 0.011226792291018891 0.29121017671658272 0 -0.003870484047894238 0.25325258120147331 0 -0.001870537191094847 0.24783164157960649 0 0.0068480974455401916 0.26366255629670587 0 -0.001870537191094847 0.24783164157960649 0 0.022953202697293201 0.26025605444634348 0 -0.001870537191094847 0.24783164157960649 0 0.014476227302727591 0.2465232514715166 0 0.022953202697293201 0.26025605444634348 0 -0.001870537191094847 0.24783164157960649 0 0.0068480974455401916 0.26366255629670587 0 0.022953202697293201 0.26025605444634348 0 -0.0045653944237659403 0.27106774986792348 0 0.0068480974455401916 0.26366255629670587 0 0.0039125193680558971 0.27831308366147178 0 0.0068480974455401916 0.26366255629670587 0 0.0039125193680558971 0.27831308366147178 0 0.020923482554253151 0.27674154179263138 0 0.0068480974455401916 0.26366255629670587 0 0.020923482554253151 0.27674154179263138 0 0.022953202697293201 0.26025605444634348 0 0.020923482554253151 0.27674154179263138 0 0.022953202697293201 0.26025605444634348 0 0.047776942585680812 0.27268046731308149 0 0.024664205123059731 0.24258300526153201 0 0.022953202697293201 0.26025605444634348 0 0.035513299725210952 0.25451186413660432 0 0.035513299725210952 0.25451186413660432 0 0.047776942585680812 0.27268046731308149 0 0.048278413996799302 0.26281036370876321 0 0.022953202697293201 0.26025605444634348 0 0.035513299725210952 0.25451186413660432 0 0.047776942585680812 0.27268046731308149 0 0.035513299725210952 0.25451186413660432 0 0.049834890706688811 0.25083617626142912 0 0.048278413996799302 0.26281036370876321 0 0.022953202697293201 0.26025605444634348 0 0.047776942585680812 0.27268046731308149 0 0.032583064398584279 0.29153188708149952 0 0.020923482554253151 0.27674154179263138 0 0.047776942585680812 0.27268046731308149 0 0.047776942585680812 0.27268046731308149 0 0.061523827132218739 0.27956085560289839 0 0.047776942585680812 0.27268046731308149 0 0.050793802392651938 0.26745123830127698 0 0.048278413996799302 0.26281036370876321 0 0.05265034383628265 0.27025072869853711 0 0.047776942585680812 0.27268046731308149 0 0.056729266798489698 0.27299110408009503 0 0.05265034383628265 0.27025072869853711 0 0.047776942585680812 0.27268046731308149 0 0.050793802392651938 0.26745123830127698 0 0.05265034383628265 0.27025072869853711 0 0.050793802392651938 0.26745123830127698 0 0.053510895349989887 0.26525276929464381 0 0.05265034383628265 0.27025072869853711 0 0.056729266798489698 0.27299110408009503 0 0.053510895349989887 0.26525276929464381 0 0.056729266798489698 0.27299110408009503 0 0.053510895349989887 0.26525276929464381 0 0.059836181458103987 0.26104371045860453 0 0.047776942585680812 0.27268046731308149 0 0.056729266798489698 0.27299110408009503 0 0.061523827132218739 0.27956085560289839 0 0.049834890706688811 0.25083617626142912 0 0.053424971839592689 0.25737218789551652 0 0.057872665771145082 0.25233156818004882 0 0.049834890706688811 0.25083617626142912 0 0.053424971839592689 0.25737218789551652 0 0.048278413996799302 0.26281036370876321 0 0.053424971839592689 0.25737218789551652 0 0.048278413996799302 0.26281036370876321 0 0.053510895349989887 0.26525276929464381 0 0.050793802392651938 0.26745123830127698 0 0.048278413996799302 0.26281036370876321 0 0.053510895349989887 0.26525276929464381 0 0.053424971839592689 0.25737218789551652 0 0.053510895349989887 0.26525276929464381 0 0.059836181458103987 0.26104371045860453 0 0.059836181458103987 0.26104371045860453 0 0.057872665771145082 0.25233156818004882 0 0.069474617258596091 0.25198075459793312 0 0.053424971839592689 0.25737218789551652 0 0.059836181458103987 0.26104371045860453 0 0.057872665771145082 0.25233156818004882 0 0.059836181458103987 0.26104371045860453 0 0.069474617258596091 0.25198075459793312 0 0.072249723456030243 0.27142134892753772 0 0.069474617258596091 0.25198075459793312 0 0.089757487417634604 0.26245456467852091 0 0.072249723456030243 0.27142134892753772 0 0.087485546461120264 0.24144464054337059 0 0.089757487417634604 0.26245456467852091 0 0.1032245739175046 0.25147683452525582 0 0.087485546461120264 0.24144464054337059 0 0.069474617258596091 0.25198075459793312 0 0.089757487417634604 0.26245456467852091 0 0.089757487417634604 0.26245456467852091 0 0.092614249793920148 0.28083880571895092 0 0.072249723456030243 0.27142134892753772 0 0.092614249793920148 0.28083880571895092 0 0.072249723456030243 0.27142134892753772 0 0.076731290552459211 0.28681265184322918 0 0.056729266798489698 0.27299110408009503 0 0.059836181458103987 0.26104371045860453 0 0.072249723456030243 0.27142134892753772 0 0.056729266798489698 0.27299110408009503 0 0.061523827132218739 0.27956085560289839 0 0.072249723456030243 0.27142134892753772 0 0.061523827132218739 0.27956085560289839 0 0.072249723456030243 0.27142134892753772 0 0.076731290552459211 0.28681265184322918 0 0.061523827132218739 0.27956085560289839 0 0.065823362664584009 0.293674483012757 0 0.076731290552459211 0.28681265184322918 0 0.065823362664584009 0.293674483012757 0 0.076731290552459211 0.28681265184322918 0 0.082195481431679845 0.30308102876658122 0 0.080232779992116768 0.32221580359333779 0 0.058825025169389117 0.30694611607815969 0 0.082195481431679845 0.30308102876658122 0 0.058825025169389117 0.30694611607815969 0 0.065823362664584009 0.293674483012757 0 0.082195481431679845 0.30308102876658122 0 0.082195481431679845 0.30308102876658122 0 0.096862759922995451 0.31173953782700048 0 0.098697054354311281 0.29933918544852622 0 0.082195481431679845 0.30308102876658122 0 0.087559519033092614 0.29251791794432191 0 0.098697054354311281 0.29933918544852622 0 0.080232779992116768 0.32221580359333779 0 0.082195481431679845 0.30308102876658122 0 0.096862759922995451 0.31173953782700048 0 0.076731290552459211 0.28681265184322918 0 0.082195481431679845 0.30308102876658122 0 0.087559519033092614 0.29251791794432191 0 0.092614249793920148 0.28083880571895092 0 0.076731290552459211 0.28681265184322918 0 0.087559519033092614 0.29251791794432191 0 0.092614249793920148 0.28083880571895092 0 0.087559519033092614 0.29251791794432191 0 0.098697054354311281 0.29933918544852622 0 0.092614249793920148 0.28083880571895092 0 0.1084494574430887 0.29192087621988522 0 0.098697054354311281 0.29933918544852622 0 0.1084494574430887 0.29192087621988522 0 0.098697054354311281 0.29933918544852622 0 0.1106716793489569 0.30193707575709172 0 0.096862759922995451 0.31173953782700048 0 0.098697054354311281 0.29933918544852622 0 0.1106716793489569 0.30193707575709172 0 0.11104142419815929 0.31652162469863032 0 0.096862759922995451 0.31173953782700048 0 0.1106716793489569 0.30193707575709172 0 0.11104142419815929 0.31652162469863032 0 0.1106716793489569 0.30193707575709172 0 0.120100824837353 0.30357241011644148 0 0.1084494574430887 0.29192087621988522 0 0.1106716793489569 0.30193707575709172 0 0.120100824837353 0.30357241011644148 0 0.1106716793489569 0.30193707575709172 0 0.120100824837353 0.30357241011644148 0 0.1084494574430887 0.29192087621988522 0 0.120100824837353 0.30357241011644148 0 0.1084494574430887 0.29192087621988522 0 0.120100824837353 0.30357241011644148 0 0.1268950581424684 0.28846674664521688 0 0.1084494574430887 0.29192087621988522 0 0.1185668388203438 0.26762688864576878 0 0.1268950581424684 0.28846674664521688 0 0.1220369488812048 0.24667543794128571 0 0.1185668388203438 0.26762688864576878 0 0.1032245739175046 0.25147683452525582 0 0.089757487417634604 0.26245456467852091 0 0.1185668388203438 0.26762688864576878 0 0.1032245739175046 0.25147683452525582 0 0.092614249793920148 0.28083880571895092 0 0.1084494574430887 0.29192087621988522 0 0.1185668388203438 0.26762688864576878 0 0.092614249793920148 0.28083880571895092 0 0.1185668388203438 0.26762688864576878 0 0.089757487417634604 0.26245456467852091 0 0.092614249793920148 0.28083880571895092 0 0.1185668388203438 0.26762688864576878 0 0.14888279196980039 0.27876617247188001 0 0.1445194278467675 0.25441497157258658 0 0.163043000801331 0.25870570855762948 0 0.1185668388203438 0.26762688864576878 0 0.1445194278467675 0.25441497157258658 0 0.1220369488812048 0.24667543794128571 0 0.1185668388203438 0.26762688864576878 0 0.1445194278467675 0.25441497157258658 0 0.1185668388203438 0.26762688864576878 0 0.14888279196980039 0.27876617247188001 0 0.1445194278467675 0.25441497157258658 0 0.1185668388203438 0.26762688864576878 0 0.14888279196980039 0.27876617247188001 0 0.1268950581424684 0.28846674664521688 0 0.14888279196980039 0.27876617247188001 0 0.1268950581424684 0.28846674664521688 0 0.13878889194214661 0.30681355622919948 0 0.120100824837353 0.30357241011644148 0 0.13878889194214661 0.30681355622919948 0 0.120100824837353 0.30357241011644148 0 0.13878889194214661 0.30681355622919948 0 0.1405422484752803 0.32401412586976819 0 0.120100824837353 0.30357241011644148 0 0.1268950581424684 0.28846674664521688 0 0.13878889194214661 0.30681355622919948 0 0.13878889194214661 0.30681355622919948 0 0.15747695904694031 0.31005470234195709 0 0.13878889194214661 0.30681355622919948 0 0.15575309592708661 0.29678248083769487 0 0.15747695904694031 0.31005470234195709 0 0.14888279196980039 0.27876617247188001 0 0.13878889194214661 0.30681355622919948 0 0.15575309592708661 0.29678248083769487 0 0.14888279196980039 0.27876617247188001 0 0.15575309592708661 0.29678248083769487 0 0.1691899620635034 0.2895338124557057 0 0.15575309592708661 0.29678248083769487 0 0.1691899620635034 0.2895338124557057 0 0.16692682683898019 0.30226509730367312 0 0.15747695904694031 0.31005470234195709 0 0.1681875309077884 0.31191227959473111 0 0.15747695904694031 0.31005470234195709 0 0.16692682683898019 0.30226509730367312 0 0.15575309592708661 0.29678248083769487 0 0.15747695904694031 0.31005470234195709 0 0.16692682683898019 0.30226509730367312 0 0.1691899620635034 0.2895338124557057 0 0.16692682683898019 0.30226509730367312 0 0.17688312235191081 0.30146944203595338 0 0.16692682683898019 0.30226509730367312 0 0.1681875309077884 0.31191227959473111 0 0.17688312235191081 0.30146944203595338 0 0.15747695904694031 0.31005470234195709 0 0.16692682683898019 0.30226509730367312 0 0.1681875309077884 0.31191227959473111 0 0.1681875309077884 0.31191227959473111 0 0.17688312235191081 0.30146944203595338 0 0.1838837900075965 0.31463454449676048 0 0.1681875309077884 0.31191227959473111 0 0.17688312235191081 0.30146944203595338 0 0.17688312235191081 0.30146944203595338 0 0.18520172077854941 0.28739284135823212 0 0.19013254734543941 0.3018269652628634 0 0.17688312235191081 0.30146944203595338 0 0.19013254734543941 0.3018269652628634 0 0.1838837900075965 0.31463454449676048 0 0.1691899620635034 0.2895338124557057 0 0.17688312235191081 0.30146944203595338 0 0.18520172077854941 0.28739284135823212 0 0.1691899620635034 0.2895338124557057 0 0.18520172077854941 0.28739284135823212 0 0.17491440144065021 0.27355841961449118 0 0.18520172077854941 0.28739284135823212 0 0.17491440144065021 0.27355841961449118 0 0.19363391747349859 0.27012365329978311 0 0.14888279196980039 0.27876617247188001 0 0.1691899620635034 0.2895338124557057 0 0.17491440144065021 0.27355841961449118 0 0.14888279196980039 0.27876617247188001 0 0.17491440144065021 0.27355841961449118 0 0.163043000801331 0.25870570855762948 0 0.170472016873191 0.2412030544994046 0 0.1445194278467675 0.25441497157258658 0 0.163043000801331 0.25870570855762948 0 0.17491440144065021 0.27355841961449118 0 0.1898230052980576 0.25015052600849719 0 0.17491440144065021 0.27355841961449118 0 0.1898230052980576 0.25015052600849719 0 0.19363391747349859 0.27012365329978311 0 0.17491440144065021 0.27355841961449118 0 0.163043000801331 0.25870570855762948 0 0.1898230052980576 0.25015052600849719 0 0.170472016873191 0.2412030544994046 0 0.163043000801331 0.25870570855762948 0 0.1898230052980576 0.25015052600849719 0 0.1898230052980576 0.25015052600849719 0 0.19363391747349859 0.27012365329978311 0 0.21064805985606991 0.25920556865035532 0 0.2055832800304439 0.24335802530779341 0 0.1898230052980576 0.25015052600849719 0 0.21064805985606991 0.25920556865035532 0 0.19363391747349859 0.27012365329978311 0 0.21064805985606991 0.25920556865035532 0 0.20511405448173681 0.28828118902457539 0 0.21064805985606991 0.25920556865035532 0 0.2250920102865184 0.26747345507503428 0 0.21556307589245299 0.28185892065200813 0 0.21064805985606991 0.25920556865035532 0 0.21556307589245299 0.28185892065200813 0 0.20511405448173681 0.28828118902457539 0 0.21064805985606991 0.25920556865035532 0 0.20511405448173681 0.28828118902457539 0 0.22695336072194019 0.25057729098146658 0 0.2250920102865184 0.26747345507503428 0 0.2390220630027978 0.26435793077711911 0 0.21064805985606991 0.25920556865035532 0 0.22695336072194019 0.25057729098146658 0 0.2250920102865184 0.26747345507503428 0 0.2250920102865184 0.26747345507503428 0 0.2390220630027978 0.26435793077711911 0 0.23327349195933131 0.28136756431422238 0 0.2250920102865184 0.26747345507503428 0 0.23327349195933131 0.28136756431422238 0 0.21556307589245299 0.28185892065200813 0 0.2390220630027978 0.26435793077711911 0 0.25374278848102799 0.28132582272820478 0 0.25566493851637151 0.26307522389909938 0 0.2390220630027978 0.26435793077711911 0 0.23327349195933131 0.28136756431422238 0 0.25374278848102799 0.28132582272820478 0 0.24242825524523789 0.24053549575596991 0 0.2390220630027978 0.26435793077711911 0 0.25566493851637151 0.26307522389909938 0 0.24242825524523789 0.24053549575596991 0 0.22695336072194019 0.25057729098146658 0 0.2390220630027978 0.26435793077711911 0 0.24233548025001611 0.29643186720405401 0 0.23269843886761929 0.30979409083969012 0 0.25035729020073139 0.31320574585262972 0 0.24233548025001611 0.29643186720405401 0 0.23327349195933131 0.28136756431422238 0 0.25374278848102799 0.28132582272820478 0 0.2264457237266658 0.29574377986813849 0 0.23327349195933131 0.28136756431422238 0 0.21556307589245299 0.28185892065200813 0 0.24233548025001611 0.29643186720405401 0 0.2264457237266658 0.29574377986813849 0 0.23327349195933131 0.28136756431422238 0 0.24233548025001611 0.29643186720405401 0 0.2264457237266658 0.29574377986813849 0 0.23269843886761929 0.30979409083969012 0 0.2264457237266658 0.29574377986813849 0 0.23269843886761929 0.30979409083969012 0 0.21403466274690019 0.30828120004502491 0 0.21403466274690019 0.30828120004502491 0 0.20511405448173681 0.28828118902457539 0 0.19958004910740351 0.31735680939879568 0 0.2264457237266658 0.29574377986813849 0 0.21403466274690019 0.30828120004502491 0 0.21556307589245299 0.28185892065200813 0 0.21403466274690019 0.30828120004502491 0 0.21556307589245299 0.28185892065200813 0 0.21403466274690019 0.30828120004502491 0 0.21556307589245299 0.28185892065200813 0 0.20511405448173681 0.28828118902457539 0 0.18520172077854941 0.28739284135823212 0 0.20511405448173681 0.28828118902457539 0 0.19013254734543941 0.3018269652628634 0 0.18520172077854941 0.28739284135823212 0 0.19363391747349859 0.27012365329978311 0 0.20511405448173681 0.28828118902457539 0 0.20511405448173681 0.28828118902457539 0 0.19958004910740351 0.31735680939879568 0 0.20511405448173681 0.28828118902457539 0 0.19013254734543941 0.3018269652628634 0 0.19958004910740351 0.31735680939879568 0 0.19013254734543941 0.3018269652628634 0 0.19958004910740351 0.31735680939879568 0 0.1838837900075965 0.31463454449676048 0 0.19958004910740351 0.31735680939879568 0 0.19577667827484499 0.33733968960754201 0 0.1864712537369046 0.3280707762248648 0 0.19958004910740351 0.31735680939879568 0 0.1838837900075965 0.31463454449676048 0 0.19958004910740351 0.31735680939879568 0 0.19577667827484499 0.33733968960754201 0 0.19958004910740351 0.31735680939879568 0 0.1838837900075965 0.31463454449676048 0 0.1864712537369046 0.3280707762248648 0 0.19958004910740351 0.31735680939879568 0 0.19577667827484499 0.33733968960754201 0 0.21250624960134731 0.33470347943804152 0 0.19577667827484499 0.33733968960754201 0 0.21250624960134731 0.33470347943804152 0 0.2028085179435683 0.34762287442323248 0 0.21403466274690019 0.30828120004502491 0 0.21250624960134731 0.33470347943804152 0 0.2237929827055066 0.32224859101980868 0 0.19958004910740351 0.31735680939879568 0 0.21250624960134731 0.33470347943804152 0 0.2107510903240607 0.31929424769092518 0 0.21403466274690019 0.30828120004502491 0 0.21250624960134731 0.33470347943804152 0 0.2107510903240607 0.31929424769092518 0 0.21403466274690019 0.30828120004502491 0 0.21250624960134731 0.33470347943804152 0 0.19958004910740351 0.31735680939879568 0 0.2107510903240607 0.31929424769092518 0 0.21403466274690019 0.30828120004502491 0 0.19958004910740351 0.31735680939879568 0 0.2107510903240607 0.31929424769092518 0 0.23269843886761929 0.30979409083969012 0 0.21403466274690019 0.30828120004502491 0 0.2237929827055066 0.32224859101980868 0 0.23269843886761929 0.30979409083969012 0 0.2237929827055066 0.32224859101980868 0 0.23684765205430411 0.32285617726601512 0 0.2237929827055066 0.32224859101980868 0 0.23106563859861209 0.33593353857091129 0 0.23684765205430411 0.32285617726601512 0 0.21250624960134731 0.33470347943804152 0 0.2237929827055066 0.32224859101980868 0 0.23106563859861209 0.33593353857091129 0 0.21250624960134731 0.33470347943804152 0 0.23106563859861209 0.33593353857091129 0 0.2244231656696915 0.34911959915845558 0 0.23106563859861209 0.33593353857091129 0 0.23684765205430411 0.32285617726601512 0 0.25400870075324861 0.33645866182283118 0 0.23106563859861209 0.33593353857091129 0 0.24008832681353209 0.3509911895239427 0 0.25400870075324861 0.33645866182283118 0 0.23684765205430411 0.32285617726601512 0 0.25035729020073139 0.31320574585262972 0 0.25400870075324861 0.33645866182283118 0 0.23269843886761929 0.30979409083969012 0 0.23684765205430411 0.32285617726601512 0 0.25035729020073139 0.31320574585262972 0 0.22747777687917131 0.36284402942832472 0 0.23448135539952561 0.37755203255784808 0 0.25291152302829473 0.3683524102149337 0 0.24008832681353209 0.3509911895239427 0 0.22747777687917131 0.36284402942832472 0 0.25291152302829473 0.3683524102149337 0 0.2244231656696915 0.34911959915845558 0 0.22747777687917131 0.36284402942832472 0 0.21097783645579449 0.36112575883105807 0 0.24008832681353209 0.3509911895239427 0 0.2244231656696915 0.34911959915845558 0 0.22747777687917131 0.36284402942832472 0 0.23106563859861209 0.33593353857091129 0 0.24008832681353209 0.3509911895239427 0 0.2244231656696915 0.34911959915845558 0 0.22747777687917131 0.36284402942832472 0 0.21097783645579449 0.36112575883105807 0 0.22063678428880171 0.37779776249844421 0 0.22747777687917131 0.36284402942832472 0 0.22063678428880171 0.37779776249844421 0 0.23448135539952561 0.37755203255784808 0 0.21097783645579449 0.36112575883105807 0 0.20944942331024169 0.38754803822407458 0 0.21097783645579449 0.36112575883105807 0 0.20283125615183931 0.37442275212037318 0 0.20944942331024169 0.38754803822407458 0 0.21097783645579449 0.36112575883105807 0 0.19799669777807849 0.36882240118590309 0 0.20283125615183931 0.37442275212037318 0 0.21250624960134731 0.33470347943804152 0 0.21097783645579449 0.36112575883105807 0 0.21250624960134731 0.33470347943804152 0 0.21097783645579449 0.36112575883105807 0 0.2028085179435683 0.34762287442323248 0 0.21250624960134731 0.33470347943804152 0 0.2244231656696915 0.34911959915845558 0 0.21097783645579449 0.36112575883105807 0 0.21097783645579449 0.36112575883105807 0 0.2028085179435683 0.34762287442323248 0 0.1919733074422863 0.35732256981628818 0 0.19577667827484499 0.33733968960754201 0 0.2028085179435683 0.34762287442323248 0 0.1919733074422863 0.35732256981628818 0 0.19577667827484499 0.33733968960754201 0 0.1919733074422863 0.35732256981628818 0 0.19577667827484499 0.33733968960754201 0 0.1919733074422863 0.35732256981628818 0 0.18578153102850509 0.34964838945822763 0 0.1919733074422863 0.35732256981628818 0 0.19799669777807849 0.36882240118590309 0 0.18816993660972431 0.3773054500250338 0 0.1919733074422863 0.35732256981628818 0 0.18816993660972431 0.3773054500250338 0 0.21097783645579449 0.36112575883105807 0 0.1919733074422863 0.35732256981628818 0 0.19799669777807849 0.36882240118590309 0 0.19799669777807849 0.36882240118590309 0 0.20283125615183931 0.37442275212037318 0 0.19686609485469481 0.37657943176711572 0 0.19799669777807849 0.36882240118590309 0 0.18816993660972431 0.3773054500250338 0 0.19686609485469481 0.37657943176711572 0 0.17689816396031019 0.36037056089408781 0 0.17142003567646899 0.36872202213746841 0 0.18816993660972431 0.3773054500250338 0 0.17142003567646899 0.36872202213746841 0 0.1759615692735523 0.37768682844148582 0 0.18816993660972431 0.3773054500250338 0 0.1919733074422863 0.35732256981628818 0 0.17689816396031019 0.36037056089408781 0 0.18816993660972431 0.3773054500250338 0 0.17142003567646899 0.36872202213746841 0 0.18816993660972431 0.3773054500250338 0 0.17142003567646899 0.36872202213746841 0 0.15467013474321939 0.36013859424989231 0 0.17142003567646899 0.36872202213746841 0 0.16579660602272389 0.35906092644606702 0 0.15467013474321939 0.36013859424989231 0 0.17142003567646899 0.36872202213746841 0 0.15467013474321939 0.36013859424989231 0 0.15544413543226149 0.37712428985094981 0 0.17689816396031019 0.36037056089408781 0 0.17142003567646899 0.36872202213746841 0 0.16579660602272389 0.35906092644606702 0 0.16351321434728711 0.3469854200052529 0 0.16579660602272389 0.35906092644606702 0 0.15467013474321939 0.36013859424989231 0 0.16351321434728711 0.3469854200052529 0 0.15467013474321939 0.36013859424989231 0 0.15066742811720249 0.3483158780682446 0 0.17689816396031019 0.36037056089408781 0 0.16351321434728711 0.3469854200052529 0 0.17689816396031019 0.36037056089408781 0 0.16351321434728711 0.3469854200052529 0 0.16579660602272389 0.35906092644606702 0 0.17689816396031019 0.36037056089408781 0 0.16351321434728711 0.3469854200052529 0 0.17847797443657881 0.3435607375149925 0 0.17689816396031019 0.36037056089408781 0 0.18578153102850509 0.34964838945822763 0 0.17847797443657881 0.3435607375149925 0 0.1919733074422863 0.35732256981628818 0 0.17689816396031019 0.36037056089408781 0 0.18578153102850509 0.34964838945822763 0 0.19577667827484499 0.33733968960754201 0 0.18578153102850509 0.34964838945822763 0 0.17847797443657881 0.3435607375149925 0 0.17847797443657881 0.3435607375149925 0 0.1864712537369046 0.3280707762248648 0 0.1750696534665849 0.32788435462952192 0 0.17847797443657881 0.3435607375149925 0 0.1750696534665849 0.32788435462952192 0 0.1646016088670873 0.33391525780672238 0 0.19577667827484499 0.33733968960754201 0 0.17847797443657881 0.3435607375149925 0 0.1864712537369046 0.3280707762248648 0 0.1681875309077884 0.31191227959473111 0 0.1838837900075965 0.31463454449676048 0 0.1681875309077884 0.31191227959473111 0 0.1838837900075965 0.31463454449676048 0 0.1750696534665849 0.32788435462952192 0 0.1838837900075965 0.31463454449676048 0 0.1864712537369046 0.3280707762248648 0 0.1750696534665849 0.32788435462952192 0 0.1681875309077884 0.31191227959473111 0 0.1750696534665849 0.32788435462952192 0 0.1646016088670873 0.33391525780672238 0 0.1681875309077884 0.31191227959473111 0 0.15012826473426091 0.33360027911642098 0 0.1681875309077884 0.31191227959473111 0 0.1646016088670873 0.33391525780672238 0 0.15012826473426091 0.33360027911642098 0 0.1681875309077884 0.31191227959473111 0 0.15012826473426091 0.33360027911642098 0 0.15408375079106759 0.31989534673071929 0 0.15747695904694031 0.31005470234195709 0 0.1681875309077884 0.31191227959473111 0 0.15408375079106759 0.31989534673071929 0 0.16351321434728711 0.3469854200052529 0 0.17847797443657881 0.3435607375149925 0 0.1646016088670873 0.33391525780672238 0 0.16351321434728711 0.3469854200052529 0 0.1646016088670873 0.33391525780672238 0 0.15012826473426091 0.33360027911642098 0 0.16351321434728711 0.3469854200052529 0 0.15012826473426091 0.33360027911642098 0 0.15012826473426091 0.33360027911642098 0 0.1343580986440428 0.35253921890141238 0 0.16351321434728711 0.3469854200052529 0 0.15012826473426091 0.33360027911642098 0 0.15066742811720249 0.3483158780682446 0 0.15012826473426091 0.33360027911642098 0 0.1405422484752803 0.32401412586976819 0 0.13688137772380021 0.33726096056677279 0 0.15012826473426091 0.33360027911642098 0 0.1405422484752803 0.32401412586976819 0 0.15747695904694031 0.31005470234195709 0 0.15408375079106759 0.31989534673071929 0 0.1405422484752803 0.32401412586976819 0 0.15747695904694031 0.31005470234195709 0 0.1405422484752803 0.32401412586976819 0 0.13878889194214661 0.30681355622919948 0 0.15747695904694031 0.31005470234195709 0 0.1405422484752803 0.32401412586976819 0 0.15012826473426091 0.33360027911642098 0 0.15408375079106759 0.31989534673071929 0 0.1405422484752803 0.32401412586976819 0 0.1212376155566439 0.32281054036382018 0 0.120100824837353 0.30357241011644148 0 0.1405422484752803 0.32401412586976819 0 0.120100824837353 0.30357241011644148 0 0.1405422484752803 0.32401412586976819 0 0.12317936205375921 0.33832649833091311 0 0.1405422484752803 0.32401412586976819 0 0.12317936205375921 0.33832649833091311 0 0.1212376155566439 0.32281054036382018 0 0.1405422484752803 0.32401412586976819 0 0.15012826473426091 0.33360027911642098 0 0.13688137772380021 0.33726096056677279 0 0.1343580986440428 0.35253921890141238 0 0.12317936205375921 0.33832649833091311 0 0.1405422484752803 0.32401412586976819 0 0.13688137772380021 0.33726096056677279 0 0.12317936205375921 0.33832649833091311 0 0.13688137772380021 0.33726096056677279 0 0.1343580986440428 0.35253921890141238 0 0.120086145189699 0.35226197566915618 0 0.12317936205375921 0.33832649833091311 0 0.1343580986440428 0.35253921890141238 0 0.1185879325538249 0.37147815868640388 0 0.1343580986440428 0.35253921890141238 0 0.1185879325538249 0.37147815868640388 0 0.1343580986440428 0.35253921890141238 0 0.13642716119823861 0.37800357189001083 0 0.1343580986440428 0.35253921890141238 0 0.14522488250444049 0.3669514187230663 0 0.13642716119823861 0.37800357189001083 0 0.1343580986440428 0.35253921890141238 0 0.14522488250444049 0.3669514187230663 0 0.15467013474321939 0.36013859424989231 0 0.14522488250444049 0.3669514187230663 0 0.15544413543226149 0.37712428985094981 0 0.13642716119823861 0.37800357189001083 0 0.14522488250444049 0.3669514187230663 0 0.15467013474321939 0.36013859424989231 0 0.15544413543226149 0.37712428985094981 0 0.15012826473426091 0.33360027911642098 0 0.1343580986440428 0.35253921890141238 0 0.15066742811720249 0.3483158780682446 0 0.1343580986440428 0.35253921890141238 0 0.15467013474321939 0.36013859424989231 0 0.15066742811720249 0.3483158780682446 0 0.14820560246892059 0.39338842015858788 0 0.1526254804805072 0.40397401984264092 0 0.14166567120599219 0.40908868331588633 0 0.14820560246892059 0.39338842015858788 0 0.13371045049013169 0.39347948582606912 0 0.14166567120599219 0.40908868331588633 0 0.14820560246892059 0.39338842015858788 0 0.1526254804805072 0.40397401984264092 0 0.16273103165040601 0.39925801684011741 0 0.14820560246892059 0.39338842015858788 0 0.15544413543226149 0.37712428985094981 0 0.13642716119823861 0.37800357189001083 0 0.14820560246892059 0.39338842015858788 0 0.15544413543226149 0.37712428985094981 0 0.15919511832563199 0.3882509275390878 0 0.14820560246892059 0.39338842015858788 0 0.13642716119823861 0.37800357189001083 0 0.13371045049013169 0.39347948582606912 0 0.1191225926961947 0.39026688431444623 0 0.13642716119823861 0.37800357189001083 0 0.13371045049013169 0.39347948582606912 0 0.12474070720654359 0.40416091344037841 0 0.1191225926961947 0.39026688431444623 0 0.13371045049013169 0.39347948582606912 0 0.12474070720654359 0.40416091344037841 0 0.13371045049013169 0.39347948582606912 0 0.14166567120599219 0.40908868331588633 0 0.12291218917323481 0.41928044869161057 0 0.13810381539502151 0.42571944238798282 0 0.14166567120599219 0.40908868331588633 0 0.12291218917323481 0.41928044869161057 0 0.12474070720654359 0.40416091344037841 0 0.14166567120599219 0.40908868331588633 0 0.12723676124630739 0.43470971013397369 0 0.15148221031346559 0.43748901554507008 0 0.12723676124630739 0.43470971013397369 0 0.13810381539502151 0.42571944238798282 0 0.15148221031346559 0.43748901554507008 0 0.12723676124630739 0.43470971013397369 0 0.13810381539502151 0.42571944238798282 0 0.12291218917323481 0.41928044869161057 0 0.12723676124630739 0.43470971013397369 0 0.13810381539502151 0.42571944238798282 0 0.13810381539502151 0.42571944238798282 0 0.15081523334300129 0.42475881130275772 0 0.15148221031346559 0.43748901554507008 0 0.15081523334300129 0.42475881130275772 0 0.15148221031346559 0.43748901554507008 0 0.1645596445305044 0.42568441610049318 0 0.13810381539502151 0.42571944238798282 0 0.15081523334300129 0.42475881130275772 0 0.14166567120599219 0.40908868331588633 0 0.15081523334300129 0.42475881130275772 0 0.14166567120599219 0.40908868331588633 0 0.1578996165967099 0.41416095905597222 0 0.1526254804805072 0.40397401984264092 0 0.14166567120599219 0.40908868331588633 0 0.1578996165967099 0.41416095905597222 0 0.1578996165967099 0.41416095905597222 0 0.17090749385610801 0.41014338492999081 0 0.16273103165040601 0.39925801684011741 0 0.15081523334300129 0.42475881130275772 0 0.1578996165967099 0.41416095905597222 0 0.1645596445305044 0.42568441610049318 0 0.1578996165967099 0.41416095905597222 0 0.17090749385610801 0.41014338492999081 0 0.1645596445305044 0.42568441610049318 0 0.17090749385610801 0.41014338492999081 0 0.1645596445305044 0.42568441610049318 0 0.17998947189273201 0.4202855468097676 0 0.15148221031346559 0.43748901554507008 0 0.1645596445305044 0.42568441610049318 0 0.17572765938062479 0.44026832095615892 0 0.17998947189273201 0.4202855468097676 0 0.19997310844778399 0.44304762636724732 0 0.17572765938062479 0.44026832095615892 0 0.1645596445305044 0.42568441610049318 0 0.17998947189273201 0.4202855468097676 0 0.17572765938062479 0.44026832095615892 0 0.17998947189273201 0.4202855468097676 0 0.1840797042512298 0.39879549841740097 0 0.17090749385610801 0.41014338492999081 0 0.17998947189273201 0.4202855468097676 0 0.1840797042512298 0.39879549841740097 0 0.1840797042512298 0.39879549841740097 0 0.16273103165040601 0.39925801684011741 0 0.17275317334639209 0.3865327286361 0 0.17090749385610801 0.41014338492999081 0 0.1840797042512298 0.39879549841740097 0 0.16273103165040601 0.39925801684011741 0 0.16273103165040601 0.39925801684011741 0 0.15919511832563199 0.3882509275390878 0 0.17275317334639209 0.3865327286361 0 0.14820560246892059 0.39338842015858788 0 0.16273103165040601 0.39925801684011741 0 0.15919511832563199 0.3882509275390878 0 0.1526254804805072 0.40397401984264092 0 0.1578996165967099 0.41416095905597222 0 0.16273103165040601 0.39925801684011741 0 0.17142003567646899 0.36872202213746841 0 0.15544413543226149 0.37712428985094981 0 0.1670815713230899 0.37962221533122797 0 0.15544413543226149 0.37712428985094981 0 0.15919511832563199 0.3882509275390878 0 0.1670815713230899 0.37962221533122797 0 0.15919511832563199 0.3882509275390878 0 0.1670815713230899 0.37962221533122797 0 0.17275317334639209 0.3865327286361 0 0.17142003567646899 0.36872202213746841 0 0.1670815713230899 0.37962221533122797 0 0.1759615692735523 0.37768682844148582 0 0.1840797042512298 0.39879549841740097 0 0.18816993660972431 0.3773054500250338 0 0.1670815713230899 0.37962221533122797 0 0.1759615692735523 0.37768682844148582 0 0.17275317334639209 0.3865327286361 0 0.1759615692735523 0.37768682844148582 0 0.17275317334639209 0.3865327286361 0 0.18816993660972431 0.3773054500250338 0 0.1840797042512298 0.39879549841740097 0 0.17275317334639209 0.3865327286361 0 0.18816993660972431 0.3773054500250338 0 0.1840797042512298 0.39879549841740097 0 0.18816993660972431 0.3773054500250338 0 0.2006965552387461 0.3837246717330377 0 0.18816993660972431 0.3773054500250338 0 0.2006965552387461 0.3837246717330377 0 0.18816993660972431 0.3773054500250338 0 0.2006965552387461 0.3837246717330377 0 0.19686609485469481 0.37657943176711572 0 0.2006965552387461 0.3837246717330377 0 0.2007235072116168 0.38151459811866661 0 0.19686609485469481 0.37657943176711572 0 0.2006965552387461 0.3837246717330377 0 0.2007235072116168 0.38151459811866661 0 0.20283125615183931 0.37442275212037318 0 0.2007235072116168 0.38151459811866661 0 0.19686609485469481 0.37657943176711572 0 0.2006965552387461 0.3837246717330377 0 0.2042449525141099 0.38990564362219482 0 0.200334831843265 0.41338614905014248 0 0.1840797042512298 0.39879549841740097 0 0.2006965552387461 0.3837246717330377 0 0.200334831843265 0.41338614905014248 0 0.2006965552387461 0.3837246717330377 0 0.200334831843265 0.41338614905014248 0 0.2042449525141099 0.38990564362219482 0 0.2154916406574135 0.40806323521272558 0 0.200334831843265 0.41338614905014248 0 0.2042449525141099 0.38990564362219482 0 0.21249079224861839 0.38976858705329093 0 0.2154916406574135 0.40806323521272558 0 0.21097783645579449 0.36112575883105807 0 0.20944942331024169 0.38754803822407458 0 0.22063678428880171 0.37779776249844421 0 0.20283125615183931 0.37442275212037318 0 0.2007235072116168 0.38151459811866661 0 0.20944942331024169 0.38754803822407458 0 0.2006965552387461 0.3837246717330377 0 0.20944942331024169 0.38754803822407458 0 0.21249079224861839 0.38976858705329093 0 0.2006965552387461 0.3837246717330377 0 0.2042449525141099 0.38990564362219482 0 0.21249079224861839 0.38976858705329093 0 0.2042449525141099 0.38990564362219482 0 0.21249079224861839 0.38976858705329093 0 0.2006965552387461 0.3837246717330377 0 0.2007235072116168 0.38151459811866661 0 0.20944942331024169 0.38754803822407458 0 0.2006965552387461 0.3837246717330377 0 0.21249079224861839 0.38976858705329093 0 0.20944942331024169 0.38754803822407458 0 0.21249079224861839 0.38976858705329093 0 0.22063678428880171 0.37779776249844421 0 0.22063678428880171 0.37779776249844421 0 0.22795716168332619 0.38951151590027627 0 0.23448135539952561 0.37755203255784808 0 0.21249079224861839 0.38976858705329093 0 0.22063678428880171 0.37779776249844421 0 0.22795716168332619 0.38951151590027627 0 0.21249079224861839 0.38976858705329093 0 0.22795716168332619 0.38951151590027627 0 0.21249079224861839 0.38976858705329093 0 0.23739670527409079 0.40253153468386599 0 0.2154916406574135 0.40806323521272558 0 0.21249079224861839 0.38976858705329093 0 0.23739670527409079 0.40253153468386599 0 0.21249079224861839 0.38976858705329093 0 0.22795716168332619 0.38951151590027627 0 0.23739670527409079 0.40253153468386599 0 0.23739670527409079 0.40253153468386599 0 0.25720166469534772 0.41268051656060561 0 0.25471714199726092 0.3993825039803387 0 0.23739670527409079 0.40253153468386599 0 0.24342353111803389 0.38925444474726167 0 0.22795716168332619 0.38951151590027627 0 0.23739670527409079 0.40253153468386599 0 0.24342353111803389 0.38925444474726167 0 0.23739670527409079 0.40253153468386599 0 0.24342353111803389 0.38925444474726167 0 0.25471714199726092 0.3993825039803387 0 0.24342353111803389 0.38925444474726167 0 0.23448135539952561 0.37755203255784808 0 0.25291152302829473 0.3683524102149337 0 0.24342353111803389 0.38925444474726167 0 0.25291152302829473 0.3683524102149337 0 0.22795716168332619 0.38951151590027627 0 0.24342353111803389 0.38925444474726167 0 0.23448135539952561 0.37755203255784808 0 0.22795716168332619 0.38951151590027627 0 0.24342353111803389 0.38925444474726167 0 0.2477108739726743 0.43608506657033408 0 0.22839192455678281 0.42760326130316839 0 0.2477108739726743 0.43608506657033408 0 0.22839192455678281 0.42760326130316839 0 0.2336932046861932 0.43809758731539661 0 0.24179891162593201 0.4233084808526586 0 0.2477108739726743 0.43608506657033408 0 0.22839192455678281 0.42760326130316839 0 0.23739670527409079 0.40253153468386599 0 0.24179891162593201 0.4233084808526586 0 0.2277303609233591 0.42382647942364532 0 0.23739670527409079 0.40253153468386599 0 0.25720166469534772 0.41268051656060561 0 0.23739670527409079 0.40253153468386599 0 0.24179891162593201 0.4233084808526586 0 0.25720166469534772 0.41268051656060561 0 0.23739670527409079 0.40253153468386599 0 0.2277303609233591 0.42382647942364532 0 0.2154916406574135 0.40806323521272558 0 0.23739670527409079 0.40253153468386599 0 0.2277303609233591 0.42382647942364532 0 0.22839192455678281 0.42760326130316839 0 0.21806401657263061 0.44512142416342598 0 0.2336932046861932 0.43809758731539661 0 0.2277303609233591 0.42382647942364532 0 0.22839192455678281 0.42760326130316839 0 0.21806401657263061 0.44512142416342598 0 0.2277303609233591 0.42382647942364532 0 0.21806401657263061 0.44512142416342598 0 0.2277303609233591 0.42382647942364532 0 0.21132311606372481 0.42813301649577368 0 0.21806401657263061 0.44512142416342598 0 0.24179891162593201 0.4233084808526586 0 0.2277303609233591 0.42382647942364532 0 0.22839192455678281 0.42760326130316839 0 0.21132311606372481 0.42813301649577368 0 0.200334831843265 0.41338614905014248 0 0.19997310844778399 0.44304762636724732 0 0.2277303609233591 0.42382647942364532 0 0.21132311606372481 0.42813301649577368 0 0.2154916406574135 0.40806323521272558 0 0.21132311606372481 0.42813301649577368 0 0.2154916406574135 0.40806323521272558 0 0.200334831843265 0.41338614905014248 0 0.17998947189273201 0.4202855468097676 0 0.1840797042512298 0.39879549841740097 0 0.200334831843265 0.41338614905014248 0 0.200334831843265 0.41338614905014248 0 0.19997310844778399 0.44304762636724732 0 0.17998947189273201 0.4202855468097676 0 0.200334831843265 0.41338614905014248 0 0.19997310844778399 0.44304762636724732 0 0.19997310844778399 0.44304762636724732 0 0.17572765938062479 0.44026832095615892 0 0.19997310844778399 0.44304762636724732 0 0.19968200671753969 0.4669180961147073 0 0.19997310844778399 0.44304762636724732 0 0.19968200671753969 0.4669180961147073 0 0.18159517998259689 0.45908491534316159 0 0.19968200671753969 0.4669180961147073 0 0.1996512890033991 0.46943696216704112 0 0.19968200671753969 0.4669180961147073 0 0.21828780011045479 0.46353289824288518 0 0.22242014387397629 0.45638796891448069 0 0.19968200671753969 0.4669180961147073 0 0.21828780011045479 0.46353289824288518 0 0.210506248860339 0.47133562409762919 0 0.19968200671753969 0.4669180961147073 0 0.2145952889318655 0.45276302689834302 0 0.22242014387397629 0.45638796891448069 0 0.19997310844778399 0.44304762636724732 0 0.19968200671753969 0.4669180961147073 0 0.2145952889318655 0.45276302689834302 0 0.19968200671753969 0.4669180961147073 0 0.22242014387397629 0.45638796891448069 0 0.19997310844778399 0.44304762636724732 0 0.2145952889318655 0.45276302689834302 0 0.21806401657263061 0.44512142416342598 0 0.19997310844778399 0.44304762636724732 0 0.21806401657263061 0.44512142416342598 0 0.21132311606372481 0.42813301649577368 0 0.19997310844778399 0.44304762636724732 0 0.21806401657263061 0.44512142416342598 0 0.2145952889318655 0.45276302689834302 0 0.21806401657263061 0.44512142416342598 0 0.21806401657263061 0.44512142416342598 0 0.2242253902885904 0.45078437535245919 0 0.23642513750439681 0.44722619700628091 0 0.21806401657263061 0.44512142416342598 0 0.2336932046861932 0.43809758731539661 0 0.23642513750439681 0.44722619700628091 0 0.21806401657263061 0.44512142416342598 0 0.23642513750439681 0.44722619700628091 0 0.22962236456008309 0.45242325977976322 0 0.2242253902885904 0.45078437535245919 0 0.23642513750439681 0.44722619700628091 0 0.22962236456008309 0.45242325977976322 0 0.23653702927331069 0.45643193404602073 0 0.23642513750439681 0.44722619700628091 0 0.2145952889318655 0.45276302689834302 0 0.21806401657263061 0.44512142416342598 0 0.2242253902885904 0.45078437535245919 0 0.2145952889318655 0.45276302689834302 0 0.2242253902885904 0.45078437535245919 0 0.22242014387397629 0.45638796891448069 0 0.21828780011045479 0.46353289824288518 0 0.23653702927331069 0.45643193404602073 0 0.21828780011045479 0.46353289824288518 0 0.23021222535238131 0.46748085404369583 0 0.23653702927331069 0.45643193404602073 0 0.21828780011045479 0.46353289824288518 0 0.22242014387397629 0.45638796891448069 0 0.23653702927331069 0.45643193404602073 0 0.22962236456008309 0.45242325977976322 0 0.2242253902885904 0.45078437535245919 0 0.22242014387397629 0.45638796891448069 0 0.21828780011045479 0.46353289824288518 0 0.23021222535238131 0.46748085404369583 0 0.22226456360634189 0.47419589462082218 0 0.22962236456008309 0.45242325977976322 0 0.22242014387397629 0.45638796891448069 0 0.23653702927331069 0.45643193404602073 0 0.23653702927331069 0.45643193404602073 0 0.2495341404435279 0.46086582591305691 0 0.25478625843616209 0.44933096984914422 0 0.23021222535238131 0.46748085404369583 0 0.23653702927331069 0.45643193404602073 0 0.2409825980491864 0.46711013874977519 0 0.23653702927331069 0.45643193404602073 0 0.2409825980491864 0.46711013874977519 0 0.2495341404435279 0.46086582591305691 0 0.2409825980491864 0.46711013874977519 0 0.2495341404435279 0.46086582591305691 0 0.25310453826305501 0.47200942977231231 0 0.23653702927331069 0.45643193404602073 0 0.23642513750439681 0.44722619700628091 0 0.25478625843616209 0.44933096984914422 0 0.2477108739726743 0.43608506657033408 0 0.23642513750439681 0.44722619700628091 0 0.25478625843616209 0.44933096984914422 0 0.23653702927331069 0.45643193404602073 0 0.25478625843616209 0.44933096984914422 0 0.23642513750439681 0.44722619700628091 0 0.25478625843616209 0.44933096984914422 0 0.2477108739726743 0.43608506657033408 0 0.2336932046861932 0.43809758731539661 0 0.23642513750439681 0.44722619700628091 0 0.24518012127469921 0.48473577753726899 0 0.23566250046213291 0.5 0 0.26251640313324598 0.5 0 0.24518012127469921 0.48473577753726899 0 0.23566250046213291 0.5 0 0.22604151956767679 0.48635274391756678 0 0.2409825980491864 0.46711013874977519 0 0.24518012127469921 0.48473577753726899 0 0.25310453826305501 0.47200942977231231 0 0.24518012127469921 0.48473577753726899 0 0.23298913572261251 0.47613340455897579 0 0.22604151956767679 0.48635274391756678 0 0.2409825980491864 0.46711013874977519 0 0.24518012127469921 0.48473577753726899 0 0.23298913572261251 0.47613340455897579 0 0.23021222535238131 0.46748085404369583 0 0.2409825980491864 0.46711013874977519 0 0.23298913572261251 0.47613340455897579 0 0.23298913572261251 0.47613340455897579 0 0.22226456360634189 0.47419589462082218 0 0.22604151956767679 0.48635274391756678 0 0.23021222535238131 0.46748085404369583 0 0.23298913572261251 0.47613340455897579 0 0.22226456360634189 0.47419589462082218 0 0.22226456360634189 0.47419589462082218 0 0.22604151956767679 0.48635274391756678 0 0.21134419854925471 0.48305138678833381 0 0.23566250046213291 0.5 0 0.22604151956767679 0.48635274391756678 0 0.20880859779101979 0.5 0 0.20880859779101979 0.5 0 0.21134419854925471 0.48305138678833381 0 0.19739932876216651 0.48752612486332758 0 0.22604151956767679 0.48635274391756678 0 0.20880859779101979 0.5 0 0.21134419854925471 0.48305138678833381 0 0.21828780011045479 0.46353289824288518 0 0.22226456360634189 0.47419589462082218 0 0.210506248860339 0.47133562409762919 0 0.22226456360634189 0.47419589462082218 0 0.21134419854925471 0.48305138678833381 0 0.210506248860339 0.47133562409762919 0 0.21134419854925471 0.48305138678833381 0 0.20356828642359021 0.47902196793458052 0 0.19739932876216651 0.48752612486332758 0 0.21134419854925471 0.48305138678833381 0 0.20356828642359021 0.47902196793458052 0 0.210506248860339 0.47133562409762919 0 0.20356828642359021 0.47902196793458052 0 0.210506248860339 0.47133562409762919 0 0.202542194088317 0.47237694951870762 0 0.19968200671753969 0.4669180961147073 0 0.210506248860339 0.47133562409762919 0 0.202542194088317 0.47237694951870762 0 0.19968200671753969 0.4669180961147073 0 0.17587030107092019 0.47794539740980557 0 0.19968200671753969 0.4669180961147073 0 0.19371204972775241 0.47745694556211737 0 0.17587030107092019 0.47794539740980557 0 0.1996512890033991 0.46943696216704112 0 0.1993031394367171 0.4751720972795801 0 0.19371204972775241 0.47745694556211737 0 0.19968200671753969 0.4669180961147073 0 0.1996512890033991 0.46943696216704112 0 0.19371204972775241 0.47745694556211737 0 0.19968200671753969 0.4669180961147073 0 0.1996512890033991 0.46943696216704112 0 0.202542194088317 0.47237694951870762 0 0.1996512890033991 0.46943696216704112 0 0.202542194088317 0.47237694951870762 0 0.1993031394367171 0.4751720972795801 0 0.20356828642359021 0.47902196793458052 0 0.202542194088317 0.47237694951870762 0 0.1993031394367171 0.4751720972795801 0 0.20356828642359021 0.47902196793458052 0 0.19371204972775241 0.47745694556211737 0 0.19739932876216651 0.48752612486332758 0 0.20356828642359021 0.47902196793458052 0 0.1993031394367171 0.4751720972795801 0 0.19371204972775241 0.47745694556211737 0 0.19371204972775241 0.47745694556211737 0 0.19739932876216651 0.48752612486332758 0 0.18436761273884669 0.48602680973137963 0 0.20880859779101979 0.5 0 0.19739932876216651 0.48752612486332758 0 0.18195469511990681 0.5 0 0.19739932876216651 0.48752612486332758 0 0.18195469511990681 0.5 0 0.18436761273884669 0.48602680973137963 0 0.18195469511990681 0.5 0 0.18436761273884669 0.48602680973137963 0 0.16731624803217091 0.49069672731545561 0 0.18436761273884669 0.48602680973137963 0 0.16731624803217091 0.49069672731545561 0 0.17587030107092019 0.47794539740980557 0 0.16731624803217091 0.49069672731545561 0 0.17587030107092019 0.47794539740980557 0 0.15205859542430039 0.48897269870490312 0 0.18195469511990681 0.5 0 0.16731624803217091 0.49069672731545561 0 0.15510079244879371 0.5 0 0.16731624803217091 0.49069672731545561 0 0.15510079244879371 0.5 0 0.15205859542430039 0.48897269870490312 0 0.17587030107092019 0.47794539740980557 0 0.16127983485163341 0.45916182723339222 0 0.15205859542430039 0.48897269870490312 0 0.17587030107092019 0.47794539740980557 0 0.15205859542430039 0.48897269870490312 0 0.19371204972775241 0.47745694556211737 0 0.18436761273884669 0.48602680973137963 0 0.17587030107092019 0.47794539740980557 0 0.17587030107092019 0.47794539740980557 0 0.18159517998259689 0.45908491534316159 0 0.16127983485163341 0.45916182723339222 0 0.19968200671753969 0.4669180961147073 0 0.17587030107092019 0.47794539740980557 0 0.18159517998259689 0.45908491534316159 0 0.18159517998259689 0.45908491534316159 0 0.17572765938062479 0.44026832095615892 0 0.16127983485163341 0.45916182723339222 0 0.19997310844778399 0.44304762636724732 0 0.18159517998259689 0.45908491534316159 0 0.17572765938062479 0.44026832095615892 0 0.15148221031346559 0.43748901554507008 0 0.17572765938062479 0.44026832095615892 0 0.15148221031346559 0.43748901554507008 0 0.17572765938062479 0.44026832095615892 0 0.16127983485163341 0.45916182723339222 0 0.15148221031346559 0.43748901554507008 0 0.16127983485163341 0.45916182723339222 0 0.13622940237324219 0.46340484625597689 0 0.12723676124630739 0.43470971013397369 0 0.15148221031346559 0.43748901554507008 0 0.13622940237324219 0.46340484625597689 0 0.13622940237324219 0.46340484625597689 0 0.132064732583837 0.48272194778505378 0 0.15205859542430039 0.48897269870490312 0 0.1117240427601245 0.47851024617933469 0 0.13622940237324219 0.46340484625597689 0 0.132064732583837 0.48272194778505378 0 0.12824688977768059 0.50000000000000033 0 0.15205859542430039 0.48897269870490312 0 0.132064732583837 0.48272194778505378 0 0.12824688977768059 0.50000000000000033 0 0.15205859542430039 0.48897269870490312 0 0.12824688977768059 0.50000000000000033 0 0.15510079244879371 0.5 0 0.15205859542430039 0.48897269870490312 0 0.16127983485163341 0.45916182723339222 0 0.13622940237324219 0.46340484625597689 0 0.15205859542430039 0.48897269870490312 0 0.35559568018161952 0.48345088848182283 0 0.3503243763276116 0.49156565124349361 0 0.33674878154228821 0.47517633272273341 0 0.35559568018161952 0.48345088848182283 0 0.34936912042864149 0.47039323018030837 0 0.33674878154228821 0.47517633272273341 0 0.35559568018161952 0.48345088848182283 0 0.33674878154228821 0.47517633272273341 0 0.35559568018161952 0.48345088848182283 0 0.34936912042864149 0.47039323018030837 0 0.36308418083368998 0.47347720533052889 0 0.3503243763276116 0.49156565124349361 0 0.36993201381769819 0.50000000000000078 0 0.34307811114658521 0.5 0 0.35559568018161952 0.48345088848182283 0 0.3503243763276116 0.49156565124349361 0 0.36993201381769819 0.50000000000000078 0 0.3503243763276116 0.49156565124349361 0 0.36993201381769819 0.50000000000000078 0 0.35559568018161952 0.48345088848182283 0 0.37444257882095089 0.49172544424091202 0 0.35559568018161952 0.48345088848182283 0 0.37444257882095089 0.49172544424091202 0 0.36993201381769819 0.50000000000000078 0 0.37444257882095089 0.49172544424091202 0 0.36308418083368998 0.47347720533052889 0 0.38336087708708061 0.47815606702472441 0 0.35559568018161952 0.48345088848182283 0 0.37444257882095089 0.49172544424091202 0 0.36308418083368998 0.47347720533052889 0 0.36308418083368998 0.47347720533052889 0 0.37278325503091708 0.46285720688518911 0 0.38336087708708061 0.47815606702472441 0 0.37278325503091708 0.46285720688518911 0 0.3640573575947712 0.45455438321778391 0 0.35002719433196983 0.46024863310870773 0 0.36308418083368998 0.47347720533052889 0 0.37278325503091708 0.46285720688518911 0 0.35168841599117617 0.46109992031177399 0 0.37278325503091708 0.46285720688518911 0 0.35002719433196983 0.46024863310870773 0 0.37278325503091708 0.46285720688518911 0 0.3640573575947712 0.45455438321778391 0 0.37765471967194852 0.4493470472049339 0 0.35249901441781101 0.45440515578696111 0 0.3705612610547705 0.43058492889134098 0 0.36452231592957729 0.44300163531389081 0 0.35249901441781101 0.45440515578696111 0 0.3705612610547705 0.43058492889134098 0 0.36452231592957729 0.44300163531389081 0 0.37765471967194852 0.4493470472049339 0 0.37822304894532882 0.43966646236554541 0 0.36452231592957729 0.44300163531389081 0 0.37654561744134379 0.43159811484082028 0 0.37822304894532882 0.43966646236554541 0 0.3640573575947712 0.45455438321778391 0 0.36452231592957729 0.44300163531389081 0 0.37765471967194852 0.4493470472049339 0 0.3640573575947712 0.45455438321778391 0 0.36452231592957729 0.44300163531389081 0 0.35249901441781101 0.45440515578696111 0 0.35222722247737281 0.43911601886625828 0 0.35249901441781101 0.45440515578696111 0 0.3705612610547705 0.43058492889134098 0 0.36452231592957729 0.44300163531389081 0 0.35249901441781101 0.45440515578696111 0 0.35249901441781101 0.45440515578696111 0 0.34763204078440868 0.45902124508789921 0 0.33883897711607303 0.44487648722790651 0 0.35222722247737281 0.43911601886625828 0 0.35249901441781101 0.45440515578696111 0 0.33883897711607303 0.44487648722790651 0 0.34936912042864149 0.47039323018030837 0 0.34763204078440868 0.45902124508789921 0 0.33674878154228821 0.47517633272273341 0 0.37278325503091708 0.46285720688518911 0 0.35168841599117617 0.46109992031177399 0 0.35002719433196983 0.46024863310870773 0 0.34936912042864149 0.47039323018030837 0 0.36308418083368998 0.47347720533052889 0 0.35168841599117617 0.46109992031177399 0 0.3640573575947712 0.45455438321778391 0 0.35249901441781101 0.45440515578696111 0 0.35002719433196983 0.46024863310870773 0 0.35249901441781101 0.45440515578696111 0 0.35002719433196983 0.46024863310870773 0 0.34763204078440868 0.45902124508789921 0 0.35168841599117617 0.46109992031177399 0 0.35002719433196983 0.46024863310870773 0 0.35002719433196983 0.46024863310870773 0 0.34763204078440868 0.45902124508789921 0 0.35249901441781101 0.45440515578696111 0 0.34763204078440868 0.45902124508789921 0 0.34936912042864149 0.47039323018030837 0 0.35002719433196983 0.46024863310870773 0 0.34763204078440868 0.45902124508789921 0 0.34763204078440868 0.45902124508789921 0 0.33996176257668159 0.46629613331143283 0 0.34936912042864149 0.47039323018030837 0 0.35168841599117617 0.46109992031177399 0 0.35002719433196983 0.46024863310870773 0 0.34763204078440868 0.45902124508789921 0 0.33996176257668159 0.46629613331143283 0 0.33674878154228821 0.47517633272273341 0 0.34763204078440868 0.45902124508789921 0 0.32222181216113438 0.44599986270099329 0 0.32650438842291618 0.45755216576071289 0 0.33996176257668159 0.46629613331143283 0 0.32650438842291618 0.45755216576071289 0 0.33674878154228821 0.47517633272273341 0 0.34763204078440868 0.45902124508789921 0 0.33674878154228821 0.47517633272273341 0 0.34763204078440868 0.45902124508789921 0 0.33996176257668159 0.46629613331143283 0 0.32650438842291618 0.45755216576071289 0 0.34763204078440868 0.45902124508789921 0 0.32650438842291618 0.45755216576071289 0 0.33883897711607303 0.44487648722790651 0 0.32222181216113438 0.44599986270099329 0 0.3234580135869034 0.42261007822630631 0 0.34763204078440868 0.45902124508789921 0 0.32222181216113438 0.44599986270099329 0 0.34763204078440868 0.45902124508789921 0 0.33883897711607303 0.44487648722790651 0 0.32222181216113438 0.44599986270099329 0 0.32222181216113438 0.44599986270099329 0 0.32650438842291618 0.45755216576071289 0 0.30627302169927978 0.45523300281788731 0 0.32650438842291618 0.45755216576071289 0 0.30627302169927978 0.45523300281788731 0 0.32650438842291618 0.45755216576071289 0 0.30627302169927978 0.45523300281788731 0 0.31139521825896571 0.46404508629889812 0 0.32650438842291618 0.45755216576071289 0 0.33674878154228821 0.47517633272273341 0 0.31139521825896571 0.46404508629889812 0 0.33674878154228821 0.47517633272273341 0 0.31139521825896571 0.46404508629889812 0 0.31549969421355012 0.47658559490406838 0 0.33071673883752423 0.48313130248698788 0 0.32343470772690369 0.49273473869303741 0 0.31549969421355012 0.47658559490406838 0 0.33674878154228821 0.47517633272273341 0 0.31139521825896571 0.46404508629889812 0 0.31549969421355012 0.47658559490406838 0 0.33071673883752423 0.48313130248698788 0 0.33674878154228821 0.47517633272273341 0 0.31549969421355012 0.47658559490406838 0 0.33071673883752423 0.48313130248698788 0 0.3503243763276116 0.49156565124349361 0 0.33071673883752423 0.48313130248698788 0 0.33674878154228821 0.47517633272273341 0 0.33071673883752423 0.48313130248698788 0 0.33674878154228821 0.47517633272273341 0 0.3503243763276116 0.49156565124349361 0 0.33071673883752423 0.48313130248698788 0 0.34307811114658521 0.5 0 0.33275562850281948 0.4934863384847038 0 0.31622420847547222 0.5 0 0.3503243763276116 0.49156565124349361 0 0.33071673883752423 0.48313130248698788 0 0.33275562850281948 0.4934863384847038 0 0.3503243763276116 0.49156565124349361 0 0.34307811114658521 0.5 0 0.33275562850281948 0.4934863384847038 0 0.33071673883752423 0.48313130248698788 0 0.33275562850281948 0.4934863384847038 0 0.32343470772690369 0.49273473869303741 0 0.31549969421355012 0.47658559490406838 0 0.32343470772690369 0.49273473869303741 0 0.31194326727237598 0.48813849139223858 0 0.33275562850281948 0.4934863384847038 0 0.32343470772690369 0.49273473869303741 0 0.31622420847547222 0.5 0 0.33071673883752423 0.48313130248698788 0 0.32343470772690369 0.49273473869303741 0 0.32343470772690369 0.49273473869303741 0 0.31622420847547222 0.5 0 0.31194326727237598 0.48813849139223858 0 0.31622420847547222 0.5 0 0.31194326727237598 0.48813849139223858 0 0.30198562859994632 0.49034088486976901 0 0.31622420847547222 0.5 0 0.30198562859994632 0.49034088486976901 0 0.28937030580435907 0.5 0 0.31194326727237598 0.48813849139223858 0 0.30198562859994632 0.49034088486976901 0 0.30406128893092488 0.48133889096248511 0 0.31549969421355012 0.47658559490406838 0 0.30028264958957512 0.47003988732115132 0 0.31139521825896571 0.46404508629889812 0 0.31549969421355012 0.47658559490406838 0 0.30406128893092488 0.48133889096248511 0 0.30028264958957512 0.47003988732115132 0 0.31549969421355012 0.47658559490406838 0 0.30028264958957512 0.47003988732115132 0 0.31549969421355012 0.47658559490406838 0 0.31194326727237598 0.48813849139223858 0 0.30406128893092488 0.48133889096248511 0 0.30406128893092488 0.48133889096248511 0 0.30028264958957512 0.47003988732115132 0 0.29286133744175469 0.48095215065627461 0 0.30198562859994632 0.49034088486976901 0 0.30406128893092488 0.48133889096248511 0 0.29286133744175469 0.48095215065627461 0 0.29286133744175469 0.48095215065627461 0 0.27660498721303378 0.47636072050758838 0 0.28610501103245428 0.46849895094805949 0 0.30028264958957512 0.47003988732115132 0 0.29286133744175469 0.48095215065627461 0 0.28610501103245428 0.46849895094805949 0 0.30198562859994632 0.49034088486976901 0 0.29286133744175469 0.48095215065627461 0 0.28937030580435907 0.5 0 0.29286133744175469 0.48095215065627461 0 0.28937030580435907 0.5 0 0.27660498721303378 0.47636072050758838 0 0.28937030580435907 0.5 0 0.26309124286422841 0.48410143423938029 0 0.26251640313324598 0.5 0 0.28937030580435907 0.5 0 0.27660498721303378 0.47636072050758838 0 0.26309124286422841 0.48410143423938029 0 0.27660498721303378 0.47636072050758838 0 0.26309124286422841 0.48410143423938029 0 0.26468102945042238 0.464985925419927 0 0.24518012127469921 0.48473577753726899 0 0.26309124286422841 0.48410143423938029 0 0.25310453826305501 0.47200942977231231 0 0.26309124286422841 0.48410143423938029 0 0.25310453826305501 0.47200942977231231 0 0.26468102945042238 0.464985925419927 0 0.24518012127469921 0.48473577753726899 0 0.26309124286422841 0.48410143423938029 0 0.26251640313324598 0.5 0 0.2477108739726743 0.43608506657033408 0 0.25478625843616209 0.44933096984914422 0 0.26702982338856518 0.44456687183750088 0 0.2477108739726743 0.43608506657033408 0 0.26702982338856518 0.44456687183750088 0 0.25478625843616209 0.44933096984914422 0 0.2704139567059034 0.45112240486209731 0 0.25478625843616209 0.44933096984914422 0 0.2704139567059034 0.45112240486209731 0 0.26702982338856518 0.44456687183750088 0 0.25478625843616209 0.44933096984914422 0 0.26702982338856518 0.44456687183750088 0 0.25478625843616209 0.44933096984914422 0 0.26468102945042238 0.464985925419927 0 0.2704139567059034 0.45112240486209731 0 0.2495341404435279 0.46086582591305691 0 0.25478625843616209 0.44933096984914422 0 0.26468102945042238 0.464985925419927 0 0.2495341404435279 0.46086582591305691 0 0.25310453826305501 0.47200942977231231 0 0.26468102945042238 0.464985925419927 0 0.27715204646791392 0.46089110385148768 0 0.2704139567059034 0.45112240486209731 0 0.28604165497564332 0.45291383987506212 0 0.26468102945042238 0.464985925419927 0 0.27715204646791392 0.46089110385148768 0 0.2704139567059034 0.45112240486209731 0 0.27660498721303378 0.47636072050758838 0 0.26468102945042238 0.464985925419927 0 0.27715204646791392 0.46089110385148768 0 0.27660498721303378 0.47636072050758838 0 0.27715204646791392 0.46089110385148768 0 0.28610501103245428 0.46849895094805949 0 0.26702982338856518 0.44456687183750088 0 0.28192070346321368 0.43877267607579351 0 0.28604165497564332 0.45291383987506212 0 0.2704139567059034 0.45112240486209731 0 0.28604165497564332 0.45291383987506212 0 0.2704139567059034 0.45112240486209731 0 0.26702982338856518 0.44456687183750088 0 0.28604165497564332 0.45291383987506212 0 0.26702982338856518 0.44456687183750088 0 0.28604165497564332 0.45291383987506212 0 0.26702982338856518 0.44456687183750088 0 0.28192070346321368 0.43877267607579351 0 0.26702982338856518 0.44456687183750088 0 0.28192070346321368 0.43877267607579351 0 0.2719322765767978 0.43383347297327762 0 0.28604165497564332 0.45291383987506212 0 0.30627302169927978 0.45523300281788731 0 0.29708260869818892 0.44600176599155361 0 0.28192070346321368 0.43877267607579351 0 0.28604165497564332 0.45291383987506212 0 0.29708260869818892 0.44600176599155361 0 0.28192070346321368 0.43877267607579351 0 0.29708260869818892 0.44600176599155361 0 0.29681158353786141 0.43297848031408442 0 0.28604165497564332 0.45291383987506212 0 0.30627302169927978 0.45523300281788731 0 0.30028264958957512 0.47003988732115132 0 0.28604165497564332 0.45291383987506212 0 0.28610501103245428 0.46849895094805949 0 0.27715204646791392 0.46089110385148768 0 0.28604165497564332 0.45291383987506212 0 0.28610501103245428 0.46849895094805949 0 0.28604165497564332 0.45291383987506212 0 0.31139521825896571 0.46404508629889812 0 0.30028264958957512 0.47003988732115132 0 0.28604165497564332 0.45291383987506212 0 0.31139521825896571 0.46404508629889812 0 0.28604165497564332 0.45291383987506212 0 0.30627302169927978 0.45523300281788731 0 0.31139521825896571 0.46404508629889812 0 0.32222181216113438 0.44599986270099329 0 0.29708260869818892 0.44600176599155361 0 0.29681158353786141 0.43297848031408442 0 0.32222181216113438 0.44599986270099329 0 0.30627302169927978 0.45523300281788731 0 0.29708260869818892 0.44600176599155361 0 0.32222181216113438 0.44599986270099329 0 0.29681158353786141 0.43297848031408442 0 0.30615772014745768 0.41968103906111992 0 0.29681158353786141 0.43297848031408442 0 0.3234580135869034 0.42261007822630631 0 0.29681158353786141 0.43297848031408442 0 0.3234580135869034 0.42261007822630631 0 0.30615772014745768 0.41968103906111992 0 0.2932127469662637 0.42051583266768378 0 0.29681158353786141 0.43297848031408442 0 0.31022671357717729 0.40640484374907759 0 0.30615772014745768 0.41968103906111992 0 0.2909143831398382 0.40764825720093367 0 0.2909143831398382 0.40764825720093367 0 0.2932127469662637 0.42051583266768378 0 0.27700662411660448 0.42282949843734502 0 0.30615772014745768 0.41968103906111992 0 0.2909143831398382 0.40764825720093367 0 0.2932127469662637 0.42051583266768378 0 0.28192070346321368 0.43877267607579351 0 0.29681158353786141 0.43297848031408442 0 0.27700662411660448 0.42282949843734502 0 0.2932127469662637 0.42051583266768378 0 0.29681158353786141 0.43297848031408442 0 0.27700662411660448 0.42282949843734502 0 0.29681158353786141 0.43297848031408442 0 0.27700662411660448 0.42282949843734502 0 0.28192070346321368 0.43877267607579351 0 0.29681158353786141 0.43297848031408442 0 0.28192070346321368 0.43877267607579351 0 0.2719322765767978 0.43383347297327762 0 0.27700662411660448 0.42282949843734502 0 0.26702982338856518 0.44456687183750088 0 0.2719322765767978 0.43383347297327762 0 0.26177195533880698 0.42916484554246898 0 0.2719322765767978 0.43383347297327762 0 0.27700662411660448 0.42282949843734502 0 0.26177195533880698 0.42916484554246898 0 0.2909143831398382 0.40764825720093367 0 0.27700662411660448 0.42282949843734502 0 0.27102880618847808 0.4035424792473612 0 0.27700662411660448 0.42282949843734502 0 0.25720166469534772 0.41268051656060561 0 0.27102880618847808 0.4035424792473612 0 0.27700662411660448 0.42282949843734502 0 0.25720166469534772 0.41268051656060561 0 0.24179891162593201 0.4233084808526586 0 0.25720166469534772 0.41268051656060561 0 0.26177195533880698 0.42916484554246898 0 0.27700662411660448 0.42282949843734502 0 0.25720166469534772 0.41268051656060561 0 0.26177195533880698 0.42916484554246898 0 0.2477108739726743 0.43608506657033408 0 0.26702982338856518 0.44456687183750088 0 0.26177195533880698 0.42916484554246898 0 0.24179891162593201 0.4233084808526586 0 0.2477108739726743 0.43608506657033408 0 0.26177195533880698 0.42916484554246898 0 0.24342353111803389 0.38925444474726167 0 0.26453500271035402 0.38890354466259869 0 0.25291152302829473 0.3683524102149337 0 0.24342353111803389 0.38925444474726167 0 0.26453500271035402 0.38890354466259869 0 0.26453500271035402 0.38890354466259869 0 0.26787338115865189 0.37362351492410589 0 0.25291152302829473 0.3683524102149337 0 0.24342353111803389 0.38925444474726167 0 0.26453500271035402 0.38890354466259869 0 0.25471714199726092 0.3993825039803387 0 0.26453500271035402 0.38890354466259869 0 0.25471714199726092 0.3993825039803387 0 0.27102880618847808 0.4035424792473612 0 0.25720166469534772 0.41268051656060561 0 0.25471714199726092 0.3993825039803387 0 0.27102880618847808 0.4035424792473612 0 0.26453500271035402 0.38890354466259869 0 0.27102880618847808 0.4035424792473612 0 0.28564647430267398 0.38855264457793548 0 0.26453500271035402 0.38890354466259869 0 0.28564647430267398 0.38855264457793548 0 0.26787338115865189 0.37362351492410589 0 0.26453500271035402 0.38890354466259869 0 0.28564647430267398 0.38855264457793548 0 0.28564647430267398 0.38855264457793548 0 0.28197681789469692 0.36591380452149658 0 0.26787338115865189 0.37362351492410589 0 0.28564647430267398 0.38855264457793548 0 0.29684982662581127 0.37739015873456311 0 0.28197681789469692 0.36591380452149658 0 0.28564647430267398 0.38855264457793548 0 0.30675794589499411 0.38820174449327238 0 0.28564647430267398 0.38855264457793548 0 0.29684982662581127 0.37739015873456311 0 0.30675794589499411 0.38820174449327238 0 0.2909143831398382 0.40764825720093367 0 0.28564647430267398 0.38855264457793548 0 0.30675794589499411 0.38820174449327238 0 0.2909143831398382 0.40764825720093367 0 0.27102880618847808 0.4035424792473612 0 0.28564647430267398 0.38855264457793548 0 0.31022671357717729 0.40640484374907759 0 0.2909143831398382 0.40764825720093367 0 0.30675794589499411 0.38820174449327238 0 0.29684982662581127 0.37739015873456311 0 0.30675794589499411 0.38820174449327238 0 0.31437167846471697 0.37313687441032978 0 0.30675794589499411 0.38820174449327238 0 0.32517388336503139 0.38324137266731462 0 0.31437167846471697 0.37313687441032978 0 0.30675794589499411 0.38820174449327238 0 0.32517388336503139 0.38324137266731462 0 0.32395803822004859 0.39866842451734852 0 0.32517388336503139 0.38324137266731462 0 0.341115473244815 0.38897200685596489 0 0.32395803822004859 0.39866842451734852 0 0.32517388336503139 0.38324137266731462 0 0.341115473244815 0.38897200685596489 0 0.3353508014563592 0.37485307206915558 0 0.341115473244815 0.38897200685596489 0 0.34435566866398482 0.37669076846131538 0 0.3353508014563592 0.37485307206915558 0 0.341115473244815 0.38897200685596489 0 0.33582304974815252 0.40537263937427009 0 0.32395803822004859 0.39866842451734852 0 0.341115473244815 0.38897200685596489 0 0.33582304974815252 0.40537263937427009 0 0.34808842261114642 0.40141021490495149 0 0.31022671357717729 0.40640484374907759 0 0.30675794589499411 0.38820174449327238 0 0.32395803822004859 0.39866842451734852 0 0.33582304974815252 0.40537263937427009 0 0.32395803822004859 0.39866842451734852 0 0.3234580135869034 0.42261007822630631 0 0.31022671357717729 0.40640484374907759 0 0.30615772014745768 0.41968103906111992 0 0.3234580135869034 0.42261007822630631 0 0.30615772014745768 0.41968103906111992 0 0.3234580135869034 0.42261007822630631 0 0.31022671357717729 0.40640484374907759 0 0.32395803822004859 0.39866842451734852 0 0.3234580135869034 0.42261007822630631 0 0.32222181216113438 0.44599986270099329 0 0.29681158353786141 0.43297848031408442 0 0.3234580135869034 0.42261007822630631 0 0.33883897711607303 0.44487648722790651 0 0.3234580135869034 0.42261007822630631 0 0.34700963732083689 0.42659750355882398 0 0.3234580135869034 0.42261007822630631 0 0.34700963732083689 0.42659750355882398 0 0.3234580135869034 0.42261007822630631 0 0.34700963732083689 0.42659750355882398 0 0.34554206958648559 0.42588867831633931 0 0.3234580135869034 0.42261007822630631 0 0.34249530107784931 0.41520247236677899 0 0.3234580135869034 0.42261007822630631 0 0.34249530107784931 0.41520247236677899 0 0.34554206958648559 0.42588867831633931 0 0.33582304974815252 0.40537263937427009 0 0.3234580135869034 0.42261007822630631 0 0.34249530107784931 0.41520247236677899 0 0.33582304974815252 0.40537263937427009 0 0.34249530107784931 0.41520247236677899 0 0.34808842261114642 0.40141021490495149 0 0.34249530107784931 0.41520247236677899 0 0.35477118604255459 0.41817378370379188 0 0.36153258856879528 0.40779486650725189 0 0.34249530107784931 0.41520247236677899 0 0.36153258856879528 0.40779486650725189 0 0.34249530107784931 0.41520247236677899 0 0.36153258856879528 0.40779486650725189 0 0.34808842261114642 0.40141021490495149 0 0.34249530107784931 0.41520247236677899 0 0.35477118604255459 0.41817378370379188 0 0.34554206958648559 0.42588867831633931 0 0.34700963732083689 0.42659750355882398 0 0.3705612610547705 0.43058492889134098 0 0.35222722247737281 0.43911601886625828 0 0.33883897711607303 0.44487648722790651 0 0.34700963732083689 0.42659750355882398 0 0.35222722247737281 0.43911601886625828 0 0.34700963732083689 0.42659750355882398 0 0.3705612610547705 0.43058492889134098 0 0.34700963732083689 0.42659750355882398 0 0.34554206958648559 0.42588867831633931 0 0.36079712093087157 0.42461613686828142 0 0.35477118604255459 0.41817378370379188 0 0.34554206958648559 0.42588867831633931 0 0.36079712093087157 0.42461613686828142 0 0.34554206958648559 0.42588867831633931 0 0.36079712093087157 0.42461613686828142 0 0.34700963732083689 0.42659750355882398 0 0.36079712093087157 0.42461613686828142 0 0.3705612610547705 0.43058492889134098 0 0.36079712093087157 0.42461613686828142 0 0.3705612610547705 0.43058492889134098 0 0.37605217227525772 0.42334359542022432 0 0.3705612610547705 0.43058492889134098 0 0.37654561744134379 0.43159811484082028 0 0.37605217227525772 0.42334359542022432 0 0.36079712093087157 0.42461613686828142 0 0.37605217227525772 0.42334359542022432 0 0.3705612610547705 0.43058492889134098 0 0.37605217227525772 0.42334359542022432 0 0.36452231592957729 0.44300163531389081 0 0.37654561744134379 0.43159811484082028 0 0.36452231592957729 0.44300163531389081 0 0.3705612610547705 0.43058492889134098 0 0.37654561744134379 0.43159811484082028 0 0.3705612610547705 0.43058492889134098 0 0.37654561744134379 0.43159811484082028 0 0.36153258856879528 0.40779486650725189 0 0.37469191018849241 0.41147560564509428 0 0.38056987605974119 0.40038726064772479 0 0.35477118604255459 0.41817378370379188 0 0.36153258856879528 0.40779486650725189 0 0.36788422330766551 0.41750134622521162 0 0.35477118604255459 0.41817378370379188 0 0.36079712093087157 0.42461613686828142 0 0.36788422330766551 0.41750134622521162 0 0.36079712093087157 0.42461613686828142 0 0.36788422330766551 0.41750134622521162 0 0.37605217227525772 0.42334359542022432 0 0.36788422330766551 0.41750134622521162 0 0.37469191018849241 0.41147560564509428 0 0.37605217227525772 0.42334359542022432 0 0.36153258856879528 0.40779486650725189 0 0.36788422330766551 0.41750134622521162 0 0.37469191018849241 0.41147560564509428 0 0.36153258856879528 0.40779486650725189 0 0.37008702394707638 0.3957217900659209 0 0.38056987605974119 0.40038726064772479 0 0.36153258856879528 0.40779486650725189 0 0.38056987605974119 0.40038726064772479 0 0.37008702394707638 0.3957217900659209 0 0.35887030465331848 0.39244760752802987 0 0.37694564491726767 0.38652308784479511 0 0.36153258856879528 0.40779486650725189 0 0.37008702394707638 0.3957217900659209 0 0.35887030465331848 0.39244760752802987 0 0.35570280815475652 0.37727639654636019 0 0.35887030465331848 0.39244760752802987 0 0.37694564491726767 0.38652308784479511 0 0.36647059910353308 0.364695216264532 0 0.37694564491726767 0.38652308784479511 0 0.35570280815475652 0.37727639654636019 0 0.36647059910353308 0.364695216264532 0 0.37694564491726767 0.38652308784479511 0 0.341115473244815 0.38897200685596489 0 0.35570280815475652 0.37727639654636019 0 0.35887030465331848 0.39244760752802987 0 0.341115473244815 0.38897200685596489 0 0.35570280815475652 0.37727639654636019 0 0.34435566866398482 0.37669076846131538 0 0.341115473244815 0.38897200685596489 0 0.34808842261114642 0.40141021490495149 0 0.35887030465331848 0.39244760752802987 0 0.36153258856879528 0.40779486650725189 0 0.34808842261114642 0.40141021490495149 0 0.35887030465331848 0.39244760752802987 0 0.35359555906377732 0.35974788050369272 0 0.36647059910353308 0.364695216264532 0 0.35599555328980309 0.34286734468426672 0 0.35105452196877118 0.3479724784865792 0 0.35359555906377732 0.35974788050369272 0 0.35599555328980309 0.34286734468426672 0 0.35105452196877118 0.3479724784865792 0 0.35599555328980309 0.34286734468426672 0 0.35105452196877118 0.3479724784865792 0 0.34190163127097511 0.33770703702806532 0 0.34018217488533792 0.3465520787298354 0 0.35105452196877118 0.3479724784865792 0 0.34617761372100531 0.35754745172212371 0 0.34018217488533792 0.3465520787298354 0 0.35105452196877118 0.3479724784865792 0 0.34617761372100531 0.35754745172212371 0 0.35359555906377732 0.35974788050369272 0 0.35570280815475652 0.37727639654636019 0 0.34617225814479341 0.36812839531829311 0 0.35359555906377732 0.35974788050369272 0 0.34617761372100531 0.35754745172212371 0 0.34617225814479341 0.36812839531829311 0 0.35359555906377732 0.35974788050369272 0 0.35570280815475652 0.37727639654636019 0 0.35359555906377732 0.35974788050369272 0 0.36647059910353308 0.364695216264532 0 0.35570280815475652 0.37727639654636019 0 0.34435566866398482 0.37669076846131538 0 0.34617225814479341 0.36812839531829311 0 0.36647059910353308 0.364695216264532 0 0.35599555328980309 0.34286734468426672 0 0.36647059910353308 0.364695216264532 0 0.35599555328980309 0.34286734468426672 0 0.37760875528064552 0.34775643304867943 0 0.36971880587079747 0.32868831280267391 0 0.35599555328980309 0.34286734468426672 0 0.37760875528064552 0.34775643304867943 0 0.36971880587079747 0.32868831280267391 0 0.35599555328980309 0.34286734468426672 0 0.36971880587079747 0.32868831280267391 0 0.36418220154347319 0.31047564520754922 0 0.38344205845178941 0.31450928092107872 0 0.36971880587079747 0.32868831280267391 0 0.34440168816984013 0.31870808051899702 0 0.36418220154347319 0.31047564520754922 0 0.34440168816984013 0.31870808051899702 0 0.35599555328980309 0.34286734468426672 0 0.34190163127097511 0.33770703702806532 0 0.34440168816984013 0.31870808051899702 0 0.35599555328980309 0.34286734468426672 0 0.36971880587079747 0.32868831280267391 0 0.34440168816984013 0.31870808051899702 0 0.35599555328980309 0.34286734468426672 0 0.35105452196877118 0.3479724784865792 0 0.35599555328980309 0.34286734468426672 0 0.34190163127097511 0.33770703702806532 0 0.34190163127097511 0.33770703702806532 0 0.32887309424103478 0.34254882516735657 0 0.34018217488533792 0.3465520787298354 0 0.34440168816984013 0.31870808051899702 0 0.34190163127097511 0.33770703702806532 0 0.33018120228635572 0.32896723810676132 0 0.34190163127097511 0.33770703702806532 0 0.33018120228635572 0.32896723810676132 0 0.32887309424103478 0.34254882516735657 0 0.34440168816984013 0.31870808051899702 0 0.33018120228635572 0.32896723810676132 0 0.32938304664481038 0.30084553330325919 0 0.33018120228635572 0.32896723810676132 0 0.31431752084880671 0.32290252692798982 0 0.32938304664481038 0.30084553330325919 0 0.31431752084880671 0.32290252692798982 0 0.31868157616214449 0.33775696475586542 0 0.30503671994922948 0.34224483547239032 0 0.33018120228635572 0.32896723810676132 0 0.31431752084880671 0.32290252692798982 0 0.31868157616214449 0.33775696475586542 0 0.33018120228635572 0.32896723810676132 0 0.32887309424103478 0.34254882516735657 0 0.31868157616214449 0.33775696475586542 0 0.31868157616214449 0.33775696475586542 0 0.31761604001891658 0.35277225706419429 0 0.30503671994922948 0.34224483547239032 0 0.31761604001891658 0.35277225706419429 0 0.32782180883813111 0.35270055689681518 0 0.32674182439453048 0.36526755661774829 0 0.32887309424103478 0.34254882516735657 0 0.31868157616214449 0.33775696475586542 0 0.31761604001891658 0.35277225706419429 0 0.32887309424103478 0.34254882516735657 0 0.31761604001891658 0.35277225706419429 0 0.32782180883813111 0.35270055689681518 0 0.32782180883813111 0.35270055689681518 0 0.33771405093293988 0.35521181244791689 0 0.34018217488533792 0.3465520787298354 0 0.32887309424103478 0.34254882516735657 0 0.32782180883813111 0.35270055689681518 0 0.34018217488533792 0.3465520787298354 0 0.32782180883813111 0.35270055689681518 0 0.33771405093293988 0.35521181244791689 0 0.32674182439453048 0.36526755661774829 0 0.34617761372100531 0.35754745172212371 0 0.33771405093293988 0.35521181244791689 0 0.34018217488533792 0.3465520787298354 0 0.34617761372100531 0.35754745172212371 0 0.33771405093293988 0.35521181244791689 0 0.33685014292813631 0.36507067014812128 0 0.32517388336503139 0.38324137266731462 0 0.3353508014563592 0.37485307206915558 0 0.32674182439453048 0.36526755661774829 0 0.34435566866398482 0.37669076846131538 0 0.34617225814479341 0.36812839531829311 0 0.3353508014563592 0.37485307206915558 0 0.34617225814479341 0.36812839531829311 0 0.33685014292813631 0.36507067014812128 0 0.3353508014563592 0.37485307206915558 0 0.34617761372100531 0.35754745172212371 0 0.34617225814479341 0.36812839531829311 0 0.33685014292813631 0.36507067014812128 0 0.33771405093293988 0.35521181244791689 0 0.33685014292813631 0.36507067014812128 0 0.32674182439453048 0.36526755661774829 0 0.33685014292813631 0.36507067014812128 0 0.3353508014563592 0.37485307206915558 0 0.32674182439453048 0.36526755661774829 0 0.32517388336503139 0.38324137266731462 0 0.31437167846471697 0.37313687441032978 0 0.32674182439453048 0.36526755661774829 0 0.31761604001891658 0.35277225706419429 0 0.31437167846471697 0.37313687441032978 0 0.32674182439453048 0.36526755661774829 0 0.31761604001891658 0.35277225706419429 0 0.31437167846471697 0.37313687441032978 0 0.30261607141318009 0.36393826943204849 0 0.29684982662581127 0.37739015873456311 0 0.31437167846471697 0.37313687441032978 0 0.30261607141318009 0.36393826943204849 0 0.31761604001891658 0.35277225706419429 0 0.30261607141318009 0.36393826943204849 0 0.30503671994922948 0.34224483547239032 0 0.30261607141318009 0.36393826943204849 0 0.29166364926296978 0.35202972771211838 0 0.30503671994922948 0.34224483547239032 0 0.29166364926296978 0.35202972771211838 0 0.28197681789469692 0.36591380452149658 0 0.27629085911564732 0.34619852943055152 0 0.29166364926296978 0.35202972771211838 0 0.29065358340422409 0.33855668183139609 0 0.30503671994922948 0.34224483547239032 0 0.29166364926296978 0.35202972771211838 0 0.27629085911564732 0.34619852943055152 0 0.29065358340422409 0.33855668183139609 0 0.29684982662581127 0.37739015873456311 0 0.30261607141318009 0.36393826943204849 0 0.28197681789469692 0.36591380452149658 0 0.30261607141318009 0.36393826943204849 0 0.29166364926296978 0.35202972771211838 0 0.28197681789469692 0.36591380452149658 0 0.28197681789469692 0.36591380452149658 0 0.26787338115865189 0.37362351492410589 0 0.26095266493010438 0.35505668107161381 0 0.28197681789469692 0.36591380452149658 0 0.27629085911564732 0.34619852943055152 0 0.26095266493010438 0.35505668107161381 0 0.24008832681353209 0.3509911895239427 0 0.26095266493010438 0.35505668107161381 0 0.25400870075324861 0.33645866182283118 0 0.27629085911564732 0.34619852943055152 0 0.26095266493010438 0.35505668107161381 0 0.25400870075324861 0.33645866182283118 0 0.24008832681353209 0.3509911895239427 0 0.26095266493010438 0.35505668107161381 0 0.25291152302829473 0.3683524102149337 0 0.26787338115865189 0.37362351492410589 0 0.26095266493010438 0.35505668107161381 0 0.25291152302829473 0.3683524102149337 0 0.25035729020073139 0.31320574585262972 0 0.25400870075324861 0.33645866182283118 0 0.26843485135211659 0.31595748428880738 0 0.27629085911564732 0.34619852943055152 0 0.25400870075324861 0.33645866182283118 0 0.27930815717133473 0.32890070095403801 0 0.25400870075324861 0.33645866182283118 0 0.27930815717133473 0.32890070095403801 0 0.26843485135211659 0.31595748428880738 0 0.27930815717133473 0.32890070095403801 0 0.26843485135211659 0.31595748428880738 0 0.28356889436523619 0.30509626027148351 0 0.27930815717133473 0.32890070095403801 0 0.29779466865323229 0.324080680277752 0 0.28356889436523619 0.30509626027148351 0 0.27629085911564732 0.34619852943055152 0 0.27930815717133473 0.32890070095403801 0 0.29065358340422409 0.33855668183139609 0 0.27930815717133473 0.32890070095403801 0 0.29065358340422409 0.33855668183139609 0 0.29779466865323229 0.324080680277752 0 0.29065358340422409 0.33855668183139609 0 0.30503671994922948 0.34224483547239032 0 0.29779466865323229 0.324080680277752 0 0.31431752084880671 0.32290252692798982 0 0.30503671994922948 0.34224483547239032 0 0.29779466865323229 0.324080680277752 0 0.31431752084880671 0.32290252692798982 0 0.29779466865323229 0.324080680277752 0 0.30721590548652561 0.30555940465869308 0 0.30721590548652561 0.30555940465869308 0 0.29565733902546149 0.28521677210624269 0 0.3135720193890883 0.28978722977245802 0 0.29565733902546149 0.28521677210624269 0 0.3211668252897435 0.27175213819547439 0 0.3135720193890883 0.28978722977245802 0 0.29565733902546149 0.28521677210624269 0 0.28356889436523619 0.30509626027148351 0 0.27445714059272053 0.27821582699839847 0 0.30721590548652561 0.30555940465869308 0 0.29565733902546149 0.28521677210624269 0 0.28356889436523619 0.30509626027148351 0 0.29779466865323229 0.324080680277752 0 0.30721590548652561 0.30555940465869308 0 0.28356889436523619 0.30509626027148351 0 0.26843485135211659 0.31595748428880738 0 0.28356889436523619 0.30509626027148351 0 0.2621141982752625 0.297742952616453 0 0.28356889436523619 0.30509626027148351 0 0.2621141982752625 0.297742952616453 0 0.27445714059272053 0.27821582699839847 0 0.25374278848102799 0.28132582272820478 0 0.2621141982752625 0.297742952616453 0 0.27445714059272053 0.27821582699839847 0 0.24233548025001611 0.29643186720405401 0 0.25374278848102799 0.28132582272820478 0 0.2621141982752625 0.297742952616453 0 0.25035729020073139 0.31320574585262972 0 0.26843485135211659 0.31595748428880738 0 0.2621141982752625 0.297742952616453 0 0.24233548025001611 0.29643186720405401 0 0.25035729020073139 0.31320574585262972 0 0.2621141982752625 0.297742952616453 0 0.24242825524523789 0.24053549575596991 0 0.25566493851637151 0.26307522389909938 0 0.26867444526007311 0.25094104323580468 0 0.25374278848102799 0.28132582272820478 0 0.25566493851637151 0.26307522389909938 0 0.27445714059272053 0.27821582699839847 0 0.25566493851637151 0.26307522389909938 0 0.27445714059272053 0.27821582699839847 0 0.26867444526007311 0.25094104323580468 0 0.27445714059272053 0.27821582699839847 0 0.26867444526007311 0.25094104323580468 0 0.29492063527490819 0.26134659071563948 0 0.26867444526007311 0.25094104323580468 0 0.29492063527490819 0.26134659071563948 0 0.28475769765093017 0.23917056952590779 0 0.26867444526007311 0.25094104323580468 0 0.29492063527490819 0.26134659071563948 0 0.29565733902546149 0.28521677210624269 0 0.27445714059272053 0.27821582699839847 0 0.29492063527490819 0.26134659071563948 0 0.29565733902546149 0.28521677210624269 0 0.29492063527490819 0.26134659071563948 0 0.3211668252897435 0.27175213819547439 0 0.29492063527490819 0.26134659071563948 0 0.3211668252897435 0.27175213819547439 0 0.29492063527490819 0.26134659071563948 0 0.3211668252897435 0.27175213819547439 0 0.30614492804101112 0.24370767114134911 0 0.3211668252897435 0.27175213819547439 0 0.30614492804101112 0.24370767114134911 0 0.32857447559835679 0.23870878053399791 0 0.3211668252897435 0.27175213819547439 0 0.34452689156915561 0.25493736741178102 0 0.32857447559835679 0.23870878053399791 0 0.3211668252897435 0.27175213819547439 0 0.34741301530457858 0.28215768567530919 0 0.34452689156915561 0.25493736741178102 0 0.3211668252897435 0.27175213819547439 0 0.34741301530457858 0.28215768567530919 0 0.3211668252897435 0.27175213819547439 0 0.3135720193890883 0.28978722977245802 0 0.32938304664481038 0.30084553330325919 0 0.30721590548652561 0.30555940465869308 0 0.3135720193890883 0.28978722977245802 0 0.32938304664481038 0.30084553330325919 0 0.31431752084880671 0.32290252692798982 0 0.30721590548652561 0.30555940465869308 0 0.32938304664481038 0.30084553330325919 0 0.34440168816984013 0.31870808051899702 0 0.32938304664481038 0.30084553330325919 0 0.35087058920827963 0.30096211182298599 0 0.32938304664481038 0.30084553330325919 0 0.34741301530457858 0.28215768567530919 0 0.35087058920827963 0.30096211182298599 0 0.3211668252897435 0.27175213819547439 0 0.32938304664481038 0.30084553330325919 0 0.34741301530457858 0.28215768567530919 0 0.34741301530457858 0.28215768567530919 0 0.35087058920827963 0.30096211182298599 0 0.37365920531941482 0.29256323315514088 0 0.34440168816984013 0.31870808051899702 0 0.35087058920827963 0.30096211182298599 0 0.36418220154347319 0.31047564520754922 0 0.36418220154347319 0.31047564520754922 0 0.37365920531941482 0.29256323315514088 0 0.38344205845178941 0.31450928092107872 0 0.35087058920827963 0.30096211182298599 0 0.36418220154347319 0.31047564520754922 0 0.37365920531941482 0.29256323315514088 0 0.34741301530457858 0.28215768567530919 0 0.37261555280787201 0.29022198898438872 0 0.37364231048019081 0.27662121746834811 0 0.34741301530457858 0.28215768567530919 0 0.37261555280787201 0.29022198898438872 0 0.37365920531941482 0.29256323315514088 0 0.34741301530457858 0.28215768567530919 0 0.37365920531941482 0.29256323315514088 0 0.37261555280787201 0.29022198898438872 0 0.37365920531941482 0.29256323315514088 0 0.37261555280787201 0.29022198898438872 0 0.37364231048019081 0.27662121746834811 0 0.3783166996582592 0.28284323320452398 0 0.34741301530457858 0.28215768567530919 0 0.37364231048019081 0.27662121746834811 0 0.3693519210643913 0.26247155006664391 0 0.3693519210643913 0.26247155006664391 0 0.34452689156915561 0.25493736741178102 0 0.36782436287914722 0.24498410137385199 0 0.34741301530457858 0.28215768567530919 0 0.3693519210643913 0.26247155006664391 0 0.34452689156915561 0.25493736741178102 0 0.40299558863996582 0.27638599447600759 0 0.40600223149272868 0.26522057586331982 0 0.38884250552675731 0.26989157934621882 0 0.39236451500178787 0.2793733902177778 0 0.40299558863996582 0.27638599447600759 0 0.39791803613933863 0.28525745266872682 0 0.39236451500178787 0.2793733902177778 0 0.40299558863996582 0.27638599447600759 0 0.38884250552675731 0.26989157934621882 0 0.40600223149272868 0.26522057586331982 0 0.39409708900996032 0.25138288549760918 0 0.41737497171560728 0.2553433948634441 0 0.40600223149272868 0.26522057586331982 0 0.39409708900996032 0.25138288549760918 0 0.38884250552675731 0.26989157934621882 0 0.3693519210643913 0.26247155006664391 0 0.39409708900996032 0.25138288549760918 0 0.3693519210643913 0.26247155006664391 0 0.39409708900996032 0.25138288549760918 0 0.38884250552675731 0.26989157934621882 0 0.3693519210643913 0.26247155006664391 0 0.39409708900996032 0.25138288549760918 0 0.36782436287914722 0.24498410137385199 0 0.37364231048019081 0.27662121746834811 0 0.3693519210643913 0.26247155006664391 0 0.38884250552675731 0.26989157934621882 0 0.39236451500178787 0.2793733902177778 0 0.38884250552675731 0.26989157934621882 0 0.3833462166027386 0.27909474095368048 0 0.37364231048019081 0.27662121746834811 0 0.3833462166027386 0.27909474095368048 0 0.3783166996582592 0.28284323320452398 0 0.37364231048019081 0.27662121746834811 0 0.38884250552675731 0.26989157934621882 0 0.3833462166027386 0.27909474095368048 0 0.37365920531941482 0.29256323315514088 0 0.3835650523466978 0.28674428453153389 0 0.39607960742750148 0.30145201124144261 0 0.37261555280787201 0.29022198898438872 0 0.3783166996582592 0.28284323320452398 0 0.3835650523466978 0.28674428453153389 0 0.3833462166027386 0.27909474095368048 0 0.3783166996582592 0.28284323320452398 0 0.3835650523466978 0.28674428453153389 0 0.37261555280787201 0.29022198898438872 0 0.37365920531941482 0.29256323315514088 0 0.3835650523466978 0.28674428453153389 0 0.39236451500178787 0.2793733902177778 0 0.3833462166027386 0.27909474095368048 0 0.3835650523466978 0.28674428453153389 0 0.37365920531941482 0.29256323315514088 0 0.38344205845178941 0.31450928092107872 0 0.37365920531941482 0.29256323315514088 0 0.39607960742750148 0.30145201124144261 0 0.37365920531941482 0.29256323315514088 0 0.39607960742750148 0.30145201124144261 0 0.38344205845178941 0.31450928092107872 0 0.39607960742750148 0.30145201124144261 0 0.38344205845178941 0.31450928092107872 0 0.39607960742750148 0.30145201124144261 0 0.41171900995673311 0.30765239863032401 0 0.39607960742750148 0.30145201124144261 0 0.40180855328970211 0.31771482892023301 0 0.38344205845178941 0.31450928092107872 0 0.39607960742750148 0.30145201124144261 0 0.41171900995673311 0.30765239863032401 0 0.40180855328970211 0.31771482892023301 0 0.39607960742750148 0.30145201124144261 0 0.41458541728074011 0.28233158287687199 0 0.39607960742750148 0.30145201124144261 0 0.39791803613933863 0.28525745266872682 0 0.41458541728074011 0.28233158287687199 0 0.3835650523466978 0.28674428453153389 0 0.39607960742750148 0.30145201124144261 0 0.39791803613933863 0.28525745266872682 0 0.40299558863996582 0.27638599447600759 0 0.39791803613933863 0.28525745266872682 0 0.41458541728074011 0.28233158287687199 0 0.39236451500178787 0.2793733902177778 0 0.3835650523466978 0.28674428453153389 0 0.39791803613933863 0.28525745266872682 0 0.41458541728074011 0.28233158287687199 0 0.42606234888386729 0.29444413700454602 0 0.41967901752852599 0.27706881299930808 0 0.39607960742750148 0.30145201124144261 0 0.41458541728074011 0.28233158287687199 0 0.41387778040586171 0.2971951023965243 0 0.41458541728074011 0.28233158287687199 0 0.41387778040586171 0.2971951023965243 0 0.42606234888386729 0.29444413700454602 0 0.41171900995673311 0.30765239863032401 0 0.42735841248596412 0.31385278601920702 0 0.39607960742750148 0.30145201124144261 0 0.41171900995673311 0.30765239863032401 0 0.41387778040586171 0.2971951023965243 0 0.41171900995673311 0.30765239863032401 0 0.42224161638182611 0.3049433873388871 0 0.42735841248596412 0.31385278601920702 0 0.41171900995673311 0.30765239863032401 0 0.41387778040586171 0.2971951023965243 0 0.42224161638182611 0.3049433873388871 0 0.41387778040586171 0.2971951023965243 0 0.42224161638182611 0.3049433873388871 0 0.42606234888386729 0.29444413700454602 0 0.42224161638182611 0.3049433873388871 0 0.43219053017670339 0.31157251264383562 0 0.42606234888386729 0.29444413700454602 0 0.43219053017670339 0.31157251264383562 0 0.42606234888386729 0.29444413700454602 0 0.43219053017670339 0.31157251264383562 0 0.42606234888386729 0.29444413700454602 0 0.43758485962659133 0.29708608803108388 0 0.42224161638182611 0.3049433873388871 0 0.43219053017670339 0.31157251264383562 0 0.42735841248596412 0.31385278601920702 0 0.43044450528158618 0.28321583480542672 0 0.44192913161497788 0.28040481701385722 0 0.43758485962659133 0.29708608803108388 0 0.42606234888386729 0.29444413700454602 0 0.41967901752852599 0.27706881299930808 0 0.42606234888386729 0.29444413700454602 0 0.43044450528158618 0.28321583480542672 0 0.41967901752852599 0.27706881299930808 0 0.42606234888386729 0.29444413700454602 0 0.43044450528158618 0.28321583480542672 0 0.43758485962659133 0.29708608803108388 0 0.43044450528158618 0.28321583480542672 0 0.43309122713397852 0.26321115451230181 0 0.44192913161497788 0.28040481701385722 0 0.43044450528158618 0.28321583480542672 0 0.41967901752852599 0.27706881299930808 0 0.43309122713397852 0.26321115451230181 0 0.41967901752852599 0.27706881299930808 0 0.43309122713397852 0.26321115451230181 0 0.41967901752852599 0.27706881299930808 0 0.41787876602090268 0.26827882017650251 0 0.43309122713397852 0.26321115451230181 0 0.41458541728074011 0.28233158287687199 0 0.41967901752852599 0.27706881299930808 0 0.41787876602090268 0.26827882017650251 0 0.41458541728074011 0.28233158287687199 0 0.41787876602090268 0.26827882017650251 0 0.41036550085858431 0.27305424334817552 0 0.41458541728074011 0.28233158287687199 0 0.41967901752852599 0.27706881299930808 0 0.40299558863996582 0.27638599447600759 0 0.40600223149272868 0.26522057586331982 0 0.41036550085858431 0.27305424334817552 0 0.40600223149272868 0.26522057586331982 0 0.41787876602090268 0.26827882017650251 0 0.41036550085858431 0.27305424334817552 0 0.40299558863996582 0.27638599447600759 0 0.41458541728074011 0.28233158287687199 0 0.41036550085858431 0.27305424334817552 0 0.40600223149272868 0.26522057586331982 0 0.41787876602090268 0.26827882017650251 0 0.41737497171560728 0.2553433948634441 0 0.41737497171560728 0.2553433948634441 0 0.43309122713397852 0.26321115451230181 0 0.43433825968054462 0.24367271220235689 0 0.41787876602090268 0.26827882017650251 0 0.41737497171560728 0.2553433948634441 0 0.43309122713397852 0.26321115451230181 0 0.44612469056025261 0.26581623901831081 0 0.4565865535107988 0.26259854073841282 0 0.45159703698721698 0.24409072614773139 0 0.43309122713397852 0.26321115451230181 0 0.45159703698721698 0.24409072614773139 0 0.43309122713397852 0.26321115451230181 0 0.43433825968054462 0.24367271220235689 0 0.45159703698721698 0.24409072614773139 0 0.43309122713397852 0.26321115451230181 0 0.44612469056025261 0.26581623901831081 0 0.45159703698721698 0.24409072614773139 0 0.43309122713397852 0.26321115451230181 0 0.44192913161497788 0.28040481701385722 0 0.44612469056025261 0.26581623901831081 0 0.44612469056025261 0.26581623901831081 0 0.45373673779763413 0.27532481952114429 0 0.4565865535107988 0.26259854073841282 0 0.44192913161497788 0.28040481701385722 0 0.44612469056025261 0.26581623901831081 0 0.45373673779763413 0.27532481952114429 0 0.45373673779763413 0.27532481952114429 0 0.46564864986430682 0.26900876188121409 0 0.46309289831620998 0.28273845954035892 0 0.45373673779763413 0.27532481952114429 0 0.46564864986430682 0.26900876188121409 0 0.4565865535107988 0.26259854073841282 0 0.46564864986430682 0.26900876188121409 0 0.47522655330816987 0.27500637668917549 0 0.46309289831620998 0.28273845954035892 0 0.4565865535107988 0.26259854073841282 0 0.46678025207759838 0.25530295550532839 0 0.45159703698721698 0.24409072614773139 0 0.46564864986430682 0.26900876188121409 0 0.4565865535107988 0.26259854073841282 0 0.46678025207759838 0.25530295550532839 0 0.46678025207759838 0.25530295550532839 0 0.47952388047089167 0.25315782589811098 0 0.47731273344601532 0.26338119304944929 0 0.47952388047089167 0.25315782589811098 0 0.47731273344601532 0.26338119304944929 0 0.48773704957557512 0.25812902323177361 0 0.47731273344601532 0.26338119304944929 0 0.48795795753203441 0.27189289139699802 0 0.48773704957557512 0.25812902323177361 0 0.46564864986430682 0.26900876188121409 0 0.46678025207759838 0.25530295550532839 0 0.47731273344601532 0.26338119304944929 0 0.46564864986430682 0.26900876188121409 0 0.47731273344601532 0.26338119304944929 0 0.47522655330816987 0.27500637668917549 0 0.47522655330816987 0.27500637668917549 0 0.48795795753203441 0.27189289139699802 0 0.48212052738228311 0.2880105775778577 0 0.47731273344601532 0.26338119304944929 0 0.47522655330816987 0.27500637668917549 0 0.48795795753203441 0.27189289139699802 0 0.48795795753203441 0.27189289139699802 0 0.50000000000000044 0.27957326541262639 0 0.49999999999999478 0.25664427527361022 0 0.48795795753203441 0.27189289139699802 0 0.50000000000000044 0.27957326541262639 0 0.48212052738228311 0.2880105775778577 0 0.47952388047089167 0.25315782589811098 0 0.48773704957557512 0.25812902323177361 0 0.49607062883462488 0.24859002652155709 0 0.49999999999999478 0.25664427527361022 0 0.49999999999999528 0.24994857611952551 0 0.49607062883462488 0.24859002652155709 0 0.49999999999999478 0.25664427527361022 0 0.49607062883462488 0.24859002652155709 0 0.49999999999999478 0.25664427527361022 0 0.48773704957557512 0.25812902323177361 0 0.49607062883462488 0.24859002652155709 0 0.48795795753203441 0.27189289139699802 0 0.49999999999999478 0.25664427527361022 0 0.48773704957557512 0.25812902323177361 0 0.5 0.30783998785836131 0 0.47865082052397689 0.30456198755615221 0 0.47887208197857739 0.32024228879046618 0 0.5 0.30783998785836131 0 0.48212052738228311 0.2880105775778577 0 0.47865082052397689 0.30456198755615221 0 0.50000000000000044 0.27957326541262639 0 0.48212052738228311 0.2880105775778577 0 0.50000000000000044 0.27957326541262639 0 0.5 0.30783998785836131 0 0.48212052738228311 0.2880105775778577 0 0.48212052738228311 0.2880105775778577 0 0.46309289831620998 0.28273845954035892 0 0.4642410547645659 0.29644788974308922 0 0.48212052738228311 0.2880105775778577 0 0.47865082052397689 0.30456198755615221 0 0.4642410547645659 0.29644788974308922 0 0.47522655330816987 0.27500637668917549 0 0.48212052738228311 0.2880105775778577 0 0.46309289831620998 0.28273845954035892 0 0.48212052738228311 0.2880105775778577 0 0.4642410547645659 0.29644788974308922 0 0.47865082052397689 0.30456198755615221 0 0.4642410547645659 0.29644788974308922 0 0.46562825030328342 0.31301153874996401 0 0.4642410547645659 0.29644788974308922 0 0.44821579247063459 0.30401020119346239 0 0.46562825030328342 0.31301153874996401 0 0.4642410547645659 0.29644788974308922 0 0.45192447826929089 0.29030706482441232 0 0.44821579247063459 0.30401020119346239 0 0.4642410547645659 0.29644788974308922 0 0.44821579247063459 0.30401020119346239 0 0.4642410547645659 0.29644788974308922 0 0.46562825030328342 0.31301153874996401 0 0.46309289831620998 0.28273845954035892 0 0.4642410547645659 0.29644788974308922 0 0.46309289831620998 0.28273845954035892 0 0.4642410547645659 0.29644788974308922 0 0.45192447826929089 0.29030706482441232 0 0.45373673779763413 0.27532481952114429 0 0.46309289831620998 0.28273845954035892 0 0.45192447826929089 0.29030706482441232 0 0.44192913161497788 0.28040481701385722 0 0.45192447826929089 0.29030706482441232 0 0.43758485962659133 0.29708608803108388 0 0.44192913161497788 0.28040481701385722 0 0.45373673779763413 0.27532481952114429 0 0.45192447826929089 0.29030706482441232 0 0.43219053017670339 0.31157251264383562 0 0.44821579247063459 0.30401020119346239 0 0.44444593206584609 0.31409758550438999 0 0.44821579247063459 0.30401020119346239 0 0.44444593206584609 0.31409758550438999 0 0.46562825030328342 0.31301153874996401 0 0.43219053017670339 0.31157251264383562 0 0.44821579247063459 0.30401020119346239 0 0.43219053017670339 0.31157251264383562 0 0.44821579247063459 0.30401020119346239 0 0.43758485962659133 0.29708608803108388 0 0.45192447826929089 0.29030706482441232 0 0.44821579247063459 0.30401020119346239 0 0.43758485962659133 0.29708608803108388 0 0.44444593206584609 0.31409758550438999 0 0.45047768248893127 0.32301863681808379 0 0.43393991913586621 0.31646208587933122 0 0.45047768248893127 0.32301863681808379 0 0.44204741247972068 0.33912267388268452 0 0.43393991913586621 0.31646208587933122 0 0.44204741247972068 0.33912267388268452 0 0.43393991913586621 0.31646208587933122 0 0.45047768248893127 0.32301863681808379 0 0.43393991913586621 0.31646208587933122 0 0.45047768248893127 0.32301863681808379 0 0.44204741247972068 0.33912267388268452 0 0.45595280423391082 0.33806602867950408 0 0.45047768248893127 0.32301863681808379 0 0.45595280423391082 0.33806602867950408 0 0.46701544584199528 0.32957518775683942 0 0.45595280423391082 0.33806602867950408 0 0.46701544584199528 0.32957518775683942 0 0.46827364058121712 0.34459851753335979 0 0.46701544584199528 0.32957518775683942 0 0.46827364058121712 0.34459851753335979 0 0.46701544584199528 0.32957518775683942 0 0.46562825030328342 0.31301153874996401 0 0.44444593206584609 0.31409758550438999 0 0.45047768248893127 0.32301863681808379 0 0.46562825030328342 0.31301153874996401 0 0.45047768248893127 0.32301863681808379 0 0.46701544584199528 0.32957518775683942 0 0.45047768248893127 0.32301863681808379 0 0.46701544584199528 0.32957518775683942 0 0.46562825030328342 0.31301153874996401 0 0.47865082052397689 0.30456198755615221 0 0.46562825030328342 0.31301153874996401 0 0.47887208197857739 0.32024228879046618 0 0.46701544584199528 0.32957518775683942 0 0.46562825030328342 0.31301153874996401 0 0.47887208197857739 0.32024228879046618 0 0.47887208197857739 0.32024228879046618 0 0.48111268384829808 0.33516416959863271 0 0.49103893753629552 0.32802126159839617 0 0.46701544584199528 0.32957518775683942 0 0.48111268384829808 0.33516416959863271 0 0.46701544584199528 0.32957518775683942 0 0.47343971426999681 0.33969874628353208 0 0.48111268384829808 0.33516416959863271 0 0.46701544584199528 0.32957518775683942 0 0.47887208197857739 0.32024228879046618 0 0.48111268384829808 0.33516416959863271 0 0.46701544584199528 0.32957518775683942 0 0.47343971426999681 0.33969874628353208 0 0.46827364058121712 0.34459851753335979 0 0.47343971426999681 0.33969874628353208 0 0.46827364058121712 0.34459851753335979 0 0.47343971426999681 0.33969874628353208 0 0.48000361061534469 0.34273255895134558 0 0.48111268384829808 0.33516416959863271 0 0.48000361061534469 0.34273255895134558 0 0.48111268384829808 0.33516416959863271 0 0.485270367948336 0.34176598342176301 0 0.48111268384829808 0.33516416959863271 0 0.49520992185460172 0.34075315144042417 0 0.49103893753629552 0.32802126159839617 0 0.48111268384829808 0.33516416959863271 0 0.49520992185460172 0.34075315144042417 0 0.48111268384829808 0.33516416959863271 0 0.485270367948336 0.34176598342176301 0 0.49520992185460172 0.34075315144042417 0 0.5 0.33610671030409622 0 0.49520992185460172 0.34075315144042417 0 0.49103893753629552 0.32802126159839617 0 0.5 0.30783998785836131 0 0.47887208197857739 0.32024228879046618 0 0.49103893753629552 0.32802126159839617 0 0.5 0.30783998785836131 0 0.5 0.33610671030409622 0 0.49103893753629552 0.32802126159839617 0 0.5 0.36437343274983108 0 0.48369367717097372 0.36207292457270279 0 0.4842548305112635 0.37818943324201948 0 0.5 0.36437343274983108 0 0.48472716005931482 0.34905255384292833 0 0.48369367717097372 0.36207292457270279 0 0.5 0.33610671030409622 0 0.49520992185460172 0.34075315144042417 0 0.5 0.36437343274983108 0 0.49520992185460172 0.34075315144042417 0 0.5 0.36437343274983108 0 0.48472716005931482 0.34905255384292833 0 0.485270367948336 0.34176598342176301 0 0.49520992185460172 0.34075315144042417 0 0.48472716005931482 0.34905255384292833 0 0.47665894776435602 0.35019479963441003 0 0.46981588388928802 0.36301349662259008 0 0.48369367717097372 0.36207292457270279 0 0.46981588388928802 0.36301349662259008 0 0.46827364058121712 0.34459851753335979 0 0.47665894776435602 0.35019479963441003 0 0.46981588388928802 0.36301349662259008 0 0.46827364058121712 0.34459851753335979 0 0.48472716005931482 0.34905255384292833 0 0.47665894776435602 0.35019479963441003 0 0.48369367717097372 0.36207292457270279 0 0.47343971426999681 0.33969874628353208 0 0.48000361061534469 0.34273255895134558 0 0.47665894776435602 0.35019479963441003 0 0.48000361061534469 0.34273255895134558 0 0.48472716005931482 0.34905255384292833 0 0.47665894776435602 0.35019479963441003 0 0.48000361061534469 0.34273255895134558 0 0.485270367948336 0.34176598342176301 0 0.48472716005931482 0.34905255384292833 0 0.47343971426999681 0.33969874628353208 0 0.47665894776435602 0.35019479963441003 0 0.46827364058121712 0.34459851753335979 0 0.46981588388928802 0.36301349662259008 0 0.48369367717097372 0.36207292457270279 0 0.4842548305112635 0.37818943324201948 0 0.46981588388928802 0.36301349662259008 0 0.46596535205413242 0.37650568064204509 0 0.4842548305112635 0.37818943324201948 0 0.46981588388928802 0.36301349662259008 0 0.4610883749684499 0.36354271678263012 0 0.46596535205413242 0.37650568064204509 0 0.4610883749684499 0.36354271678263012 0 0.45360536749974689 0.37142736360140788 0 0.45015490582358297 0.36178326188603499 0 0.4610883749684499 0.36354271678263012 0 0.45360536749974689 0.37142736360140788 0 0.46596535205413242 0.37650568064204509 0 0.4610883749684499 0.36354271678263012 0 0.46827364058121712 0.34459851753335979 0 0.45015490582358297 0.36178326188603499 0 0.46827364058121712 0.34459851753335979 0 0.45015490582358297 0.36178326188603499 0 0.46981588388928802 0.36301349662259008 0 0.4610883749684499 0.36354271678263012 0 0.46827364058121712 0.34459851753335979 0 0.45595280423391082 0.33806602867950408 0 0.46827364058121712 0.34459851753335979 0 0.45015490582358297 0.36178326188603499 0 0.44204741247972068 0.33912267388268452 0 0.45595280423391082 0.33806602867950408 0 0.45015490582358297 0.36178326188603499 0 0.44204741247972068 0.33912267388268452 0 0.45015490582358297 0.36178326188603499 0 0.42597447117483811 0.36036774375026243 0 0.44204741247972068 0.33912267388268452 0 0.45015490582358297 0.36178326188603499 0 0.45015490582358297 0.36178326188603499 0 0.43066518200159409 0.3802683231149363 0 0.45015490582358297 0.36178326188603499 0 0.43066518200159409 0.3802683231149363 0 0.44574378936915648 0.3792697771578008 0 0.45360536749974689 0.37142736360140788 0 0.45015490582358297 0.36178326188603499 0 0.44574378936915648 0.3792697771578008 0 0.45360536749974689 0.37142736360140788 0 0.45015490582358297 0.36178326188603499 0 0.45015490582358297 0.36178326188603499 0 0.42597447117483811 0.36036774375026243 0 0.43066518200159409 0.3802683231149363 0 0.42597447117483811 0.36036774375026243 0 0.40889358801948611 0.37160514815444451 0 0.43066518200159409 0.3802683231149363 0 0.42597447117483811 0.36036774375026243 0 0.40889358801948611 0.37160514815444451 0 0.40040974483025232 0.35257319240998991 0 0.42597447117483811 0.36036774375026243 0 0.42107563191472153 0.34157977415908269 0 0.40040974483025232 0.35257319240998991 0 0.44204741247972068 0.33912267388268452 0 0.42597447117483811 0.36036774375026243 0 0.42107563191472153 0.34157977415908269 0 0.44204741247972068 0.33912267388268452 0 0.4257201651538543 0.32628341661587212 0 0.42107563191472153 0.34157977415908269 0 0.44204741247972068 0.33912267388268452 0 0.43393991913586621 0.31646208587933122 0 0.4257201651538543 0.32628341661587212 0 0.43219053017670339 0.31157251264383562 0 0.44444593206584609 0.31409758550438999 0 0.43393991913586621 0.31646208587933122 0 0.43219053017670339 0.31157251264383562 0 0.43393991913586621 0.31646208587933122 0 0.42735841248596412 0.31385278601920702 0 0.43219053017670339 0.31157251264383562 0 0.43393991913586621 0.31646208587933122 0 0.43219053017670339 0.31157251264383562 0 0.42735841248596412 0.31385278601920702 0 0.43393991913586621 0.31646208587933122 0 0.42735841248596412 0.31385278601920702 0 0.43393991913586621 0.31646208587933122 0 0.4257201651538543 0.32628341661587212 0 0.42735841248596412 0.31385278601920702 0 0.42735841248596412 0.31385278601920702 0 0.41738123992859483 0.31856100763137762 0 0.4257201651538543 0.32628341661587212 0 0.42735841248596412 0.31385278601920702 0 0.41738123992859483 0.31856100763137762 0 0.41171900995673311 0.30765239863032401 0 0.42735841248596412 0.31385278601920702 0 0.41738123992859483 0.31856100763137762 0 0.4257201651538543 0.32628341661587212 0 0.41738123992859483 0.31856100763137762 0 0.40972020612635718 0.33170890940034842 0 0.41738123992859483 0.31856100763137762 0 0.40972020612635718 0.33170890940034842 0 0.40180855328970211 0.31771482892023301 0 0.41171900995673311 0.30765239863032401 0 0.41738123992859483 0.31856100763137762 0 0.40180855328970211 0.31771482892023301 0 0.42107563191472153 0.34157977415908269 0 0.40972020612635718 0.33170890940034842 0 0.40040974483025232 0.35257319240998991 0 0.4257201651538543 0.32628341661587212 0 0.42107563191472153 0.34157977415908269 0 0.40972020612635718 0.33170890940034842 0 0.39192590164101859 0.33354123666553531 0 0.40040974483025232 0.35257319240998991 0 0.40972020612635718 0.33170890940034842 0 0.39192590164101859 0.33354123666553531 0 0.40040974483025232 0.35257319240998991 0 0.39192590164101859 0.33354123666553531 0 0.40180855328970211 0.31771482892023301 0 0.38344205845178941 0.31450928092107872 0 0.40972020612635718 0.33170890940034842 0 0.39192590164101859 0.33354123666553531 0 0.40180855328970211 0.31771482892023301 0 0.36971880587079747 0.32868831280267391 0 0.39192590164101859 0.33354123666553531 0 0.38344205845178941 0.31450928092107872 0 0.39192590164101859 0.33354123666553531 0 0.38344205845178941 0.31450928092107872 0 0.36971880587079747 0.32868831280267391 0 0.38344205845178941 0.31450928092107872 0 0.36971880587079747 0.32868831280267391 0 0.39192590164101859 0.33354123666553531 0 0.37760875528064552 0.34775643304867943 0 0.39192590164101859 0.33354123666553531 0 0.37760875528064552 0.34775643304867943 0 0.40040974483025232 0.35257319240998991 0 0.37760875528064552 0.34775643304867943 0 0.38745214835223862 0.3682624752470452 0 0.40040974483025232 0.35257319240998991 0 0.36647059910353308 0.364695216264532 0 0.37760875528064552 0.34775643304867943 0 0.38745214835223862 0.3682624752470452 0 0.36647059910353308 0.364695216264532 0 0.38745214835223862 0.3682624752470452 0 0.37694564491726767 0.38652308784479511 0 0.40889358801948611 0.37160514815444451 0 0.40040974483025232 0.35257319240998991 0 0.40889358801948611 0.37160514815444451 0 0.38745214835223862 0.3682624752470452 0 0.40040974483025232 0.35257319240998991 0 0.39475525413129348 0.38666161397789839 0 0.38742069073100183 0.4083509594250585 0 0.41117545817960521 0.39875338434383728 0 0.40889358801948611 0.37160514815444451 0 0.39475525413129348 0.38666161397789839 0 0.41117545817960521 0.39875338434383728 0 0.40889358801948611 0.37160514815444451 0 0.38745214835223862 0.3682624752470452 0 0.39475525413129348 0.38666161397789839 0 0.38745214835223862 0.3682624752470452 0 0.39475525413129348 0.38666161397789839 0 0.37694564491726767 0.38652308784479511 0 0.37694564491726767 0.38652308784479511 0 0.38742069073100183 0.4083509594250585 0 0.37694564491726767 0.38652308784479511 0 0.38056987605974119 0.40038726064772479 0 0.38742069073100183 0.4083509594250585 0 0.39475525413129348 0.38666161397789839 0 0.37694564491726767 0.38652308784479511 0 0.38742069073100183 0.4083509594250585 0 0.37008702394707638 0.3957217900659209 0 0.37694564491726767 0.38652308784479511 0 0.38056987605974119 0.40038726064772479 0 0.37469191018849241 0.41147560564509428 0 0.38056987605974119 0.40038726064772479 0 0.38742069073100183 0.4083509594250585 0 0.38742069073100183 0.4083509594250585 0 0.37605217227525772 0.42334359542022432 0 0.37469191018849241 0.41147560564509428 0 0.38742069073100183 0.4083509594250585 0 0.37605217227525772 0.42334359542022432 0 0.38742069073100183 0.4083509594250585 0 0.38613562408756041 0.42250245696182431 0 0.39168573435761572 0.41723844557273781 0 0.38742069073100183 0.4083509594250585 0 0.37605217227525772 0.42334359542022432 0 0.38613562408756041 0.42250245696182431 0 0.38613562408756041 0.42250245696182431 0 0.39168573435761572 0.41723844557273781 0 0.39373660935642579 0.42186840017746102 0 0.38613562408756041 0.42250245696182431 0 0.39168573435761572 0.41723844557273781 0 0.38742069073100183 0.4083509594250585 0 0.39168573435761572 0.41723844557273781 0 0.37654561744134379 0.43159811484082028 0 0.38280161133169233 0.43265729058174851 0 0.37822304894532882 0.43966646236554541 0 0.37654561744134379 0.43159811484082028 0 0.38280161133169233 0.43265729058174851 0 0.37654561744134379 0.43159811484082028 0 0.38280161133169233 0.43265729058174851 0 0.38613562408756041 0.42250245696182431 0 0.37654561744134379 0.43159811484082028 0 0.37605217227525772 0.42334359542022432 0 0.38613562408756041 0.42250245696182431 0 0.37605217227525772 0.42334359542022432 0 0.38613562408756041 0.42250245696182431 0 0.37654561744134379 0.43159811484082028 0 0.38613562408756041 0.42250245696182431 0 0.38613562408756041 0.42250245696182431 0 0.38877112097405159 0.43210910903472632 0 0.39655626812487071 0.43154846470899783 0 0.38280161133169233 0.43265729058174851 0 0.38613562408756041 0.42250245696182431 0 0.38877112097405159 0.43210910903472632 0 0.38613562408756041 0.42250245696182431 0 0.39373660935642579 0.42186840017746102 0 0.38280161133169233 0.43265729058174851 0 0.38877112097405159 0.43210910903472632 0 0.38959098035208201 0.44172822388633343 0 0.38877112097405159 0.43210910903472632 0 0.39655626812487071 0.43154846470899783 0 0.38959098035208201 0.44172822388633343 0 0.38613562408756041 0.42250245696182431 0 0.39655626812487071 0.43154846470899783 0 0.39373660935642579 0.42186840017746102 0 0.39655626812487071 0.43154846470899783 0 0.4077701901064022 0.42069775100913781 0 0.40765871161633749 0.43324108497597319 0 0.39655626812487071 0.43154846470899783 0 0.39373660935642579 0.42186840017746102 0 0.4077701901064022 0.42069775100913781 0 0.39655626812487071 0.43154846470899783 0 0.40765871161633749 0.43324108497597319 0 0.40646306554234107 0.44584379894524601 0 0.38742069073100183 0.4083509594250585 0 0.39168573435761572 0.41723844557273781 0 0.41117545817960521 0.39875338434383728 0 0.39168573435761572 0.41723844557273781 0 0.39373660935642579 0.42186840017746102 0 0.4077701901064022 0.42069775100913781 0 0.39168573435761572 0.41723844557273781 0 0.41117545817960521 0.39875338434383728 0 0.39168573435761572 0.41723844557273781 0 0.4077701901064022 0.42069775100913781 0 0.41117545817960521 0.39875338434383728 0 0.39168573435761572 0.41723844557273781 0 0.39373660935642579 0.42186840017746102 0 0.39373660935642579 0.42186840017746102 0 0.4077701901064022 0.42069775100913781 0 0.4077701901064022 0.42069775100913781 0 0.42940475612524409 0.41889304505645331 0 0.41927156662888593 0.40988069215973261 0 0.4077701901064022 0.42069775100913781 0 0.41117545817960521 0.39875338434383728 0 0.41927156662888593 0.40988069215973261 0 0.4077701901064022 0.42069775100913781 0 0.42940475612524409 0.41889304505645331 0 0.4077701901064022 0.42069775100913781 0 0.41984532269173619 0.43487432524051173 0 0.42940475612524409 0.41889304505645331 0 0.4077701901064022 0.42069775100913781 0 0.40765871161633749 0.43324108497597319 0 0.41984532269173619 0.43487432524051173 0 0.42940475612524409 0.41889304505645331 0 0.44386429480162137 0.42860751806433961 0 0.43361524732623757 0.43848820522999671 0 0.41984532269173619 0.43487432524051173 0 0.42940475612524409 0.41889304505645331 0 0.43361524732623757 0.43848820522999671 0 0.41927156662888593 0.40988069215973261 0 0.42940475612524409 0.41889304505645331 0 0.42873586210429232 0.40117858822950181 0 0.42940475612524409 0.41889304505645331 0 0.42873586210429232 0.40117858822950181 0 0.44527072363852788 0.40756981298918982 0 0.42873586210429232 0.40117858822950181 0 0.41117545817960521 0.39875338434383728 0 0.43066518200159409 0.3802683231149363 0 0.42873586210429232 0.40117858822950181 0 0.43066518200159409 0.3802683231149363 0 0.44061283008227531 0.39204813634965519 0 0.41927156662888593 0.40988069215973261 0 0.42873586210429232 0.40117858822950181 0 0.41117545817960521 0.39875338434383728 0 0.40889358801948611 0.37160514815444451 0 0.41117545817960521 0.39875338434383728 0 0.43066518200159409 0.3802683231149363 0 0.41117545817960521 0.39875338434383728 0 0.43066518200159409 0.3802683231149363 0 0.45360536749974689 0.37142736360140788 0 0.44574378936915648 0.3792697771578008 0 0.45471272957936087 0.38968942141709129 0 0.43066518200159409 0.3802683231149363 0 0.44574378936915648 0.3792697771578008 0 0.44061283008227531 0.39204813634965519 0 0.44574378936915648 0.3792697771578008 0 0.44061283008227531 0.39204813634965519 0 0.45471272957936087 0.38968942141709129 0 0.42873586210429232 0.40117858822950181 0 0.44061283008227531 0.39204813634965519 0 0.44527072363852788 0.40756981298918982 0 0.44061283008227531 0.39204813634965519 0 0.45471272957936087 0.38968942141709129 0 0.44527072363852788 0.40756981298918982 0 0.46235114817929601 0.40403840911403988 0 0.45471272957936087 0.38968942141709129 0 0.47350156337954419 0.3929790203726764 0 0.46235114817929601 0.40403840911403988 0 0.45471272957936087 0.38968942141709129 0 0.44527072363852788 0.40756981298918982 0 0.45471272957936087 0.38968942141709129 0 0.46596535205413242 0.37650568064204509 0 0.47350156337954419 0.3929790203726764 0 0.45360536749974689 0.37142736360140788 0 0.45471272957936087 0.38968942141709129 0 0.46596535205413242 0.37650568064204509 0 0.46596535205413242 0.37650568064204509 0 0.4842548305112635 0.37818943324201948 0 0.47350156337954419 0.3929790203726764 0 0.46235114817929601 0.40403840911403988 0 0.47350156337954419 0.3929790203726764 0 0.48165678734838058 0.41095085553879479 0 0.47350156337954419 0.3929790203726764 0 0.5 0.39264015519556622 0 0.48165678734838058 0.41095085553879479 0 0.4842548305112635 0.37818943324201948 0 0.47350156337954419 0.3929790203726764 0 0.5 0.39264015519556622 0 0.5 0.36437343274983108 0 0.4842548305112635 0.37818943324201948 0 0.5 0.39264015519556622 0 0.5 0.42090687764130108 0 0.47781902377272178 0.43648539503478379 0 0.5 0.44917360008703611 0 0.5 0.42090687764130108 0 0.48165678734838058 0.41095085553879479 0 0.47781902377272178 0.43648539503478379 0 0.5 0.39264015519556622 0 0.5 0.42090687764130108 0 0.48165678734838058 0.41095085553879479 0 0.46235114817929601 0.40403840911403988 0 0.48165678734838058 0.41095085553879479 0 0.46255477131864531 0.4203009205875643 0 0.48165678734838058 0.41095085553879479 0 0.47781902377272178 0.43648539503478379 0 0.46255477131864531 0.4203009205875643 0 0.46255477131864531 0.4203009205875643 0 0.44386429480162137 0.42860751806433961 0 0.45742452659957972 0.43847382756282188 0 0.47781902377272178 0.43648539503478379 0 0.46255477131864531 0.4203009205875643 0 0.45742452659957972 0.43847382756282188 0 0.46235114817929601 0.40403840911403988 0 0.46255477131864531 0.4203009205875643 0 0.44527072363852788 0.40756981298918982 0 0.46255477131864531 0.4203009205875643 0 0.44527072363852788 0.40756981298918982 0 0.44386429480162137 0.42860751806433961 0 0.42940475612524409 0.41889304505645331 0 0.44527072363852788 0.40756981298918982 0 0.44386429480162137 0.42860751806433961 0 0.44527072363852788 0.40756981298918982 0 0.44386429480162137 0.42860751806433961 0 0.44386429480162137 0.42860751806433961 0 0.44245786596471492 0.44964522313948951 0 0.43361524732623757 0.43848820522999671 0 0.44386429480162137 0.42860751806433961 0 0.44245786596471492 0.44964522313948951 0 0.44386429480162137 0.42860751806433961 0 0.44245786596471492 0.44964522313948951 0 0.45742452659957972 0.43847382756282188 0 0.44245786596471492 0.44964522313948951 0 0.44105143712775879 0.47068292821463598 0 0.44245786596471492 0.44964522313948951 0 0.46042667714019481 0.45733008098793237 0 0.44105143712775879 0.47068292821463598 0 0.46042667714019481 0.45733008098793237 0 0.47052571856390402 0.47406162537370189 0 0.44105143712775879 0.47068292821463598 0 0.44245786596471492 0.44964522313948951 0 0.46042667714019481 0.45733008098793237 0 0.45742452659957972 0.43847382756282188 0 0.47781902377272178 0.43648539503478379 0 0.46042667714019481 0.45733008098793237 0 0.45742452659957972 0.43847382756282188 0 0.47781902377272178 0.43648539503478379 0 0.46042667714019481 0.45733008098793237 0 0.48199179991998609 0.45774377689493229 0 0.46042667714019481 0.45733008098793237 0 0.48199179991998609 0.45774377689493229 0 0.47052571856390402 0.47406162537370189 0 0.48199179991998609 0.45774377689493229 0 0.5 0.44917360008703611 0 0.50000000000004907 0.47744032253277102 0 0.47781902377272178 0.43648539503478379 0 0.48199179991998609 0.45774377689493229 0 0.5 0.44917360008703611 0 0.5 0.5 0 0.47052571856390402 0.47406162537370189 0 0.43909150970106248 0.49999999999999589 0 0.5 0.5 0 0.50000000000004907 0.47744032253277102 0 0.47052571856390402 0.47406162537370189 0 0.50000000000004907 0.47744032253277102 0 0.47052571856390402 0.47406162537370189 0 0.48199179991998609 0.45774377689493229 0 0.50000000000004907 0.47744032253277102 0 0.47052571856390402 0.47406162537370189 0 0.47052571856390402 0.47406162537370189 0 0.44105143712775879 0.47068292821463598 0 0.43909150970106248 0.49999999999999589 0 0.47052571856390402 0.47406162537370189 0 0.44105143712775879 0.47068292821463598 0 0.44105143712775879 0.47068292821463598 0 0.43909150970106248 0.49999999999999589 0 0.43909150970106248 0.49999999999999589 0 0.4249501150915016 0.48451547502080561 0 0.41619049358067262 0.5 0 0.44105143712775879 0.47068292821463598 0 0.43909150970106248 0.49999999999999589 0 0.4249501150915016 0.48451547502080561 0 0.4249501150915016 0.48451547502080561 0 0.41619049358067262 0.5 0 0.40473998552047702 0.48340558267962702 0 0.4249501150915016 0.48451547502080561 0 0.41829537642881143 0.46807435443815532 0 0.40473998552047702 0.48340558267962702 0 0.44105143712775879 0.47068292821463598 0 0.41829537642881143 0.46807435443815532 0 0.44105143712775879 0.47068292821463598 0 0.4249501150915016 0.48451547502080561 0 0.41829537642881143 0.46807435443815532 0 0.44105143712775879 0.47068292821463598 0 0.42495308634940571 0.45174897592015739 0 0.41829537642881143 0.46807435443815532 0 0.44245786596471492 0.44964522313948951 0 0.44105143712775879 0.47068292821463598 0 0.42495308634940571 0.45174897592015739 0 0.44245786596471492 0.44964522313948951 0 0.42495308634940571 0.45174897592015739 0 0.43361524732623757 0.43848820522999671 0 0.41984532269173619 0.43487432524051173 0 0.42495308634940571 0.45174897592015739 0 0.43361524732623757 0.43848820522999671 0 0.41984532269173619 0.43487432524051173 0 0.42495308634940571 0.45174897592015739 0 0.40646306554234107 0.44584379894524601 0 0.40765871161633749 0.43324108497597319 0 0.41984532269173619 0.43487432524051173 0 0.40646306554234107 0.44584379894524601 0 0.41829537642881143 0.46807435443815532 0 0.39553931572986439 0.46546578066167221 0 0.40646306554234107 0.44584379894524601 0 0.41829537642881143 0.46807435443815532 0 0.39553931572986439 0.46546578066167221 0 0.42495308634940571 0.45174897592015739 0 0.40646306554234107 0.44584379894524601 0 0.41829537642881143 0.46807435443815532 0 0.40646306554234107 0.44584379894524601 0 0.39553931572986439 0.46546578066167221 0 0.38959098035208201 0.44172822388633343 0 0.39655626812487071 0.43154846470899783 0 0.40646306554234107 0.44584379894524601 0 0.38959098035208201 0.44172822388633343 0 0.39553931572986439 0.46546578066167221 0 0.38959098035208201 0.44172822388633343 0 0.37765471967194852 0.4493470472049339 0 0.38280161133169233 0.43265729058174851 0 0.38959098035208201 0.44172822388633343 0 0.37822304894532882 0.43966646236554541 0 0.38959098035208201 0.44172822388633343 0 0.37765471967194852 0.4493470472049339 0 0.37822304894532882 0.43966646236554541 0 0.37278325503091708 0.46285720688518911 0 0.39553931572986439 0.46546578066167221 0 0.37278325503091708 0.46285720688518911 0 0.39553931572986439 0.46546578066167221 0 0.37765471967194852 0.4493470472049339 0 0.37278325503091708 0.46285720688518911 0 0.39553931572986439 0.46546578066167221 0 0.38336087708708061 0.47815606702472441 0 0.37444257882095089 0.49172544424091202 0 0.39328947746028248 0.50000000000000067 0 0.37444257882095089 0.49172544424091202 0 0.36993201381769819 0.50000000000000078 0 0.39328947746028248 0.50000000000000067 0 0.37444257882095089 0.49172544424091202 0 0.38336087708708061 0.47815606702472441 0 0.39328947746028248 0.50000000000000067 0 0.38336087708708061 0.47815606702472441 0 0.39328947746028248 0.50000000000000067 0 0.40473998552047702 0.48340558267962702 0 0.41619049358067262 0.5 0 0.39328947746028248 0.50000000000000067 0 0.40473998552047702 0.48340558267962702 0 0.41829537642881143 0.46807435443815532 0 0.39553931572986439 0.46546578066167221 0 0.40473998552047702 0.48340558267962702 0 0.39553931572986439 0.46546578066167221 0 0.38336087708708061 0.47815606702472441 0 0.40473998552047702 0.48340558267962702 0 0.32926337844781473 0.085457759298392305 0 0.30420284643408368 0.072864608055861091 0 0.31045138659992572 0.1081987620712542 0 0.32926337844781473 0.085457759298392305 0 0.32804943454227298 0.064197808434570805 0 0.34807537029570368 0.062716756525530534 0 0.32926337844781473 0.085457759298392305 0 0.34807537029570368 0.062716756525530534 0 0.32926337844781473 0.085457759298392305 0 0.32804943454227298 0.064197808434570805 0 0.30420284643408368 0.072864608055861091 0 0.32926337844781473 0.085457759298392305 0 0.31045138659992572 0.1081987620712542 0 0.32926337844781473 0.085457759298392305 0 0.33844510344733209 0.1212051252658551 0 0.36144868190829321 0.1080884312464771 0 0.32926337844781473 0.085457759298392305 0 0.33844510344733209 0.1212051252658551 0 0.31045138659992572 0.1081987620712542 0 0.31045138659992572 0.1081987620712542 0 0.30788634092488831 0.13265454854521169 0 0.3239898667328549 0.13211107516418141 0 0.33844510344733209 0.1212051252658551 0 0.31045138659992572 0.1081987620712542 0 0.3239898667328549 0.13211107516418141 0 0.33844510344733209 0.1212051252658551 0 0.36144868190829321 0.1080884312464771 0 0.36507023307528408 0.13889383233261399 0 0.36144868190829321 0.1080884312464771 0 0.36507023307528408 0.13889383233261399 0 0.39144185736937359 0.12547822700719599 0 0.36144868190829321 0.1080884312464771 0 0.36472463029980251 0.082326120275194703 0 0.38169244657672918 0.097827825900414611 0 0.32926337844781473 0.085457759298392305 0 0.36144868190829321 0.1080884312464771 0 0.36472463029980251 0.082326120275194703 0 0.32926337844781473 0.085457759298392305 0 0.36472463029980251 0.082326120275194703 0 0.34807537029570368 0.062716756525530534 0 0.36472463029980251 0.082326120275194703 0 0.34807537029570368 0.062716756525530534 0 0.37790170490670638 0.063205605184670555 0 0.3668873621435943 0.039975753752670061 0 0.37790170490670638 0.063205605184670555 0 0.34807537029570368 0.062716756525530534 0 0.3668873621435943 0.039975753752670061 0 0.37790170490670638 0.063205605184670555 0 0.34807537029570368 0.062716756525530534 0 0.3668873621435943 0.039975753752670061 0 0.33844451314342477 0.036765449728314442 0 0.3668873621435943 0.039975753752670061 0 0.35822859290792203 0.02171393575273383 0 0.33844451314342477 0.036765449728314442 0 0.34807537029570368 0.062716756525530534 0 0.3668873621435943 0.039975753752670061 0 0.36101844616959972 0.0067641871573688121 0 0.37171322382200922 0.0021667819060980629 0 0.36189309977134992 -0.003702113273154502 0 0.37171322382200922 0.0021667819060980629 0 0.36985279079329769 0.01084781346102812 0 0.38098303473067507 0.0092994415462710218 0 0.36101844616959972 0.0067641871573688121 0 0.37171322382200922 0.0021667819060980629 0 0.36985279079329769 0.01084781346102812 0 0.36101844616959972 0.0067641871573688121 0 0.36985279079329769 0.01084781346102812 0 0.35822859290792203 0.02171393575273383 0 0.3668873621435943 0.039975753752670061 0 0.38242332751286212 0.021194997605292129 0 0.3668873621435943 0.039975753752670061 0 0.35822859290792203 0.02171393575273383 0 0.36985279079329769 0.01084781346102812 0 0.35822859290792203 0.02171393575273383 0 0.38242332751286212 0.021194997605292129 0 0.3668873621435943 0.039975753752670061 0 0.35822859290792203 0.02171393575273383 0 0.38242332751286212 0.021194997605292129 0 0.3444798644180585 0.01894287642528545 0 0.35822859290792203 0.02171393575273383 0 0.33844451314342477 0.036765449728314442 0 0.36101844616959972 0.0067641871573688121 0 0.35822859290792203 0.02171393575273383 0 0.34956982367224609 0.0034521177527992212 0 0.35822859290792203 0.02171393575273383 0 0.34956982367224609 0.0034521177527992212 0 0.3444798644180585 0.01894287642528545 0 0.35822859290792203 0.02171393575273383 0 0.34956982367224609 0.0034521177527992212 0 0.36101844616959972 0.0067641871573688121 0 0.34956982367224609 0.0034521177527992212 0 0.36189309977134992 -0.003702113273154502 0 0.34956982367224609 0.0034521177527992212 0 0.33167652794864122 0.01384000246729432 0 0.33785068458949391 -0.0025643709947998782 0 0.34956982367224609 0.0034521177527992212 0 0.33167652794864122 0.01384000246729432 0 0.3444798644180585 0.01894287642528545 0 0.34956982367224609 0.0034521177527992212 0 0.33167652794864122 0.01384000246729432 0 0.33167652794864122 0.01384000246729432 0 0.33785068458949391 -0.0025643709947998782 0 0.32635125696986839 -0.0033442034079895931 0 0.3444798644180585 0.01894287642528545 0 0.33167652794864122 0.01384000246729432 0 0.33844451314342477 0.036765449728314442 0 0.33167652794864122 0.01384000246729432 0 0.31378323222503618 0.024227887181789309 0 0.33844451314342477 0.036765449728314442 0 0.33167652794864122 0.01384000246729432 0 0.31378323222503618 0.024227887181789309 0 0.33167652794864122 0.01384000246729432 0 0.31378323222503618 0.024227887181789309 0 0.31751081809402287 0.0081359636167634714 0 0.33167652794864122 0.01384000246729432 0 0.31751081809402287 0.0081359636167634714 0 0.32635125696986839 -0.0033442034079895931 0 0.32804943454227298 0.064197808434570805 0 0.34807537029570368 0.062716756525530534 0 0.33844451314342477 0.036765449728314442 0 0.31378323222503618 0.024227887181789309 0 0.33844451314342477 0.036765449728314442 0 0.31496748683951009 0.049175637384023162 0 0.32804943454227298 0.064197808434570805 0 0.31496748683951009 0.049175637384023162 0 0.30420284643408368 0.072864608055861091 0 0.32804943454227298 0.064197808434570805 0 0.33844451314342477 0.036765449728314442 0 0.31496748683951009 0.049175637384023162 0 0.31496748683951009 0.049175637384023162 0 0.29414296539808349 0.053730065913392487 0 0.30420284643408368 0.072864608055861091 0 0.31378323222503618 0.024227887181789309 0 0.31496748683951009 0.049175637384023162 0 0.29588993650143142 0.034615771896284293 0 0.31496748683951009 0.049175637384023162 0 0.29588993650143142 0.034615771896284293 0 0.29414296539808349 0.053730065913392487 0 0.29588993650143142 0.034615771896284293 0 0.29414296539808349 0.053730065913392487 0 0.27226481263818891 0.045475655116993953 0 0.30368321262709658 0.010934391213377539 0 0.2965674916674631 -0.005892833431666954 0 0.31205986069947189 -0.0049782593706542196 0 0.31751081809402287 0.0081359636167634714 0 0.30368321262709658 0.010934391213377539 0 0.31205986069947189 -0.0049782593706542196 0 0.31378323222503618 0.024227887181789309 0 0.31751081809402287 0.0081359636167634714 0 0.30368321262709658 0.010934391213377539 0 0.31378323222503618 0.024227887181789309 0 0.29588993650143142 0.034615771896284293 0 0.31378323222503618 0.024227887181789309 0 0.29588993650143142 0.034615771896284293 0 0.30368321262709658 0.010934391213377539 0 0.29588993650143142 0.034615771896284293 0 0.2850598880502595 0.0097200540804723429 0 0.27387307889720169 0.025882316680737771 0 0.29588993650143142 0.034615771896284293 0 0.30368321262709658 0.010934391213377539 0 0.2850598880502595 0.0097200540804723429 0 0.30368321262709658 0.010934391213377539 0 0.2850598880502595 0.0097200540804723429 0 0.2965674916674631 -0.005892833431666954 0 0.2850598880502595 0.0097200540804723429 0 0.27387307889720169 0.025882316680737771 0 0.25935681487488282 0.0032901558470991299 0 0.27387307889720169 0.025882316680737771 0 0.25415398646272769 0.030625775086944751 0 0.25935681487488282 0.0032901558470991299 0 0.25415398646272769 0.030625775086944751 0 0.25935681487488282 0.0032901558470991299 0 0.2489511580505735 0.057961394326790622 0 0.27226481263818891 0.045475655116993953 0 0.27657700224233023 0.065413001191319681 0 0.29414296539808349 0.053730065913392487 0 0.27226481263818891 0.045475655116993953 0 0.27657700224233023 0.065413001191319681 0 0.27387307889720169 0.025882316680737771 0 0.25415398646272769 0.030625775086944751 0 0.27226481263818891 0.045475655116993953 0 0.29588993650143142 0.034615771896284293 0 0.27387307889720169 0.025882316680737771 0 0.27226481263818891 0.045475655116993953 0 0.2489511580505735 0.057961394326790622 0 0.25415398646272769 0.030625775086944751 0 0.2489511580505735 0.057961394326790622 0 0.25415398646272769 0.030625775086944751 0 0.27226481263818891 0.045475655116993953 0 0.2489511580505735 0.057961394326790622 0 0.27657700224233023 0.065413001191319681 0 0.24544774149804099 0.07636831712571171 0 0.2489511580505735 0.057961394326790622 0 0.25814507412550652 0.08207270088773827 0 0.2489511580505735 0.057961394326790622 0 0.25814507412550652 0.08207270088773827 0 0.27657700224233023 0.065413001191319681 0 0.2419443249455106 0.094775239924633187 0 0.25814507412550652 0.08207270088773827 0 0.25554390584474829 0.095747355308678631 0 0.25814507412550652 0.08207270088773827 0 0.27198164934112701 0.08880706487793677 0 0.25554390584474829 0.095747355308678631 0 0.25814507412550652 0.08207270088773827 0 0.27198164934112701 0.08880706487793677 0 0.27657700224233023 0.065413001191319681 0 0.27198164934112701 0.08880706487793677 0 0.27657700224233023 0.065413001191319681 0 0.28969012985178783 0.085053958767572477 0 0.28969012985178783 0.085053958767572477 0 0.30420284643408368 0.072864608055861091 0 0.31045138659992572 0.1081987620712542 0 0.27657700224233023 0.065413001191319681 0 0.28969012985178783 0.085053958767572477 0 0.30420284643408368 0.072864608055861091 0 0.29414296539808349 0.053730065913392487 0 0.27657700224233023 0.065413001191319681 0 0.30420284643408368 0.072864608055861091 0 0.27657700224233023 0.065413001191319681 0 0.30420284643408368 0.072864608055861091 0 0.27198164934112701 0.08880706487793677 0 0.28969012985178783 0.085053958767572477 0 0.28359300015265548 0.1004065268756409 0 0.31045138659992572 0.1081987620712542 0 0.2916393947520366 0.1309397648441161 0 0.31045138659992572 0.1081987620712542 0 0.30788634092488831 0.13265454854521169 0 0.2916393947520366 0.1309397648441161 0 0.28969012985178783 0.085053958767572477 0 0.31045138659992572 0.1081987620712542 0 0.28359300015265548 0.1004065268756409 0 0.31045138659992572 0.1081987620712542 0 0.28359300015265548 0.1004065268756409 0 0.2808382459620628 0.1173109404828384 0 0.31045138659992572 0.1081987620712542 0 0.2808382459620628 0.1173109404828384 0 0.2916393947520366 0.1309397648441161 0 0.2808382459620628 0.1173109404828384 0 0.26314337889019401 0.1203761973752507 0 0.26979857724452438 0.13342245161393321 0 0.2808382459620628 0.1173109404828384 0 0.26815216404890629 0.10534381977269711 0 0.26314337889019401 0.1203761973752507 0 0.28359300015265548 0.1004065268756409 0 0.2808382459620628 0.1173109404828384 0 0.26815216404890629 0.10534381977269711 0 0.27198164934112701 0.08880706487793677 0 0.28359300015265548 0.1004065268756409 0 0.26815216404890629 0.10534381977269711 0 0.26815216404890629 0.10534381977269711 0 0.25554390584474829 0.095747355308678631 0 0.251790880876404 0.1108994014901991 0 0.27198164934112701 0.08880706487793677 0 0.26815216404890629 0.10534381977269711 0 0.25554390584474829 0.095747355308678631 0 0.2493254696813656 0.1321640205800898 0 0.251790880876404 0.1108994014901991 0 0.26314337889019401 0.1203761973752507 0 0.26815216404890629 0.10534381977269711 0 0.251790880876404 0.1108994014901991 0 0.26314337889019401 0.1203761973752507 0 0.2493254696813656 0.1321640205800898 0 0.26979857724452438 0.13342245161393321 0 0.26101757127734021 0.14606301878432629 0 0.2493254696813656 0.1321640205800898 0 0.26314337889019401 0.1203761973752507 0 0.26979857724452438 0.13342245161393321 0 0.26979857724452438 0.13342245161393321 0 0.2728274029041472 0.15368076761697741 0 0.2916393947520366 0.1309397648441161 0 0.2808382459620628 0.1173109404828384 0 0.26979857724452438 0.13342245161393321 0 0.2916393947520366 0.1309397648441161 0 0.26979857724452438 0.13342245161393321 0 0.2728274029041472 0.15368076761697741 0 0.26101757127734021 0.14606301878432629 0 0.2728274029041472 0.15368076761697741 0 0.2852042284687113 0.14212613310567351 0 0.24472819154328501 0.15589805884118429 0 0.26101757127734021 0.14606301878432629 0 0.2728274029041472 0.15368076761697741 0 0.26101757127734021 0.14606301878432629 0 0.26091661592412763 0.16480032243159209 0 0.24472819154328501 0.15589805884118429 0 0.26101757127734021 0.14606301878432629 0 0.26091661592412763 0.16480032243159209 0 0.24472819154328501 0.15589805884118429 0 0.2475437006404492 0.14414899757342611 0 0.26101757127734021 0.14606301878432629 0 0.2475437006404492 0.14414899757342611 0 0.2493254696813656 0.1321640205800898 0 0.26101757127734021 0.14606301878432629 0 0.26091661592412763 0.16480032243159209 0 0.26423174298130547 0.164071688882543 0 0.25027958451938309 0.18093784940587171 0 0.24406137605986569 0.16850494461668031 0 0.26091661592412763 0.16480032243159209 0 0.26423174298130547 0.164071688882543 0 0.26198385394036849 0.17397334306733581 0 0.265788870143642 0.16971824598665711 0 0.26091661592412763 0.16480032243159209 0 0.26423174298130547 0.164071688882543 0 0.24127671145533749 0.1831355503775616 0 0.26091661592412763 0.16480032243159209 0 0.26423174298130547 0.164071688882543 0 0.25027958451938309 0.18093784940587171 0 0.24127671145533749 0.1831355503775616 0 0.26091661592412763 0.16480032243159209 0 0.25027958451938309 0.18093784940587171 0 0.26423174298130547 0.164071688882543 0 0.25027958451938309 0.18093784940587171 0 0.26198385394036849 0.17397334306733581 0 0.25027958451938309 0.18093784940587171 0 0.25965090747053149 0.18014543694089791 0 0.26178626724534582 0.1865240661260871 0 0.25027958451938309 0.18093784940587171 0 0.26178626724534582 0.1865240661260871 0 0.25101603294849978 0.19316925088699061 0 0.25027958451938309 0.18093784940587171 0 0.26198385394036849 0.17397334306733581 0 0.25965090747053149 0.18014543694089791 0 0.26198385394036849 0.17397334306733581 0 0.26886256623161681 0.17467540196369721 0 0.265788870143642 0.16971824598665711 0 0.26198385394036849 0.17397334306733581 0 0.26455392417702878 0.17914648916429721 0 0.25965090747053149 0.18014543694089791 0 0.26198385394036849 0.17397334306733581 0 0.26455392417702878 0.17914648916429721 0 0.26886256623161681 0.17467540196369721 0 0.26455392417702878 0.17914648916429721 0 0.26178626724534582 0.1865240661260871 0 0.27049078977431201 0.18122929765550319 0 0.26455392417702878 0.17914648916429721 0 0.25965090747053149 0.18014543694089791 0 0.26178626724534582 0.1865240661260871 0 0.26178626724534582 0.1865240661260871 0 0.27049078977431201 0.18122929765550319 0 0.27303751581833108 0.1877170928921551 0 0.27049078977431201 0.18122929765550319 0 0.26886256623161681 0.17467540196369721 0 0.27441221136255362 0.17697432039293751 0 0.26455392417702878 0.17914648916429721 0 0.27049078977431201 0.18122929765550319 0 0.26886256623161681 0.17467540196369721 0 0.26886256623161681 0.17467540196369721 0 0.27453199745507512 0.17209879190745761 0 0.26951460924094689 0.16954227606873451 0 0.26886256623161681 0.17467540196369721 0 0.27453199745507512 0.17209879190745761 0 0.27441221136255362 0.17697432039293751 0 0.27453199745507512 0.17209879190745761 0 0.27441221136255362 0.17697432039293751 0 0.28135292065112488 0.17486826017507279 0 0.27916391298339532 0.16987730021362479 0 0.28292730536062982 0.17140328978787359 0 0.28135292065112488 0.17486826017507279 0 0.27453199745507512 0.17209879190745761 0 0.27916391298339532 0.16987730021362479 0 0.28135292065112488 0.17486826017507279 0 0.27756584835796272 0.1801117178144451 0 0.28206455854444912 0.17853284736019789 0 0.28135292065112488 0.17486826017507279 0 0.27441221136255362 0.17697432039293751 0 0.27756584835796272 0.1801117178144451 0 0.28135292065112488 0.17486826017507279 0 0.27049078977431201 0.18122929765550319 0 0.27441221136255362 0.17697432039293751 0 0.27756584835796272 0.1801117178144451 0 0.27756584835796272 0.1801117178144451 0 0.28209606964026501 0.18110392210324769 0 0.27303751581833108 0.1877170928921551 0 0.27049078977431201 0.18122929765550319 0 0.27756584835796272 0.1801117178144451 0 0.27303751581833108 0.1877170928921551 0 0.27756584835796272 0.1801117178144451 0 0.28209606964026501 0.18110392210324769 0 0.28206455854444912 0.17853284736019789 0 0.2728274029041472 0.15368076761697741 0 0.26423174298130547 0.164071688882543 0 0.2858472030867914 0.15932081534454531 0 0.26423174298130547 0.164071688882543 0 0.27538209307951789 0.16708792755585139 0 0.2858472030867914 0.15932081534454531 0 0.26423174298130547 0.164071688882543 0 0.2858472030867914 0.15932081534454531 0 0.2728274029041472 0.15368076761697741 0 0.26091661592412763 0.16480032243159209 0 0.26423174298130547 0.164071688882543 0 0.2728274029041472 0.15368076761697741 0 0.26423174298130547 0.164071688882543 0 0.2728274029041472 0.15368076761697741 0 0.26091661592412763 0.16480032243159209 0 0.26423174298130547 0.164071688882543 0 0.26951460924094689 0.16954227606873451 0 0.27538209307951789 0.16708792755585139 0 0.26423174298130547 0.164071688882543 0 0.265788870143642 0.16971824598665711 0 0.26951460924094689 0.16954227606873451 0 0.26886256623161681 0.17467540196369721 0 0.265788870143642 0.16971824598665711 0 0.26951460924094689 0.16954227606873451 0 0.27453199745507512 0.17209879190745761 0 0.26951460924094689 0.16954227606873451 0 0.27538209307951789 0.16708792755585139 0 0.27538209307951789 0.16708792755585139 0 0.2858472030867914 0.15932081534454531 0 0.28176680359970602 0.16670103903838671 0 0.27453199745507512 0.17209879190745761 0 0.27538209307951789 0.16708792755585139 0 0.27916391298339532 0.16987730021362479 0 0.27538209307951789 0.16708792755585139 0 0.27916391298339532 0.16987730021362479 0 0.28176680359970602 0.16670103903838671 0 0.28639752937590718 0.1664292012034152 0 0.29448098367258979 0.15873454338384321 0 0.28595536019301537 0.1791406483088685 0 0.29448098367258979 0.15873454338384321 0 0.28595536019301537 0.1791406483088685 0 0.2858472030867914 0.15932081534454531 0 0.28639752937590718 0.1664292012034152 0 0.29448098367258979 0.15873454338384321 0 0.2858472030867914 0.15932081534454531 0 0.28176680359970602 0.16670103903838671 0 0.28639752937590718 0.1664292012034152 0 0.27916391298339532 0.16987730021362479 0 0.28176680359970602 0.16670103903838671 0 0.28292730536062982 0.17140328978787359 0 0.28176680359970602 0.16670103903838671 0 0.28292730536062982 0.17140328978787359 0 0.28639752937590718 0.1664292012034152 0 0.2858472030867914 0.15932081534454531 0 0.29448098367258979 0.15873454338384321 0 0.28898411229873427 0.15093095560867231 0 0.28595536019301537 0.1791406483088685 0 0.29901523274496339 0.18266236337439171 0 0.2912395328017327 0.19619503221117421 0 0.28209606964026501 0.18110392210324769 0 0.28595536019301537 0.1791406483088685 0 0.28292730536062982 0.17140328978787359 0 0.28639752937590718 0.1664292012034152 0 0.28595536019301537 0.1791406483088685 0 0.28209606964026501 0.18110392210324769 0 0.28595536019301537 0.1791406483088685 0 0.28206455854444912 0.17853284736019789 0 0.28595536019301537 0.1791406483088685 0 0.28206455854444912 0.17853284736019789 0 0.28135292065112488 0.17486826017507279 0 0.28292730536062982 0.17140328978787359 0 0.28595536019301537 0.1791406483088685 0 0.28135292065112488 0.17486826017507279 0 0.28595536019301537 0.1791406483088685 0 0.29901523274496339 0.18266236337439171 0 0.31232698448710472 0.16572504298345009 0 0.29901523274496339 0.18266236337439171 0 0.31232698448710472 0.16572504298345009 0 0.30653905349800092 0.18958872999407389 0 0.28595536019301537 0.1791406483088685 0 0.31232698448710472 0.16572504298345009 0 0.29448098367258979 0.15873454338384321 0 0.28595536019301537 0.1791406483088685 0 0.31232698448710472 0.16572504298345009 0 0.29448098367258979 0.15873454338384321 0 0.31232698448710472 0.16572504298345009 0 0.30573116413224682 0.15469520738708831 0 0.29795397735993367 0.1458996694716394 0 0.30788634092488831 0.13265454854521169 0 0.31471031246775522 0.1461186232716507 0 0.30573116413224682 0.15469520738708831 0 0.29795397735993367 0.1458996694716394 0 0.31471031246775522 0.1461186232716507 0 0.31232698448710472 0.16572504298345009 0 0.30573116413224682 0.15469520738708831 0 0.31471031246775522 0.1461186232716507 0 0.29448098367258979 0.15873454338384321 0 0.30573116413224682 0.15469520738708831 0 0.29795397735993367 0.1458996694716394 0 0.29795397735993367 0.1458996694716394 0 0.30788634092488831 0.13265454854521169 0 0.2916393947520366 0.1309397648441161 0 0.29795397735993367 0.1458996694716394 0 0.2916393947520366 0.1309397648441161 0 0.2852042284687113 0.14212613310567351 0 0.2728274029041472 0.15368076761697741 0 0.2852042284687113 0.14212613310567351 0 0.28898411229873427 0.15093095560867231 0 0.2728274029041472 0.15368076761697741 0 0.2858472030867914 0.15932081534454531 0 0.28898411229873427 0.15093095560867231 0 0.2728274029041472 0.15368076761697741 0 0.2916393947520366 0.1309397648441161 0 0.2728274029041472 0.15368076761697741 0 0.2916393947520366 0.1309397648441161 0 0.2852042284687113 0.14212613310567351 0 0.29448098367258979 0.15873454338384321 0 0.29795397735993367 0.1458996694716394 0 0.28898411229873427 0.15093095560867231 0 0.29795397735993367 0.1458996694716394 0 0.2852042284687113 0.14212613310567351 0 0.28898411229873427 0.15093095560867231 0 0.26867444526007311 0.25094104323580468 0 0.26483108965893792 0.22970165208950361 0 0.28475769765093017 0.23917056952590779 0 0.24242825524523789 0.24053549575596991 0 0.26867444526007311 0.25094104323580468 0 0.24242825524523789 0.24053549575596991 0 0.26867444526007311 0.25094104323580468 0 0.26483108965893792 0.22970165208950361 0 0.24242825524523789 0.24053549575596991 0 0.26483108965893792 0.22970165208950361 0 0.25399362891722022 0.2147551623774705 0 0.26483108965893792 0.22970165208950361 0 0.28257661459277139 0.22194443709761891 0 0.28475769765093017 0.23917056952590779 0 0.26483108965893792 0.22970165208950361 0 0.27539322492597679 0.20442115019918619 0 0.28257661459277139 0.22194443709761891 0 0.26483108965893792 0.22970165208950361 0 0.27539322492597679 0.20442115019918619 0 0.27539322492597679 0.20442115019918619 0 0.25399362891722022 0.2147551623774705 0 0.25982036600206998 0.19741720226982121 0 0.26483108965893792 0.22970165208950361 0 0.27539322492597679 0.20442115019918619 0 0.25399362891722022 0.2147551623774705 0 0.2468665209182411 0.20316312670397371 0 0.25399362891722022 0.2147551623774705 0 0.25982036600206998 0.19741720226982121 0 0.2468665209182411 0.20316312670397371 0 0.25982036600206998 0.19741720226982121 0 0.25101603294849978 0.19316925088699061 0 0.26178626724534582 0.1865240661260871 0 0.25982036600206998 0.19741720226982121 0 0.25101603294849978 0.19316925088699061 0 0.26178626724534582 0.1865240661260871 0 0.25982036600206998 0.19741720226982121 0 0.27303751581833108 0.1877170928921551 0 0.28595536019301537 0.1791406483088685 0 0.27539322492597679 0.20442115019918619 0 0.28209606964026501 0.18110392210324769 0 0.28595536019301537 0.1791406483088685 0 0.27539322492597679 0.20442115019918619 0 0.28209606964026501 0.18110392210324769 0 0.27539322492597679 0.20442115019918619 0 0.27303751581833108 0.1877170928921551 0 0.27539322492597679 0.20442115019918619 0 0.25982036600206998 0.19741720226982121 0 0.27303751581833108 0.1877170928921551 0 0.28595536019301537 0.1791406483088685 0 0.27539322492597679 0.20442115019918619 0 0.2912395328017327 0.19619503221117421 0 0.29901523274496339 0.18266236337439171 0 0.2912395328017327 0.19619503221117421 0 0.30653905349800092 0.18958872999407389 0 0.2912395328017327 0.19619503221117421 0 0.30653905349800092 0.18958872999407389 0 0.29918975399943099 0.21043715454080009 0 0.30653905349800092 0.18958872999407389 0 0.29918975399943099 0.21043715454080009 0 0.31904383339893461 0.19944833866734271 0 0.29918975399943099 0.21043715454080009 0 0.31392062184667457 0.22198797714647009 0 0.31904383339893461 0.19944833866734271 0 0.27539322492597679 0.20442115019918619 0 0.29918975399943099 0.21043715454080009 0 0.28257661459277139 0.22194443709761891 0 0.27539322492597679 0.20442115019918619 0 0.2912395328017327 0.19619503221117421 0 0.29918975399943099 0.21043715454080009 0 0.28257661459277139 0.22194443709761891 0 0.29543681867429111 0.2275888221984694 0 0.28475769765093017 0.23917056952590779 0 0.29918975399943099 0.21043715454080009 0 0.28257661459277139 0.22194443709761891 0 0.29543681867429111 0.2275888221984694 0 0.29543681867429111 0.2275888221984694 0 0.30614492804101112 0.24370767114134911 0 0.31392062184667457 0.22198797714647009 0 0.29918975399943099 0.21043715454080009 0 0.29543681867429111 0.2275888221984694 0 0.31392062184667457 0.22198797714647009 0 0.29492063527490819 0.26134659071563948 0 0.30614492804101112 0.24370767114134911 0 0.28475769765093017 0.23917056952590779 0 0.29543681867429111 0.2275888221984694 0 0.30614492804101112 0.24370767114134911 0 0.28475769765093017 0.23917056952590779 0 0.34452689156915561 0.25493736741178102 0 0.32857447559835679 0.23870878053399791 0 0.35250849891588698 0.225619357656379 0 0.30614492804101112 0.24370767114134911 0 0.32857447559835679 0.23870878053399791 0 0.31392062184667457 0.22198797714647009 0 0.32857447559835679 0.23870878053399791 0 0.31392062184667457 0.22198797714647009 0 0.33513392136802278 0.21203709579686131 0 0.32857447559835679 0.23870878053399791 0 0.33513392136802278 0.21203709579686131 0 0.35250849891588698 0.225619357656379 0 0.31392062184667457 0.22198797714647009 0 0.33513392136802278 0.21203709579686131 0 0.31904383339893461 0.19944833866734271 0 0.31904383339893461 0.19944833866734271 0 0.32219197925858623 0.17903914632504761 0 0.33847695805998212 0.18547618098309121 0 0.30653905349800092 0.18958872999407389 0 0.31904383339893461 0.19944833866734271 0 0.32219197925858623 0.17903914632504761 0 0.33513392136802278 0.21203709579686131 0 0.31904383339893461 0.19944833866734271 0 0.33847695805998212 0.18547618098309121 0 0.33513392136802278 0.21203709579686131 0 0.35557985643207468 0.20065634267733101 0 0.33847695805998212 0.18547618098309121 0 0.35557985643207468 0.20065634267733101 0 0.37081083063658282 0.2129512227913278 0 0.37850218402099628 0.1933976045285607 0 0.35557985643207468 0.20065634267733101 0 0.36006203573440088 0.17147871821311059 0 0.37850218402099628 0.1933976045285607 0 0.35557985643207468 0.20065634267733101 0 0.37081083063658282 0.2129512227913278 0 0.35250849891588698 0.225619357656379 0 0.33513392136802278 0.21203709579686131 0 0.35557985643207468 0.20065634267733101 0 0.35250849891588698 0.225619357656379 0 0.35250849891588698 0.225619357656379 0 0.36782436287914722 0.24498410137385199 0 0.37863741383634192 0.2305093462368468 0 0.37081083063658282 0.2129512227913278 0 0.35250849891588698 0.225619357656379 0 0.37863741383634192 0.2305093462368468 0 0.34452689156915561 0.25493736741178102 0 0.35250849891588698 0.225619357656379 0 0.36782436287914722 0.24498410137385199 0 0.33844510344733209 0.1212051252658551 0 0.3386986087811944 0.15230943765803201 0 0.3239898667328549 0.13211107516418141 0 0.30788634092488831 0.13265454854521169 0 0.3239898667328549 0.13211107516418141 0 0.31471031246775522 0.1461186232716507 0 0.3386986087811944 0.15230943765803201 0 0.3239898667328549 0.13211107516418141 0 0.31471031246775522 0.1461186232716507 0 0.31232698448710472 0.16572504298345009 0 0.3386986087811944 0.15230943765803201 0 0.31471031246775522 0.1461186232716507 0 0.31232698448710472 0.16572504298345009 0 0.3386986087811944 0.15230943765803201 0 0.3386986087811944 0.15230943765803201 0 0.32219197925858623 0.17903914632504761 0 0.33847695805998212 0.18547618098309121 0 0.31232698448710472 0.16572504298345009 0 0.3386986087811944 0.15230943765803201 0 0.32219197925858623 0.17903914632504761 0 0.31232698448710472 0.16572504298345009 0 0.30653905349800092 0.18958872999407389 0 0.32219197925858623 0.17903914632504761 0 0.36006203573440088 0.17147871821311059 0 0.36507023307528408 0.13889383233261399 0 0.38569831790732279 0.16364068571869109 0 0.3386986087811944 0.15230943765803201 0 0.33847695805998212 0.18547618098309121 0 0.36006203573440088 0.17147871821311059 0 0.35557985643207468 0.20065634267733101 0 0.33847695805998212 0.18547618098309121 0 0.36006203573440088 0.17147871821311059 0 0.36006203573440088 0.17147871821311059 0 0.38569831790732279 0.16364068571869109 0 0.37850218402099628 0.1933976045285607 0 0.3386986087811944 0.15230943765803201 0 0.36006203573440088 0.17147871821311059 0 0.36507023307528408 0.13889383233261399 0 0.3386986087811944 0.15230943765803201 0 0.36507023307528408 0.13889383233261399 0 0.33844510344733209 0.1212051252658551 0 0.3386986087811944 0.15230943765803201 0 0.36507023307528408 0.13889383233261399 0 0.36507023307528408 0.13889383233261399 0 0.39144185736937359 0.12547822700719599 0 0.38569831790732279 0.16364068571869109 0 0.39144185736937359 0.12547822700719599 0 0.38569831790732279 0.16364068571869109 0 0.40665267681316691 0.15316567012348839 0 0.36507023307528408 0.13889383233261399 0 0.39144185736937359 0.12547822700719599 0 0.39144185736937359 0.12547822700719599 0 0.41636232693654618 0.13648852878779941 0 0.40665267681316691 0.15316567012348839 0 0.38569831790732279 0.16364068571869109 0 0.37850218402099628 0.1933976045285607 0 0.39852120280680448 0.190350402798593 0 0.38569831790732279 0.16364068571869109 0 0.41376553345665679 0.17617654476886141 0 0.39852120280680448 0.190350402798593 0 0.38569831790732279 0.16364068571869109 0 0.41376553345665679 0.17617654476886141 0 0.40665267681316691 0.15316567012348839 0 0.41376553345665679 0.17617654476886141 0 0.42738716323699538 0.1562881900649809 0 0.40665267681316691 0.15316567012348839 0 0.41376553345665679 0.17617654476886141 0 0.41915656521143257 0.20360217130365449 0 0.43833023312647951 0.1803931633331195 0 0.41376553345665679 0.17617654476886141 0 0.42738716323699538 0.1562881900649809 0 0.43833023312647951 0.1803931633331195 0 0.42738716323699538 0.1562881900649809 0 0.41636232693654618 0.13648852878779941 0 0.43896933010418282 0.13154634581901031 0 0.41636232693654618 0.13648852878779941 0 0.43896933010418282 0.13154634581901031 0 0.4178134816634631 0.112062621681778 0 0.42738716323699538 0.1562881900649809 0 0.41636232693654618 0.13648852878779941 0 0.40665267681316691 0.15316567012348839 0 0.39409708900996032 0.25138288549760918 0 0.39904591866038402 0.2328705611967839 0 0.4188422569555294 0.2402942209285745 0 0.39409708900996032 0.25138288549760918 0 0.36782436287914722 0.24498410137385199 0 0.37863741383634192 0.2305093462368468 0 0.39409708900996032 0.25138288549760918 0 0.37863741383634192 0.2305093462368468 0 0.39904591866038402 0.2328705611967839 0 0.37081083063658282 0.2129512227913278 0 0.37863741383634192 0.2305093462368468 0 0.39548341343761412 0.21493500767319759 0 0.37863741383634192 0.2305093462368468 0 0.39904591866038402 0.2328705611967839 0 0.39548341343761412 0.21493500767319759 0 0.39904591866038402 0.2328705611967839 0 0.39548341343761412 0.21493500767319759 0 0.41172811819487137 0.22406281584084459 0 0.37081083063658282 0.2129512227913278 0 0.39548341343761412 0.21493500767319759 0 0.37850218402099628 0.1933976045285607 0 0.39548341343761412 0.21493500767319759 0 0.37850218402099628 0.1933976045285607 0 0.39852120280680448 0.190350402798593 0 0.39548341343761412 0.21493500767319759 0 0.39852120280680448 0.190350402798593 0 0.41915656521143257 0.20360217130365449 0 0.41376553345665679 0.17617654476886141 0 0.39852120280680448 0.190350402798593 0 0.41915656521143257 0.20360217130365449 0 0.41915656521143257 0.20360217130365449 0 0.44540001424117631 0.20382155411243921 0 0.43833023312647951 0.1803931633331195 0 0.41915656521143257 0.20360217130365449 0 0.4278917857755955 0.22702785319858859 0 0.44540001424117631 0.20382155411243921 0 0.4278917857755955 0.22702785319858859 0 0.44540001424117631 0.20382155411243921 0 0.41915656521143257 0.20360217130365449 0 0.41172811819487137 0.22406281584084459 0 0.4278917857755955 0.22702785319858859 0 0.39548341343761412 0.21493500767319759 0 0.41915656521143257 0.20360217130365449 0 0.41172811819487137 0.22406281584084459 0 0.39904591866038402 0.2328705611967839 0 0.41172811819487137 0.22406281584084459 0 0.4188422569555294 0.2402942209285745 0 0.41172811819487137 0.22406281584084459 0 0.4278917857755955 0.22702785319858859 0 0.4188422569555294 0.2402942209285745 0 0.4278917857755955 0.22702785319858859 0 0.4188422569555294 0.2402942209285745 0 0.44395468753809869 0.23057134411254221 0 0.41737497171560728 0.2553433948634441 0 0.43433825968054462 0.24367271220235689 0 0.4188422569555294 0.2402942209285745 0 0.4188422569555294 0.2402942209285745 0 0.44395468753809869 0.23057134411254221 0 0.43433825968054462 0.24367271220235689 0 0.4188422569555294 0.2402942209285745 0 0.44395468753809869 0.23057134411254221 0 0.39409708900996032 0.25138288549760918 0 0.41737497171560728 0.2553433948634441 0 0.4188422569555294 0.2402942209285745 0 0.39409708900996032 0.25138288549760918 0 0.4188422569555294 0.2402942209285745 0 0.44395468753809869 0.23057134411254221 0 0.47001265818636118 0.23958068531705179 0 0.46678025207759838 0.25530295550532839 0 0.45159703698721698 0.24409072614773139 0 0.47001265818636118 0.23958068531705179 0 0.45159703698721698 0.24409072614773139 0 0.44395468753809869 0.23057134411254221 0 0.47001265818636118 0.23958068531705179 0 0.43433825968054462 0.24367271220235689 0 0.45159703698721698 0.24409072614773139 0 0.44395468753809869 0.23057134411254221 0 0.4278917857755955 0.22702785319858859 0 0.44395468753809869 0.23057134411254221 0 0.44540001424117631 0.20382155411243921 0 0.45647184086805659 0.22936861939490971 0 0.46833259284666778 0.218116891790505 0 0.47001265818636118 0.23958068531705179 0 0.44395468753809869 0.23057134411254221 0 0.46833259284666778 0.218116891790505 0 0.44395468753809869 0.23057134411254221 0 0.45647184086805659 0.22936861939490971 0 0.47001265818636118 0.23958068531705179 0 0.44395468753809869 0.23057134411254221 0 0.45647184086805659 0.22936861939490971 0 0.46833259284666778 0.218116891790505 0 0.44395468753809869 0.23057134411254221 0 0.46833259284666778 0.218116891790505 0 0.45467298042392978 0.21453288242654309 0 0.46105524032691603 0.20407201910943121 0 0.45467298042392978 0.21453288242654309 0 0.44540001424117631 0.20382155411243921 0 0.46833259284666778 0.218116891790505 0 0.46105524032691603 0.20407201910943121 0 0.45467298042392978 0.21453288242654309 0 0.46833259284666778 0.218116891790505 0 0.46105524032691603 0.20407201910943121 0 0.47396237141604808 0.2032735121913786 0 0.44395468753809869 0.23057134411254221 0 0.45467298042392978 0.21453288242654309 0 0.44540001424117631 0.20382155411243921 0 0.44540001424117631 0.20382155411243921 0 0.43833023312647951 0.1803931633331195 0 0.46290824270675779 0.18061525502629031 0 0.46105524032691603 0.20407201910943121 0 0.44540001424117631 0.20382155411243921 0 0.46290824270675779 0.18061525502629031 0 0.46105524032691603 0.20407201910943121 0 0.47396237141604808 0.2032735121913786 0 0.46290824270675779 0.18061525502629031 0 0.44540001424117631 0.20382155411243921 0 0.46290824270675779 0.18061525502629031 0 0.47396237141604808 0.2032735121913786 0 0.46290824270675779 0.18061525502629031 0 0.488445155515561 0.21023347513056359 0 0.47396237141604808 0.2032735121913786 0 0.48437002620164871 0.18726318297539599 0 0.47396237141604808 0.2032735121913786 0 0.46290824270675779 0.18061525502629031 0 0.48437002620164871 0.18726318297539599 0 0.5 0.19906755876295781 0 0.488445155515561 0.21023347513056359 0 0.48437002620164871 0.18726318297539599 0 0.5 0.19906755876295781 0 0.488445155515561 0.21023347513056359 0 0.5 0.2245080674412416 0 0.47396237141604808 0.2032735121913786 0 0.48501650012533798 0.22593176935646711 0 0.46833259284666778 0.218116891790505 0 0.47396237141604808 0.2032735121913786 0 0.48501650012533798 0.22593176935646711 0 0.488445155515561 0.21023347513056359 0 0.47396237141604808 0.2032735121913786 0 0.48501650012533798 0.22593176935646711 0 0.46833259284666778 0.218116891790505 0 0.48501650012533798 0.22593176935646711 0 0.47001265818636118 0.23958068531705179 0 0.48501650012533798 0.22593176935646711 0 0.5 0.2245080674412416 0 0.49607062883462488 0.24859002652155709 0 0.488445155515561 0.21023347513056359 0 0.48501650012533798 0.22593176935646711 0 0.5 0.2245080674412416 0 0.48501650012533798 0.22593176935646711 0 0.49607062883462488 0.24859002652155709 0 0.5 0.2245080674412416 0 0.49999999999999528 0.24994857611952551 0 0.49607062883462488 0.24859002652155709 0 0.49999999999999528 0.24994857611952551 0 0.49607062883462488 0.24859002652155709 0 0.49607062883462488 0.24859002652155709 0 0.47001265818636118 0.23958068531705179 0 0.46678025207759838 0.25530295550532839 0 0.47952388047089167 0.25315782589811098 0 0.47001265818636118 0.23958068531705179 0 0.48501650012533798 0.22593176935646711 0 0.49607062883462488 0.24859002652155709 0 0.47001265818636118 0.23958068531705179 0 0.47952388047089167 0.25315782589811098 0 0.49607062883462488 0.24859002652155709 0 0.47001265818636118 0.23958068531705179 0 0.46504590221683262 0.13573846044831159 0 0.45093878640547053 0.15608080042265021 0 0.48090438757152532 0.15676224665651159 0 0.46504590221683262 0.13573846044831159 0 0.43896933010418282 0.13154634581901031 0 0.45819787912090298 0.11916032911521129 0 0.42738716323699538 0.1562881900649809 0 0.43896933010418282 0.13154634581901031 0 0.45093878640547053 0.15608080042265021 0 0.46504590221683262 0.13573846044831159 0 0.43896933010418282 0.13154634581901031 0 0.45093878640547053 0.15608080042265021 0 0.43896933010418282 0.13154634581901031 0 0.45093878640547053 0.15608080042265021 0 0.42738716323699538 0.1562881900649809 0 0.45093878640547053 0.15608080042265021 0 0.43833023312647951 0.1803931633331195 0 0.45093878640547053 0.15608080042265021 0 0.43833023312647951 0.1803931633331195 0 0.46290824270675779 0.18061525502629031 0 0.45093878640547053 0.15608080042265021 0 0.46290824270675779 0.18061525502629031 0 0.48090438757152532 0.15676224665651159 0 0.45093878640547053 0.15608080042265021 0 0.46290824270675779 0.18061525502629031 0 0.46290824270675779 0.18061525502629031 0 0.48090438757152532 0.15676224665651159 0 0.46290824270675779 0.18061525502629031 0 0.48090438757152532 0.15676224665651159 0 0.48437002620164871 0.18726318297539599 0 0.48090438757152532 0.15676224665651159 0 0.48437002620164871 0.18726318297539599 0 0.5 0.17362705008467411 0 0.5 0.19906755876295781 0 0.48437002620164871 0.18726318297539599 0 0.5 0.17362705008467411 0 0.48090438757152532 0.15676224665651159 0 0.5 0.17362705008467411 0 0.5 0.1481865414063902 0 0.48090438757152532 0.15676224665651159 0 0.5 0.1481865414063902 0 0.48434883325895478 0.13508169785470789 0 0.46504590221683262 0.13573846044831159 0 0.48090438757152532 0.15676224665651159 0 0.48434883325895478 0.13508169785470789 0 0.46504590221683262 0.13573846044831159 0 0.48434883325895478 0.13508169785470789 0 0.47579387650641652 0.11197520803421961 0 0.5 0.1481865414063902 0 0.48434883325895478 0.13508169785470789 0 0.50000000000000333 0.1227460327281065 0 0.50000000000000333 0.1227460327281065 0 0.47579387650641652 0.11197520803421961 0 0.5 0.09354776212188165 0 0.48434883325895478 0.13508169785470789 0 0.50000000000000333 0.1227460327281065 0 0.47579387650641652 0.11197520803421961 0 0.50000000000000333 0.1227460327281065 0 0.47579387650641652 0.11197520803421961 0 0.47579387650641652 0.11197520803421961 0 0.5 0.09354776212188165 0 0.47080886971017882 0.090592829617900439 0 0.5 0.06434949151565672 0 0.5 0.09354776212188165 0 0.48407356015515751 0.075990794897831532 0 0.5 0.06434949151565672 0 0.48407356015515751 0.075990794897831532 0 0.4771901421352302 0.050099682141575362 0 0.5 0.09354776212188165 0 0.47080886971017882 0.090592829617900439 0 0.48407356015515751 0.075990794897831532 0 0.47080886971017882 0.090592829617900439 0 0.48407356015515751 0.075990794897831532 0 0.46615461500373612 0.06800811920309667 0 0.48407356015515751 0.075990794897831532 0 0.46615461500373612 0.06800811920309667 0 0.4771901421352302 0.050099682141575362 0 0.46615461500373612 0.06800811920309667 0 0.44612543561517221 0.074384456340849447 0 0.45569534231271952 0.053937264861482898 0 0.47080886971017882 0.090592829617900439 0 0.46615461500373612 0.06800811920309667 0 0.44612543561517221 0.074384456340849447 0 0.47080886971017882 0.090592829617900439 0 0.44612543561517221 0.074384456340849447 0 0.45158775301282911 0.10120438334033401 0 0.44612543561517221 0.074384456340849447 0 0.45158775301282911 0.10120438334033401 0 0.42738162951924158 0.090433558646448364 0 0.47579387650641652 0.11197520803421961 0 0.45819787912090298 0.11916032911521129 0 0.45158775301282911 0.10120438334033401 0 0.46504590221683262 0.13573846044831159 0 0.47579387650641652 0.11197520803421961 0 0.45819787912090298 0.11916032911521129 0 0.47579387650641652 0.11197520803421961 0 0.47080886971017882 0.090592829617900439 0 0.45158775301282911 0.10120438334033401 0 0.47579387650641652 0.11197520803421961 0 0.45158775301282911 0.10120438334033401 0 0.45158775301282911 0.10120438334033401 0 0.42738162951924158 0.090433558646448364 0 0.45158775301282911 0.10120438334033401 0 0.4435450462630588 0.11480058369886099 0 0.42699987380289511 0.1070118912153704 0 0.45819787912090298 0.11916032911521129 0 0.45158775301282911 0.10120438334033401 0 0.4435450462630588 0.11480058369886099 0 0.43896933010418282 0.13154634581901031 0 0.45819787912090298 0.11916032911521129 0 0.4435450462630588 0.11480058369886099 0 0.43896933010418282 0.13154634581901031 0 0.42699987380289511 0.1070118912153704 0 0.43896933010418282 0.13154634581901031 0 0.4435450462630588 0.11480058369886099 0 0.42699987380289511 0.1070118912153704 0 0.43896933010418282 0.13154634581901031 0 0.4178134816634631 0.112062621681778 0 0.42699987380289511 0.1070118912153704 0 0.39144185736937359 0.12547822700719599 0 0.41636232693654618 0.13648852878779941 0 0.4178134816634631 0.112062621681778 0 0.4178134816634631 0.112062621681778 0 0.41408102405307312 0.097525243533068184 0 0.39877885286872428 0.1072731574335585 0 0.4178134816634631 0.112062621681778 0 0.41408102405307312 0.097525243533068184 0 0.42699987380289511 0.1070118912153704 0 0.45158775301282911 0.10120438334033401 0 0.42699987380289511 0.1070118912153704 0 0.42738162951924158 0.090433558646448364 0 0.41408102405307312 0.097525243533068184 0 0.42699987380289511 0.1070118912153704 0 0.42738162951924158 0.090433558646448364 0 0.44612543561517221 0.074384456340849447 0 0.41550388570011437 0.066897538848419674 0 0.43622278230483102 0.050449824017648547 0 0.44612543561517221 0.074384456340849447 0 0.42738162951924158 0.090433558646448364 0 0.41550388570011437 0.066897538848419674 0 0.41550388570011437 0.066897538848419674 0 0.41313782624801743 0.083669367432404468 0 0.39478498909539811 0.083345253679190684 0 0.41408102405307312 0.097525243533068184 0 0.41313782624801743 0.083669367432404468 0 0.39478498909539811 0.083345253679190684 0 0.42738162951924158 0.090433558646448364 0 0.41550388570011437 0.066897538848419674 0 0.41313782624801743 0.083669367432404468 0 0.41408102405307312 0.097525243533068184 0 0.42738162951924158 0.090433558646448364 0 0.41313782624801743 0.083669367432404468 0 0.41550388570011437 0.066897538848419674 0 0.39478498909539811 0.083345253679190684 0 0.39708091643663851 0.061200425027350382 0 0.41550388570011437 0.066897538848419674 0 0.39478498909539811 0.083345253679190684 0 0.39478498909539811 0.083345253679190684 0 0.37790170490670638 0.063205605184670555 0 0.39708091643663851 0.061200425027350382 0 0.36472463029980251 0.082326120275194703 0 0.39478498909539811 0.083345253679190684 0 0.37790170490670638 0.063205605184670555 0 0.36472463029980251 0.082326120275194703 0 0.39478498909539811 0.083345253679190684 0 0.38169244657672918 0.097827825900414611 0 0.36144868190829321 0.1080884312464771 0 0.39144185736937359 0.12547822700719599 0 0.38169244657672918 0.097827825900414611 0 0.39144185736937359 0.12547822700719599 0 0.4178134816634631 0.112062621681778 0 0.39144185736937359 0.12547822700719599 0 0.38169244657672918 0.097827825900414611 0 0.39877885286872428 0.1072731574335585 0 0.39144185736937359 0.12547822700719599 0 0.4178134816634631 0.112062621681778 0 0.39877885286872428 0.1072731574335585 0 0.41408102405307312 0.097525243533068184 0 0.39478498909539811 0.083345253679190684 0 0.39877885286872428 0.1072731574335585 0 0.39478498909539811 0.083345253679190684 0 0.38169244657672918 0.097827825900414611 0 0.39877885286872428 0.1072731574335585 0 0.40326687553142471 0.021835348110277319 0 0.38242332751286212 0.021194997605292129 0 0.40126964637129048 0.042377103218813127 0 0.40326687553142471 0.021835348110277319 0 0.39795929288213161 0.0024142414579153911 0 0.38242332751286212 0.021194997605292129 0 0.40326687553142471 0.021835348110277319 0 0.39795929288213161 0.0024142414579153911 0 0.41621535358432032 0.0048469464942716683 0 0.39795929288213161 0.0024142414579153911 0 0.38596381344665681 0.0029401426095767352 0 0.39268916153251843 -0.00083517866344857798 0 0.39795929288213161 0.0024142414579153911 0 0.39742910386485641 -0.0008993112535870193 0 0.39268916153251843 -0.00083517866344857798 0 0.39795929288213161 0.0024142414579153911 0 0.38098303473067507 0.0092994415462710218 0 0.38242332751286212 0.021194997605292129 0 0.39795929288213161 0.0024142414579153911 0 0.38596381344665681 0.0029401426095767352 0 0.38098303473067507 0.0092994415462710218 0 0.39795929288213161 0.0024142414579153911 0 0.38242332751286212 0.021194997605292129 0 0.38596381344665681 0.0029401426095767352 0 0.38098303473067507 0.0092994415462710218 0 0.37964459177568571 -0.0020913856927347149 0 0.37171322382200922 0.0021667819060980629 0 0.38098303473067507 0.0092994415462710218 0 0.37964459177568571 -0.0020913856927347149 0 0.36985279079329769 0.01084781346102812 0 0.38098303473067507 0.0092994415462710218 0 0.38242332751286212 0.021194997605292129 0 0.38242332751286212 0.021194997605292129 0 0.38372640743413278 0.046217715989016257 0 0.40126964637129048 0.042377103218813127 0 0.3668873621435943 0.039975753752670061 0 0.38242332751286212 0.021194997605292129 0 0.38372640743413278 0.046217715989016257 0 0.3668873621435943 0.039975753752670061 0 0.37790170490670638 0.063205605184670555 0 0.38372640743413278 0.046217715989016257 0 0.37790170490670638 0.063205605184670555 0 0.38372640743413278 0.046217715989016257 0 0.39708091643663851 0.061200425027350382 0 0.41550388570011437 0.066897538848419674 0 0.39708091643663851 0.061200425027350382 0 0.40126964637129048 0.042377103218813127 0 0.38372640743413278 0.046217715989016257 0 0.39708091643663851 0.061200425027350382 0 0.40126964637129048 0.042377103218813127 0 0.40326687553142471 0.021835348110277319 0 0.40126964637129048 0.042377103218813127 0 0.41991937479549718 0.041333932446219503 0 0.41550388570011437 0.066897538848419674 0 0.40126964637129048 0.042377103218813127 0 0.41991937479549718 0.041333932446219503 0 0.41550388570011437 0.066897538848419674 0 0.43622278230483102 0.050449824017648547 0 0.41550388570011437 0.066897538848419674 0 0.41991937479549718 0.041333932446219503 0 0.43622278230483102 0.050449824017648547 0 0.41991937479549718 0.041333932446219503 0 0.43622278230483102 0.050449824017648547 0 0.43747143836104552 0.027054988067679579 0 0.41991937479549718 0.041333932446219503 0 0.42194840834365149 0.022103780628284959 0 0.43747143836104552 0.027054988067679579 0 0.42194840834365149 0.022103780628284959 0 0.43747143836104552 0.027054988067679579 0 0.43366692706425769 0.007151105383316936 0 0.40326687553142471 0.021835348110277319 0 0.41991937479549718 0.041333932446219503 0 0.42194840834365149 0.022103780628284959 0 0.40326687553142471 0.021835348110277319 0 0.42194840834365149 0.022103780628284959 0 0.41621535358432032 0.0048469464942716683 0 0.41621535358432032 0.0048469464942716683 0 0.43366692706425769 0.007151105383316936 0 0.42813627571855267 -0.0078651388369397821 0 0.42194840834365149 0.022103780628284959 0 0.41621535358432032 0.0048469464942716683 0 0.43366692706425769 0.007151105383316936 0 0.43366692706425769 0.007151105383316936 0 0.45612945874848809 0.0072891767437300407 0 0.44291034288065401 -0.0057572181368568589 0 0.43747143836104552 0.027054988067679579 0 0.43366692706425769 0.007151105383316936 0 0.45612945874848809 0.0072891767437300407 0 0.43747143836104552 0.027054988067679579 0 0.45612945874848809 0.0072891767437300407 0 0.45694167890954751 0.034002109186877481 0 0.45612945874848809 0.0072891767437300407 0 0.45694167890954751 0.034002109186877481 0 0.47794262682289612 0.020091098566035082 0 0.44612543561517221 0.074384456340849447 0 0.43622278230483102 0.050449824017648547 0 0.45569534231271952 0.053937264861482898 0 0.43622278230483102 0.050449824017648547 0 0.45694167890954751 0.034002109186877481 0 0.43622278230483102 0.050449824017648547 0 0.45694167890954751 0.034002109186877481 0 0.45569534231271952 0.053937264861482898 0 0.43622278230483102 0.050449824017648547 0 0.43747143836104552 0.027054988067679579 0 0.45694167890954751 0.034002109186877481 0 0.45694167890954751 0.034002109186877481 0 0.45569534231271952 0.053937264861482898 0 0.4771901421352302 0.050099682141575362 0 0.46615461500373612 0.06800811920309667 0 0.45569534231271952 0.053937264861482898 0 0.4771901421352302 0.050099682141575362 0 0.45694167890954751 0.034002109186877481 0 0.4771901421352302 0.050099682141575362 0 0.47794262682289612 0.020091098566035082 0 0.4771901421352302 0.050099682141575362 0 0.5 0.03515122090943168 0 0.47794262682289612 0.020091098566035082 0 0.5 0.06434949151565672 0 0.4771901421352302 0.050099682141575362 0 0.5 0.03515122090943168 0 0.45612945874848809 0.0072891767437300407 0 0.47794262682289612 0.020091098566035082 0 0.47645959232495338 -0.0093833077921325492 0 0.5 0.03515122090943168 0 0.47794262682289612 0.020091098566035082 0 0.5 0.0059529503032067499 0 0.47794262682289612 0.020091098566035082 0 0.5 0.0059529503032067499 0 0.47645959232495338 -0.0093833077921325492 0 0.5 0.0059529503032067499 0 0.47645959232495338 -0.0093833077921325492 0 0.50000000000000044 -0.023245320303018169 0 0.47645959232495338 -0.0093833077921325492 0 0.47978542830082649 -0.035044676227961473 0 0.46508383655153779 -0.02610996102192335 0 0.47645959232495338 -0.0093833077921325492 0 0.50000000000000044 -0.023245320303018169 0 0.47978542830082649 -0.035044676227961473 0 0.50000000000000044 -0.023245320303018169 0 0.49656435912740809 -0.043730501202123268 0 0.50000000000000044 -0.023245320303018169 0 0.49656435912740809 -0.043730501202123268 0 0.47978542830082649 -0.035044676227961473 0 0.50000000000000044 -0.023245320303018169 0 0.5 -0.0438437634674953 0 0.49656435912740809 -0.043730501202123268 0 0.49656435912740809 -0.043730501202123268 0 0.48259298517662391 -0.054587535941302723 0 0.47978542830082649 -0.035044676227961473 0 0.49656435912740809 -0.043730501202123268 0 0.4931287182548153 -0.064215682101228341 0 0.5 -0.0438437634674953 0 0.49656435912740809 -0.043730501202123268 0 0.5 -0.064442206631972365 0 0.49656435912740809 -0.043730501202123268 0 0.5 -0.064442206631972365 0 0.4931287182548153 -0.064215682101228341 0 0.49656435912740809 -0.043730501202123268 0 0.48259298517662391 -0.054587535941302723 0 0.4931287182548153 -0.064215682101228341 0 0.48259298517662391 -0.054587535941302723 0 0.46961876203497988 -0.049701851083470458 0 0.47095069809214779 -0.061735526814588507 0 0.46961876203497988 -0.049701851083470458 0 0.47978542830082649 -0.035044676227961473 0 0.46177948429169402 -0.038283915618346008 0 0.48259298517662391 -0.054587535941302723 0 0.46961876203497988 -0.049701851083470458 0 0.47978542830082649 -0.035044676227961473 0 0.47978542830082649 -0.035044676227961473 0 0.46177948429169402 -0.038283915618346008 0 0.46508383655153779 -0.02610996102192335 0 0.46961876203497988 -0.049701851083470458 0 0.46177948429169402 -0.038283915618346008 0 0.45672782921449429 -0.04912110413516594 0 0.46177948429169402 -0.038283915618346008 0 0.45672782921449429 -0.04912110413516594 0 0.45197572726112262 -0.039113053055622973 0 0.46177948429169402 -0.038283915618346008 0 0.45197572726112262 -0.039113053055622973 0 0.45281042455409959 -0.028160641297308081 0 0.46961876203497988 -0.049701851083470458 0 0.47095069809214779 -0.061735526814588507 0 0.46113928485338712 -0.058034614184050343 0 0.46961876203497988 -0.049701851083470458 0 0.46113928485338712 -0.058034614184050343 0 0.45672782921449429 -0.04912110413516594 0 0.46113928485338712 -0.058034614184050343 0 0.44797606594767292 -0.058048870804208591 0 0.46006209219409933 -0.070952297555228361 0 0.46113928485338712 -0.058034614184050343 0 0.45672782921449429 -0.04912110413516594 0 0.44797606594767292 -0.058048870804208591 0 0.44797606594767292 -0.058048870804208591 0 0.43967728928854782 -0.058697181014549293 0 0.43073566209953701 -0.037207692746834942 0 0.44797606594767292 -0.058048870804208591 0 0.43073566209953701 -0.037207692746834942 0 0.45672782921449429 -0.04912110413516594 0 0.44797606594767292 -0.058048870804208591 0 0.44564343862643641 -0.043199305184581149 0 0.44797606594767292 -0.058048870804208591 0 0.44564343862643641 -0.043199305184581149 0 0.43073566209953701 -0.037207692746834942 0 0.45197572726112262 -0.039113053055622973 0 0.44225870577296489 -0.031721020045772187 0 0.45281042455409959 -0.028160641297308081 0 0.44564343862643641 -0.043199305184581149 0 0.45197572726112262 -0.039113053055622973 0 0.44225870577296489 -0.031721020045772187 0 0.45672782921449429 -0.04912110413516594 0 0.44564343862643641 -0.043199305184581149 0 0.45197572726112262 -0.039113053055622973 0 0.44564343862643641 -0.043199305184581149 0 0.44225870577296489 -0.031721020045772187 0 0.43073566209953701 -0.037207692746834942 0 0.44225870577296489 -0.031721020045772187 0 0.44146096763402082 -0.019880331416186791 0 0.43092601446257328 -0.022765096574099222 0 0.44225870577296489 -0.031721020045772187 0 0.45281042455409959 -0.028160641297308081 0 0.44146096763402082 -0.019880331416186791 0 0.45281042455409959 -0.028160641297308081 0 0.44146096763402082 -0.019880331416186791 0 0.45576062297686698 -0.01307078149069606 0 0.45612945874848809 0.0072891767437300407 0 0.44291034288065401 -0.0057572181368568589 0 0.45576062297686698 -0.01307078149069606 0 0.44146096763402082 -0.019880331416186791 0 0.44291034288065401 -0.0057572181368568589 0 0.42813627571855267 -0.0078651388369397821 0 0.44146096763402082 -0.019880331416186791 0 0.44291034288065401 -0.0057572181368568589 0 0.45576062297686698 -0.01307078149069606 0 0.45612945874848809 0.0072891767437300407 0 0.47645959232495338 -0.0093833077921325492 0 0.45576062297686698 -0.01307078149069606 0 0.47645959232495338 -0.0093833077921325492 0 0.45576062297686698 -0.01307078149069606 0 0.46508383655153779 -0.02610996102192335 0 0.46177948429169402 -0.038283915618346008 0 0.45281042455409959 -0.028160641297308081 0 0.46508383655153779 -0.02610996102192335 0 0.45281042455409959 -0.028160641297308081 0 0.45576062297686698 -0.01307078149069606 0 0.46508383655153779 -0.02610996102192335 0 0.47327779786886198 -0.12092666891404261 0 0.4851618443683644 -0.1117185669534331 0 0.48063061135450619 -0.1387362709065327 0 0.47327779786886198 -0.12092666891404261 0 0.4715553263154682 -0.108768489117367 0 0.46339311442042558 -0.11677945349361139 0 0.47327779786886198 -0.12092666891404261 0 0.4851618443683644 -0.1117185669534331 0 0.4715553263154682 -0.108768489117367 0 0.5 -0.1157955659525326 0 0.4851618443683644 -0.1117185669534331 0 0.48063061135450619 -0.1387362709065327 0 0.4851618443683644 -0.1117185669534331 0 0.50000000000000089 -0.08504064979644943 0 0.4896930773822209 -0.084700863000333193 0 0.5 -0.1157955659525326 0 0.4851618443683644 -0.1117185669534331 0 0.50000000000000089 -0.08504064979644943 0 0.4851618443683644 -0.1117185669534331 0 0.4896930773822209 -0.084700863000333193 0 0.4851618443683644 -0.1117185669534331 0 0.47585734130668672 -0.097671985198025099 0 0.4896930773822209 -0.084700863000333193 0 0.47585734130668672 -0.097671985198025099 0 0.46800043218020759 -0.083985724768891545 0 0.46367878293529657 -0.099902830988160884 0 0.4851618443683644 -0.1117185669534331 0 0.4715553263154682 -0.108768489117367 0 0.47585734130668672 -0.097671985198025099 0 0.4715553263154682 -0.108768489117367 0 0.47585734130668672 -0.097671985198025099 0 0.46367878293529657 -0.099902830988160884 0 0.47585734130668672 -0.097671985198025099 0 0.4896930773822209 -0.084700863000333193 0 0.46800043218020759 -0.083985724768891545 0 0.4896930773822209 -0.084700863000333193 0 0.47923992594535031 -0.072417036564991044 0 0.46800043218020759 -0.083985724768891545 0 0.4896930773822209 -0.084700863000333193 0 0.46800043218020759 -0.083985724768891545 0 0.50000000000000089 -0.08504064979644943 0 0.4896930773822209 -0.084700863000333193 0 0.50000000000000089 -0.08504064979644943 0 0.5 -0.064442206631972365 0 0.4931287182548153 -0.064215682101228341 0 0.4896930773822209 -0.084700863000333193 0 0.4931287182548153 -0.064215682101228341 0 0.50000000000000089 -0.08504064979644943 0 0.4896930773822209 -0.084700863000333193 0 0.4931287182548153 -0.064215682101228341 0 0.4896930773822209 -0.084700863000333193 0 0.4931287182548153 -0.064215682101228341 0 0.47923992594535031 -0.072417036564991044 0 0.48259298517662391 -0.054587535941302723 0 0.4931287182548153 -0.064215682101228341 0 0.47923992594535031 -0.072417036564991044 0 0.48259298517662391 -0.054587535941302723 0 0.47095069809214779 -0.061735526814588507 0 0.47923992594535031 -0.072417036564991044 0 0.47095069809214779 -0.061735526814588507 0 0.47923992594535031 -0.072417036564991044 0 0.46006209219409933 -0.070952297555228361 0 0.47923992594535031 -0.072417036564991044 0 0.46006209219409933 -0.070952297555228361 0 0.46800043218020759 -0.083985724768891545 0 0.46006209219409933 -0.070952297555228361 0 0.45022951813110029 -0.074579048179649471 0 0.46800043218020759 -0.083985724768891545 0 0.47095069809214779 -0.061735526814588507 0 0.46113928485338712 -0.058034614184050343 0 0.46006209219409933 -0.070952297555228361 0 0.43967728928854782 -0.058697181014549293 0 0.44124772828564152 -0.07047659669855541 0 0.45022951813110029 -0.074579048179649471 0 0.43967728928854782 -0.058697181014549293 0 0.46006209219409933 -0.070952297555228361 0 0.43967728928854782 -0.058697181014549293 0 0.46006209219409933 -0.070952297555228361 0 0.45022951813110029 -0.074579048179649471 0 0.44797606594767292 -0.058048870804208591 0 0.43967728928854782 -0.058697181014549293 0 0.46006209219409933 -0.070952297555228361 0 0.43967728928854782 -0.058697181014549293 0 0.44124772828564152 -0.07047659669855541 0 0.43691369877112463 -0.065750886024393981 0 0.44097988278896982 -0.076983112467275461 0 0.44124772828564152 -0.07047659669855541 0 0.45022951813110029 -0.074579048179649471 0 0.44097988278896982 -0.076983112467275461 0 0.45022951813110029 -0.074579048179649471 0 0.44630778697819412 -0.08327058653745012 0 0.44097988278896982 -0.076983112467275461 0 0.44630778697819412 -0.08327058653745012 0 0.4379827652445899 -0.085375050122623308 0 0.44630778697819412 -0.08327058653745012 0 0.4379827652445899 -0.085375050122623308 0 0.45287700808233772 -0.093863416306574049 0 0.46800043218020759 -0.083985724768891545 0 0.46367878293529657 -0.099902830988160884 0 0.45287700808233772 -0.093863416306574049 0 0.44630778697819412 -0.08327058653745012 0 0.46800043218020759 -0.083985724768891545 0 0.44630778697819412 -0.08327058653745012 0 0.46800043218020759 -0.083985724768891545 0 0.45287700808233772 -0.093863416306574049 0 0.45022951813110029 -0.074579048179649471 0 0.44630778697819412 -0.08327058653745012 0 0.46800043218020759 -0.083985724768891545 0 0.4715553263154682 -0.108768489117367 0 0.46367878293529657 -0.099902830988160884 0 0.46336527405443101 -0.1083819643601992 0 0.46367878293529657 -0.099902830988160884 0 0.46336527405443101 -0.1083819643601992 0 0.45508969387738751 -0.1081488669369768 0 0.46367878293529657 -0.099902830988160884 0 0.45508969387738751 -0.1081488669369768 0 0.45287700808233772 -0.093863416306574049 0 0.4379827652445899 -0.085375050122623308 0 0.44620258727835121 -0.10249743848534169 0 0.44634108133205258 -0.1109201792693145 0 0.44155739733164118 -0.1215430272924946 0 0.43566017027123438 -0.094897844526199981 0 0.4379827652445899 -0.085375050122623308 0 0.45287700808233772 -0.093863416306574049 0 0.44620258727835121 -0.10249743848534169 0 0.4379827652445899 -0.085375050122623308 0 0.44620258727835121 -0.10249743848534169 0 0.43566017027123438 -0.094897844526199981 0 0.44620258727835121 -0.10249743848534169 0 0.44634108133205258 -0.1109201792693145 0 0.43566017027123438 -0.094897844526199981 0 0.45508969387738751 -0.1081488669369768 0 0.45287700808233772 -0.093863416306574049 0 0.44620258727835121 -0.10249743848534169 0 0.44155739733164118 -0.1215430272924946 0 0.43566017027123438 -0.094897844526199981 0 0.45508969387738751 -0.1081488669369768 0 0.44620258727835121 -0.10249743848534169 0 0.44634108133205258 -0.1109201792693145 0 0.44634108133205258 -0.1109201792693145 0 0.44787025746428388 -0.1197049733623321 0 0.45276450990210748 -0.1180260047280255 0 0.45508969387738751 -0.1081488669369768 0 0.44634108133205258 -0.1109201792693145 0 0.45276450990210748 -0.1180260047280255 0 0.44155739733164118 -0.1215430272924946 0 0.43493031122513681 -0.1072329745905668 0 0.44634108133205258 -0.1109201792693145 0 0.44155739733164118 -0.1215430272924946 0 0.44787025746428388 -0.1197049733623321 0 0.44787025746428388 -0.1197049733623321 0 0.45276450990210748 -0.1180260047280255 0 0.45230690512834848 -0.12781912004790591 0 0.44155739733164118 -0.1215430272924946 0 0.44787025746428388 -0.1197049733623321 0 0.45230690512834848 -0.12781912004790591 0 0.45276450990210748 -0.1180260047280255 0 0.45852276292261668 -0.1235958146492238 0 0.46339311442042558 -0.11677945349361139 0 0.45276450990210748 -0.1180260047280255 0 0.45852276292261668 -0.1235958146492238 0 0.45230690512834848 -0.12781912004790591 0 0.46336527405443101 -0.1083819643601992 0 0.45508969387738751 -0.1081488669369768 0 0.46339311442042558 -0.11677945349361139 0 0.45508969387738751 -0.1081488669369768 0 0.45276450990210748 -0.1180260047280255 0 0.46339311442042558 -0.11677945349361139 0 0.4715553263154682 -0.108768489117367 0 0.46336527405443101 -0.1083819643601992 0 0.46339311442042558 -0.11677945349361139 0 0.47327779786886198 -0.12092666891404261 0 0.46339311442042558 -0.11677945349361139 0 0.46564809288554548 -0.12863056409926921 0 0.45852276292261668 -0.1235958146492238 0 0.46339311442042558 -0.11677945349361139 0 0.46564809288554548 -0.12863056409926921 0 0.40739249555499718 -0.1189769155672836 0 0.41737061461936581 -0.1147109992383066 0 0.41469705803584811 -0.12530176831054421 0 0.40739249555499718 -0.1189769155672836 0 0.40315076589356452 -0.12889937872394999 0 0.41469705803584811 -0.12530176831054421 0 0.40739249555499718 -0.1189769155672836 0 0.41737061461936581 -0.1147109992383066 0 0.40655259483680772 -0.108869164722951 0 0.41737061461936581 -0.1147109992383066 0 0.42401600644171938 -0.12286193192251001 0 0.41469705803584811 -0.12530176831054421 0 0.41737061461936581 -0.1147109992383066 0 0.42401600644171938 -0.12286193192251001 0 0.42750867773713019 -0.11608628668136479 0 0.42401600644171938 -0.12286193192251001 0 0.42966419740269751 -0.12230215386284191 0 0.42750867773713019 -0.11608628668136479 0 0.42966419740269751 -0.12230215386284191 0 0.43595995829762513 -0.1211887926118566 0 0.43003812124509899 -0.13015238112980959 0 0.42966419740269751 -0.12230215386284191 0 0.43595995829762513 -0.1211887926118566 0 0.42750867773713019 -0.11608628668136479 0 0.44155739733164118 -0.1215430272924946 0 0.43595995829762513 -0.1211887926118566 0 0.43493031122513681 -0.1072329745905668 0 0.43595995829762513 -0.1211887926118566 0 0.42750867773713019 -0.11608628668136479 0 0.43493031122513681 -0.1072329745905668 0 0.42750867773713019 -0.11608628668136479 0 0.42482285018649413 -0.1084975853977463 0 0.43493031122513681 -0.1072329745905668 0 0.41737061461936581 -0.1147109992383066 0 0.42750867773713019 -0.11608628668136479 0 0.42482285018649413 -0.1084975853977463 0 0.42482285018649413 -0.1084975853977463 0 0.42639173346136772 -0.10248015081625041 0 0.41791291388946999 -0.1019775156622429 0 0.42482285018649413 -0.1084975853977463 0 0.42639173346136772 -0.10248015081625041 0 0.43493031122513681 -0.1072329745905668 0 0.44155739733164118 -0.1215430272924946 0 0.43493031122513681 -0.1072329745905668 0 0.43566017027123438 -0.094897844526199981 0 0.43493031122513681 -0.1072329745905668 0 0.42830322511863228 -0.09292292188863896 0 0.43493031122513681 -0.1072329745905668 0 0.43566017027123438 -0.094897844526199981 0 0.42830322511863228 -0.09292292188863896 0 0.42639173346136772 -0.10248015081625041 0 0.43493031122513681 -0.1072329745905668 0 0.42830322511863228 -0.09292292188863896 0 0.42639173346136772 -0.10248015081625041 0 0.41791291388946999 -0.1019775156622429 0 0.42830322511863228 -0.09292292188863896 0 0.41791291388946999 -0.1019775156622429 0 0.41724583949484018 -0.090819531034186801 0 0.42830322511863228 -0.09292292188863896 0 0.41737061461936581 -0.1147109992383066 0 0.42482285018649413 -0.1084975853977463 0 0.41791291388946999 -0.1019775156622429 0 0.41791291388946999 -0.1019775156622429 0 0.40655259483680772 -0.108869164722951 0 0.40562573605847518 -0.096236836654232882 0 0.41737061461936581 -0.1147109992383066 0 0.41791291388946999 -0.1019775156622429 0 0.40655259483680772 -0.108869164722951 0 0.41791291388946999 -0.1019775156622429 0 0.41724583949484018 -0.090819531034186801 0 0.40562573605847518 -0.096236836654232882 0 0.41724583949484018 -0.090819531034186801 0 0.40512656371908101 -0.084795647296065757 0 0.40562573605847518 -0.096236836654232882 0 0.41594866777431228 -0.080585545628159047 0 0.41724583949484018 -0.090819531034186801 0 0.40512656371908101 -0.084795647296065757 0 0.41594866777431228 -0.080585545628159047 0 0.40518563113423961 -0.073523386913743494 0 0.40512656371908101 -0.084795647296065757 0 0.41594866777431228 -0.080585545628159047 0 0.42189813957107092 -0.086538359288679978 0 0.42609482589649889 -0.081825438603735104 0 0.41594866777431228 -0.080585545628159047 0 0.41724583949484018 -0.090819531034186801 0 0.42189813957107092 -0.086538359288679978 0 0.41724583949484018 -0.090819531034186801 0 0.42189813957107092 -0.086538359288679978 0 0.42830322511863228 -0.09292292188863896 0 0.42189813957107092 -0.086538359288679978 0 0.42830322511863228 -0.09292292188863896 0 0.42609482589649889 -0.081825438603735104 0 0.4379827652445899 -0.085375050122623308 0 0.43566017027123438 -0.094897844526199981 0 0.42976294321082809 -0.068252661759905103 0 0.43566017027123438 -0.094897844526199981 0 0.42609482589649889 -0.081825438603735104 0 0.42976294321082809 -0.068252661759905103 0 0.43566017027123438 -0.094897844526199981 0 0.42976294321082809 -0.068252661759905103 0 0.43566017027123438 -0.094897844526199981 0 0.42830322511863228 -0.09292292188863896 0 0.42609482589649889 -0.081825438603735104 0 0.42609482589649889 -0.081825438603735104 0 0.42976294321082809 -0.068252661759905103 0 0.41796801823272017 -0.070676300204087161 0 0.44097988278896982 -0.076983112467275461 0 0.4379827652445899 -0.085375050122623308 0 0.42976294321082809 -0.068252661759905103 0 0.4379827652445899 -0.085375050122623308 0 0.42976294321082809 -0.068252661759905103 0 0.44097988278896982 -0.076983112467275461 0 0.44124772828564152 -0.07047659669855541 0 0.42976294321082809 -0.068252661759905103 0 0.44124772828564152 -0.07047659669855541 0 0.43691369877112463 -0.065750886024393981 0 0.42976294321082809 -0.068252661759905103 0 0.42976294321082809 -0.068252661759905103 0 0.41796801823272017 -0.070676300204087161 0 0.41621438906800479 -0.059306037862196508 0 0.41594866777431228 -0.080585545628159047 0 0.42609482589649889 -0.081825438603735104 0 0.41796801823272017 -0.070676300204087161 0 0.41594866777431228 -0.080585545628159047 0 0.41796801823272017 -0.070676300204087161 0 0.40518563113423961 -0.073523386913743494 0 0.41796801823272017 -0.070676300204087161 0 0.41621438906800479 -0.059306037862196508 0 0.40467711810691648 -0.061537056650873008 0 0.41796801823272017 -0.070676300204087161 0 0.40518563113423961 -0.073523386913743494 0 0.40467711810691648 -0.061537056650873008 0 0.40518563113423961 -0.073523386913743494 0 0.3935220011393733 -0.065868734272706175 0 0.40467711810691648 -0.061537056650873008 0 0.40518563113423961 -0.073523386913743494 0 0.39266135238594269 -0.077756916199105797 0 0.3935220011393733 -0.065868734272706175 0 0.39266135238594269 -0.077756916199105797 0 0.3935220011393733 -0.065868734272706175 0 0.38055134365397808 -0.06525711053220154 0 0.38055134365397808 -0.06525711053220154 0 0.38167018139295938 -0.084507878053466129 0 0.36738458512405048 -0.079311980035486354 0 0.39266135238594269 -0.077756916199105797 0 0.38055134365397808 -0.06525711053220154 0 0.38167018139295938 -0.084507878053466129 0 0.39266135238594269 -0.077756916199105797 0 0.38167018139295938 -0.084507878053466129 0 0.39293719163788082 -0.091052190118037696 0 0.38167018139295938 -0.084507878053466129 0 0.37780042569659988 -0.099951078673651078 0 0.36738458512405048 -0.079311980035486354 0 0.38167018139295938 -0.084507878053466129 0 0.39293719163788082 -0.091052190118037696 0 0.37780042569659988 -0.099951078673651078 0 0.39266135238594269 -0.077756916199105797 0 0.39293719163788082 -0.091052190118037696 0 0.40512656371908101 -0.084795647296065757 0 0.40518563113423961 -0.073523386913743494 0 0.39266135238594269 -0.077756916199105797 0 0.40512656371908101 -0.084795647296065757 0 0.39293719163788082 -0.091052190118037696 0 0.40512656371908101 -0.084795647296065757 0 0.40562573605847518 -0.096236836654232882 0 0.40655259483680772 -0.108869164722951 0 0.40562573605847518 -0.096236836654232882 0 0.39418851700177032 -0.10426864708745399 0 0.39293719163788082 -0.091052190118037696 0 0.40562573605847518 -0.096236836654232882 0 0.39418851700177032 -0.10426864708745399 0 0.39293719163788082 -0.091052190118037696 0 0.39418851700177032 -0.10426864708745399 0 0.37780042569659988 -0.099951078673651078 0 0.39418851700177032 -0.10426864708745399 0 0.37780042569659988 -0.099951078673651078 0 0.381933554035225 -0.1137198788022257 0 0.381933554035225 -0.1137198788022257 0 0.36933840742977242 -0.12537698317616569 0 0.38767074651732192 -0.12655120065739819 0 0.381933554035225 -0.1137198788022257 0 0.39725525176712811 -0.1170284970985864 0 0.38767074651732192 -0.12655120065739819 0 0.39725525176712811 -0.1170284970985864 0 0.40315076589356452 -0.12889937872394999 0 0.38767074651732192 -0.12655120065739819 0 0.39418851700177032 -0.10426864708745399 0 0.381933554035225 -0.1137198788022257 0 0.39725525176712811 -0.1170284970985864 0 0.40655259483680772 -0.108869164722951 0 0.39418851700177032 -0.10426864708745399 0 0.39725525176712811 -0.1170284970985864 0 0.40739249555499718 -0.1189769155672836 0 0.40655259483680772 -0.108869164722951 0 0.39725525176712811 -0.1170284970985864 0 0.40739249555499718 -0.1189769155672836 0 0.39725525176712811 -0.1170284970985864 0 0.40315076589356452 -0.12889937872394999 0 0.40673794048682349 -0.02029018312304558 0 0.41349525825140188 -0.016366514689460581 0 0.43073566209953701 -0.037207692746834942 0 0.40673794048682349 -0.02029018312304558 0 0.41349525825140188 -0.016366514689460581 0 0.41621535358432032 0.0048469464942716683 0 0.41349525825140188 -0.016366514689460581 0 0.42813627571855267 -0.0078651388369397821 0 0.39795929288213161 0.0024142414579153911 0 0.41621535358432032 0.0048469464942716683 0 0.41349525825140188 -0.016366514689460581 0 0.41349525825140188 -0.016366514689460581 0 0.42813627571855267 -0.0078651388369397821 0 0.43366692706425769 0.007151105383316936 0 0.44291034288065401 -0.0057572181368568589 0 0.42813627571855267 -0.0078651388369397821 0 0.41349525825140188 -0.016366514689460581 0 0.43092601446257328 -0.022765096574099222 0 0.43073566209953701 -0.037207692746834942 0 0.44146096763402082 -0.019880331416186791 0 0.42813627571855267 -0.0078651388369397821 0 0.43092601446257328 -0.022765096574099222 0 0.41349525825140188 -0.016366514689460581 0 0.42813627571855267 -0.0078651388369397821 0 0.43092601446257328 -0.022765096574099222 0 0.41349525825140188 -0.016366514689460581 0 0.43073566209953701 -0.037207692746834942 0 0.44225870577296489 -0.031721020045772187 0 0.43092601446257328 -0.022765096574099222 0 0.43073566209953701 -0.037207692746834942 0 0.43967728928854782 -0.058697181014549293 0 0.41929248638299582 -0.046442064473870739 0 0.43691369877112463 -0.065750886024393981 0 0.42976294321082809 -0.068252661759905103 0 0.42611319769665318 -0.05176217643866686 0 0.42976294321082809 -0.068252661759905103 0 0.42611319769665318 -0.05176217643866686 0 0.43967728928854782 -0.058697181014549293 0 0.42611319769665318 -0.05176217643866686 0 0.41929248638299582 -0.046442064473870739 0 0.42976294321082809 -0.068252661759905103 0 0.41929248638299582 -0.046442064473870739 0 0.42976294321082809 -0.068252661759905103 0 0.42611319769665318 -0.05176217643866686 0 0.41929248638299582 -0.046442064473870739 0 0.43967728928854782 -0.058697181014549293 0 0.43073566209953701 -0.037207692746834942 0 0.41929248638299582 -0.046442064473870739 0 0.43967728928854782 -0.058697181014549293 0 0.43691369877112463 -0.065750886024393981 0 0.42611319769665318 -0.05176217643866686 0 0.42976294321082809 -0.068252661759905103 0 0.41621438906800479 -0.059306037862196508 0 0.41929248638299582 -0.046442064473870739 0 0.41621438906800479 -0.059306037862196508 0 0.40759156943543662 -0.050117478812453563 0 0.41929248638299582 -0.046442064473870739 0 0.41621438906800479 -0.059306037862196508 0 0.40759156943543662 -0.050117478812453563 0 0.40467711810691648 -0.061537056650873008 0 0.40673794048682349 -0.02029018312304558 0 0.43073566209953701 -0.037207692746834942 0 0.41929248638299582 -0.046442064473870739 0 0.40673794048682349 -0.02029018312304558 0 0.41929248638299582 -0.046442064473870739 0 0.40673794048682349 -0.02029018312304558 0 0.41929248638299582 -0.046442064473870739 0 0.40514436300598289 -0.037936370226025251 0 0.40759156943543662 -0.050117478812453563 0 0.41929248638299582 -0.046442064473870739 0 0.40514436300598289 -0.037936370226025251 0 0.41929248638299582 -0.046442064473870739 0 0.40514436300598289 -0.037936370226025251 0 0.40514436300598289 -0.037936370226025251 0 0.39182246825046629 -0.050005713998878973 0 0.39099623962896929 -0.029430675978181092 0 0.40759156943543662 -0.050117478812453563 0 0.40514436300598289 -0.037936370226025251 0 0.39182246825046629 -0.050005713998878973 0 0.40514436300598289 -0.037936370226025251 0 0.39099623962896929 -0.029430675978181092 0 0.3935220011393733 -0.065868734272706175 0 0.39182246825046629 -0.050005713998878973 0 0.40467711810691648 -0.061537056650873008 0 0.40759156943543662 -0.050117478812453563 0 0.39182246825046629 -0.050005713998878973 0 0.40467711810691648 -0.061537056650873008 0 0.3935220011393733 -0.065868734272706175 0 0.38055134365397808 -0.06525711053220154 0 0.39182246825046629 -0.050005713998878973 0 0.38055134365397808 -0.06525711053220154 0 0.39182246825046629 -0.050005713998878973 0 0.36971651528909127 -0.041786848290459512 0 0.39099623962896929 -0.029430675978181092 0 0.36719633320180012 -0.02882550184664924 0 0.36971651528909127 -0.041786848290459512 0 0.39182246825046629 -0.050005713998878973 0 0.39099623962896929 -0.029430675978181092 0 0.36971651528909127 -0.041786848290459512 0 0.39099623962896929 -0.029430675978181092 0 0.36971651528909127 -0.041786848290459512 0 0.39099623962896929 -0.029430675978181092 0 0.38035445994512612 -0.012605543404780629 0 0.36807500823961531 -0.015650686873850631 0 0.39099623962896929 -0.029430675978181092 0 0.36719633320180012 -0.02882550184664924 0 0.36807500823961531 -0.015650686873850631 0 0.39099623962896929 -0.029430675978181092 0 0.36807500823961531 -0.015650686873850631 0 0.39099623962896929 -0.029430675978181092 0 0.38938007387723911 -0.01407540514711275 0 0.38035445994512612 -0.012605543404780629 0 0.40673794048682349 -0.02029018312304558 0 0.40514436300598289 -0.037936370226025251 0 0.39099623962896929 -0.029430675978181092 0 0.40673794048682349 -0.02029018312304558 0 0.39099623962896929 -0.029430675978181092 0 0.39628887981559341 -0.018365812694376149 0 0.40673794048682349 -0.02029018312304558 0 0.39099623962896929 -0.029430675978181092 0 0.39099623962896929 -0.029430675978181092 0 0.39628887981559341 -0.018365812694376149 0 0.38938007387723911 -0.01407540514711275 0 0.40673794048682349 -0.02029018312304558 0 0.39628887981559341 -0.018365812694376149 0 0.39563931914964529 -0.010358107134252011 0 0.40673794048682349 -0.02029018312304558 0 0.39742910386485641 -0.0008993112535870193 0 0.40673794048682349 -0.02029018312304558 0 0.41349525825140188 -0.016366514689460581 0 0.39742910386485641 -0.0008993112535870193 0 0.39795929288213161 0.0024142414579153911 0 0.41349525825140188 -0.016366514689460581 0 0.40673794048682349 -0.02029018312304558 0 0.39563931914964529 -0.010358107134252011 0 0.39742910386485641 -0.0008993112535870193 0 0.39795929288213161 0.0024142414579153911 0 0.41349525825140188 -0.016366514689460581 0 0.39742910386485641 -0.0008993112535870193 0 0.39563931914964529 -0.010358107134252011 0 0.38874780537613213 -0.0046426160256726554 0 0.38938007387723911 -0.01407540514711275 0 0.39628887981559341 -0.018365812694376149 0 0.39563931914964529 -0.010358107134252011 0 0.38938007387723911 -0.01407540514711275 0 0.39563931914964529 -0.010358107134252011 0 0.39334579209281523 -0.0039883501054753419 0 0.39742910386485641 -0.0008993112535870193 0 0.39563931914964529 -0.010358107134252011 0 0.39334579209281523 -0.0039883501054753419 0 0.38874780537613213 -0.0046426160256726554 0 0.39334579209281523 -0.0039883501054753419 0 0.39742910386485641 -0.0008993112535870193 0 0.39268916153251843 -0.00083517866344857798 0 0.39334579209281523 -0.0039883501054753419 0 0.39268916153251843 -0.00083517866344857798 0 0.38874780537613213 -0.0046426160256726554 0 0.38596381344665681 0.0029401426095767352 0 0.38874780537613213 -0.0046426160256726554 0 0.37964459177568571 -0.0020913856927347149 0 0.38596381344665681 0.0029401426095767352 0 0.39268916153251843 -0.00083517866344857798 0 0.38874780537613213 -0.0046426160256726554 0 0.38874780537613213 -0.0046426160256726554 0 0.38453173274354568 -0.0083537375675751865 0 0.37964459177568571 -0.0020913856927347149 0 0.38938007387723911 -0.01407540514711275 0 0.38453173274354568 -0.0083537375675751865 0 0.38035445994512612 -0.012605543404780629 0 0.38874780537613213 -0.0046426160256726554 0 0.38938007387723911 -0.01407540514711275 0 0.38453173274354568 -0.0083537375675751865 0 0.38453173274354568 -0.0083537375675751865 0 0.38035445994512612 -0.012605543404780629 0 0.37964459177568571 -0.0020913856927347149 0 0.38035445994512612 -0.012605543404780629 0 0.37964459177568571 -0.0020913856927347149 0 0.37090283671530277 -0.0067829923989991816 0 0.37171322382200922 0.0021667819060980629 0 0.37090283671530277 -0.0067829923989991816 0 0.36189309977134992 -0.003702113273154502 0 0.37171322382200922 0.0021667819060980629 0 0.37964459177568571 -0.0020913856927347149 0 0.37090283671530277 -0.0067829923989991816 0 0.38035445994512612 -0.012605543404780629 0 0.37090283671530277 -0.0067829923989991816 0 0.36807500823961531 -0.015650686873850631 0 0.37090283671530277 -0.0067829923989991816 0 0.36165714462364762 -0.011414322498351731 0 0.36807500823961531 -0.015650686873850631 0 0.37090283671530277 -0.0067829923989991816 0 0.36165714462364762 -0.011414322498351731 0 0.36189309977134992 -0.003702113273154502 0 0.36719633320180012 -0.02882550184664924 0 0.36807500823961531 -0.015650686873850631 0 0.35783097190094432 -0.019909428421208231 0 0.36165714462364762 -0.011414322498351731 0 0.36807500823961531 -0.015650686873850631 0 0.35783097190094432 -0.019909428421208231 0 0.36719633320180012 -0.02882550184664924 0 0.35783097190094432 -0.019909428421208231 0 0.35492092597579389 -0.032127951780330309 0 0.34807711029166383 -0.022089854096023692 0 0.35389789175896508 -0.0090310694387353771 0 0.33342517700126117 -0.020248264637551489 0 0.35783097190094432 -0.019909428421208231 0 0.34807711029166383 -0.022089854096023692 0 0.35492092597579389 -0.032127951780330309 0 0.35783097190094432 -0.019909428421208231 0 0.34807711029166383 -0.022089854096023692 0 0.35389789175896508 -0.0090310694387353771 0 0.34807711029166383 -0.022089854096023692 0 0.3408993133286754 -0.033617296415722489 0 0.35492092597579389 -0.032127951780330309 0 0.34956982367224609 0.0034521177527992212 0 0.35389789175896508 -0.0090310694387353771 0 0.34108641477389517 -0.014439855702545809 0 0.34956982367224609 0.0034521177527992212 0 0.34108641477389517 -0.014439855702545809 0 0.34956982367224609 0.0034521177527992212 0 0.36189309977134992 -0.003702113273154502 0 0.34956982367224609 0.0034521177527992212 0 0.36189309977134992 -0.003702113273154502 0 0.35389789175896508 -0.0090310694387353771 0 0.36165714462364762 -0.011414322498351731 0 0.36189309977134992 -0.003702113273154502 0 0.35389789175896508 -0.0090310694387353771 0 0.36165714462364762 -0.011414322498351731 0 0.35783097190094432 -0.019909428421208231 0 0.35389789175896508 -0.0090310694387353771 0 0.34956982367224609 0.0034521177527992212 0 0.33785068458949391 -0.0025643709947998782 0 0.34108641477389517 -0.014439855702545809 0 0.35389789175896508 -0.0090310694387353771 0 0.33342517700126117 -0.020248264637551489 0 0.35389789175896508 -0.0090310694387353771 0 0.34108641477389517 -0.014439855702545809 0 0.33342517700126117 -0.020248264637551489 0 0.33785068458949391 -0.0025643709947998782 0 0.33176594781649732 -0.011320954321497779 0 0.32635125696986839 -0.0033442034079895931 0 0.33176594781649732 -0.011320954321497779 0 0.34108641477389517 -0.014439855702545809 0 0.33342517700126117 -0.020248264637551489 0 0.33785068458949391 -0.0025643709947998782 0 0.33176594781649732 -0.011320954321497779 0 0.34108641477389517 -0.014439855702545809 0 0.34807711029166383 -0.022089854096023692 0 0.33342517700126117 -0.020248264637551489 0 0.3408993133286754 -0.033617296415722489 0 0.33342517700126117 -0.020248264637551489 0 0.32947952598646901 -0.031967934686090348 0 0.3408993133286754 -0.033617296415722489 0 0.33176594781649732 -0.011320954321497779 0 0.33342517700126117 -0.020248264637551489 0 0.32011620574796762 -0.01600807686460215 0 0.33342517700126117 -0.020248264637551489 0 0.32011620574796762 -0.01600807686460215 0 0.31295246224355727 -0.031465459836367622 0 0.33342517700126117 -0.020248264637551489 0 0.31295246224355727 -0.031465459836367622 0 0.33342517700126117 -0.020248264637551489 0 0.31295246224355727 -0.031465459836367622 0 0.32947952598646901 -0.031967934686090348 0 0.32011620574796762 -0.01600807686460215 0 0.31295246224355727 -0.031465459836367622 0 0.30542548794333862 -0.017452862054825831 0 0.32011620574796762 -0.01600807686460215 0 0.32635125696986839 -0.0033442034079895931 0 0.31205986069947189 -0.0049782593706542196 0 0.32011620574796762 -0.01600807686460215 0 0.31205986069947189 -0.0049782593706542196 0 0.30542548794333862 -0.017452862054825831 0 0.31751081809402287 0.0081359636167634714 0 0.32635125696986839 -0.0033442034079895931 0 0.31205986069947189 -0.0049782593706542196 0 0.33176594781649732 -0.011320954321497779 0 0.32011620574796762 -0.01600807686460215 0 0.32635125696986839 -0.0033442034079895931 0 0.31677697458005522 -0.04915936896060609 0 0.33064115137238231 -0.042540717854719808 0 0.32715706660933419 -0.066499192915014688 0 0.31677697458005522 -0.04915936896060609 0 0.32715706660933419 -0.066499192915014688 0 0.30816325296115998 -0.06215994685964054 0 0.31295246224355727 -0.031465459836367622 0 0.33064115137238231 -0.042540717854719808 0 0.32947952598646901 -0.031967934686090348 0 0.31677697458005522 -0.04915936896060609 0 0.31295246224355727 -0.031465459836367622 0 0.33064115137238231 -0.042540717854719808 0 0.33064115137238231 -0.042540717854719808 0 0.3408993133286754 -0.033617296415722489 0 0.34843679094921243 -0.054143020602736493 0 0.33064115137238231 -0.042540717854719808 0 0.32947952598646901 -0.031967934686090348 0 0.3408993133286754 -0.033617296415722489 0 0.33064115137238231 -0.042540717854719808 0 0.34843679094921243 -0.054143020602736493 0 0.32715706660933419 -0.066499192915014688 0 0.34843679094921243 -0.054143020602736493 0 0.32715706660933419 -0.066499192915014688 0 0.34843679094921243 -0.054143020602736493 0 0.36971651528909127 -0.041786848290459512 0 0.34843679094921243 -0.054143020602736493 0 0.35492092597579389 -0.032127951780330309 0 0.36971651528909127 -0.041786848290459512 0 0.3408993133286754 -0.033617296415722489 0 0.34843679094921243 -0.054143020602736493 0 0.35492092597579389 -0.032127951780330309 0 0.36719633320180012 -0.02882550184664924 0 0.35492092597579389 -0.032127951780330309 0 0.36971651528909127 -0.041786848290459512 0 0.38055134365397808 -0.06525711053220154 0 0.36971651528909127 -0.041786848290459512 0 0.36308965869282672 -0.062788454194100674 0 0.34843679094921243 -0.054143020602736493 0 0.36971651528909127 -0.041786848290459512 0 0.36308965869282672 -0.062788454194100674 0 0.36308965869282672 -0.062788454194100674 0 0.36738458512405048 -0.079311980035486354 0 0.34818775727651069 -0.071303775249545481 0 0.38055134365397808 -0.06525711053220154 0 0.36308965869282672 -0.062788454194100674 0 0.36738458512405048 -0.079311980035486354 0 0.37780042569659988 -0.099951078673651078 0 0.36738458512405048 -0.079311980035486354 0 0.35619694286703091 -0.092317504342236692 0 0.35619694286703091 -0.092317504342236692 0 0.34818775727651069 -0.071303775249545481 0 0.33353764742759628 -0.087000238031909344 0 0.36738458512405048 -0.079311980035486354 0 0.35619694286703091 -0.092317504342236692 0 0.34818775727651069 -0.071303775249545481 0 0.34843679094921243 -0.054143020602736493 0 0.36308965869282672 -0.062788454194100674 0 0.34818775727651069 -0.071303775249545481 0 0.381933554035225 -0.1137198788022257 0 0.36451542260587172 -0.1095901093026217 0 0.36933840742977242 -0.12537698317616569 0 0.36451542260587172 -0.1095901093026217 0 0.35490181206500487 -0.1200535065167765 0 0.36933840742977242 -0.12537698317616569 0 0.37780042569659988 -0.099951078673651078 0 0.35619694286703091 -0.092317504342236692 0 0.36451542260587172 -0.1095901093026217 0 0.37780042569659988 -0.099951078673651078 0 0.381933554035225 -0.1137198788022257 0 0.36451542260587172 -0.1095901093026217 0 0.35619694286703091 -0.092317504342236692 0 0.34492326587867028 -0.1071950879427287 0 0.33353764742759628 -0.087000238031909344 0 0.35619694286703091 -0.092317504342236692 0 0.36451542260587172 -0.1095901093026217 0 0.34492326587867028 -0.1071950879427287 0 0.36451542260587172 -0.1095901093026217 0 0.34492326587867028 -0.1071950879427287 0 0.35490181206500487 -0.1200535065167765 0 0.34492326587867028 -0.1071950879427287 0 0.35490181206500487 -0.1200535065167765 0 0.34056824760847199 -0.1224932653972988 0 0.34492326587867028 -0.1071950879427287 0 0.32610515825644759 -0.1048291388253416 0 0.32143394968203309 -0.120366113192308 0 0.34056824760847199 -0.1224932653972988 0 0.32143394968203309 -0.120366113192308 0 0.32804369334856182 -0.12919058244744289 0 0.34492326587867028 -0.1071950879427287 0 0.32143394968203309 -0.120366113192308 0 0.34492326587867028 -0.1071950879427287 0 0.34056824760847199 -0.1224932653972988 0 0.32143394968203309 -0.120366113192308 0 0.34492326587867028 -0.1071950879427287 0 0.32610515825644759 -0.1048291388253416 0 0.33353764742759628 -0.087000238031909344 0 0.3137145187421943 -0.095249373234182172 0 0.32610515825644759 -0.1048291388253416 0 0.33353764742759628 -0.087000238031909344 0 0.3137145187421943 -0.095249373234182172 0 0.31691640955174621 -0.11433488172557919 0 0.3137145187421943 -0.095249373234182172 0 0.32610515825644759 -0.1048291388253416 0 0.31691640955174621 -0.11433488172557919 0 0.32610515825644759 -0.1048291388253416 0 0.31691640955174621 -0.11433488172557919 0 0.32143394968203309 -0.120366113192308 0 0.31691640955174621 -0.11433488172557919 0 0.31822966962249399 -0.1221628301855867 0 0.32143394968203309 -0.120366113192308 0 0.31691640955174621 -0.11433488172557919 0 0.31822966962249399 -0.1221628301855867 0 0.30543849479878632 -0.11934815343831159 0 0.31691640955174621 -0.11433488172557919 0 0.31822966962249399 -0.1221628301855867 0 0.31691640955174621 -0.11433488172557919 0 0.32143394968203309 -0.120366113192308 0 0.31822966962249399 -0.1221628301855867 0 0.32143394968203309 -0.120366113192308 0 0.31822966962249399 -0.1221628301855867 0 0.32143394968203309 -0.120366113192308 0 0.32804369334856182 -0.12919058244744289 0 0.32143394968203309 -0.120366113192308 0 0.32804369334856182 -0.12919058244744289 0 0.34843679094921243 -0.054143020602736493 0 0.34818775727651069 -0.071303775249545481 0 0.32715706660933419 -0.066499192915014688 0 0.34818775727651069 -0.071303775249545481 0 0.32715706660933419 -0.066499192915014688 0 0.34818775727651069 -0.071303775249545481 0 0.33353764742759628 -0.087000238031909344 0 0.32715706660933419 -0.066499192915014688 0 0.3137145187421943 -0.095249373234182172 0 0.33353764742759628 -0.087000238031909344 0 0.31051262793264361 -0.076163864742784998 0 0.32715706660933419 -0.066499192915014688 0 0.30816325296115998 -0.06215994685964054 0 0.32715706660933419 -0.066499192915014688 0 0.31051262793264361 -0.076163864742784998 0 0.33353764742759628 -0.087000238031909344 0 0.32715706660933419 -0.066499192915014688 0 0.31051262793264361 -0.076163864742784998 0 0.32715706660933419 -0.066499192915014688 0 0.31051262793264361 -0.076163864742784998 0 0.30816325296115998 -0.06215994685964054 0 0.29737125428036282 -0.071169503475368587 0 0.31051262793264361 -0.076163864742784998 0 0.30816325296115998 -0.06215994685964054 0 0.31051262793264361 -0.076163864742784998 0 0.30816325296115998 -0.06215994685964054 0 0.29737125428036282 -0.071169503475368587 0 0.30816325296115998 -0.06215994685964054 0 0.29008514284465459 -0.058029898546821321 0 0.29737125428036282 -0.071169503475368587 0 0.31051262793264361 -0.076163864742784998 0 0.29505032062044939 -0.085142126417760727 0 0.3137145187421943 -0.095249373234182172 0 0.31051262793264361 -0.076163864742784998 0 0.30497539680992669 -0.089100749099169985 0 0.3137145187421943 -0.095249373234182172 0 0.31051262793264361 -0.076163864742784998 0 0.29505032062044939 -0.085142126417760727 0 0.30598336508609919 -0.099738504071668954 0 0.30497539680992669 -0.089100749099169985 0 0.29505032062044939 -0.085142126417760727 0 0.30598336508609919 -0.099738504071668954 0 0.31051262793264361 -0.076163864742784998 0 0.29505032062044939 -0.085142126417760727 0 0.31051262793264361 -0.076163864742784998 0 0.30497539680992669 -0.089100749099169985 0 0.29505032062044939 -0.085142126417760727 0 0.29505032062044939 -0.085142126417760727 0 0.28403282853042178 -0.081256171918505843 0 0.27806538261697228 -0.095004510785723514 0 0.29505032062044939 -0.085142126417760727 0 0.27806538261697228 -0.095004510785723514 0 0.29505032062044939 -0.085142126417760727 0 0.28403282853042178 -0.081256171918505843 0 0.28340178253659049 -0.069590514831236155 0 0.29737125428036282 -0.071169503475368587 0 0.28340178253659049 -0.069590514831236155 0 0.29008514284465459 -0.058029898546821321 0 0.29737125428036282 -0.071169503475368587 0 0.29505032062044939 -0.085142126417760727 0 0.28340178253659049 -0.069590514831236155 0 0.29505032062044939 -0.085142126417760727 0 0.28340178253659049 -0.069590514831236155 0 0.30543849479878632 -0.11934815343831159 0 0.29367230878615042 -0.11541589981144861 0 0.2955372147342275 -0.13488703610993949 0 0.31691640955174621 -0.11433488172557919 0 0.30543849479878632 -0.11934815343831159 0 0.30300029895285291 -0.110523822243265 0 0.30543849479878632 -0.11934815343831159 0 0.30300029895285291 -0.110523822243265 0 0.29367230878615042 -0.11541589981144861 0 0.3137145187421943 -0.095249373234182172 0 0.31691640955174621 -0.11433488172557919 0 0.30598336508609919 -0.099738504071668954 0 0.29505032062044939 -0.085142126417760727 0 0.30598336508609919 -0.099738504071668954 0 0.29299091654148463 -0.1037816721693165 0 0.30300029895285291 -0.110523822243265 0 0.30598336508609919 -0.099738504071668954 0 0.29299091654148463 -0.1037816721693165 0 0.31691640955174621 -0.11433488172557919 0 0.30598336508609919 -0.099738504071668954 0 0.31691640955174621 -0.11433488172557919 0 0.30300029895285291 -0.110523822243265 0 0.30598336508609919 -0.099738504071668954 0 0.3137145187421943 -0.095249373234182172 0 0.30497539680992669 -0.089100749099169985 0 0.30598336508609919 -0.099738504071668954 0 0.29299091654148463 -0.1037816721693165 0 0.28233725083992361 -0.1174488725702922 0 0.27806538261697228 -0.095004510785723514 0 0.29505032062044939 -0.085142126417760727 0 0.29299091654148463 -0.1037816721693165 0 0.27806538261697228 -0.095004510785723514 0 0.30300029895285291 -0.110523822243265 0 0.29299091654148463 -0.1037816721693165 0 0.29367230878615042 -0.11541589981144861 0 0.29299091654148463 -0.1037816721693165 0 0.29367230878615042 -0.11541589981144861 0 0.28233725083992361 -0.1174488725702922 0 0.29367230878615042 -0.11541589981144861 0 0.28233725083992361 -0.1174488725702922 0 0.28953897335579448 -0.12691126071163511 0 0.28233725083992361 -0.1174488725702922 0 0.26667556061423242 -0.1195619168005688 0 0.27344703825998012 -0.13305179063506101 0 0.28233725083992361 -0.1174488725702922 0 0.26667556061423242 -0.1195619168005688 0 0.27806538261697228 -0.095004510785723514 0 0.26667556061423242 -0.1195619168005688 0 0.27806538261697228 -0.095004510785723514 0 0.25347137480431198 -0.1092851374296199 0 0.28233725083992361 -0.1174488725702922 0 0.27806538261697228 -0.095004510785723514 0 0.27806538261697228 -0.095004510785723514 0 0.25347137480431198 -0.1092851374296199 0 0.27806538261697228 -0.095004510785723514 0 0.25347137480431198 -0.1092851374296199 0 0.25423757924488499 -0.084574533875597505 0 0.26667556061423242 -0.1195619168005688 0 0.25347137480431198 -0.1092851374296199 0 0.25038660859628642 -0.12916482769145279 0 0.27423697503191358 -0.074890087677792455 0 0.27040856744685648 -0.054775664569861132 0 0.28340178253659049 -0.069590514831236155 0 0.27423697503191358 -0.074890087677792455 0 0.27040856744685648 -0.054775664569861132 0 0.27423697503191358 -0.074890087677792455 0 0.26203643244860381 -0.070150505755945253 0 0.27040856744685648 -0.054775664569861132 0 0.28403282853042178 -0.081256171918505843 0 0.28340178253659049 -0.069590514831236155 0 0.27423697503191358 -0.074890087677792455 0 0.27806538261697228 -0.095004510785723514 0 0.27423697503191358 -0.074890087677792455 0 0.28403282853042178 -0.081256171918505843 0 0.27806538261697228 -0.095004510785723514 0 0.27423697503191358 -0.074890087677792455 0 0.27806538261697228 -0.095004510785723514 0 0.27423697503191358 -0.074890087677792455 0 0.25423757924488499 -0.084574533875597505 0 0.25423757924488499 -0.084574533875597505 0 0.26203643244860381 -0.070150505755945253 0 0.24926260807076001 -0.066361736900529933 0 0.27423697503191358 -0.074890087677792455 0 0.25423757924488499 -0.084574533875597505 0 0.26203643244860381 -0.070150505755945253 0 0.26203643244860381 -0.070150505755945253 0 0.27040856744685648 -0.054775664569861132 0 0.24926260807076001 -0.066361736900529933 0 0.27040856744685648 -0.054775664569861132 0 0.26976247169918549 -0.051381082632593569 0 0.24559753116350999 -0.047866447589777733 0 0.25885758417910643 -0.055620526606733008 0 0.24559753116350999 -0.047866447589777733 0 0.24926260807076001 -0.066361736900529933 0 0.25885758417910643 -0.055620526606733008 0 0.27040856744685648 -0.054775664569861132 0 0.24559753116350999 -0.047866447589777733 0 0.27040856744685648 -0.054775664569861132 0 0.24926260807076001 -0.066361736900529933 0 0.27040856744685648 -0.054775664569861132 0 0.24559753116350999 -0.047866447589777733 0 0.25885758417910643 -0.055620526606733008 0 0.27040856744685648 -0.054775664569861132 0 0.24926260807076001 -0.066361736900529933 0 0.26976247169918549 -0.051381082632593569 0 0.27200703272814952 -0.0538998502340002 0 0.27684712716857318 -0.035869709196996773 0 0.28340178253659049 -0.069590514831236155 0 0.27040856744685648 -0.054775664569861132 0 0.27200703272814952 -0.0538998502340002 0 0.27200703272814952 -0.0538998502340002 0 0.29008514284465459 -0.058029898546821321 0 0.27040856744685648 -0.054775664569861132 0 0.26976247169918549 -0.051381082632593569 0 0.27200703272814952 -0.0538998502340002 0 0.27040856744685648 -0.054775664569861132 0 0.26976247169918549 -0.051381082632593569 0 0.27040856744685648 -0.054775664569861132 0 0.27200703272814952 -0.0538998502340002 0 0.28340178253659049 -0.069590514831236155 0 0.27040856744685648 -0.054775664569861132 0 0.27200703272814952 -0.0538998502340002 0 0.27684712716857318 -0.035869709196996773 0 0.29247974748585331 -0.042682655035183772 0 0.26976247169918549 -0.051381082632593569 0 0.27684712716857318 -0.035869709196996773 0 0.26455964328703802 -0.024045463392746588 0 0.26976247169918549 -0.051381082632593569 0 0.26455964328703802 -0.024045463392746588 0 0.26976247169918549 -0.051381082632593569 0 0.25297361813098018 -0.02896679100252595 0 0.26976247169918549 -0.051381082632593569 0 0.25297361813098018 -0.02896679100252595 0 0.24559753116350999 -0.047866447589777733 0 0.26976247169918549 -0.051381082632593569 0 0.25297361813098018 -0.02896679100252595 0 0.26455964328703802 -0.024045463392746588 0 0.25297361813098018 -0.02896679100252595 0 0.25111446573260982 -0.016114302864572851 0 0.26455964328703802 -0.024045463392746588 0 0.25935681487488282 0.0032901558470991299 0 0.26455964328703802 -0.024045463392746588 0 0.25935681487488282 0.0032901558470991299 0 0.25111446573260982 -0.016114302864572851 0 0.26455964328703802 -0.024045463392746588 0 0.25935681487488282 0.0032901558470991299 0 0.26455964328703802 -0.024045463392746588 0 0.28036173605600218 -0.014577390042185299 0 0.2850598880502595 0.0097200540804723429 0 0.25935681487488282 0.0032901558470991299 0 0.28036173605600218 -0.014577390042185299 0 0.27684712716857318 -0.035869709196996773 0 0.26455964328703802 -0.024045463392746588 0 0.28036173605600218 -0.014577390042185299 0 0.27684712716857318 -0.035869709196996773 0 0.28036173605600218 -0.014577390042185299 0 0.28820518735693967 -0.028264958548733551 0 0.28036173605600218 -0.014577390042185299 0 0.28820518735693967 -0.028264958548733551 0 0.29281476462861011 -0.019002934416186262 0 0.28820518735693967 -0.028264958548733551 0 0.29281476462861011 -0.019002934416186262 0 0.29852256144565997 -0.02919210405311564 0 0.2850598880502595 0.0097200540804723429 0 0.28036173605600218 -0.014577390042185299 0 0.2965674916674631 -0.005892833431666954 0 0.28036173605600218 -0.014577390042185299 0 0.29281476462861011 -0.019002934416186262 0 0.2965674916674631 -0.005892833431666954 0 0.29281476462861011 -0.019002934416186262 0 0.2965674916674631 -0.005892833431666954 0 0.30542548794333862 -0.017452862054825831 0 0.2965674916674631 -0.005892833431666954 0 0.31205986069947189 -0.0049782593706542196 0 0.30542548794333862 -0.017452862054825831 0 0.29281476462861011 -0.019002934416186262 0 0.29852256144565997 -0.02919210405311564 0 0.30542548794333862 -0.017452862054825831 0 0.31295246224355727 -0.031465459836367622 0 0.29852256144565997 -0.02919210405311564 0 0.30542548794333862 -0.017452862054825831 0 0.31295246224355727 -0.031465459836367622 0 0.29852256144565997 -0.02919210405311564 0 0.29247974748585331 -0.042682655035183772 0 0.31295246224355727 -0.031465459836367622 0 0.29247974748585331 -0.042682655035183772 0 0.31677697458005522 -0.04915936896060609 0 0.31295246224355727 -0.031465459836367622 0 0.30497093971384293 -0.04313152733728752 0 0.31295246224355727 -0.031465459836367622 0 0.30497093971384293 -0.04313152733728752 0 0.29247974748585331 -0.042682655035183772 0 0.30497093971384293 -0.04313152733728752 0 0.2984176499965473 -0.051469570822725998 0 0.29247974748585331 -0.042682655035183772 0 0.30816325296115998 -0.06215994685964054 0 0.29008514284465459 -0.058029898546821321 0 0.30497093971384293 -0.04313152733728752 0 0.30816325296115998 -0.06215994685964054 0 0.2984176499965473 -0.051469570822725998 0 0.31677697458005522 -0.04915936896060609 0 0.30497093971384293 -0.04313152733728752 0 0.30816325296115998 -0.06215994685964054 0 0.30497093971384293 -0.04313152733728752 0 0.30816325296115998 -0.06215994685964054 0 0.30816325296115998 -0.06215994685964054 0 0.2984176499965473 -0.051469570822725998 0 0.29008514284465459 -0.058029898546821321 0 0.27200703272814952 -0.0538998502340002 0 0.29008514284465459 -0.058029898546821321 0 0.29247974748585331 -0.042682655035183772 0 0.27200703272814952 -0.0538998502340002 0 0.29247974748585331 -0.042682655035183772 0 0.2984176499965473 -0.051469570822725998 0 0.29008514284465459 -0.058029898546821321 0 0.29247974748585331 -0.042682655035183772 0 0.28340178253659049 -0.069590514831236155 0 0.27200703272814952 -0.0538998502340002 0 0.29008514284465459 -0.058029898546821321 0 0.27684712716857318 -0.035869709196996773 0 0.28820518735693967 -0.028264958548733551 0 0.29247974748585331 -0.042682655035183772 0 0.28820518735693967 -0.028264958548733551 0 0.29852256144565997 -0.02919210405311564 0 0.29247974748585331 -0.042682655035183772 0 0.29344651124225801 -0.21124864191992829 0 0.28899423514754852 -0.2043978099961696 0 0.29918018921418849 -0.20594153729155221 0 0.29344651124225801 -0.21124864191992829 0 0.28438501512909858 -0.21313115730486201 0 0.29117233672752679 -0.2206314192765276 0 0.29344651124225801 -0.21124864191992829 0 0.30297620737443598 -0.21500161218047009 0 0.29117233672752679 -0.2206314192765276 0 0.29344651124225801 -0.21124864191992829 0 0.28438501512909858 -0.21313115730486201 0 0.28899423514754852 -0.2043978099961696 0 0.28438501512909858 -0.21313115730486201 0 0.28899423514754852 -0.2043978099961696 0 0.27807018056412458 -0.20526517326096849 0 0.28899423514754852 -0.2043978099961696 0 0.28520641600381191 -0.19601852277380771 0 0.27807018056412458 -0.20526517326096849 0 0.28899423514754852 -0.2043978099961696 0 0.28520641600381191 -0.19601852277380771 0 0.2917463978119848 -0.195799199109329 0 0.2917463978119848 -0.195799199109329 0 0.29918018921418849 -0.20594153729155221 0 0.2949898324970846 -0.18392543631265501 0 0.28520641600381191 -0.19601852277380771 0 0.28839860824914432 -0.18869399407380349 0 0.28301595160159593 -0.18680151928286051 0 0.28520641600381191 -0.19601852277380771 0 0.28839860824914432 -0.18869399407380349 0 0.2917463978119848 -0.195799199109329 0 0.28839860824914432 -0.18869399407380349 0 0.2917463978119848 -0.195799199109329 0 0.2949898324970846 -0.18392543631265501 0 0.28899423514754852 -0.2043978099961696 0 0.2917463978119848 -0.195799199109329 0 0.29918018921418849 -0.20594153729155221 0 0.30179608408340408 -0.20023472739587261 0 0.29970979430034528 -0.17845216363389491 0 0.30179608408340408 -0.20023472739587261 0 0.29918018921418849 -0.20594153729155221 0 0.2949898324970846 -0.18392543631265501 0 0.29918018921418849 -0.20594153729155221 0 0.2949898324970846 -0.18392543631265501 0 0.30179608408340408 -0.20023472739587261 0 0.30546718165367009 -0.1907533254779212 0 0.29970979430034528 -0.17845216363389491 0 0.30179608408340408 -0.20023472739587261 0 0.2949898324970846 -0.18392543631265501 0 0.29970979430034528 -0.17845216363389491 0 0.30807107595418132 -0.1885318480726953 0 0.30546718165367009 -0.1907533254779212 0 0.30570726771881818 -0.18352400054802859 0 0.30546718165367009 -0.1907533254779212 0 0.30843700451987072 -0.19839762384532941 0 0.31273131650314662 -0.19308994163935581 0 0.30807107595418132 -0.1885318480726953 0 0.31196616365846253 -0.1882694656153909 0 0.31273131650314662 -0.19308994163935581 0 0.30807107595418132 -0.1885318480726953 0 0.30546718165367009 -0.1907533254779212 0 0.31273131650314662 -0.19308994163935581 0 0.30843700451987072 -0.19839762384532941 0 0.31436141584033289 -0.20176043102133009 0 0.31273131650314662 -0.19308994163935581 0 0.30179608408340408 -0.20023472739587261 0 0.30546718165367009 -0.1907533254779212 0 0.30843700451987072 -0.19839762384532941 0 0.30179608408340408 -0.20023472739587261 0 0.30843700451987072 -0.19839762384532941 0 0.3071699256729839 -0.20562968438042489 0 0.30843700451987072 -0.19839762384532941 0 0.3071699256729839 -0.20562968438042489 0 0.31436141584033289 -0.20176043102133009 0 0.3071699256729839 -0.20562968438042489 0 0.30297620737443598 -0.21500161218047009 0 0.31524235038447418 -0.21135002433051969 0 0.3071699256729839 -0.20562968438042489 0 0.31524235038447418 -0.21135002433051969 0 0.31436141584033289 -0.20176043102133009 0 0.30179608408340408 -0.20023472739587261 0 0.3071699256729839 -0.20562968438042489 0 0.29918018921418849 -0.20594153729155221 0 0.29344651124225801 -0.21124864191992829 0 0.29918018921418849 -0.20594153729155221 0 0.30297620737443598 -0.21500161218047009 0 0.3071699256729839 -0.20562968438042489 0 0.29918018921418849 -0.20594153729155221 0 0.30297620737443598 -0.21500161218047009 0 0.30297620737443598 -0.21500161218047009 0 0.31524235038447418 -0.21135002433051969 0 0.31320602035539857 -0.22240085411650501 0 0.30144583056798091 -0.22540632753434461 0 0.29095791185984371 -0.2356923499818982 0 0.31412379042705901 -0.23499273852468669 0 0.30297620737443598 -0.21500161218047009 0 0.30144583056798091 -0.22540632753434461 0 0.31320602035539857 -0.22240085411650501 0 0.30144583056798091 -0.22540632753434461 0 0.31412379042705901 -0.23499273852468669 0 0.31320602035539857 -0.22240085411650501 0 0.30297620737443598 -0.21500161218047009 0 0.30144583056798091 -0.22540632753434461 0 0.29117233672752679 -0.2206314192765276 0 0.31412379042705901 -0.23499273852468669 0 0.31071280805396301 -0.25322095810988843 0 0.29515246101341941 -0.25144823455394449 0 0.29095791185984371 -0.2356923499818982 0 0.31412379042705901 -0.23499273852468669 0 0.29515246101341941 -0.25144823455394449 0 0.29095791185984371 -0.2356923499818982 0 0.27791199290933438 -0.23941071217572971 0 0.29515246101341941 -0.25144823455394449 0 0.30144583056798091 -0.22540632753434461 0 0.29095791185984371 -0.2356923499818982 0 0.29117233672752679 -0.2206314192765276 0 0.29095791185984371 -0.2356923499818982 0 0.29117233672752679 -0.2206314192765276 0 0.27933874570334521 -0.22565628193602191 0 0.29095791185984371 -0.2356923499818982 0 0.27933874570334521 -0.22565628193602191 0 0.27791199290933438 -0.23941071217572971 0 0.28438501512909858 -0.21313115730486201 0 0.29117233672752679 -0.2206314192765276 0 0.27933874570334521 -0.22565628193602191 0 0.27933874570334521 -0.22565628193602191 0 0.27791199290933438 -0.23941071217572971 0 0.26435146501768447 -0.23359666611803381 0 0.27933874570334521 -0.22565628193602191 0 0.26421581656556747 -0.22176688605932171 0 0.26435146501768447 -0.23359666611803381 0 0.27933874570334521 -0.22565628193602191 0 0.26421581656556747 -0.22176688605932171 0 0.27172975065613458 -0.2138359428445504 0 0.27791199290933438 -0.23941071217572971 0 0.26435146501768447 -0.23359666611803381 0 0.26910092132095192 -0.25375690703995157 0 0.27791199290933438 -0.23941071217572971 0 0.29515246101341941 -0.25144823455394449 0 0.26910092132095192 -0.25375690703995157 0 0.25254176980284321 -0.24245692298047161 0 0.26435146501768447 -0.23359666611803381 0 0.26910092132095192 -0.25375690703995157 0 0.25254176980284321 -0.24245692298047161 0 0.25404973924343338 -0.25618606862097643 0 0.24396828193444881 -0.25131377364279722 0 0.25254176980284321 -0.24245692298047161 0 0.26435146501768447 -0.23359666611803381 0 0.25061808270443731 -0.22383476374792011 0 0.26421581656556747 -0.22176688605932171 0 0.25061808270443731 -0.22383476374792011 0 0.25886490064090328 -0.21083623355577349 0 0.26421581656556747 -0.22176688605932171 0 0.26435146501768447 -0.23359666611803381 0 0.25061808270443731 -0.22383476374792011 0 0.25061808270443731 -0.22383476374792011 0 0.25886490064090328 -0.21083623355577349 0 0.24458048830593099 -0.20694120463227139 0 0.25886490064090328 -0.21083623355577349 0 0.25460667917070579 -0.19812350440861901 0 0.24458048830593099 -0.20694120463227139 0 0.26421581656556747 -0.22176688605932171 0 0.25886490064090328 -0.21083623355577349 0 0.27172975065613458 -0.2138359428445504 0 0.25886490064090328 -0.21083623355577349 0 0.27172975065613458 -0.2138359428445504 0 0.2669050420652439 -0.20015853755835031 0 0.27172975065613458 -0.2138359428445504 0 0.27807018056412458 -0.20526517326096849 0 0.2669050420652439 -0.20015853755835031 0 0.28438501512909858 -0.21313115730486201 0 0.27172975065613458 -0.2138359428445504 0 0.27807018056412458 -0.20526517326096849 0 0.28438501512909858 -0.21313115730486201 0 0.27933874570334521 -0.22565628193602191 0 0.27172975065613458 -0.2138359428445504 0 0.28520641600381191 -0.19601852277380771 0 0.27546917874396659 -0.19643075274112951 0 0.28301595160159593 -0.18680151928286051 0 0.27546917874396659 -0.19643075274112951 0 0.27314430081269808 -0.18796119701023009 0 0.28301595160159593 -0.18680151928286051 0 0.27807018056412458 -0.20526517326096849 0 0.27546917874396659 -0.19643075274112951 0 0.2669050420652439 -0.20015853755835031 0 0.28520641600381191 -0.19601852277380771 0 0.27807018056412458 -0.20526517326096849 0 0.27546917874396659 -0.19643075274112951 0 0.2669050420652439 -0.20015853755835031 0 0.27314430081269808 -0.18796119701023009 0 0.25934289229493679 -0.18554747239811101 0 0.27546917874396659 -0.19643075274112951 0 0.2669050420652439 -0.20015853755835031 0 0.27314430081269808 -0.18796119701023009 0 0.2669050420652439 -0.20015853755835031 0 0.25460667917070579 -0.19812350440861901 0 0.25934289229493679 -0.18554747239811101 0 0.25460667917070579 -0.19812350440861901 0 0.25934289229493679 -0.18554747239811101 0 0.23695519764032669 -0.18649711799157889 0 0.25886490064090328 -0.21083623355577349 0 0.2669050420652439 -0.20015853755835031 0 0.25460667917070579 -0.19812350440861901 0 0.25934289229493679 -0.18554747239811101 0 0.26190186637392798 -0.17248459558814541 0 0.26994117677060658 -0.17826584494954309 0 0.25934289229493679 -0.18554747239811101 0 0.26190186637392798 -0.17248459558814541 0 0.24973517137850049 -0.17418223310583419 0 0.25615440679916007 -0.1630088425133232 0 0.24510980772627189 -0.16261656135264829 0 0.24973517137850049 -0.17418223310583419 0 0.26190186637392798 -0.17248459558814541 0 0.25615440679916007 -0.1630088425133232 0 0.24973517137850049 -0.17418223310583419 0 0.25615440679916007 -0.1630088425133232 0 0.2492368802989727 -0.1525917679456707 0 0.24510980772627189 -0.16261656135264829 0 0.25615440679916007 -0.1630088425133232 0 0.26614519673428472 -0.16181837538514199 0 0.26042692582537558 -0.152953099684706 0 0.26190186637392798 -0.17248459558814541 0 0.25615440679916007 -0.1630088425133232 0 0.26614519673428472 -0.16181837538514199 0 0.26190186637392798 -0.17248459558814541 0 0.27249163123675768 -0.16888165298689889 0 0.26614519673428472 -0.16181837538514199 0 0.27249163123675768 -0.16888165298689889 0 0.26614519673428472 -0.16181837538514199 0 0.27533376826973721 -0.16042582164974539 0 0.26614519673428472 -0.16181837538514199 0 0.27533376826973721 -0.16042582164974539 0 0.27087504337173041 -0.1529302470767552 0 0.27533376826973721 -0.16042582164974539 0 0.28037816100858781 -0.15391238448776581 0 0.28165770881765051 -0.16491793959949899 0 0.27249163123675768 -0.16888165298689889 0 0.27997007045433953 -0.17537734074931891 0 0.28165770881765051 -0.16491793959949899 0 0.27249163123675768 -0.16888165298689889 0 0.27533376826973721 -0.16042582164974539 0 0.28165770881765051 -0.16491793959949899 0 0.27249163123675768 -0.16888165298689889 0 0.27997007045433953 -0.17537734074931891 0 0.26994117677060658 -0.17826584494954309 0 0.27314430081269808 -0.18796119701023009 0 0.27997007045433953 -0.17537734074931891 0 0.28301595160159593 -0.18680151928286051 0 0.27314430081269808 -0.18796119701023009 0 0.27997007045433953 -0.17537734074931891 0 0.26994117677060658 -0.17826584494954309 0 0.27314430081269808 -0.18796119701023009 0 0.25934289229493679 -0.18554747239811101 0 0.26994117677060658 -0.17826584494954309 0 0.26190186637392798 -0.17248459558814541 0 0.27249163123675768 -0.16888165298689889 0 0.26994117677060658 -0.17826584494954309 0 0.26667556061423242 -0.1195619168005688 0 0.25038660859628642 -0.12916482769145279 0 0.26234570856792189 -0.13341636169126289 0 0.25038660859628642 -0.12916482769145279 0 0.26234570856792189 -0.13341636169126289 0 0.25552941609067897 -0.1423190848585997 0 0.26234570856792189 -0.13341636169126289 0 0.25552941609067897 -0.1423190848585997 0 0.26653089873354119 -0.1433663157808775 0 0.25552941609067897 -0.1423190848585997 0 0.26042692582537558 -0.152953099684706 0 0.26653089873354119 -0.1433663157808775 0 0.25552941609067897 -0.1423190848585997 0 0.26042692582537558 -0.152953099684706 0 0.2492368802989727 -0.1525917679456707 0 0.25615440679916007 -0.1630088425133232 0 0.26042692582537558 -0.152953099684706 0 0.2492368802989727 -0.1525917679456707 0 0.26042692582537558 -0.152953099684706 0 0.27087504337173041 -0.1529302470767552 0 0.26653089873354119 -0.1433663157808775 0 0.26614519673428472 -0.16181837538514199 0 0.26042692582537558 -0.152953099684706 0 0.27087504337173041 -0.1529302470767552 0 0.27533376826973721 -0.16042582164974539 0 0.27087504337173041 -0.1529302470767552 0 0.28037816100858781 -0.15391238448776581 0 0.27087504337173041 -0.1529302470767552 0 0.28037816100858781 -0.15391238448776581 0 0.27656126028556038 -0.14552731073888051 0 0.28037816100858781 -0.15391238448776581 0 0.27656126028556038 -0.14552731073888051 0 0.28660911906287678 -0.13989323435486059 0 0.27087504337173041 -0.1529302470767552 0 0.27656126028556038 -0.14552731073888051 0 0.26653089873354119 -0.1433663157808775 0 0.27656126028556038 -0.14552731073888051 0 0.26653089873354119 -0.1433663157808775 0 0.27344703825998012 -0.13305179063506101 0 0.28233725083992361 -0.1174488725702922 0 0.27344703825998012 -0.13305179063506101 0 0.28660911906287678 -0.13989323435486059 0 0.26234570856792189 -0.13341636169126289 0 0.26653089873354119 -0.1433663157808775 0 0.27344703825998012 -0.13305179063506101 0 0.27656126028556038 -0.14552731073888051 0 0.27344703825998012 -0.13305179063506101 0 0.28660911906287678 -0.13989323435486059 0 0.26667556061423242 -0.1195619168005688 0 0.26234570856792189 -0.13341636169126289 0 0.27344703825998012 -0.13305179063506101 0 0.29367230878615042 -0.11541589981144861 0 0.2955372147342275 -0.13488703610993949 0 0.29367230878615042 -0.11541589981144861 0 0.28953897335579448 -0.12691126071163511 0 0.2955372147342275 -0.13488703610993949 0 0.28233725083992361 -0.1174488725702922 0 0.28660911906287678 -0.13989323435486059 0 0.28233725083992361 -0.1174488725702922 0 0.28953897335579448 -0.12691126071163511 0 0.28660911906287678 -0.13989323435486059 0 0.28953897335579448 -0.12691126071163511 0 0.28660911906287678 -0.13989323435486059 0 0.2955372147342275 -0.13488703610993949 0 0.28660911906287678 -0.13989323435486059 0 0.2955372147342275 -0.13488703610993949 0 0.2955372147342275 -0.13488703610993949 0 0.29762350451728659 -0.15666959987191709 0 0.28660911906287678 -0.13989323435486059 0 0.29079947577998072 -0.16190933533375779 0 0.28660911906287678 -0.13989323435486059 0 0.29079947577998072 -0.16190933533375779 0 0.29762350451728659 -0.15666959987191709 0 0.28660911906287678 -0.13989323435486059 0 0.2955372147342275 -0.13488703610993949 0 0.29762350451728659 -0.15666959987191709 0 0.28037816100858781 -0.15391238448776581 0 0.28660911906287678 -0.13989323435486059 0 0.29079947577998072 -0.16190933533375779 0 0.27656126028556038 -0.14552731073888051 0 0.28660911906287678 -0.13989323435486059 0 0.2955372147342275 -0.13488703610993949 0 0.30812837300979551 -0.14455484186410991 0 0.29762350451728659 -0.15666959987191709 0 0.30812837300979551 -0.14455484186410991 0 0.30853934051601062 -0.15694153157034099 0 0.31404480893025299 -0.15076614371676 0 0.30812837300979551 -0.14455484186410991 0 0.29762350451728659 -0.15666959987191709 0 0.30853934051601062 -0.15694153157034099 0 0.31822966962249399 -0.1221628301855867 0 0.2955372147342275 -0.13488703610993949 0 0.30812837300979551 -0.14455484186410991 0 0.31822966962249399 -0.1221628301855867 0 0.30543849479878632 -0.11934815343831159 0 0.2955372147342275 -0.13488703610993949 0 0.31822966962249399 -0.1221628301855867 0 0.2955372147342275 -0.13488703610993949 0 0.2949898324970846 -0.18392543631265501 0 0.29079947577998072 -0.16190933533375779 0 0.2949898324970846 -0.18392543631265501 0 0.29079947577998072 -0.16190933533375779 0 0.29970979430034528 -0.17845216363389491 0 0.2949898324970846 -0.18392543631265501 0 0.28717188983063568 -0.17302210845361449 0 0.29079947577998072 -0.16190933533375779 0 0.2949898324970846 -0.18392543631265501 0 0.28703444333124478 -0.18092529289036549 0 0.28717188983063568 -0.17302210845361449 0 0.28839860824914432 -0.18869399407380349 0 0.2949898324970846 -0.18392543631265501 0 0.28703444333124478 -0.18092529289036549 0 0.27997007045433953 -0.17537734074931891 0 0.28703444333124478 -0.18092529289036549 0 0.28301595160159593 -0.18680151928286051 0 0.28839860824914432 -0.18869399407380349 0 0.28703444333124478 -0.18092529289036549 0 0.28301595160159593 -0.18680151928286051 0 0.27997007045433953 -0.17537734074931891 0 0.28703444333124478 -0.18092529289036549 0 0.28717188983063568 -0.17302210845361449 0 0.29079947577998072 -0.16190933533375779 0 0.29762350451728659 -0.15666959987191709 0 0.29970979430034528 -0.17845216363389491 0 0.28717188983063568 -0.17302210845361449 0 0.28165770881765051 -0.16491793959949899 0 0.29079947577998072 -0.16190933533375779 0 0.27997007045433953 -0.17537734074931891 0 0.28717188983063568 -0.17302210845361449 0 0.28165770881765051 -0.16491793959949899 0 0.28037816100858781 -0.15391238448776581 0 0.28165770881765051 -0.16491793959949899 0 0.29079947577998072 -0.16190933533375779 0 0.30416714011673068 -0.16579521667046929 0 0.29762350451728659 -0.15666959987191709 0 0.29970979430034528 -0.17845216363389491 0 0.29762350451728659 -0.15666959987191709 0 0.29970979430034528 -0.17845216363389491 0 0.30416714011673068 -0.16579521667046929 0 0.29762350451728659 -0.15666959987191709 0 0.30853934051601062 -0.15694153157034099 0 0.30853934051601062 -0.15694153157034099 0 0.30824955557672601 -0.16511509115144149 0 0.31320468068968921 -0.16332012370631299 0 0.30416714011673068 -0.16579521667046929 0 0.30853934051601062 -0.15694153157034099 0 0.30824955557672601 -0.16511509115144149 0 0.30416714011673068 -0.16579521667046929 0 0.30671350567328481 -0.17179769712475201 0 0.30824955557672601 -0.16511509115144149 0 0.30824955557672601 -0.16511509115144149 0 0.31328180057510152 -0.170094980977372 0 0.31320468068968921 -0.16332012370631299 0 0.30671350567328481 -0.17179769712475201 0 0.30824955557672601 -0.16511509115144149 0 0.31328180057510152 -0.170094980977372 0 0.30671350567328481 -0.17179769712475201 0 0.31061765874017461 -0.17739364353507719 0 0.31328180057510152 -0.170094980977372 0 0.30671350567328481 -0.17179769712475201 0 0.31061765874017461 -0.17739364353507719 0 0.30568023013732359 -0.17847056343557591 0 0.30416714011673068 -0.16579521667046929 0 0.30671350567328481 -0.17179769712475201 0 0.29970979430034528 -0.17845216363389491 0 0.30671350567328481 -0.17179769712475201 0 0.30568023013732359 -0.17847056343557591 0 0.29970979430034528 -0.17845216363389491 0 0.30546718165367009 -0.1907533254779212 0 0.29970979430034528 -0.17845216363389491 0 0.30570726771881818 -0.18352400054802859 0 0.30568023013732359 -0.17847056343557591 0 0.29970979430034528 -0.17845216363389491 0 0.30570726771881818 -0.18352400054802859 0 0.30807107595418132 -0.1885318480726953 0 0.31196616365846253 -0.1882694656153909 0 0.30570726771881818 -0.18352400054802859 0 0.31061765874017461 -0.17739364353507719 0 0.30568023013732359 -0.17847056343557591 0 0.30570726771881818 -0.18352400054802859 0 0.31061765874017461 -0.17739364353507719 0 0.30570726771881818 -0.18352400054802859 0 0.31312454446662219 -0.1830469320772615 0 0.31196616365846253 -0.1882694656153909 0 0.30570726771881818 -0.18352400054802859 0 0.31312454446662219 -0.1830469320772615 0 0.31974544467475369 -0.17132853880640239 0 0.32994050939219322 -0.19196762527708131 0 0.32544783100097929 -0.1963219592480609 0 0.31829874148889808 -0.18445363716334109 0 0.31974544467475369 -0.17132853880640239 0 0.32544783100097929 -0.1963219592480609 0 0.31312454446662219 -0.1830469320772615 0 0.31829874148889808 -0.18445363716334109 0 0.31554035149596049 -0.18801335652099169 0 0.32603689613562709 -0.16869936024658311 0 0.32994050939219322 -0.19196762527708131 0 0.31974544467475369 -0.17132853880640239 0 0.32544783100097929 -0.1963219592480609 0 0.31196616365846253 -0.1882694656153909 0 0.31312454446662219 -0.1830469320772615 0 0.31554035149596049 -0.18801335652099169 0 0.31974544467475369 -0.17132853880640239 0 0.32603689613562709 -0.16869936024658311 0 0.32994050939219322 -0.19196762527708131 0 0.31312454446662219 -0.1830469320772615 0 0.31829874148889808 -0.18445363716334109 0 0.31529822913221839 -0.17696034432553701 0 0.31829874148889808 -0.18445363716334109 0 0.31529822913221839 -0.17696034432553701 0 0.31974544467475369 -0.17132853880640239 0 0.31061765874017461 -0.17739364353507719 0 0.31312454446662219 -0.1830469320772615 0 0.31529822913221839 -0.17696034432553701 0 0.31061765874017461 -0.17739364353507719 0 0.31529822913221839 -0.17696034432553701 0 0.31328180057510152 -0.170094980977372 0 0.31529822913221839 -0.17696034432553701 0 0.31328180057510152 -0.170094980977372 0 0.31974544467475369 -0.17132853880640239 0 0.31791267849488619 -0.158100745653346 0 0.32603689613562709 -0.16869936024658311 0 0.32213328287906101 -0.1454310952160848 0 0.32603689613562709 -0.16869936024658311 0 0.33077851092374633 -0.15647836663630499 0 0.32213328287906101 -0.1454310952160848 0 0.32603689613562709 -0.16869936024658311 0 0.32213328287906101 -0.1454310952160848 0 0.31328180057510152 -0.170094980977372 0 0.31804002828572142 -0.16634826917906431 0 0.31320468068968921 -0.16332012370631299 0 0.31328180057510152 -0.170094980977372 0 0.31804002828572142 -0.16634826917906431 0 0.31974544467475369 -0.17132853880640239 0 0.31804002828572142 -0.16634826917906431 0 0.31791267849488619 -0.158100745653346 0 0.31320468068968921 -0.16332012370631299 0 0.30853934051601062 -0.15694153157034099 0 0.31791267849488619 -0.158100745653346 0 0.31320468068968921 -0.16332012370631299 0 0.31804002828572142 -0.16634826917906431 0 0.31791267849488619 -0.158100745653346 0 0.32603689613562709 -0.16869936024658311 0 0.31804002828572142 -0.16634826917906431 0 0.31974544467475369 -0.17132853880640239 0 0.32603689613562709 -0.16869936024658311 0 0.32603689613562709 -0.16869936024658311 0 0.33256514201772541 -0.16588324748619601 0 0.33504892164288991 -0.17189481323824221 0 0.33256514201772541 -0.16588324748619601 0 0.33913060940223921 -0.16507706012613799 0 0.33504892164288991 -0.17189481323824221 0 0.33256514201772541 -0.16588324748619601 0 0.33077851092374633 -0.15647836663630499 0 0.33913060940223921 -0.16507706012613799 0 0.32603689613562709 -0.16869936024658311 0 0.33256514201772541 -0.16588324748619601 0 0.33077851092374633 -0.15647836663630499 0 0.33913060940223921 -0.16507706012613799 0 0.34181883386278411 -0.15485541195805619 0 0.35023106898755563 -0.1608861175511474 0 0.33077851092374633 -0.15647836663630499 0 0.33913060940223921 -0.16507706012613799 0 0.34181883386278411 -0.15485541195805619 0 0.33913060940223921 -0.16507706012613799 0 0.34121888947390983 -0.17223561887941699 0 0.34802500456473129 -0.16954005062185101 0 0.33913060940223921 -0.16507706012613799 0 0.34121888947390983 -0.17223561887941699 0 0.33504892164288991 -0.17189481323824221 0 0.32603689613562709 -0.16869936024658311 0 0.33375142177329581 -0.17954791428398659 0 0.32994050939219322 -0.19196762527708131 0 0.34121888947390983 -0.17223561887941699 0 0.33977524284417648 -0.17854031336117579 0 0.33504892164288991 -0.17189481323824221 0 0.33977524284417648 -0.17854031336117579 0 0.33504892164288991 -0.17189481323824221 0 0.33375142177329581 -0.17954791428398659 0 0.34121888947390983 -0.17223561887941699 0 0.33977524284417648 -0.17854031336117579 0 0.34686800317315508 -0.177231357564341 0 0.33977524284417648 -0.17854031336117579 0 0.33795553885159241 -0.18663745929685049 0 0.33375142177329581 -0.17954791428398659 0 0.33977524284417648 -0.17854031336117579 0 0.33795553885159241 -0.18663745929685049 0 0.34389748921919783 -0.1836398822915469 0 0.33977524284417648 -0.17854031336117579 0 0.34389748921919783 -0.1836398822915469 0 0.34686800317315508 -0.177231357564341 0 0.33795553885159241 -0.18663745929685049 0 0.34389748921919783 -0.1836398822915469 0 0.34440588432682973 -0.19098081679465259 0 0.33795553885159241 -0.18663745929685049 0 0.33375142177329581 -0.17954791428398659 0 0.32994050939219322 -0.19196762527708131 0 0.32603689613562709 -0.16869936024658311 0 0.33504892164288991 -0.17189481323824221 0 0.33375142177329581 -0.17954791428398659 0 0.31822966962249399 -0.1221628301855867 0 0.30812837300979551 -0.14455484186410991 0 0.32213328287906101 -0.1454310952160848 0 0.31822966962249399 -0.1221628301855867 0 0.32804369334856182 -0.12919058244744289 0 0.32213328287906101 -0.1454310952160848 0 0.31822966962249399 -0.1221628301855867 0 0.32213328287906101 -0.1454310952160848 0 0.30812837300979551 -0.14455484186410991 0 0.32213328287906101 -0.1454310952160848 0 0.31404480893025299 -0.15076614371676 0 0.30853934051601062 -0.15694153157034099 0 0.31791267849488619 -0.158100745653346 0 0.31404480893025299 -0.15076614371676 0 0.31791267849488619 -0.158100745653346 0 0.32213328287906101 -0.1454310952160848 0 0.31404480893025299 -0.15076614371676 0 0.33077851092374633 -0.15647836663630499 0 0.34181883386278411 -0.15485541195805619 0 0.33652787627133418 -0.1414739758271332 0 0.33077851092374633 -0.15647836663630499 0 0.32213328287906101 -0.1454310952160848 0 0.33652787627133418 -0.1414739758271332 0 0.32804369334856182 -0.12919058244744289 0 0.32213328287906101 -0.1454310952160848 0 0.33652787627133418 -0.1414739758271332 0 0.34056824760847199 -0.1224932653972988 0 0.33652787627133418 -0.1414739758271332 0 0.35380066021137752 -0.133130952836954 0 0.34056824760847199 -0.1224932653972988 0 0.32804369334856182 -0.12919058244744289 0 0.33652787627133418 -0.1414739758271332 0 0.35490181206500487 -0.1200535065167765 0 0.35380066021137752 -0.133130952836954 0 0.36933840742977242 -0.12537698317616569 0 0.35490181206500487 -0.1200535065167765 0 0.34056824760847199 -0.1224932653972988 0 0.35380066021137752 -0.133130952836954 0 0.35380066021137752 -0.133130952836954 0 0.35430491500187983 -0.14913127935118331 0 0.36708523324301251 -0.14006653572946831 0 0.33652787627133418 -0.1414739758271332 0 0.35380066021137752 -0.133130952836954 0 0.35430491500187983 -0.14913127935118331 0 0.34181883386278411 -0.15485541195805619 0 0.33652787627133418 -0.1414739758271332 0 0.35430491500187983 -0.14913127935118331 0 0.34181883386278411 -0.15485541195805619 0 0.35430491500187983 -0.14913127935118331 0 0.35023106898755563 -0.1608861175511474 0 0.35430491500187983 -0.14913127935118331 0 0.36867578007779911 -0.15134633385457991 0 0.36190916452552557 -0.15960242225597651 0 0.36867578007779911 -0.15134633385457991 0 0.37206785749971077 -0.16101989254045621 0 0.37936738043850132 -0.15160285791263661 0 0.36867578007779911 -0.15134633385457991 0 0.37533467357446471 -0.14470738300536351 0 0.37936738043850132 -0.15160285791263661 0 0.36867578007779911 -0.15134633385457991 0 0.36708523324301251 -0.14006653572946831 0 0.37533467357446471 -0.14470738300536351 0 0.35430491500187983 -0.14913127935118331 0 0.36867578007779911 -0.15134633385457991 0 0.36708523324301251 -0.14006653572946831 0 0.35380066021137752 -0.133130952836954 0 0.36708523324301251 -0.14006653572946831 0 0.36933840742977242 -0.12537698317616569 0 0.36708523324301251 -0.14006653572946831 0 0.37927479843875939 -0.13639819909812231 0 0.37533467357446471 -0.14470738300536351 0 0.36708523324301251 -0.14006653572946831 0 0.36933840742977242 -0.12537698317616569 0 0.37927479843875939 -0.13639819909812231 0 0.35696947399903051 -0.17532730465997409 0 0.35132191893788511 -0.18410497557208119 0 0.34686800317315508 -0.177231357564341 0 0.35696947399903051 -0.17532730465997409 0 0.35132191893788511 -0.18410497557208119 0 0.36039825127603292 -0.18320738151080709 0 0.35132191893788511 -0.18410497557208119 0 0.36039825127603292 -0.18320738151080709 0 0.35785985819441329 -0.1892600548686223 0 0.35132191893788511 -0.18410497557208119 0 0.34389748921919783 -0.1836398822915469 0 0.34440588432682973 -0.19098081679465259 0 0.35132191893788511 -0.18410497557208119 0 0.34389748921919783 -0.1836398822915469 0 0.34686800317315508 -0.177231357564341 0 0.35696947399903051 -0.17532730465997409 0 0.34686800317315508 -0.177231357564341 0 0.34802500456473129 -0.16954005062185101 0 0.34121888947390983 -0.17223561887941699 0 0.34686800317315508 -0.177231357564341 0 0.34802500456473129 -0.16954005062185101 0 0.34802500456473129 -0.16954005062185101 0 0.35023106898755563 -0.1608861175511474 0 0.35619788656817392 -0.16711048099367939 0 0.33913060940223921 -0.16507706012613799 0 0.34802500456473129 -0.16954005062185101 0 0.35023106898755563 -0.1608861175511474 0 0.35430491500187983 -0.14913127935118331 0 0.35023106898755563 -0.1608861175511474 0 0.36190916452552557 -0.15960242225597651 0 0.35023106898755563 -0.1608861175511474 0 0.35619788656817392 -0.16711048099367939 0 0.36190916452552557 -0.15960242225597651 0 0.35696947399903051 -0.17532730465997409 0 0.34802500456473129 -0.16954005062185101 0 0.35619788656817392 -0.16711048099367939 0 0.35619788656817392 -0.16711048099367939 0 0.36512584454129859 -0.1686596526250265 0 0.36190916452552557 -0.15960242225597651 0 0.35696947399903051 -0.17532730465997409 0 0.35619788656817392 -0.16711048099367939 0 0.36512584454129859 -0.1686596526250265 0 0.36512584454129859 -0.1686596526250265 0 0.36190916452552557 -0.15960242225597651 0 0.37206785749971077 -0.16101989254045621 0 0.36867578007779911 -0.15134633385457991 0 0.36190916452552557 -0.15960242225597651 0 0.37206785749971077 -0.16101989254045621 0 0.36512584454129859 -0.1686596526250265 0 0.37206785749971077 -0.16101989254045621 0 0.37477023193034043 -0.17018223131065499 0 0.37477023193034043 -0.17018223131065499 0 0.36861784751445359 -0.17962973374099259 0 0.37696722687249701 -0.17810659931479569 0 0.36512584454129859 -0.1686596526250265 0 0.37477023193034043 -0.17018223131065499 0 0.36861784751445359 -0.17962973374099259 0 0.35696947399903051 -0.17532730465997409 0 0.36512584454129859 -0.1686596526250265 0 0.36861784751445359 -0.17962973374099259 0 0.35696947399903051 -0.17532730465997409 0 0.36861784751445359 -0.17962973374099259 0 0.36039825127603292 -0.18320738151080709 0 0.36861784751445359 -0.17962973374099259 0 0.36039825127603292 -0.18320738151080709 0 0.36540661011686171 -0.1898404458983787 0 0.36039825127603292 -0.18320738151080709 0 0.36540661011686171 -0.1898404458983787 0 0.35785985819441329 -0.1892600548686223 0 0.36861784751445359 -0.17962973374099259 0 0.36540661011686171 -0.1898404458983787 0 0.37569440289929701 -0.18908095338766351 0 0.36861784751445359 -0.17962973374099259 0 0.37569440289929701 -0.18908095338766351 0 0.37696722687249701 -0.17810659931479569 0 0.36940420716837608 -0.2025618654341283 0 0.36540661011686171 -0.1898404458983787 0 0.37569440289929701 -0.18908095338766351 0 0.36940420716837608 -0.2025618654341283 0 0.37569440289929701 -0.18908095338766351 0 0.37947720105245142 -0.19891803980197861 0 0.36940420716837608 -0.2025618654341283 0 0.36016713539636008 -0.1979736372311664 0 0.3613708116485192 -0.20854876209755641 0 0.36940420716837608 -0.2025618654341283 0 0.36016713539636008 -0.1979736372311664 0 0.36540661011686171 -0.1898404458983787 0 0.36016713539636008 -0.1979736372311664 0 0.36540661011686171 -0.1898404458983787 0 0.35785985819441329 -0.1892600548686223 0 0.36938575523495981 -0.2129546954157579 0 0.37324002167403708 -0.2233365813548463 0 0.38077987067828128 -0.21132005644263979 0 0.36940420716837608 -0.2025618654341283 0 0.36938575523495981 -0.2129546954157579 0 0.38077987067828128 -0.21132005644263979 0 0.36940420716837608 -0.2025618654341283 0 0.36938575523495981 -0.2129546954157579 0 0.3613708116485192 -0.20854876209755641 0 0.36938575523495981 -0.2129546954157579 0 0.3613708116485192 -0.20854876209755641 0 0.361994713882269 -0.22066574640683001 0 0.3613708116485192 -0.20854876209755641 0 0.34919427722781782 -0.21411079365218549 0 0.361994713882269 -0.22066574640683001 0 0.3613708116485192 -0.20854876209755641 0 0.34919427722781782 -0.21411079365218549 0 0.35475796259121928 -0.20275485681921671 0 0.34919427722781782 -0.21411079365218549 0 0.34634236535730661 -0.20091625680692071 0 0.33934318983444439 -0.20631914095594769 0 0.34919427722781782 -0.21411079365218549 0 0.35475796259121928 -0.20275485681921671 0 0.34634236535730661 -0.20091625680692071 0 0.36016713539636008 -0.1979736372311664 0 0.352203362658772 -0.19487583826909621 0 0.35785985819441329 -0.1892600548686223 0 0.35132191893788511 -0.18410497557208119 0 0.352203362658772 -0.19487583826909621 0 0.35785985819441329 -0.1892600548686223 0 0.36016713539636008 -0.1979736372311664 0 0.3613708116485192 -0.20854876209755641 0 0.35475796259121928 -0.20275485681921671 0 0.36016713539636008 -0.1979736372311664 0 0.352203362658772 -0.19487583826909621 0 0.35475796259121928 -0.20275485681921671 0 0.352203362658772 -0.19487583826909621 0 0.34634236535730661 -0.20091625680692071 0 0.34440588432682973 -0.19098081679465259 0 0.352203362658772 -0.19487583826909621 0 0.35475796259121928 -0.20275485681921671 0 0.34634236535730661 -0.20091625680692071 0 0.35132191893788511 -0.18410497557208119 0 0.352203362658772 -0.19487583826909621 0 0.34440588432682973 -0.19098081679465259 0 0.33795553885159241 -0.18663745929685049 0 0.34440588432682973 -0.19098081679465259 0 0.3385148703964303 -0.19609091051900579 0 0.33795553885159241 -0.18663745929685049 0 0.32994050939219322 -0.19196762527708131 0 0.3385148703964303 -0.19609091051900579 0 0.32994050939219322 -0.19196762527708131 0 0.33310173461621567 -0.1997241639825823 0 0.3385148703964303 -0.19609091051900579 0 0.32994050939219322 -0.19196762527708131 0 0.33310173461621567 -0.1997241639825823 0 0.32544783100097929 -0.1963219592480609 0 0.33310173461621567 -0.1997241639825823 0 0.3385148703964303 -0.19609091051900579 0 0.33934318983444439 -0.20631914095594769 0 0.34634236535730661 -0.20091625680692071 0 0.3385148703964303 -0.19609091051900579 0 0.33934318983444439 -0.20631914095594769 0 0.34634236535730661 -0.20091625680692071 0 0.34440588432682973 -0.19098081679465259 0 0.3385148703964303 -0.19609091051900579 0 0.32544783100097929 -0.1963219592480609 0 0.33115021732720501 -0.2213153796897192 0 0.34919427722781782 -0.21411079365218549 0 0.33934318983444439 -0.20631914095594769 0 0.33115021732720501 -0.2213153796897192 0 0.33310173461621567 -0.1997241639825823 0 0.33934318983444439 -0.20631914095594769 0 0.33115021732720501 -0.2213153796897192 0 0.33310173461621567 -0.1997241639825823 0 0.32544783100097929 -0.1963219592480609 0 0.33115021732720501 -0.2213153796897192 0 0.32125445375639983 -0.20566953596149881 0 0.32544783100097929 -0.1963219592480609 0 0.33115021732720501 -0.2213153796897192 0 0.32125445375639983 -0.20566953596149881 0 0.31524235038447418 -0.21135002433051969 0 0.33115021732720501 -0.2213153796897192 0 0.31524235038447418 -0.21135002433051969 0 0.31320602035539857 -0.22240085411650501 0 0.33115021732720501 -0.2213153796897192 0 0.32125445375639983 -0.20566953596149881 0 0.31524235038447418 -0.21135002433051969 0 0.31436141584033289 -0.20176043102133009 0 0.31436141584033289 -0.20176043102133009 0 0.31867947963578902 -0.19784687875623841 0 0.31273131650314662 -0.19308994163935581 0 0.32125445375639983 -0.20566953596149881 0 0.31436141584033289 -0.20176043102133009 0 0.31867947963578902 -0.19784687875623841 0 0.31196616365846253 -0.1882694656153909 0 0.31273131650314662 -0.19308994163935581 0 0.31554035149596049 -0.18801335652099169 0 0.31273131650314662 -0.19308994163935581 0 0.31554035149596049 -0.18801335652099169 0 0.31894328223227031 -0.19187251659920421 0 0.31829874148889808 -0.18445363716334109 0 0.31554035149596049 -0.18801335652099169 0 0.31894328223227031 -0.19187251659920421 0 0.31867947963578902 -0.19784687875623841 0 0.31273131650314662 -0.19308994163935581 0 0.31894328223227031 -0.19187251659920421 0 0.31829874148889808 -0.18445363716334109 0 0.31894328223227031 -0.19187251659920421 0 0.32544783100097929 -0.1963219592480609 0 0.32125445375639983 -0.20566953596149881 0 0.31867947963578902 -0.19784687875623841 0 0.32544783100097929 -0.1963219592480609 0 0.31867947963578902 -0.19784687875623841 0 0.31894328223227031 -0.19187251659920421 0 0.32544783100097929 -0.1963219592480609 0 0.31412379042705901 -0.23499273852468669 0 0.33685260365343173 -0.2463088001313774 0 0.32654545347095221 -0.25186039630760082 0 0.31412379042705901 -0.23499273852468669 0 0.33685260365343173 -0.2463088001313774 0 0.31412379042705901 -0.23499273852468669 0 0.32654545347095221 -0.25186039630760082 0 0.31071280805396301 -0.25322095810988843 0 0.31412379042705901 -0.23499273852468669 0 0.33115021732720501 -0.2213153796897192 0 0.33685260365343173 -0.2463088001313774 0 0.31412379042705901 -0.23499273852468669 0 0.31320602035539857 -0.22240085411650501 0 0.33115021732720501 -0.2213153796897192 0 0.33115021732720501 -0.2213153796897192 0 0.33685260365343173 -0.2463088001313774 0 0.33115021732720501 -0.2213153796897192 0 0.33685260365343173 -0.2463088001313774 0 0.34804623417465941 -0.231915223107199 0 0.34919427722781782 -0.21411079365218549 0 0.33115021732720501 -0.2213153796897192 0 0.34804623417465941 -0.231915223107199 0 0.33685260365343173 -0.2463088001313774 0 0.33944546394251268 -0.24759971516845311 0 0.34804623417465941 -0.231915223107199 0 0.33944546394251268 -0.24759971516845311 0 0.34804623417465941 -0.231915223107199 0 0.33685260365343173 -0.2463088001313774 0 0.32654545347095221 -0.25186039630760082 0 0.33782242653950922 -0.25055951023045853 0 0.33685260365343173 -0.2463088001313774 0 0.33782242653950922 -0.25055951023045853 0 0.33685260365343173 -0.2463088001313774 0 0.33944546394251268 -0.24759971516845311 0 0.33782242653950922 -0.25055951023045853 0 0.33685260365343173 -0.2463088001313774 0 0.33944546394251268 -0.24759971516845311 0 0.33944546394251268 -0.24759971516845311 0 0.33782242653950922 -0.25055951023045853 0 0.33944546394251268 -0.24759971516845311 0 0.34930020236879228 -0.24140354895737459 0 0.34804623417465941 -0.231915223107199 0 0.33944546394251268 -0.24759971516845311 0 0.34930020236879228 -0.24140354895737459 0 0.35665706999084779 -0.24683748449447171 0 0.34930020236879228 -0.24140354895737459 0 0.35665706999084779 -0.24683748449447171 0 0.36337947908745982 -0.2351605420419412 0 0.34930020236879228 -0.24140354895737459 0 0.34804623417465941 -0.231915223107199 0 0.36337947908745982 -0.2351605420419412 0 0.34919427722781782 -0.21411079365218549 0 0.34804623417465941 -0.231915223107199 0 0.361994713882269 -0.22066574640683001 0 0.34804623417465941 -0.231915223107199 0 0.361994713882269 -0.22066574640683001 0 0.36337947908745982 -0.2351605420419412 0 0.37324002167403708 -0.2233365813548463 0 0.36337947908745982 -0.2351605420419412 0 0.37903636979621641 -0.23424517283508089 0 0.361994713882269 -0.22066574640683001 0 0.37324002167403708 -0.2233365813548463 0 0.36337947908745982 -0.2351605420419412 0 0.36938575523495981 -0.2129546954157579 0 0.361994713882269 -0.22066574640683001 0 0.37324002167403708 -0.2233365813548463 0 0.36337947908745982 -0.2351605420419412 0 0.37672301458721702 -0.24879166597254401 0 0.37903636979621641 -0.23424517283508089 0 0.35665706999084779 -0.24683748449447171 0 0.36337947908745982 -0.2351605420419412 0 0.37672301458721702 -0.24879166597254401 0 0.37672301458721702 -0.24879166597254401 0 0.3973952125896163 -0.24379175872089739 0 0.37903636979621641 -0.23424517283508089 0 0.3973952125896163 -0.24379175872089739 0 0.38486394136503671 -0.22567327498682799 0 0.37903636979621641 -0.23424517283508089 0 0.39372908096371623 -0.2173323402378867 0 0.40572550678857422 -0.21443440553658449 0 0.41361157874586418 -0.22656373092425211 0 0.3973952125896163 -0.24379175872089739 0 0.39372908096371623 -0.2173323402378867 0 0.41361157874586418 -0.22656373092425211 0 0.3973952125896163 -0.24379175872089739 0 0.38486394136503671 -0.22567327498682799 0 0.39372908096371623 -0.2173323402378867 0 0.3973952125896163 -0.24379175872089739 0 0.39372908096371623 -0.2173323402378867 0 0.39372908096371623 -0.2173323402378867 0 0.41361157874586418 -0.22656373092425211 0 0.37324002167403708 -0.2233365813548463 0 0.38486394136503671 -0.22567327498682799 0 0.37903636979621641 -0.23424517283508089 0 0.37324002167403708 -0.2233365813548463 0 0.38486394136503671 -0.22567327498682799 0 0.38077987067828128 -0.21132005644263979 0 0.38077987067828128 -0.21132005644263979 0 0.37947720105245142 -0.19891803980197861 0 0.38617757298634259 -0.20138970358339589 0 0.36940420716837608 -0.2025618654341283 0 0.38077987067828128 -0.21132005644263979 0 0.37947720105245142 -0.19891803980197861 0 0.38077987067828128 -0.21132005644263979 0 0.39001345001057142 -0.21067327489458379 0 0.39100278093874141 -0.2061220412469372 0 0.38077987067828128 -0.21132005644263979 0 0.38617757298634259 -0.20138970358339589 0 0.39100278093874141 -0.2061220412469372 0 0.38077987067828128 -0.21132005644263979 0 0.39001345001057142 -0.21067327489458379 0 0.39339308864599482 -0.21490739693282221 0 0.38077987067828128 -0.21132005644263979 0 0.39339308864599482 -0.21490739693282221 0 0.39372908096371623 -0.2173323402378867 0 0.38077987067828128 -0.21132005644263979 0 0.39372908096371623 -0.2173323402378867 0 0.38486394136503671 -0.22567327498682799 0 0.38077987067828128 -0.21132005644263979 0 0.39372908096371623 -0.2173323402378867 0 0.37569440289929701 -0.18908095338766351 0 0.38549636990362302 -0.19215003702582109 0 0.38530182081399911 -0.18137950340613079 0 0.37569440289929701 -0.18908095338766351 0 0.37947720105245142 -0.19891803980197861 0 0.38549636990362302 -0.19215003702582109 0 0.38617757298634259 -0.20138970358339589 0 0.38549636990362302 -0.19215003702582109 0 0.39322689945600398 -0.1975896843530687 0 0.37947720105245142 -0.19891803980197861 0 0.38617757298634259 -0.20138970358339589 0 0.38549636990362302 -0.19215003702582109 0 0.38617757298634259 -0.20138970358339589 0 0.39322689945600398 -0.1975896843530687 0 0.39100278093874141 -0.2061220412469372 0 0.38549636990362302 -0.19215003702582109 0 0.39278796046266617 -0.18906637912490321 0 0.39322689945600398 -0.1975896843530687 0 0.38549636990362302 -0.19215003702582109 0 0.39278796046266617 -0.18906637912490321 0 0.38530182081399911 -0.18137950340613079 0 0.39278796046266617 -0.18906637912490321 0 0.39322689945600398 -0.1975896843530687 0 0.40348603252509929 -0.19301792898597869 0 0.39278796046266617 -0.18906637912490321 0 0.40348603252509929 -0.19301792898597869 0 0.39642867961460559 -0.18119474185351669 0 0.39322689945600398 -0.1975896843530687 0 0.39100278093874141 -0.2061220412469372 0 0.39958065429805589 -0.20563543714296259 0 0.40348603252509929 -0.19301792898597869 0 0.39958065429805589 -0.20563543714296259 0 0.41304780708889022 -0.20596197442129649 0 0.39322689945600398 -0.1975896843530687 0 0.40348603252509929 -0.19301792898597869 0 0.39958065429805589 -0.20563543714296259 0 0.39339308864599482 -0.21490739693282221 0 0.3948780597792681 -0.2103436049559361 0 0.39847564232486399 -0.21323379251010449 0 0.39339308864599482 -0.21490739693282221 0 0.39372908096371623 -0.2173323402378867 0 0.39847564232486399 -0.21323379251010449 0 0.39339308864599482 -0.21490739693282221 0 0.39372908096371623 -0.2173323402378867 0 0.39001345001057142 -0.21067327489458379 0 0.39339308864599482 -0.21490739693282221 0 0.3948780597792681 -0.2103436049559361 0 0.39100278093874141 -0.2061220412469372 0 0.3948780597792681 -0.2103436049559361 0 0.39958065429805589 -0.20563543714296259 0 0.39001345001057142 -0.21067327489458379 0 0.39100278093874141 -0.2061220412469372 0 0.3948780597792681 -0.2103436049559361 0 0.3948780597792681 -0.2103436049559361 0 0.39958065429805589 -0.20563543714296259 0 0.39847564232486399 -0.21323379251010449 0 0.39958065429805589 -0.20563543714296259 0 0.40572550678857422 -0.21443440553658449 0 0.41304780708889022 -0.20596197442129649 0 0.39958065429805589 -0.20563543714296259 0 0.40572550678857422 -0.21443440553658449 0 0.39847564232486399 -0.21323379251010449 0 0.39372908096371623 -0.2173323402378867 0 0.40572550678857422 -0.21443440553658449 0 0.39847564232486399 -0.21323379251010449 0 0.40572550678857422 -0.21443440553658449 0 0.41304780708889022 -0.20596197442129649 0 0.41361157874586418 -0.22656373092425211 0 0.41304780708889022 -0.20596197442129649 0 0.43411054697041851 -0.20714353936092289 0 0.41361157874586418 -0.22656373092425211 0 0.40348603252509929 -0.19301792898597869 0 0.41304780708889022 -0.20596197442129649 0 0.41843954575400999 -0.19013032164706831 0 0.41304780708889022 -0.20596197442129649 0 0.41843954575400999 -0.19013032164706831 0 0.43411054697041851 -0.20714353936092289 0 0.40348603252509929 -0.19301792898597869 0 0.41843954575400999 -0.19013032164706831 0 0.40755478917084742 -0.18168949263246251 0 0.43411054697041851 -0.20714353936092289 0 0.43472701741282072 -0.178491957111234 0 0.41843954575400999 -0.19013032164706831 0 0.43411054697041851 -0.20714353936092289 0 0.43472701741282072 -0.178491957111234 0 0.43411054697041851 -0.20714353936092289 0 0.43349407652801503 -0.23579512161061181 0 0.41361157874586418 -0.22656373092425211 0 0.43411054697041851 -0.20714353936092289 0 0.43349407652801503 -0.23579512161061181 0 0.43349407652801503 -0.23579512161061181 0 0.41361157874586418 -0.22656373092425211 0 0.43349407652801503 -0.23579512161061181 0 0.42060738714082829 -0.24998755682490831 0 0.41361157874586418 -0.22656373092425211 0 0.43349407652801503 -0.23579512161061181 0 0.42060738714082829 -0.24998755682490831 0 0.4330183628140124 -0.257904779538356 0 0.43349407652801503 -0.23579512161061181 0 0.4330183628140124 -0.257904779538356 0 0.43349407652801503 -0.23579512161061181 0 0.44419334338856431 -0.25303554784386001 0 0.4330183628140124 -0.257904779538356 0 0.3973952125896163 -0.24379175872089739 0 0.4087190745768125 -0.2497113282607418 0 0.41361157874586418 -0.22656373092425211 0 0.42060738714082829 -0.24998755682490831 0 0.4087190745768125 -0.2497113282607418 0 0.41361157874586418 -0.22656373092425211 0 0.40315076589356452 -0.12889937872394999 0 0.39235665506414469 -0.138376061662455 0 0.40558629314776301 -0.1443196897469827 0 0.40315076589356452 -0.12889937872394999 0 0.39235665506414469 -0.138376061662455 0 0.38767074651732192 -0.12655120065739819 0 0.36933840742977242 -0.12537698317616569 0 0.38767074651732192 -0.12655120065739819 0 0.37927479843875939 -0.13639819909812231 0 0.39235665506414469 -0.138376061662455 0 0.37927479843875939 -0.13639819909812231 0 0.38481243903985979 -0.14512539508184119 0 0.39235665506414469 -0.138376061662455 0 0.38767074651732192 -0.12655120065739819 0 0.37927479843875939 -0.13639819909812231 0 0.39235665506414469 -0.138376061662455 0 0.38481243903985979 -0.14512539508184119 0 0.39470292202027579 -0.14971752780875169 0 0.37927479843875939 -0.13639819909812231 0 0.38481243903985979 -0.14512539508184119 0 0.37533467357446471 -0.14470738300536351 0 0.38481243903985979 -0.14512539508184119 0 0.37533467357446471 -0.14470738300536351 0 0.37936738043850132 -0.15160285791263661 0 0.38481243903985979 -0.14512539508184119 0 0.38778198957037502 -0.15584137474660351 0 0.39470292202027579 -0.14971752780875169 0 0.38481243903985979 -0.14512539508184119 0 0.37936738043850132 -0.15160285791263661 0 0.38778198957037502 -0.15584137474660351 0 0.38778198957037502 -0.15584137474660351 0 0.39470292202027579 -0.14971752780875169 0 0.3955348941036812 -0.15966688315301569 0 0.39470292202027579 -0.14971752780875169 0 0.40362721187313921 -0.15729492227249511 0 0.3955348941036812 -0.15966688315301569 0 0.39235665506414469 -0.138376061662455 0 0.39470292202027579 -0.14971752780875169 0 0.40558629314776301 -0.1443196897469827 0 0.39470292202027579 -0.14971752780875169 0 0.40558629314776301 -0.1443196897469827 0 0.40362721187313921 -0.15729492227249511 0 0.40362721187313921 -0.15729492227249511 0 0.40202970432080593 -0.1695952493269148 0 0.3955348941036812 -0.15966688315301569 0 0.40202970432080593 -0.1695952493269148 0 0.39102987554714458 -0.16641284232356929 0 0.39070986731134899 -0.17459663710282389 0 0.40202970432080593 -0.1695952493269148 0 0.39102987554714458 -0.16641284232356929 0 0.3955348941036812 -0.15966688315301569 0 0.38778198957037502 -0.15584137474660351 0 0.39102987554714458 -0.16641284232356929 0 0.3955348941036812 -0.15966688315301569 0 0.38778198957037502 -0.15584137474660351 0 0.39102987554714458 -0.16641284232356929 0 0.38124442627278782 -0.1625227421998067 0 0.37936738043850132 -0.15160285791263661 0 0.38778198957037502 -0.15584137474660351 0 0.38124442627278782 -0.1625227421998067 0 0.37206785749971077 -0.16101989254045621 0 0.37936738043850132 -0.15160285791263661 0 0.38124442627278782 -0.1625227421998067 0 0.37206785749971077 -0.16101989254045621 0 0.37477023193034043 -0.17018223131065499 0 0.38124442627278782 -0.1625227421998067 0 0.37477023193034043 -0.17018223131065499 0 0.38124442627278782 -0.1625227421998067 0 0.38333724145801962 -0.17220009260963021 0 0.39102987554714458 -0.16641284232356929 0 0.38124442627278782 -0.1625227421998067 0 0.38333724145801962 -0.17220009260963021 0 0.39102987554714458 -0.16641284232356929 0 0.38333724145801962 -0.17220009260963021 0 0.39070986731134899 -0.17459663710282389 0 0.38333724145801962 -0.17220009260963021 0 0.38530182081399911 -0.18137950340613079 0 0.39070986731134899 -0.17459663710282389 0 0.38333724145801962 -0.17220009260963021 0 0.37696722687249701 -0.17810659931479569 0 0.38530182081399911 -0.18137950340613079 0 0.37477023193034043 -0.17018223131065499 0 0.38333724145801962 -0.17220009260963021 0 0.37696722687249701 -0.17810659931479569 0 0.37569440289929701 -0.18908095338766351 0 0.37696722687249701 -0.17810659931479569 0 0.38530182081399911 -0.18137950340613079 0 0.39278796046266617 -0.18906637912490321 0 0.38530182081399911 -0.18137950340613079 0 0.39642867961460559 -0.18119474185351669 0 0.38530182081399911 -0.18137950340613079 0 0.39642867961460559 -0.18119474185351669 0 0.39070986731134899 -0.17459663710282389 0 0.40202970432080593 -0.1695952493269148 0 0.39642867961460559 -0.18119474185351669 0 0.39070986731134899 -0.17459663710282389 0 0.40202970432080593 -0.1695952493269148 0 0.39642867961460559 -0.18119474185351669 0 0.40755478917084742 -0.18168949263246251 0 0.40348603252509929 -0.19301792898597869 0 0.39642867961460559 -0.18119474185351669 0 0.40755478917084742 -0.18168949263246251 0 0.40202970432080593 -0.1695952493269148 0 0.40755478917084742 -0.18168949263246251 0 0.41803217907225121 -0.1744448533921969 0 0.41843954575400999 -0.19013032164706831 0 0.40755478917084742 -0.18168949263246251 0 0.41803217907225121 -0.1744448533921969 0 0.41843954575400999 -0.19013032164706831 0 0.41803217907225121 -0.1744448533921969 0 0.43472701741282072 -0.178491957111234 0 0.41803217907225121 -0.1744448533921969 0 0.43472701741282072 -0.178491957111234 0 0.42466005243914351 -0.16341965727025981 0 0.43472701741282072 -0.178491957111234 0 0.42466005243914351 -0.16341965727025981 0 0.43534348785522292 -0.14984037486154531 0 0.43472701741282072 -0.178491957111234 0 0.43534348785522292 -0.14984037486154531 0 0.42466005243914351 -0.16341965727025981 0 0.41357801116924608 -0.16162353051233549 0 0.42071490682801171 -0.15224602451033309 0 0.40202970432080593 -0.1695952493269148 0 0.41803217907225121 -0.1744448533921969 0 0.41357801116924608 -0.16162353051233549 0 0.41803217907225121 -0.1744448533921969 0 0.42466005243914351 -0.16341965727025981 0 0.41357801116924608 -0.16162353051233549 0 0.40362721187313921 -0.15729492227249511 0 0.41357801116924608 -0.16162353051233549 0 0.41153058143579252 -0.15188377239260459 0 0.40362721187313921 -0.15729492227249511 0 0.40202970432080593 -0.1695952493269148 0 0.41357801116924608 -0.16162353051233549 0 0.40558629314776301 -0.1443196897469827 0 0.40362721187313921 -0.15729492227249511 0 0.41153058143579252 -0.15188377239260459 0 0.40558629314776301 -0.1443196897469827 0 0.41153058143579252 -0.15188377239260459 0 0.4146347222802339 -0.14492349157750081 0 0.40558629314776301 -0.1443196897469827 0 0.4146347222802339 -0.14492349157750081 0 0.41386404347115252 -0.13602350937805521 0 0.4146347222802339 -0.14492349157750081 0 0.42071490682801171 -0.15224602451033309 0 0.42245426275731351 -0.14212205517277671 0 0.4146347222802339 -0.14492349157750081 0 0.42245426275731351 -0.14212205517277671 0 0.41386404347115252 -0.13602350937805521 0 0.41153058143579252 -0.15188377239260459 0 0.4146347222802339 -0.14492349157750081 0 0.42071490682801171 -0.15224602451033309 0 0.41357801116924608 -0.16162353051233549 0 0.41153058143579252 -0.15188377239260459 0 0.42071490682801171 -0.15224602451033309 0 0.42466005243914351 -0.16341965727025981 0 0.42071490682801171 -0.15224602451033309 0 0.43534348785522292 -0.14984037486154531 0 0.42071490682801171 -0.15224602451033309 0 0.43534348785522292 -0.14984037486154531 0 0.42245426275731351 -0.14212205517277671 0 0.43534348785522292 -0.14984037486154531 0 0.42245426275731351 -0.14212205517277671 0 0.42804835664617058 -0.1379993207003534 0 0.43534348785522292 -0.14984037486154531 0 0.42804835664617058 -0.1379993207003534 0 0.43003812124509899 -0.13015238112980959 0 0.43595995829762513 -0.1211887926118566 0 0.43534348785522292 -0.14984037486154531 0 0.43003812124509899 -0.13015238112980959 0 0.42245426275731351 -0.14212205517277671 0 0.42804835664617058 -0.1379993207003534 0 0.42260829758252172 -0.13268840666549631 0 0.42804835664617058 -0.1379993207003534 0 0.43003812124509899 -0.13015238112980959 0 0.42260829758252172 -0.13268840666549631 0 0.43595995829762513 -0.1211887926118566 0 0.43534348785522292 -0.14984037486154531 0 0.42401600644171938 -0.12286193192251001 0 0.42966419740269751 -0.12230215386284191 0 0.43003812124509899 -0.13015238112980959 0 0.42401600644171938 -0.12286193192251001 0 0.43003812124509899 -0.13015238112980959 0 0.42260829758252172 -0.13268840666549631 0 0.42260829758252172 -0.13268840666549631 0 0.41469705803584811 -0.12530176831054421 0 0.41386404347115252 -0.13602350937805521 0 0.42401600644171938 -0.12286193192251001 0 0.42260829758252172 -0.13268840666549631 0 0.41469705803584811 -0.12530176831054421 0 0.42245426275731351 -0.14212205517277671 0 0.42260829758252172 -0.13268840666549631 0 0.41386404347115252 -0.13602350937805521 0 0.40315076589356452 -0.12889937872394999 0 0.40558629314776301 -0.1443196897469827 0 0.41386404347115252 -0.13602350937805521 0 0.40315076589356452 -0.12889937872394999 0 0.41469705803584811 -0.12530176831054421 0 0.41386404347115252 -0.13602350937805521 0 0.45735510069358182 -0.13748563016374191 0 0.45230690512834848 -0.12781912004790591 0 0.45249301214388188 -0.1451566067414701 0 0.46564809288554548 -0.12863056409926921 0 0.46583820349549798 -0.14034970000957511 0 0.45735510069358182 -0.13748563016374191 0 0.46583820349549798 -0.14034970000957511 0 0.45735510069358182 -0.13748563016374191 0 0.46051755110314202 -0.14401363776782899 0 0.46564809288554548 -0.12863056409926921 0 0.45735510069358182 -0.13748563016374191 0 0.45671655298681108 -0.12892141324890261 0 0.45852276292261668 -0.1235958146492238 0 0.46564809288554548 -0.12863056409926921 0 0.45671655298681108 -0.12892141324890261 0 0.45735510069358182 -0.13748563016374191 0 0.45671655298681108 -0.12892141324890261 0 0.45230690512834848 -0.12781912004790591 0 0.45852276292261668 -0.1235958146492238 0 0.45671655298681108 -0.12892141324890261 0 0.45230690512834848 -0.12781912004790591 0 0.44155739733164118 -0.1215430272924946 0 0.45249301214388188 -0.1451566067414701 0 0.4459239556491007 -0.14127225651101011 0 0.44155739733164118 -0.1215430272924946 0 0.45230690512834848 -0.12781912004790591 0 0.45249301214388188 -0.1451566067414701 0 0.44155739733164118 -0.1215430272924946 0 0.43595995829762513 -0.1211887926118566 0 0.4459239556491007 -0.14127225651101011 0 0.44155739733164118 -0.1215430272924946 0 0.4459239556491007 -0.14127225651101011 0 0.44155739733164118 -0.1215430272924946 0 0.45249301214388188 -0.1451566067414701 0 0.43595995829762513 -0.1211887926118566 0 0.43534348785522292 -0.14984037486154531 0 0.4459239556491007 -0.14127225651101011 0 0.4459239556491007 -0.14127225651101011 0 0.45029051396656028 -0.16100148572952569 0 0.45249301214388188 -0.1451566067414701 0 0.4459239556491007 -0.14127225651101011 0 0.45029051396656028 -0.16100148572952569 0 0.43534348785522292 -0.14984037486154531 0 0.4459239556491007 -0.14127225651101011 0 0.45029051396656028 -0.16100148572952569 0 0.45249301214388188 -0.1451566067414701 0 0.46638388807960651 -0.1530626141565288 0 0.46342862695612252 -0.16877018619044559 0 0.45735510069358182 -0.13748563016374191 0 0.45249301214388188 -0.1451566067414701 0 0.46051755110314202 -0.14401363776782899 0 0.45249301214388188 -0.1451566067414701 0 0.46051755110314202 -0.14401363776782899 0 0.46638388807960651 -0.1530626141565288 0 0.46583820349549798 -0.14034970000957511 0 0.46051755110314202 -0.14401363776782899 0 0.46638388807960651 -0.1530626141565288 0 0.45249301214388188 -0.1451566067414701 0 0.46342862695612252 -0.16877018619044559 0 0.46638388807960651 -0.1530626141565288 0 0.46342862695612252 -0.16877018619044559 0 0.47609937834064819 -0.1657539748596322 0 0.45249301214388188 -0.1451566067414701 0 0.46342862695612252 -0.16877018619044559 0 0.45029051396656028 -0.16100148572952569 0 0.46342862695612252 -0.16877018619044559 0 0.45029051396656028 -0.16100148572952569 0 0.45202750898867738 -0.18558598130110701 0 0.43472701741282072 -0.178491957111234 0 0.43534348785522292 -0.14984037486154531 0 0.45029051396656028 -0.16100148572952569 0 0.43472701741282072 -0.178491957111234 0 0.45029051396656028 -0.16100148572952569 0 0.45202750898867738 -0.18558598130110701 0 0.46342862695612252 -0.16877018619044559 0 0.45202750898867738 -0.18558598130110701 0 0.47156814532679009 -0.1927716788127318 0 0.5 -0.15730045814164781 0 0.47609937834064819 -0.1657539748596322 0 0.47156814532679009 -0.1927716788127318 0 0.46342862695612252 -0.16877018619044559 0 0.47609937834064819 -0.1657539748596322 0 0.47156814532679009 -0.1927716788127318 0 0.47609937834064819 -0.1657539748596322 0 0.47156814532679009 -0.1927716788127318 0 0.5 -0.1157955659525326 0 0.5 -0.15730045814164781 0 0.48063061135450619 -0.1387362709065327 0 0.47609937834064819 -0.1657539748596322 0 0.48063061135450619 -0.1387362709065327 0 0.46638388807960651 -0.1530626141565288 0 0.47609937834064819 -0.1657539748596322 0 0.48063061135450619 -0.1387362709065327 0 0.46583820349549798 -0.14034970000957511 0 0.46638388807960651 -0.1530626141565288 0 0.48063061135450619 -0.1387362709065327 0 0.5 -0.15730045814164781 0 0.47609937834064819 -0.1657539748596322 0 0.48063061135450619 -0.1387362709065327 0 0.47327779786886198 -0.12092666891404261 0 0.46564809288554548 -0.12863056409926921 0 0.48063061135450619 -0.1387362709065327 0 0.4851618443683644 -0.1117185669534331 0 0.48063061135450619 -0.1387362709065327 0 0.46564809288554548 -0.12863056409926921 0 0.46583820349549798 -0.14034970000957511 0 0.48063061135450619 -0.1387362709065327 0 0.45836587297538439 -0.22583757282115741 0 0.46703691231293198 -0.2197893827658314 0 0.45093083342036411 -0.22071135708031689 0 0.45717671605450039 -0.2335121760558154 0 0.45836587297538439 -0.22583757282115741 0 0.46607061642802572 -0.22555097041088301 0 0.45717671605450039 -0.2335121760558154 0 0.45836587297538439 -0.22583757282115741 0 0.45157021704082462 -0.23108396848324159 0 0.45836587297538439 -0.22583757282115741 0 0.45157021704082462 -0.23108396848324159 0 0.45093083342036411 -0.22071135708031689 0 0.45836587297538439 -0.22583757282115741 0 0.46703691231293198 -0.2197893827658314 0 0.46607061642802572 -0.22555097041088301 0 0.46703691231293198 -0.2197893827658314 0 0.46607061642802572 -0.22555097041088301 0 0.45717671605450039 -0.2335121760558154 0 0.46607061642802572 -0.22555097041088301 0 0.45647705107458492 -0.24646605538859381 0 0.46607061642802572 -0.22555097041088301 0 0.46250567929907382 -0.24680708671893101 0 0.46607061642802572 -0.22555097041088301 0 0.45647705107458492 -0.24646605538859381 0 0.46607061642802572 -0.22555097041088301 0 0.46250567929907382 -0.24680708671893101 0 0.45647705107458492 -0.24646605538859381 0 0.45717671605450039 -0.2335121760558154 0 0.45384274261745589 -0.2390676871648314 0 0.45157021704082462 -0.23108396848324159 0 0.45717671605450039 -0.2335121760558154 0 0.45647705107458492 -0.24646605538859381 0 0.45384274261745589 -0.2390676871648314 0 0.43349407652801503 -0.23579512161061181 0 0.45647705107458492 -0.24646605538859381 0 0.45384274261745589 -0.2390676871648314 0 0.43349407652801503 -0.23579512161061181 0 0.45647705107458492 -0.24646605538859381 0 0.43349407652801503 -0.23579512161061181 0 0.45647705107458492 -0.24646605538859381 0 0.44419334338856431 -0.25303554784386001 0 0.43349407652801503 -0.23579512161061181 0 0.45384274261745589 -0.2390676871648314 0 0.45157021704082462 -0.23108396848324159 0 0.43411054697041851 -0.20714353936092289 0 0.43349407652801503 -0.23579512161061181 0 0.45093083342036411 -0.22071135708031689 0 0.43349407652801503 -0.23579512161061181 0 0.45157021704082462 -0.23108396848324159 0 0.45093083342036411 -0.22071135708031689 0 0.43411054697041851 -0.20714353936092289 0 0.45093083342036411 -0.22071135708031689 0 0.45535828278041451 -0.20521089961322811 0 0.43411054697041851 -0.20714353936092289 0 0.45202750898867738 -0.18558598130110701 0 0.45535828278041451 -0.20521089961322811 0 0.43411054697041851 -0.20714353936092289 0 0.43472701741282072 -0.178491957111234 0 0.45202750898867738 -0.18558598130110701 0 0.45202750898867738 -0.18558598130110701 0 0.45535828278041451 -0.20521089961322811 0 0.47156814532679009 -0.1927716788127318 0 0.46703691231293198 -0.2197893827658314 0 0.45535828278041451 -0.20521089961322811 0 0.47156814532679009 -0.1927716788127318 0 0.46703691231293198 -0.2197893827658314 0 0.45093083342036411 -0.22071135708031689 0 0.45535828278041451 -0.20521089961322811 0 0.46703691231293198 -0.2197893827658314 0 0.5 -0.21334511590057151 0 0.47156814532679009 -0.1927716788127318 0 0.46703691231293198 -0.2197893827658314 0 0.47156814532679009 -0.1927716788127318 0 0.5 -0.15730045814164781 0 0.5 -0.21334511590057151 0 0.47156814532679009 -0.1927716788127318 0 0.46250567929907382 -0.24680708671893101 0 0.5 -0.21334511590057151 0 0.47877394920403449 -0.2613294679601465 0 0.46703691231293198 -0.2197893827658314 0 0.46607061642802572 -0.22555097041088301 0 0.5 -0.21334511590057151 0 0.46607061642802572 -0.22555097041088301 0 0.46250567929907382 -0.24680708671893101 0 0.5 -0.21334511590057151 0 0.5 -0.21334511590057151 0 0.47877394920403449 -0.2613294679601465 0 0.5 -0.28901189165706631 0 0.47877394920403449 -0.2613294679601465 0 0.47338962043588462 -0.28365845485213342 0 0.5 -0.28901189165706631 0 0.47877394920403449 -0.2613294679601465 0 0.457974446285214 -0.2738247906720303 0 0.47338962043588462 -0.28365845485213342 0 0.46250567929907382 -0.24680708671893101 0 0.457974446285214 -0.2738247906720303 0 0.44779979316313367 -0.26733416520303011 0 0.46250567929907382 -0.24680708671893101 0 0.47877394920403449 -0.2613294679601465 0 0.457974446285214 -0.2738247906720303 0 0.46250567929907382 -0.24680708671893101 0 0.45647705107458492 -0.24646605538859381 0 0.44779979316313367 -0.26733416520303011 0 0.46250567929907382 -0.24680708671893101 0 0.457974446285214 -0.2738247906720303 0 0.457974446285214 -0.2738247906720303 0 0.47338962043588462 -0.28365845485213342 0 0.457974446285214 -0.2738247906720303 0 0.44779979316313367 -0.26733416520303011 0 0.4493134435977692 -0.27677943440580488 0 0.44779979316313367 -0.26733416520303011 0 0.44070530085073262 -0.28409224241375791 0 0.44779979316313367 -0.26733416520303011 0 0.43928189036785509 -0.27058531200912328 0 0.44070530085073262 -0.28409224241375791 0 0.44779979316313367 -0.26733416520303011 0 0.4493134435977692 -0.27677943440580488 0 0.44070530085073262 -0.28409224241375791 0 0.457974446285214 -0.2738247906720303 0 0.44779979316313367 -0.26733416520303011 0 0.4493134435977692 -0.27677943440580488 0 0.44070530085073262 -0.28409224241375791 0 0.45077423409199668 -0.28186653933440159 0 0.457974446285214 -0.2738247906720303 0 0.4493134435977692 -0.27677943440580488 0 0.45077423409199668 -0.28186653933440159 0 0.43928189036785509 -0.27058531200912328 0 0.44070530085073262 -0.28409224241375791 0 0.43558883646162477 -0.27737960603493678 0 0.44070530085073262 -0.28409224241375791 0 0.43558883646162477 -0.27737960603493678 0 0.45647705107458492 -0.24646605538859381 0 0.44779979316313367 -0.26733416520303011 0 0.44779979316313367 -0.26733416520303011 0 0.4330183628140124 -0.257904779538356 0 0.45647705107458492 -0.24646605538859381 0 0.44779979316313367 -0.26733416520303011 0 0.44419334338856431 -0.25303554784386001 0 0.44779979316313367 -0.26733416520303011 0 0.43928189036785509 -0.27058531200912328 0 0.4330183628140124 -0.257904779538356 0 0.44779979316313367 -0.26733416520303011 0 0.44419334338856431 -0.25303554784386001 0 0.4330183628140124 -0.257904779538356 0 0.44282426803510277 -0.30038533326724048 0 0.44070530085073262 -0.28409224241375791 0 0.43031337330776792 -0.30863927361272397 0 0.44381487606661402 -0.31057411655831868 0 0.45538517562963537 -0.30335176500268352 0 0.45524068180283012 -0.31531018252620169 0 0.44381487606661402 -0.31057411655831868 0 0.44282426803510277 -0.30038533326724048 0 0.45538517562963537 -0.30335176500268352 0 0.44381487606661402 -0.31057411655831868 0 0.44282426803510277 -0.30038533326724048 0 0.43031337330776792 -0.30863927361272397 0 0.44070530085073262 -0.28409224241375791 0 0.45455172836917379 -0.29423291779499522 0 0.45538517562963537 -0.30335176500268352 0 0.44070530085073262 -0.28409224241375791 0 0.45538517562963537 -0.30335176500268352 0 0.44282426803510277 -0.30038533326724048 0 0.44070530085073262 -0.28409224241375791 0 0.45538517562963537 -0.30335176500268352 0 0.44070530085073262 -0.28409224241375791 0 0.45077423409199668 -0.28186653933440159 0 0.45455172836917379 -0.29423291779499522 0 0.457974446285214 -0.2738247906720303 0 0.45455172836917379 -0.29423291779499522 0 0.457974446285214 -0.2738247906720303 0 0.45455172836917379 -0.29423291779499522 0 0.46234424907634442 -0.28629082923132448 0 0.45455172836917379 -0.29423291779499522 0 0.46234424907634442 -0.28629082923132448 0 0.46346120121510531 -0.2934471536061391 0 0.457974446285214 -0.2738247906720303 0 0.45077423409199668 -0.28186653933440159 0 0.45455172836917379 -0.29423291779499522 0 0.457974446285214 -0.2738247906720303 0 0.46234424907634442 -0.28629082923132448 0 0.47338962043588462 -0.28365845485213342 0 0.46234424907634442 -0.28629082923132448 0 0.46346120121510531 -0.2934471536061391 0 0.47338962043588462 -0.28365845485213342 0 0.46346120121510531 -0.2934471536061391 0 0.45538517562963537 -0.30335176500268352 0 0.47225462780709437 -0.30104776430745411 0 0.45538517562963537 -0.30335176500268352 0 0.47225462780709437 -0.30104776430745411 0 0.47006505040853969 -0.32261128759160818 0 0.45455172836917379 -0.29423291779499522 0 0.46346120121510531 -0.2934471536061391 0 0.45538517562963537 -0.30335176500268352 0 0.47225462780709437 -0.30104776430745411 0 0.48880479458655779 -0.29349211903223249 0 0.47006505040853969 -0.32261128759160818 0 0.5 -0.28901189165706631 0 0.48880479458655779 -0.29349211903223249 0 0.48474492518744389 -0.34187081018053289 0 0.47225462780709437 -0.30104776430745411 0 0.47338962043588462 -0.28365845485213342 0 0.48880479458655779 -0.29349211903223249 0 0.46346120121510531 -0.2934471536061391 0 0.47225462780709437 -0.30104776430745411 0 0.47338962043588462 -0.28365845485213342 0 0.47338962043588462 -0.28365845485213342 0 0.48880479458655779 -0.29349211903223249 0 0.47338962043588462 -0.28365845485213342 0 0.5 -0.28901189165706631 0 0.48880479458655779 -0.29349211903223249 0 0.48880479458655779 -0.29349211903223249 0 0.48474492518744389 -0.34187081018053289 0 0.47006505040853969 -0.32261128759160818 0 0.5 -0.28901189165706631 0 0.48474492518744389 -0.34187081018053289 0 0.5 -0.39015304902202891 0 0.48474492518744389 -0.34187081018053289 0 0.47006505040853969 -0.32261128759160818 0 0.48474492518744389 -0.34187081018053289 0 0.47006505040853969 -0.32261128759160818 0 0.45657762850408362 -0.34508589279332952 0 0.48474492518744389 -0.34187081018053289 0 0.46926535097693128 -0.36506249466282309 0 0.5 -0.39015304902202891 0 0.48474492518744389 -0.34187081018053289 0 0.46926535097693128 -0.36506249466282309 0 0.45657762850408362 -0.34508589279332952 0 0.46926535097693128 -0.36506249466282309 0 0.45657762850408362 -0.34508589279332952 0 0.45216000120187583 -0.36925785966150781 0 0.46926535097693128 -0.36506249466282309 0 0.45216000120187583 -0.36925785966150781 0 0.46751625200281788 -0.38515548735985061 0 0.45657762850408362 -0.34508589279332952 0 0.44049332843598799 -0.35640700658967389 0 0.45216000120187583 -0.36925785966150781 0 0.45657762850408362 -0.34508589279332952 0 0.43790027896486999 -0.34410658215301182 0 0.44049332843598799 -0.35640700658967389 0 0.44049332843598799 -0.35640700658967389 0 0.45216000120187583 -0.36925785966150781 0 0.43724297958625208 -0.37753688457051032 0 0.47006505040853969 -0.32261128759160818 0 0.45524068180283012 -0.31531018252620169 0 0.45169762510653111 -0.32470356095219671 0 0.45538517562963537 -0.30335176500268352 0 0.47006505040853969 -0.32261128759160818 0 0.45524068180283012 -0.31531018252620169 0 0.45538517562963537 -0.30335176500268352 0 0.47006505040853969 -0.32261128759160818 0 0.47006505040853969 -0.32261128759160818 0 0.45657762850408362 -0.34508589279332952 0 0.45169762510653111 -0.32470356095219671 0 0.45657762850408362 -0.34508589279332952 0 0.43790027896486999 -0.34410658215301182 0 0.44320619060737371 -0.333989446084337 0 0.45657762850408362 -0.34508589279332952 0 0.44320619060737371 -0.333989446084337 0 0.45169762510653111 -0.32470356095219671 0 0.43790027896486999 -0.34410658215301182 0 0.44320619060737371 -0.333989446084337 0 0.43287856860754897 -0.33394107548558771 0 0.44320619060737371 -0.333989446084337 0 0.43690687187107291 -0.32251596217232831 0 0.43287856860754897 -0.33394107548558771 0 0.44320619060737371 -0.333989446084337 0 0.45169762510653111 -0.32470356095219671 0 0.43690687187107291 -0.32251596217232831 0 0.44381487606661402 -0.31057411655831868 0 0.45524068180283012 -0.31531018252620169 0 0.45169762510653111 -0.32470356095219671 0 0.44381487606661402 -0.31057411655831868 0 0.45169762510653111 -0.32470356095219671 0 0.43690687187107291 -0.32251596217232831 0 0.41992144576480239 -0.3331863048116897 0 0.43031337330776792 -0.30863927361272397 0 0.43690687187107291 -0.32251596217232831 0 0.41992144576480239 -0.3331863048116897 0 0.43031337330776792 -0.30863927361272397 0 0.44381487606661402 -0.31057411655831868 0 0.43690687187107291 -0.32251596217232831 0 0.43031337330776792 -0.30863927361272397 0 0.43287856860754897 -0.33394107548558771 0 0.41710474156102439 -0.33568870858729849 0 0.41992144576480239 -0.3331863048116897 0 0.43690687187107291 -0.32251596217232831 0 0.43287856860754897 -0.33394107548558771 0 0.41992144576480239 -0.3331863048116897 0 0.43287856860754897 -0.33394107548558771 0 0.41710474156102439 -0.33568870858729849 0 0.43287856860754897 -0.33394107548558771 0 0.42646555170307471 -0.34045641009412392 0 0.41710474156102439 -0.33568870858729849 0 0.43790027896486999 -0.34410658215301182 0 0.43287856860754897 -0.33394107548558771 0 0.42646555170307471 -0.34045641009412392 0 0.41710474156102439 -0.33568870858729849 0 0.41992144576480239 -0.3331863048116897 0 0.41398914193898112 -0.32569256401282348 0 0.41710474156102439 -0.33568870858729849 0 0.40133091451449981 -0.33743634168900921 0 0.41710474156102439 -0.33568870858729849 0 0.41398914193898112 -0.32569256401282348 0 0.40133091451449981 -0.33743634168900921 0 0.41710474156102439 -0.33568870858729849 0 0.41218661264157319 -0.34899227608957772 0 0.40133091451449981 -0.33743634168900921 0 0.42646555170307471 -0.34045641009412392 0 0.41710474156102439 -0.33568870858729849 0 0.42001671868967289 -0.34506396843977721 0 0.41710474156102439 -0.33568870858729849 0 0.42001671868967289 -0.34506396843977721 0 0.41218661264157319 -0.34899227608957772 0 0.40627799794393937 -0.32236216919152988 0 0.41398914193898112 -0.32569256401282348 0 0.40133091451449981 -0.33743634168900921 0 0.41992144576480239 -0.3331863048116897 0 0.41398914193898112 -0.32569256401282348 0 0.43031337330776792 -0.30863927361272397 0 0.41398914193898112 -0.32569256401282348 0 0.43031337330776792 -0.30863927361272397 0 0.41134197970401037 -0.31093648218773168 0 0.40627799794393937 -0.32236216919152988 0 0.41398914193898112 -0.32569256401282348 0 0.41134197970401037 -0.31093648218773168 0 0.44049332843598799 -0.35640700658967389 0 0.42518309060006382 -0.37019068555879803 0 0.43724297958625208 -0.37753688457051032 0 0.44049332843598799 -0.35640700658967389 0 0.42518309060006382 -0.37019068555879803 0 0.42125670489438188 -0.35723651617475649 0 0.44049332843598799 -0.35640700658967389 0 0.42518309060006382 -0.37019068555879803 0 0.44049332843598799 -0.35640700658967389 0 0.42747343650526493 -0.3474914039925352 0 0.42125670489438188 -0.35723651617475649 0 0.43790027896486999 -0.34410658215301182 0 0.44049332843598799 -0.35640700658967389 0 0.42747343650526493 -0.3474914039925352 0 0.43790027896486999 -0.34410658215301182 0 0.42646555170307471 -0.34045641009412392 0 0.42747343650526493 -0.3474914039925352 0 0.42747343650526493 -0.3474914039925352 0 0.42001671868967289 -0.34506396843977721 0 0.42125670489438188 -0.35723651617475649 0 0.42646555170307471 -0.34045641009412392 0 0.42747343650526493 -0.3474914039925352 0 0.42001671868967289 -0.34506396843977721 0 0.41218661264157319 -0.34899227608957772 0 0.40667180643118378 -0.36653448577935271 0 0.40133091451449981 -0.33743634168900921 0 0.41218661264157319 -0.34899227608957772 0 0.42125670489438188 -0.35723651617475649 0 0.40667180643118378 -0.36653448577935271 0 0.41218661264157319 -0.34899227608957772 0 0.40667180643118378 -0.36653448577935271 0 0.42001671868967289 -0.34506396843977721 0 0.41218661264157319 -0.34899227608957772 0 0.42125670489438188 -0.35723651617475649 0 0.42518309060006382 -0.37019068555879803 0 0.42125670489438188 -0.35723651617475649 0 0.40667180643118378 -0.36653448577935271 0 0.42518309060006382 -0.37019068555879803 0 0.40667180643118378 -0.36653448577935271 0 0.40987285276413959 -0.38397436452792211 0 0.40667180643118378 -0.36653448577935271 0 0.38811578495972909 -0.36135373948894051 0 0.38909492009491031 -0.37589311409485771 0 0.40667180643118378 -0.36653448577935271 0 0.40133091451449981 -0.33743634168900921 0 0.40667180643118378 -0.36653448577935271 0 0.39057026422823232 -0.3488108457609852 0 0.38811578495972909 -0.36135373948894051 0 0.40667180643118378 -0.36653448577935271 0 0.39057026422823232 -0.3488108457609852 0 0.40133091451449981 -0.33743634168900921 0 0.39057026422823232 -0.3488108457609852 0 0.37943243478071031 -0.35354406210900052 0 0.37824998550195549 -0.33999355215173233 0 0.39057026422823232 -0.3488108457609852 0 0.37943243478071031 -0.35354406210900052 0 0.38811578495972909 -0.36135373948894051 0 0.37943243478071031 -0.35354406210900052 0 0.38811578495972909 -0.36135373948894051 0 0.37695186048652118 -0.36885426210637501 0 0.38811578495972909 -0.36135373948894051 0 0.37695186048652118 -0.36885426210637501 0 0.38909492009491031 -0.37589311409485771 0 0.39681057181036311 -0.31280869795560629 0 0.40133091451449981 -0.33743634168900921 0 0.40627799794393937 -0.32236216919152988 0 0.39681057181036311 -0.31280869795560629 0 0.40133091451449981 -0.33743634168900921 0 0.39681057181036311 -0.31280869795560629 0 0.40133091451449981 -0.33743634168900921 0 0.39111716067476748 -0.32878050971666167 0 0.39681057181036311 -0.31280869795560629 0 0.39111716067476748 -0.32878050971666167 0 0.38656582044377019 -0.31773067385827941 0 0.40627799794393937 -0.32236216919152988 0 0.39681057181036311 -0.31280869795560629 0 0.41134197970401037 -0.31093648218773168 0 0.40133091451449981 -0.33743634168900921 0 0.37824998550195549 -0.33999355215173233 0 0.40133091451449981 -0.33743634168900921 0 0.39111716067476748 -0.32878050971666167 0 0.37824998550195549 -0.33999355215173233 0 0.39111716067476748 -0.32878050971666167 0 0.37824998550195549 -0.33999355215173233 0 0.38057046934759559 -0.33132220354073461 0 0.39057026422823232 -0.3488108457609852 0 0.40133091451449981 -0.33743634168900921 0 0.37824998550195549 -0.33999355215173233 0 0.38057046934759559 -0.33132220354073461 0 0.37467564707276402 -0.31995789090040938 0 0.38057046934759559 -0.33132220354073461 0 0.38213635947272312 -0.32329893696978063 0 0.37467564707276402 -0.31995789090040938 0 0.39111716067476748 -0.32878050971666167 0 0.38057046934759559 -0.33132220354073461 0 0.38213635947272312 -0.32329893696978063 0 0.39111716067476748 -0.32878050971666167 0 0.38213635947272312 -0.32329893696978063 0 0.38656582044377019 -0.31773067385827941 0 0.38656582044377019 -0.31773067385827941 0 0.37774300116696669 -0.31640522816030747 0 0.3850220090940305 -0.30735999648904078 0 0.39681057181036311 -0.31280869795560629 0 0.38656582044377019 -0.31773067385827941 0 0.3850220090940305 -0.30735999648904078 0 0.38213635947272312 -0.32329893696978063 0 0.38656582044377019 -0.31773067385827941 0 0.37774300116696669 -0.31640522816030747 0 0.37774300116696669 -0.31640522816030747 0 0.37403223464996899 -0.30575991864250951 0 0.37467564707276402 -0.31995789090040938 0 0.38213635947272312 -0.32329893696978063 0 0.37774300116696669 -0.31640522816030747 0 0.37467564707276402 -0.31995789090040938 0 0.37774300116696669 -0.31640522816030747 0 0.37467564707276402 -0.31995789090040938 0 0.37774300116696669 -0.31640522816030747 0 0.3850220090940305 -0.30735999648904078 0 0.37403223464996899 -0.30575991864250951 0 0.38223714728668179 -0.29774951471953298 0 0.37378481346472991 -0.29296134938855722 0 0.37403223464996899 -0.30575991864250951 0 0.38223714728668179 -0.29774951471953298 0 0.3850220090940305 -0.30735999648904078 0 0.37403223464996899 -0.30575991864250951 0 0.38223714728668179 -0.29774951471953298 0 0.3850220090940305 -0.30735999648904078 0 0.3909147456428288 -0.29592025652449983 0 0.39681057181036311 -0.31280869795560629 0 0.40472747584141328 -0.29671059568691888 0 0.41134197970401037 -0.31093648218773168 0 0.39681057181036311 -0.31280869795560629 0 0.40472747584141328 -0.29671059568691888 0 0.3909147456428288 -0.29592025652449983 0 0.39681057181036311 -0.31280869795560629 0 0.3850220090940305 -0.30735999648904078 0 0.3909147456428288 -0.29592025652449983 0 0.40472747584141328 -0.29671059568691888 0 0.40106134421551481 -0.27025117720390812 0 0.4096291098324446 -0.28487281484600141 0 0.40472747584141328 -0.29671059568691888 0 0.3909147456428288 -0.29592025652449983 0 0.39339983739043721 -0.27446213899173028 0 0.40472747584141328 -0.29671059568691888 0 0.40106134421551481 -0.27025117720390812 0 0.3909147456428288 -0.29592025652449983 0 0.38329143243404712 -0.28643059530416992 0 0.39339983739043721 -0.27446213899173028 0 0.38223714728668179 -0.29774951471953298 0 0.3909147456428288 -0.29592025652449983 0 0.38329143243404712 -0.28643059530416992 0 0.38223714728668179 -0.29774951471953298 0 0.38329143243404712 -0.28643059530416992 0 0.37378481346472991 -0.29296134938855722 0 0.38329143243404712 -0.28643059530416992 0 0.37437745269440093 -0.28151076411347892 0 0.37378481346472991 -0.29296134938855722 0 0.38329143243404712 -0.28643059530416992 0 0.38135063037518829 -0.27874274945546001 0 0.37437745269440093 -0.28151076411347892 0 0.38135063037518829 -0.27874274945546001 0 0.37522903347685821 -0.27329080538693917 0 0.39339983739043721 -0.27446213899173028 0 0.37522903347685821 -0.27329080538693917 0 0.39339983739043721 -0.27446213899173028 0 0.36642265066647561 -0.26103092708009029 0 0.39339983739043721 -0.27446213899173028 0 0.36642265066647561 -0.26103092708009029 0 0.38135063037518829 -0.27874274945546001 0 0.37522903347685821 -0.27329080538693917 0 0.37437745269440093 -0.28151076411347892 0 0.38329143243404712 -0.28643059530416992 0 0.38135063037518829 -0.27874274945546001 0 0.39339983739043721 -0.27446213899173028 0 0.37672301458721702 -0.24879166597254401 0 0.38953979511922882 -0.25836387293607382 0 0.36642265066647561 -0.26103092708009029 0 0.38953979511922882 -0.25836387293607382 0 0.39339983739043721 -0.27446213899173028 0 0.36642265066647561 -0.26103092708009029 0 0.37672301458721702 -0.24879166597254401 0 0.3973952125896163 -0.24379175872089739 0 0.38953979511922882 -0.25836387293607382 0 0.3973952125896163 -0.24379175872089739 0 0.40106134421551481 -0.27025117720390812 0 0.3973952125896163 -0.24379175872089739 0 0.38953979511922882 -0.25836387293607382 0 0.40106134421551481 -0.27025117720390812 0 0.3973952125896163 -0.24379175872089739 0 0.4087190745768125 -0.2497113282607418 0 0.40106134421551481 -0.27025117720390812 0 0.38953979511922882 -0.25836387293607382 0 0.39339983739043721 -0.27446213899173028 0 0.40106134421551481 -0.27025117720390812 0 0.40472747584141328 -0.29671059568691888 0 0.39339983739043721 -0.27446213899173028 0 0.40106134421551481 -0.27025117720390812 0 0.40914960942741818 -0.27487479519779068 0 0.41506734143609442 -0.27560816888127071 0 0.4096291098324446 -0.28487281484600141 0 0.40106134421551481 -0.27025117720390812 0 0.40914960942741818 -0.27487479519779068 0 0.4096291098324446 -0.28487281484600141 0 0.41102705684239338 -0.26944577220711352 0 0.41780063605128981 -0.26716990605139751 0 0.4124280414333884 -0.2607808606724612 0 0.40106134421551481 -0.27025117720390812 0 0.40914960942741818 -0.27487479519779068 0 0.41102705684239338 -0.26944577220711352 0 0.40106134421551481 -0.27025117720390812 0 0.41102705684239338 -0.26944577220711352 0 0.4124280414333884 -0.2607808606724612 0 0.40914960942741818 -0.27487479519779068 0 0.41102705684239338 -0.26944577220711352 0 0.41506734143609442 -0.27560816888127071 0 0.41780063605128981 -0.26716990605139751 0 0.41506734143609442 -0.27560816888127071 0 0.42318351256748088 -0.274210647046089 0 0.41102705684239338 -0.26944577220711352 0 0.41780063605128981 -0.26716990605139751 0 0.41506734143609442 -0.27560816888127071 0 0.41506734143609442 -0.27560816888127071 0 0.4096291098324446 -0.28487281484600141 0 0.41964626934716481 -0.28158884701657338 0 0.41506734143609442 -0.27560816888127071 0 0.42318351256748088 -0.274210647046089 0 0.41964626934716481 -0.28158884701657338 0 0.4087190745768125 -0.2497113282607418 0 0.40106134421551481 -0.27025117720390812 0 0.4124280414333884 -0.2607808606724612 0 0.42060738714082829 -0.24998755682490831 0 0.4087190745768125 -0.2497113282607418 0 0.4124280414333884 -0.2607808606724612 0 0.41780063605128981 -0.26716990605139751 0 0.42080547322513379 -0.25930764982681809 0 0.42480402737740941 -0.26594894382583861 0 0.41780063605128981 -0.26716990605139751 0 0.4124280414333884 -0.2607808606724612 0 0.42080547322513379 -0.25930764982681809 0 0.42060738714082829 -0.24998755682490831 0 0.4124280414333884 -0.2607808606724612 0 0.42080547322513379 -0.25930764982681809 0 0.42060738714082829 -0.24998755682490831 0 0.4330183628140124 -0.257904779538356 0 0.42060738714082829 -0.24998755682490831 0 0.42080547322513379 -0.25930764982681809 0 0.4330183628140124 -0.257904779538356 0 0.42080547322513379 -0.25930764982681809 0 0.4330183628140124 -0.257904779538356 0 0.42480402737740941 -0.26594894382583861 0 0.4330183628140124 -0.257904779538356 0 0.42480402737740941 -0.26594894382583861 0 0.42847399551636323 -0.26971003183117781 0 0.43928189036785509 -0.27058531200912328 0 0.4330183628140124 -0.257904779538356 0 0.43265828951473317 -0.27463983938976277 0 0.4330183628140124 -0.257904779538356 0 0.42847399551636323 -0.26971003183117781 0 0.43265828951473317 -0.27463983938976277 0 0.4330183628140124 -0.257904779538356 0 0.43265828951473317 -0.27463983938976277 0 0.42318351256748088 -0.274210647046089 0 0.42794778444489512 -0.28261554404628469 0 0.41964626934716481 -0.28158884701657338 0 0.42883116986076819 -0.27604807333130482 0 0.42318351256748088 -0.274210647046089 0 0.42794778444489512 -0.28261554404628469 0 0.42883116986076819 -0.27604807333130482 0 0.43189226726036922 -0.27906430434320939 0 0.42794778444489512 -0.28261554404628469 0 0.42318351256748088 -0.274210647046089 0 0.42480402737740941 -0.26594894382583861 0 0.42847399551636323 -0.26971003183117781 0 0.41780063605128981 -0.26716990605139751 0 0.42318351256748088 -0.274210647046089 0 0.42480402737740941 -0.26594894382583861 0 0.42883116986076819 -0.27604807333130482 0 0.42318351256748088 -0.274210647046089 0 0.42847399551636323 -0.26971003183117781 0 0.44070530085073262 -0.28409224241375791 0 0.43189226726036922 -0.27906430434320939 0 0.43558883646162477 -0.27737960603493678 0 0.43928189036785509 -0.27058531200912328 0 0.43265828951473317 -0.27463983938976277 0 0.43558883646162477 -0.27737960603493678 0 0.42883116986076819 -0.27604807333130482 0 0.42847399551636323 -0.26971003183117781 0 0.43265828951473317 -0.27463983938976277 0 0.43265828951473317 -0.27463983938976277 0 0.43189226726036922 -0.27906430434320939 0 0.43558883646162477 -0.27737960603493678 0 0.42883116986076819 -0.27604807333130482 0 0.43265828951473317 -0.27463983938976277 0 0.43189226726036922 -0.27906430434320939 0 0.44070530085073262 -0.28409224241375791 0 0.42402919252743382 -0.29020238576702162 0 0.43031337330776792 -0.30863927361272397 0 0.44070530085073262 -0.28409224241375791 0 0.42794778444489512 -0.28261554404628469 0 0.42402919252743382 -0.29020238576702162 0 0.44070530085073262 -0.28409224241375791 0 0.43031337330776792 -0.30863927361272397 0 0.44070530085073262 -0.28409224241375791 0 0.43189226726036922 -0.27906430434320939 0 0.42794778444489512 -0.28261554404628469 0 0.42794778444489512 -0.28261554404628469 0 0.42402919252743382 -0.29020238576702162 0 0.41964626934716481 -0.28158884701657338 0 0.42402919252743382 -0.29020238576702162 0 0.43031337330776792 -0.30863927361272397 0 0.41593331738159789 -0.29940559266678812 0 0.43031337330776792 -0.30863927361272397 0 0.41593331738159789 -0.29940559266678812 0 0.41134197970401037 -0.31093648218773168 0 0.40472747584141328 -0.29671059568691888 0 0.41593331738159789 -0.29940559266678812 0 0.41134197970401037 -0.31093648218773168 0 0.40472747584141328 -0.29671059568691888 0 0.41593331738159789 -0.29940559266678812 0 0.4096291098324446 -0.28487281484600141 0 0.42402919252743382 -0.29020238576702162 0 0.4096291098324446 -0.28487281484600141 0 0.41964626934716481 -0.28158884701657338 0 0.42402919252743382 -0.29020238576702162 0 0.41593331738159789 -0.29940559266678812 0 0.4096291098324446 -0.28487281484600141 0 0.5 -0.5 0 0.48645126940308753 -0.49147917457311702 0 0.5 -0.39015304902202891 0 0.48645126940308753 -0.49147917457311702 0 0.46981321797127329 -0.47040283948141209 0 0.5 -0.39015304902202891 0 0.46107319809678321 -0.49999999999999922 0 0.4356074026854565 -0.48393595381122062 0 0.46107319809678321 -0.49999999999999922 0 0.4356074026854565 -0.48393595381122062 0 0.43419438364345331 -0.5 0 0.45270527890879542 -0.47715667941033968 0 0.46107319809678321 -0.49999999999999922 0 0.4356074026854565 -0.48393595381122062 0 0.45270527890879542 -0.47715667941033968 0 0.43963431679413317 -0.46421659122871922 0 0.4356074026854565 -0.48393595381122062 0 0.45270527890879542 -0.47715667941033968 0 0.46107319809678321 -0.49999999999999922 0 0.46981321797127329 -0.47040283948141209 0 0.46107319809678321 -0.49999999999999922 0 0.5 -0.5 0 0.48645126940308753 -0.49147917457311702 0 0.46107319809678321 -0.49999999999999922 0 0.48645126940308753 -0.49147917457311702 0 0.46981321797127329 -0.47040283948141209 0 0.48645126940308753 -0.49147917457311702 0 0.46981321797127329 -0.47040283948141209 0 0.46981321797127329 -0.47040283948141209 0 0.45317516653945911 -0.44932650438970712 0 0.46103192043749908 -0.42937455928255391 0 0.45270527890879542 -0.47715667941033968 0 0.46981321797127329 -0.47040283948141209 0 0.45317516653945911 -0.44932650438970712 0 0.46981321797127329 -0.47040283948141209 0 0.45317516653945911 -0.44932650438970712 0 0.45317516653945911 -0.44932650438970712 0 0.43963431679413317 -0.46421659122871922 0 0.427224103492856 -0.44673487737016693 0 0.45270527890879542 -0.47715667941033968 0 0.45317516653945911 -0.44932650438970712 0 0.43963431679413317 -0.46421659122871922 0 0.45317516653945911 -0.44932650438970712 0 0.43653711510764492 -0.42825016929800219 0 0.45317516653945911 -0.44932650438970712 0 0.43653711510764492 -0.42825016929800219 0 0.427224103492856 -0.44673487737016693 0 0.46981321797127329 -0.47040283948141209 0 0.46103192043749908 -0.42937455928255391 0 0.5 -0.39015304902202891 0 0.45317516653945911 -0.44932650438970712 0 0.46103192043749908 -0.42937455928255391 0 0.43653711510764492 -0.42825016929800219 0 0.45576496596111732 -0.40745411021404132 0 0.46103192043749908 -0.42937455928255391 0 0.43653711510764492 -0.42825016929800219 0 0.45576496596111732 -0.40745411021404132 0 0.4361800018288714 -0.41044281959415929 0 0.43653711510764492 -0.42825016929800219 0 0.45576496596111732 -0.40745411021404132 0 0.46103192043749908 -0.42937455928255391 0 0.5 -0.39015304902202891 0 0.45576496596111732 -0.40745411021404132 0 0.5 -0.39015304902202891 0 0.46751625200281788 -0.38515548735985061 0 0.46926535097693128 -0.36506249466282309 0 0.5 -0.39015304902202891 0 0.46751625200281788 -0.38515548735985061 0 0.45216000120187583 -0.36925785966150781 0 0.46751625200281788 -0.38515548735985061 0 0.44820961534416692 -0.38503974627731119 0 0.45576496596111732 -0.40745411021404132 0 0.46751625200281788 -0.38515548735985061 0 0.44820961534416692 -0.38503974627731119 0 0.45576496596111732 -0.40745411021404132 0 0.44820961534416692 -0.38503974627731119 0 0.43405433950999928 -0.39610679024180401 0 0.45576496596111732 -0.40745411021404132 0 0.43405433950999928 -0.39610679024180401 0 0.4361800018288714 -0.41044281959415929 0 0.44820961534416692 -0.38503974627731119 0 0.43405433950999928 -0.39610679024180401 0 0.44820961534416692 -0.38503974627731119 0 0.43724297958625208 -0.37753688457051032 0 0.43405433950999928 -0.39610679024180401 0 0.45216000120187583 -0.36925785966150781 0 0.44820961534416692 -0.38503974627731119 0 0.43724297958625208 -0.37753688457051032 0 0.42518309060006382 -0.37019068555879803 0 0.43724297958625208 -0.37753688457051032 0 0.42335750242541897 -0.38821921909396723 0 0.43724297958625208 -0.37753688457051032 0 0.42335750242541897 -0.38821921909396723 0 0.43405433950999928 -0.39610679024180401 0 0.42335750242541897 -0.38821921909396723 0 0.43405433950999928 -0.39610679024180401 0 0.41723418285668051 -0.40379808306416098 0 0.43405433950999928 -0.39610679024180401 0 0.41723418285668051 -0.40379808306416098 0 0.41989906367583157 -0.40717383420629683 0 0.43405433950999928 -0.39610679024180401 0 0.41989906367583157 -0.40717383420629683 0 0.4361800018288714 -0.41044281959415929 0 0.43405433950999928 -0.39610679024180401 0 0.41989906367583157 -0.40717383420629683 0 0.40987285276413959 -0.38397436452792211 0 0.4148549101949579 -0.41111751350936959 0 0.42335750242541897 -0.38821921909396723 0 0.41723418285668051 -0.40379808306416098 0 0.40987285276413959 -0.38397436452792211 0 0.41723418285668051 -0.40379808306416098 0 0.40987285276413959 -0.38397436452792211 0 0.4148549101949579 -0.41111751350936959 0 0.40987285276413959 -0.38397436452792211 0 0.39776124928126377 -0.39487833976321141 0 0.4148549101949579 -0.41111751350936959 0 0.41723418285668051 -0.40379808306416098 0 0.41989906367583157 -0.40717383420629683 0 0.40667180643118378 -0.36653448577935271 0 0.40987285276413959 -0.38397436452792211 0 0.42518309060006382 -0.37019068555879803 0 0.42335750242541897 -0.38821921909396723 0 0.40987285276413959 -0.38397436452792211 0 0.42518309060006382 -0.37019068555879803 0 0.40987285276413959 -0.38397436452792211 0 0.40667180643118378 -0.36653448577935271 0 0.40987285276413959 -0.38397436452792211 0 0.39776124928126377 -0.39487833976321141 0 0.40667180643118378 -0.36653448577935271 0 0.38909492009491031 -0.37589311409485771 0 0.39776124928126377 -0.39487833976321141 0 0.40667180643118378 -0.36653448577935271 0 0.39776124928126377 -0.39487833976321141 0 0.40987285276413959 -0.38397436452792211 0 0.39776124928126377 -0.39487833976321141 0 0.37807376375083379 -0.38825733796244277 0 0.38909492009491031 -0.37589311409485771 0 0.39776124928126377 -0.39487833976321141 0 0.37695186048652118 -0.36885426210637501 0 0.37807376375083379 -0.38825733796244277 0 0.38909492009491031 -0.37589311409485771 0 0.39776124928126377 -0.39487833976321141 0 0.38090260943556398 -0.41005603210081443 0 0.37807376375083379 -0.38825733796244277 0 0.38090260943556398 -0.41005603210081443 0 0.3669823844485528 -0.40180526575862158 0 0.37807376375083379 -0.38825733796244277 0 0.39776124928126377 -0.39487833976321141 0 0.38090260943556398 -0.41005603210081443 0 0.39776124928126377 -0.39487833976321141 0 0.4020098762794172 -0.41092872807375752 0 0.4148549101949579 -0.41111751350936959 0 0.39776124928126377 -0.39487833976321141 0 0.39159152558029442 -0.4145037958103317 0 0.39776124928126377 -0.39487833976321141 0 0.4020098762794172 -0.41092872807375752 0 0.39159152558029442 -0.4145037958103317 0 0.4020098762794172 -0.41092872807375752 0 0.40013835603714032 -0.42262338268341021 0 0.4148549101949579 -0.41111751350936959 0 0.4020098762794172 -0.41092872807375752 0 0.39159152558029442 -0.4145037958103317 0 0.40013835603714032 -0.42262338268341021 0 0.39776124928126377 -0.39487833976321141 0 0.39159152558029442 -0.4145037958103317 0 0.38090260943556398 -0.41005603210081443 0 0.39159152558029442 -0.4145037958103317 0 0.38090260943556398 -0.41005603210081443 0 0.37893103285242241 -0.42370022859020678 0 0.39159152558029442 -0.4145037958103317 0 0.37893103285242241 -0.42370022859020678 0 0.38542180187932351 -0.43412925185745183 0 0.39159152558029442 -0.4145037958103317 0 0.38542180187932351 -0.43412925185745183 0 0.37893103285242241 -0.42370022859020678 0 0.38542180187932351 -0.43412925185745183 0 0.37043146183030851 -0.43455429844877907 0 0.39159152558029442 -0.4145037958103317 0 0.38542180187932351 -0.43412925185745183 0 0.40013835603714032 -0.42262338268341021 0 0.38542180187932351 -0.43412925185745183 0 0.40013835603714032 -0.42262338268341021 0 0.40598857684038442 -0.44321160096444823 0 0.38542180187932351 -0.43412925185745183 0 0.40013835603714032 -0.42262338268341021 0 0.40013835603714032 -0.42262338268341021 0 0.41786783840138569 -0.42753249071768262 0 0.40598857684038442 -0.44321160096444823 0 0.41786783840138569 -0.42753249071768262 0 0.4148549101949579 -0.41111751350936959 0 0.41989906367583157 -0.40717383420629683 0 0.40013835603714032 -0.42262338268341021 0 0.41786783840138569 -0.42753249071768262 0 0.4148549101949579 -0.41111751350936959 0 0.41786783840138569 -0.42753249071768262 0 0.4148549101949579 -0.41111751350936959 0 0.40013835603714032 -0.42262338268341021 0 0.4148549101949579 -0.41111751350936959 0 0.41723418285668051 -0.40379808306416098 0 0.4148549101949579 -0.41111751350936959 0 0.41989906367583157 -0.40717383420629683 0 0.4148549101949579 -0.41111751350936959 0 0.41989906367583157 -0.40717383420629683 0 0.41989906367583157 -0.40717383420629683 0 0.43653711510764492 -0.42825016929800219 0 0.41786783840138569 -0.42753249071768262 0 0.41989906367583157 -0.40717383420629683 0 0.43653711510764492 -0.42825016929800219 0 0.41989906367583157 -0.40717383420629683 0 0.4361800018288714 -0.41044281959415929 0 0.43653711510764492 -0.42825016929800219 0 0.41786783840138569 -0.42753249071768262 0 0.43653711510764492 -0.42825016929800219 0 0.427224103492856 -0.44673487737016693 0 0.43963431679413317 -0.46421659122871922 0 0.427224103492856 -0.44673487737016693 0 0.41014160727412952 -0.46787190762244241 0 0.427224103492856 -0.44673487737016693 0 0.41014160727412952 -0.46787190762244241 0 0.40598857684038442 -0.44321160096444823 0 0.41786783840138569 -0.42753249071768262 0 0.427224103492856 -0.44673487737016693 0 0.40598857684038442 -0.44321160096444823 0 0.38542180187932351 -0.43412925185745183 0 0.40598857684038442 -0.44321160096444823 0 0.39597326993358201 -0.45804919763297652 0 0.38542180187932351 -0.43412925185745183 0 0.3794762097545199 -0.45304176116497369 0 0.38542180187932351 -0.43412925185745183 0 0.3794762097545199 -0.45304176116497369 0 0.36325857587208848 -0.45145716545592779 0 0.38542180187932351 -0.43412925185745183 0 0.3794762097545199 -0.45304176116497369 0 0.39597326993358201 -0.45804919763297652 0 0.3794762097545199 -0.45304176116497369 0 0.3872248239169912 -0.4745955186762052 0 0.37080875233841742 -0.46431963568614132 0 0.3794762097545199 -0.45304176116497369 0 0.39597326993358201 -0.45804919763297652 0 0.3872248239169912 -0.4745955186762052 0 0.41014160727412952 -0.46787190762244241 0 0.39597326993358201 -0.45804919763297652 0 0.3872248239169912 -0.4745955186762052 0 0.41014160727412952 -0.46787190762244241 0 0.40598857684038442 -0.44321160096444823 0 0.39597326993358201 -0.45804919763297652 0 0.41014160727412952 -0.46787190762244241 0 0.3872248239169912 -0.4745955186762052 0 0.40731556919012352 -0.5 0 0.3872248239169912 -0.4745955186762052 0 0.36699069976529591 -0.47941442300101939 0 0.37080875233841742 -0.46431963568614132 0 0.3872248239169912 -0.4745955186762052 0 0.38043675473679361 -0.5 0 0.36699069976529591 -0.47941442300101939 0 0.3872248239169912 -0.4745955186762052 0 0.38043675473679361 -0.5 0 0.40731556919012352 -0.5 0 0.4210308417545387 -0.49000217962552822 0 0.40731556919012352 -0.5 0 0.43419438364345331 -0.5 0 0.41014160727412952 -0.46787190762244241 0 0.4210308417545387 -0.49000217962552822 0 0.40731556919012352 -0.5 0 0.41014160727412952 -0.46787190762244241 0 0.4356074026854565 -0.48393595381122062 0 0.41014160727412952 -0.46787190762244241 0 0.4210308417545387 -0.49000217962552822 0 0.4356074026854565 -0.48393595381122062 0 0.43963431679413317 -0.46421659122871922 0 0.41014160727412952 -0.46787190762244241 0 0.4356074026854565 -0.48393595381122062 0 0.4210308417545387 -0.49000217962552822 0 0.4356074026854565 -0.48393595381122062 0 0.43419438364345331 -0.5 0 0.32667912583013392 -0.5 0 0.31542192219823251 -0.49079845650423348 0 0.29980031137680418 -0.5 0 0.31542192219823251 -0.49079845650423348 0 0.32725462706772912 -0.4830494191977136 0 0.30795362451826258 -0.48014440681922033 0 0.32667912583013392 -0.5 0 0.31542192219823251 -0.49079845650423348 0 0.32725462706772912 -0.4830494191977136 0 0.32725462706772912 -0.4830494191977136 0 0.32776610693099412 -0.45789438052584808 0 0.32725462706772912 -0.4830494191977136 0 0.31987971869171411 -0.46499442984454781 0 0.30795362451826258 -0.48014440681922033 0 0.32725462706772912 -0.4830494191977136 0 0.33424934133788547 -0.47139464726482072 0 0.33949419077960852 -0.47698088993762372 0 0.32725462706772912 -0.4830494191977136 0 0.33424934133788547 -0.47139464726482072 0 0.32776610693099412 -0.45789438052584808 0 0.33424934133788547 -0.47139464726482072 0 0.34109534986485379 -0.46878507905440409 0 0.33949419077960852 -0.47698088993762372 0 0.32725462706772912 -0.4830494191977136 0 0.33949419077960852 -0.47698088993762372 0 0.34241931274853898 -0.48626627592747629 0 0.32667912583013392 -0.5 0 0.32725462706772912 -0.4830494191977136 0 0.34241931274853898 -0.48626627592747629 0 0.32667912583013392 -0.5 0 0.34241931274853898 -0.48626627592747629 0 0.35355794028346382 -0.5 0 0.35355794028346382 -0.5 0 0.36699069976529591 -0.47941442300101939 0 0.35245232287903488 -0.47540902824370401 0 0.34241931274853898 -0.48626627592747629 0 0.35355794028346382 -0.5 0 0.35245232287903488 -0.47540902824370401 0 0.38043675473679361 -0.5 0 0.35355794028346382 -0.5 0 0.36699069976529591 -0.47941442300101939 0 0.36699069976529591 -0.47941442300101939 0 0.35892114014393811 -0.46787706628823927 0 0.37080875233841742 -0.46431963568614132 0 0.36699069976529591 -0.47941442300101939 0 0.35245232287903488 -0.47540902824370401 0 0.35892114014393811 -0.46787706628823927 0 0.34109534986485379 -0.46878507905440409 0 0.35245232287903488 -0.47540902824370401 0 0.35892114014393811 -0.46787706628823927 0 0.33949419077960852 -0.47698088993762372 0 0.34241931274853898 -0.48626627592747629 0 0.35245232287903488 -0.47540902824370401 0 0.34109534986485379 -0.46878507905440409 0 0.33949419077960852 -0.47698088993762372 0 0.35245232287903488 -0.47540902824370401 0 0.34109534986485379 -0.46878507905440409 0 0.35892114014393811 -0.46787706628823927 0 0.36325857587208848 -0.45145716545592779 0 0.34109534986485379 -0.46878507905440409 0 0.36325857587208848 -0.45145716545592779 0 0.34230919137919402 -0.4623449690782036 0 0.34109534986485379 -0.46878507905440409 0 0.36325857587208848 -0.45145716545592779 0 0.3794762097545199 -0.45304176116497369 0 0.37080875233841742 -0.46431963568614132 0 0.36325857587208848 -0.45145716545592779 0 0.35892114014393811 -0.46787706628823927 0 0.37080875233841742 -0.46431963568614132 0 0.36325857587208848 -0.45145716545592779 0 0.38542180187932351 -0.43412925185745183 0 0.36325857587208848 -0.45145716545592779 0 0.38542180187932351 -0.43412925185745183 0 0.36325857587208848 -0.45145716545592779 0 0.37043146183030851 -0.43455429844877907 0 0.36325857587208848 -0.45145716545592779 0 0.36050192895784322 -0.43825112190189108 0 0.37043146183030851 -0.43455429844877907 0 0.36325857587208848 -0.45145716545592779 0 0.34718532974416522 -0.44041141677602158 0 0.34230919137919402 -0.4623449690782036 0 0.36325857587208848 -0.45145716545592779 0 0.36050192895784322 -0.43825112190189108 0 0.34718532974416522 -0.44041141677602158 0 0.34718532974416522 -0.44041141677602158 0 0.34230919137919402 -0.4623449690782036 0 0.34718532974416522 -0.44041141677602158 0 0.32776610693099412 -0.45789438052584808 0 0.32820026904744942 -0.43654189802635179 0 0.34718532974416522 -0.44041141677602158 0 0.32776610693099412 -0.45789438052584808 0 0.34718532974416522 -0.44041141677602158 0 0.34230919137919402 -0.4623449690782036 0 0.32776610693099412 -0.45789438052584808 0 0.33424934133788547 -0.47139464726482072 0 0.34109534986485379 -0.46878507905440409 0 0.33563229936007949 -0.46481209465838608 0 0.34109534986485379 -0.46878507905440409 0 0.34230919137919402 -0.4623449690782036 0 0.33563229936007949 -0.46481209465838608 0 0.34230919137919402 -0.4623449690782036 0 0.33563229936007949 -0.46481209465838608 0 0.32776610693099412 -0.45789438052584808 0 0.33424934133788547 -0.47139464726482072 0 0.33563229936007949 -0.46481209465838608 0 0.32776610693099412 -0.45789438052584808 0 0.32725462706772912 -0.4830494191977136 0 0.32776610693099412 -0.45789438052584808 0 0.31987971869171411 -0.46499442984454781 0 0.32776610693099412 -0.45789438052584808 0 0.31987971869171411 -0.46499442984454781 0 0.31777529573362018 -0.45094571413883378 0 0.32776610693099412 -0.45789438052584808 0 0.31987971869171411 -0.46499442984454781 0 0.31987971869171411 -0.46499442984454781 0 0.31777529573362018 -0.45094571413883378 0 0.30694629494490039 -0.46148627959408978 0 0.31777529573362018 -0.45094571413883378 0 0.31348856467504582 -0.43974397925662578 0 0.30732241957864842 -0.44799002724206849 0 0.32776610693099412 -0.45789438052584808 0 0.31777529573362018 -0.45094571413883378 0 0.32820026904744942 -0.43654189802635179 0 0.32776610693099412 -0.45789438052584808 0 0.32820026904744942 -0.43654189802635179 0 0.31777529573362018 -0.45094571413883378 0 0.31348856467504582 -0.43974397925662578 0 0.32820026904744942 -0.43654189802635179 0 0.31348856467504582 -0.43974397925662578 0 0.32820026904744942 -0.43654189802635179 0 0.31155012279120792 -0.4261799084966188 0 0.3286344311639029 -0.41518941552685562 0 0.32820026904744942 -0.43654189802635179 0 0.31155012279120792 -0.4261799084966188 0 0.31580171997356049 -0.41408001043718501 0 0.3286344311639029 -0.41518941552685562 0 0.31155012279120792 -0.4261799084966188 0 0.31580171997356049 -0.41408001043718501 0 0.31939328908479531 -0.40420036587536351 0 0.3117458912064936 -0.40887966575935469 0 0.31580171997356049 -0.41408001043718501 0 0.3286344311639029 -0.41518941552685562 0 0.31939328908479531 -0.40420036587536351 0 0.33912473210084182 -0.42158041434692528 0 0.35371004971308728 -0.41106231386221448 0 0.33789358083560422 -0.40469702754318282 0 0.3286344311639029 -0.41518941552685562 0 0.33912473210084182 -0.42158041434692528 0 0.33789358083560422 -0.40469702754318282 0 0.3286344311639029 -0.41518941552685562 0 0.32820026904744942 -0.43654189802635179 0 0.34718532974416522 -0.44041141677602158 0 0.33912473210084182 -0.42158041434692528 0 0.32820026904744942 -0.43654189802635179 0 0.3286344311639029 -0.41518941552685562 0 0.33912473210084182 -0.42158041434692528 0 0.32820026904744942 -0.43654189802635179 0 0.34718532974416522 -0.44041141677602158 0 0.36404396958986479 -0.42523372443841828 0 0.34718532974416522 -0.44041141677602158 0 0.35371004971308728 -0.41106231386221448 0 0.36050192895784322 -0.43825112190189108 0 0.34718532974416522 -0.44041141677602158 0 0.36404396958986479 -0.42523372443841828 0 0.34718532974416522 -0.44041141677602158 0 0.36404396958986479 -0.42523372443841828 0 0.35371004971308728 -0.41106231386221448 0 0.34718532974416522 -0.44041141677602158 0 0.33912473210084182 -0.42158041434692528 0 0.35371004971308728 -0.41106231386221448 0 0.36050192895784322 -0.43825112190189108 0 0.36404396958986479 -0.42523372443841828 0 0.37043146183030851 -0.43455429844877907 0 0.37893103285242241 -0.42370022859020678 0 0.36404396958986479 -0.42523372443841828 0 0.37043146183030851 -0.43455429844877907 0 0.38090260943556398 -0.41005603210081443 0 0.36404396958986479 -0.42523372443841828 0 0.38090260943556398 -0.41005603210081443 0 0.36404396958986479 -0.42523372443841828 0 0.3669823844485528 -0.40180526575862158 0 0.38090260943556398 -0.41005603210081443 0 0.37893103285242241 -0.42370022859020678 0 0.36404396958986479 -0.42523372443841828 0 0.36404396958986479 -0.42523372443841828 0 0.35371004971308728 -0.41106231386221448 0 0.3669823844485528 -0.40180526575862158 0 0.35371004971308728 -0.41106231386221448 0 0.34448826113717101 -0.39033312735923509 0 0.33789358083560422 -0.40469702754318282 0 0.35371004971308728 -0.41106231386221448 0 0.36023476968201051 -0.3817132109484076 0 0.35371004971308728 -0.41106231386221448 0 0.36023476968201051 -0.3817132109484076 0 0.34448826113717101 -0.39033312735923509 0 0.35371004971308728 -0.41106231386221448 0 0.3669823844485528 -0.40180526575862158 0 0.36023476968201051 -0.3817132109484076 0 0.37695186048652118 -0.36885426210637501 0 0.37807376375083379 -0.38825733796244277 0 0.36023476968201051 -0.3817132109484076 0 0.37807376375083379 -0.38825733796244277 0 0.3669823844485528 -0.40180526575862158 0 0.36023476968201051 -0.3817132109484076 0 0.36023476968201051 -0.3817132109484076 0 0.34448826113717101 -0.39033312735923509 0 0.34639511780885779 -0.37427017529119 0 0.33696056854412382 -0.37917019109103228 0 0.32906859328035643 -0.39383693302735928 0 0.32064839962369818 -0.382533186437779 0 0.34448826113717101 -0.39033312735923509 0 0.33696056854412382 -0.37917019109103228 0 0.34639511780885779 -0.37427017529119 0 0.34448826113717101 -0.39033312735923509 0 0.33696056854412382 -0.37917019109103228 0 0.32906859328035643 -0.39383693302735928 0 0.34448826113717101 -0.39033312735923509 0 0.33789358083560422 -0.40469702754318282 0 0.32906859328035643 -0.39383693302735928 0 0.3286344311639029 -0.41518941552685562 0 0.32906859328035643 -0.39383693302735928 0 0.3286344311639029 -0.41518941552685562 0 0.33789358083560422 -0.40469702754318282 0 0.32906859328035643 -0.39383693302735928 0 0.32906859328035643 -0.39383693302735928 0 0.31939328908479531 -0.40420036587536351 0 0.31690841417972909 -0.39719100016278119 0 0.31690841417972909 -0.39719100016278119 0 0.32064839962369818 -0.382533186437779 0 0.30338807119084188 -0.40252439834944098 0 0.32906859328035643 -0.39383693302735928 0 0.31690841417972909 -0.39719100016278119 0 0.32064839962369818 -0.382533186437779 0 0.3286344311639029 -0.41518941552685562 0 0.32906859328035643 -0.39383693302735928 0 0.31939328908479531 -0.40420036587536351 0 0.31939328908479531 -0.40420036587536351 0 0.31690841417972909 -0.39719100016278119 0 0.31204371771895389 -0.40286011712396319 0 0.31939328908479531 -0.40420036587536351 0 0.31204371771895389 -0.40286011712396319 0 0.3117458912064936 -0.40887966575935469 0 0.32064839962369818 -0.382533186437779 0 0.30348702133364058 -0.37836537210184418 0 0.30524500321297648 -0.38904310817564253 0 0.30348702133364058 -0.37836537210184418 0 0.30524500321297648 -0.38904310817564253 0 0.29345652070372541 -0.39274947581350561 0 0.32064839962369818 -0.382533186437779 0 0.30338807119084188 -0.40252439834944098 0 0.32064839962369818 -0.382533186437779 0 0.30524500321297648 -0.38904310817564253 0 0.30338807119084188 -0.40252439834944098 0 0.31690841417972909 -0.39719100016278119 0 0.31204371771895389 -0.40286011712396319 0 0.30338807119084188 -0.40252439834944098 0 0.31204371771895389 -0.40286011712396319 0 0.30338807119084188 -0.40252439834944098 0 0.30536061425678651 -0.40726864231872928 0 0.30524500321297648 -0.38904310817564253 0 0.30338807119084188 -0.40252439834944098 0 0.29345652070372541 -0.39274947581350561 0 0.30338807119084188 -0.40252439834944098 0 0.29345652070372541 -0.39274947581350561 0 0.2818509000828377 -0.40933688977778621 0 0.29345652070372541 -0.39274947581350561 0 0.28059913151510613 -0.39396490926737321 0 0.2818509000828377 -0.40933688977778621 0 0.30348702133364058 -0.37836537210184418 0 0.2863626641732081 -0.3818537904257514 0 0.28553059043963769 -0.36725497998784901 0 0.29345652070372541 -0.39274947581350561 0 0.2863626641732081 -0.3818537904257514 0 0.28059913151510613 -0.39396490926737321 0 0.30348702133364058 -0.37836537210184418 0 0.29345652070372541 -0.39274947581350561 0 0.2863626641732081 -0.3818537904257514 0 0.30348702133364058 -0.37836537210184418 0 0.2863626641732081 -0.3818537904257514 0 0.2863626641732081 -0.3818537904257514 0 0.27682442903643628 -0.3779906594642013 0 0.28553059043963769 -0.36725497998784901 0 0.2863626641732081 -0.3818537904257514 0 0.26923830701277551 -0.38534220874965819 0 0.28059913151510613 -0.39396490926737321 0 0.2863626641732081 -0.3818537904257514 0 0.27682442903643628 -0.3779906594642013 0 0.26923830701277551 -0.38534220874965819 0 0.2863626641732081 -0.3818537904257514 0 0.26923830701277551 -0.38534220874965819 0 0.27040713458229709 -0.37871380043184177 0 0.26544419704030642 -0.37912344317440089 0 0.26868156352043798 -0.37129987208895321 0 0.27682442903643628 -0.3779906594642013 0 0.27040713458229709 -0.37871380043184177 0 0.26868156352043798 -0.37129987208895321 0 0.27682442903643628 -0.3779906594642013 0 0.26923830701277551 -0.38534220874965819 0 0.27040713458229709 -0.37871380043184177 0 0.26923830701277551 -0.38534220874965819 0 0.27040713458229709 -0.37871380043184177 0 0.26544419704030642 -0.37912344317440089 0 0.26923830701277551 -0.38534220874965819 0 0.25692860890622188 -0.38028312234872991 0 0.2459272988079019 -0.39009091536730189 0 0.26544419704030642 -0.37912344317440089 0 0.25692860890622188 -0.38028312234872991 0 0.25498720319204082 -0.36900585364671662 0 0.26923830701277551 -0.38534220874965819 0 0.26544419704030642 -0.37912344317440089 0 0.25692860890622188 -0.38028312234872991 0 0.26923830701277551 -0.38534220874965819 0 0.2459272988079019 -0.39009091536730189 0 0.25692860890622188 -0.38028312234872991 0 0.25498720319204082 -0.36900585364671662 0 0.242832845791846 -0.37596734926023812 0 0.26923830701277551 -0.38534220874965819 0 0.25557679531285399 -0.3975260680781334 0 0.2459272988079019 -0.39009091536730189 0 0.26923830701277551 -0.38534220874965819 0 0.25557679531285399 -0.3975260680781334 0 0.25834118590888883 -0.41140513723684341 0 0.26923830701277551 -0.38534220874965819 0 0.25834118590888883 -0.41140513723684341 0 0.25557679531285399 -0.3975260680781334 0 0.25834118590888883 -0.41140513723684341 0 0.24465775561146269 -0.40136153150520643 0 0.26923830701277551 -0.38534220874965819 0 0.27228632093789817 -0.39976997299683747 0 0.25834118590888883 -0.41140513723684341 0 0.26923830701277551 -0.38534220874965819 0 0.27228632093789817 -0.39976997299683747 0 0.28059913151510613 -0.39396490926737321 0 0.27228632093789817 -0.39976997299683747 0 0.28059913151510613 -0.39396490926737321 0 0.2818509000828377 -0.40933688977778621 0 0.25834118590888883 -0.41140513723684341 0 0.2818509000828377 -0.40933688977778621 0 0.25834118590888883 -0.41140513723684341 0 0.2723769632952695 -0.42523757835172082 0 0.2818509000828377 -0.40933688977778621 0 0.27228632093789817 -0.39976997299683747 0 0.25834118590888883 -0.41140513723684341 0 0.2818509000828377 -0.40933688977778621 0 0.25834118590888883 -0.41140513723684341 0 0.25126052337721477 -0.42834014231255368 0 0.24082720742464031 -0.41294591485880849 0 0.25834118590888883 -0.41140513723684341 0 0.25126052337721477 -0.42834014231255368 0 0.25834118590888883 -0.41140513723684341 0 0.25126052337721477 -0.42834014231255368 0 0.2723769632952695 -0.42523757835172082 0 0.25126052337721477 -0.42834014231255368 0 0.2723769632952695 -0.42523757835172082 0 0.26599167183246902 -0.44282250895753322 0 0.2723769632952695 -0.42523757835172082 0 0.28780348281939833 -0.4403698705268031 0 0.26599167183246902 -0.44282250895753322 0 0.2723769632952695 -0.42523757835172082 0 0.29480390451374527 -0.42125540147881407 0 0.28780348281939833 -0.4403698705268031 0 0.29480390451374527 -0.42125540147881407 0 0.30259471622430351 -0.43706234837925578 0 0.28780348281939833 -0.4403698705268031 0 0.2723769632952695 -0.42523757835172082 0 0.2818509000828377 -0.40933688977778621 0 0.29480390451374527 -0.42125540147881407 0 0.30338807119084188 -0.40252439834944098 0 0.2818509000828377 -0.40933688977778621 0 0.30536061425678651 -0.40726864231872928 0 0.2818509000828377 -0.40933688977778621 0 0.29480390451374527 -0.42125540147881407 0 0.30536061425678651 -0.40726864231872928 0 0.2818509000828377 -0.40933688977778621 0 0.30536061425678651 -0.40726864231872928 0 0.29480390451374527 -0.42125540147881407 0 0.30536061425678651 -0.40726864231872928 0 0.30685767964209298 -0.41729850363643189 0 0.29480390451374527 -0.42125540147881407 0 0.30685767964209298 -0.41729850363643189 0 0.31155012279120792 -0.4261799084966188 0 0.31580171997356049 -0.41408001043718501 0 0.3117458912064936 -0.40887966575935469 0 0.30685767964209298 -0.41729850363643189 0 0.30536061425678651 -0.40726864231872928 0 0.3117458912064936 -0.40887966575935469 0 0.30685767964209298 -0.41729850363643189 0 0.31204371771895389 -0.40286011712396319 0 0.30536061425678651 -0.40726864231872928 0 0.3117458912064936 -0.40887966575935469 0 0.31580171997356049 -0.41408001043718501 0 0.30685767964209298 -0.41729850363643189 0 0.31155012279120792 -0.4261799084966188 0 0.29480390451374527 -0.42125540147881407 0 0.31155012279120792 -0.4261799084966188 0 0.30259471622430351 -0.43706234837925578 0 0.31348856467504582 -0.43974397925662578 0 0.31155012279120792 -0.4261799084966188 0 0.30259471622430351 -0.43706234837925578 0 0.30259471622430351 -0.43706234837925578 0 0.30732241957864842 -0.44799002724206849 0 0.2956289731597373 -0.45254563720417301 0 0.31348856467504582 -0.43974397925662578 0 0.30259471622430351 -0.43706234837925578 0 0.30732241957864842 -0.44799002724206849 0 0.31777529573362018 -0.45094571413883378 0 0.30732241957864842 -0.44799002724206849 0 0.30694629494490039 -0.46148627959408978 0 0.30694629494490039 -0.46148627959408978 0 0.2956289731597373 -0.45254563720417301 0 0.29122965654909971 -0.47128834531678648 0 0.30732241957864842 -0.44799002724206849 0 0.30694629494490039 -0.46148627959408978 0 0.2956289731597373 -0.45254563720417301 0 0.2956289731597373 -0.45254563720417301 0 0.27787726884207359 -0.45707695216603411 0 0.29122965654909971 -0.47128834531678648 0 0.2956289731597373 -0.45254563720417301 0 0.28780348281939833 -0.4403698705268031 0 0.27787726884207359 -0.45707695216603411 0 0.30259471622430351 -0.43706234837925578 0 0.2956289731597373 -0.45254563720417301 0 0.28780348281939833 -0.4403698705268031 0 0.28780348281939833 -0.4403698705268031 0 0.26599167183246902 -0.44282250895753322 0 0.27787726884207359 -0.45707695216603411 0 0.26599167183246902 -0.44282250895753322 0 0.25614324648350772 -0.45631004300875472 0 0.27787726884207359 -0.45707695216603411 0 0.28780348281939833 -0.4403698705268031 0 0.26599167183246902 -0.44282250895753322 0 0.25126052337721477 -0.42834014231255368 0 0.26599167183246902 -0.44282250895753322 0 0.24417986084553961 -0.44527514738826363 0 0.26599167183246902 -0.44282250895753322 0 0.25614324648350772 -0.45631004300875472 0 0.24417986084553961 -0.44527514738826363 0 0.26599167183246902 -0.44282250895753322 0 0.24417986084553961 -0.44527514738826363 0 0.25614324648350772 -0.45631004300875472 0 0.27787726884207359 -0.45707695216603411 0 0.25706748600020718 -0.47222361103605193 0 0.27787726884207359 -0.45707695216603411 0 0.27580640162159731 -0.48196383510826152 0 0.25706748600020718 -0.47222361103605193 0 0.27580640162159731 -0.48196383510826152 0 0.25706748600020718 -0.47222361103605193 0 0.25890284990802231 -0.48765868210896662 0 0.25706748600020718 -0.47222361103605193 0 0.25890284990802231 -0.48765868210896662 0 0.24284983233876559 -0.48389860352274389 0 0.25890284990802231 -0.48765868210896662 0 0.27292149692347428 -0.5 0 0.24604268247014441 -0.5 0 0.27580640162159731 -0.48196383510826152 0 0.25890284990802231 -0.48765868210896662 0 0.27292149692347428 -0.5 0 0.27580640162159731 -0.48196383510826152 0 0.27292149692347428 -0.5 0 0.29980031137680418 -0.5 0 0.27580640162159731 -0.48196383510826152 0 0.29122965654909971 -0.47128834531678648 0 0.29980031137680418 -0.5 0 0.27787726884207359 -0.45707695216603411 0 0.27580640162159731 -0.48196383510826152 0 0.29122965654909971 -0.47128834531678648 0 0.30694629494490039 -0.46148627959408978 0 0.29122965654909971 -0.47128834531678648 0 0.30795362451826258 -0.48014440681922033 0 0.29122965654909971 -0.47128834531678648 0 0.30795362451826258 -0.48014440681922033 0 0.29980031137680418 -0.5 0 0.31987971869171411 -0.46499442984454781 0 0.30694629494490039 -0.46148627959408978 0 0.30795362451826258 -0.48014440681922033 0 0.31542192219823251 -0.49079845650423348 0 0.30795362451826258 -0.48014440681922033 0 0.29980031137680418 -0.5 0 0.33885337876562532 -0.29440636115076219 0 0.34582104006026432 -0.28561723856343929 0 0.34633431705332007 -0.30203892294892759 0 0.33191425607908348 -0.28763079222839139 0 0.3313439018698332 -0.30233849086229042 0 0.32314312110165211 -0.29427648690177921 0 0.33191425607908348 -0.28763079222839139 0 0.33885337876562532 -0.29440636115076219 0 0.3313439018698332 -0.30233849086229042 0 0.33191425607908348 -0.28763079222839139 0 0.33583307750929042 -0.27937812473527179 0 0.34582104006026432 -0.28561723856343929 0 0.33191425607908348 -0.28763079222839139 0 0.33885337876562532 -0.29440636115076219 0 0.34582104006026432 -0.28561723856343929 0 0.3313439018698332 -0.30233849086229042 0 0.33951260742318801 -0.32168540229175302 0 0.32317977866177072 -0.31323277933141169 0 0.3313439018698332 -0.30233849086229042 0 0.34633431705332007 -0.30203892294892759 0 0.33951260742318801 -0.32168540229175302 0 0.33885337876562532 -0.29440636115076219 0 0.3313439018698332 -0.30233849086229042 0 0.34633431705332007 -0.30203892294892759 0 0.3313439018698332 -0.30233849086229042 0 0.31975139505035599 -0.30463799995813551 0 0.32314312110165211 -0.29427648690177921 0 0.3313439018698332 -0.30233849086229042 0 0.31975139505035599 -0.30463799995813551 0 0.32317977866177072 -0.31323277933141169 0 0.31975139505035599 -0.30463799995813551 0 0.32317977866177072 -0.31323277933141169 0 0.31136203896217979 -0.31154956542103862 0 0.31975139505035599 -0.30463799995813551 0 0.30972813465634452 -0.30179267727415732 0 0.31136203896217979 -0.31154956542103862 0 0.31975139505035599 -0.30463799995813551 0 0.32314312110165211 -0.29427648690177921 0 0.30972813465634452 -0.30179267727415732 0 0.32314312110165211 -0.29427648690177921 0 0.32377528059792637 -0.27617609375230762 0 0.30972813465634452 -0.30179267727415732 0 0.32377528059792637 -0.27617609375230762 0 0.30972813465634452 -0.30179267727415732 0 0.30593962381117101 -0.28105107859749251 0 0.32377528059792637 -0.27617609375230762 0 0.30972813465634452 -0.30179267727415732 0 0.33191425607908348 -0.28763079222839139 0 0.32314312110165211 -0.29427648690177921 0 0.32377528059792637 -0.27617609375230762 0 0.32377528059792637 -0.27617609375230762 0 0.31348716137170268 -0.26553265526387199 0 0.30593962381117101 -0.28105107859749251 0 0.31348716137170268 -0.26553265526387199 0 0.32654545347095221 -0.25186039630760082 0 0.31071280805396301 -0.25322095810988843 0 0.32377528059792637 -0.27617609375230762 0 0.31348716137170268 -0.26553265526387199 0 0.32654545347095221 -0.25186039630760082 0 0.32377528059792637 -0.27617609375230762 0 0.33782242653950922 -0.25055951023045853 0 0.34182173329988758 -0.26808837439694883 0 0.32377528059792637 -0.27617609375230762 0 0.32654545347095221 -0.25186039630760082 0 0.33782242653950922 -0.25055951023045853 0 0.32377528059792637 -0.27617609375230762 0 0.33782242653950922 -0.25055951023045853 0 0.34364355802833713 -0.26013278586049449 0 0.33782242653950922 -0.25055951023045853 0 0.34182173329988758 -0.26808837439694883 0 0.33782242653950922 -0.25055951023045853 0 0.34182173329988758 -0.26808837439694883 0 0.33944546394251268 -0.24759971516845311 0 0.34364355802833713 -0.26013278586049449 0 0.33782242653950922 -0.25055951023045853 0 0.32377528059792637 -0.27617609375230762 0 0.34182173329988758 -0.26808837439694883 0 0.33583307750929042 -0.27937812473527179 0 0.34182173329988758 -0.26808837439694883 0 0.33583307750929042 -0.27937812473527179 0 0.34582104006026432 -0.28561723856343929 0 0.33191425607908348 -0.28763079222839139 0 0.32377528059792637 -0.27617609375230762 0 0.33583307750929042 -0.27937812473527179 0 0.34364355802833713 -0.26013278586049449 0 0.35398758770981331 -0.28007448754046588 0 0.34364355802833713 -0.26013278586049449 0 0.34182173329988758 -0.26808837439694883 0 0.35398758770981331 -0.28007448754046588 0 0.34182173329988758 -0.26808837439694883 0 0.35398758770981331 -0.28007448754046588 0 0.34582104006026432 -0.28561723856343929 0 0.34364355802833713 -0.26013278586049449 0 0.35653445796633942 -0.26832741004342209 0 0.35398758770981331 -0.28007448754046588 0 0.34182173329988758 -0.26808837439694883 0 0.34582104006026432 -0.28561723856343929 0 0.35653445796633942 -0.26832741004342209 0 0.35398758770981331 -0.28007448754046588 0 0.36489172183374191 -0.27417931597143241 0 0.33944546394251268 -0.24759971516845311 0 0.36642265066647561 -0.26103092708009029 0 0.33944546394251268 -0.24759971516845311 0 0.34364355802833713 -0.26013278586049449 0 0.36642265066647561 -0.26103092708009029 0 0.33944546394251268 -0.24759971516845311 0 0.35665706999084779 -0.24683748449447171 0 0.36642265066647561 -0.26103092708009029 0 0.34364355802833713 -0.26013278586049449 0 0.35653445796633942 -0.26832741004342209 0 0.36642265066647561 -0.26103092708009029 0 0.35665706999084779 -0.24683748449447171 0 0.37672301458721702 -0.24879166597254401 0 0.36642265066647561 -0.26103092708009029 0 0.35398758770981331 -0.28007448754046588 0 0.36489172183374191 -0.27417931597143241 0 0.36613343536596399 -0.28579093609951589 0 0.35653445796633942 -0.26832741004342209 0 0.36642265066647561 -0.26103092708009029 0 0.36489172183374191 -0.27417931597143241 0 0.37522903347685821 -0.27329080538693917 0 0.36642265066647561 -0.26103092708009029 0 0.36489172183374191 -0.27417931597143241 0 0.36489172183374191 -0.27417931597143241 0 0.37437745269440093 -0.28151076411347892 0 0.36613343536596399 -0.28579093609951589 0 0.37522903347685821 -0.27329080538693917 0 0.36489172183374191 -0.27417931597143241 0 0.37437745269440093 -0.28151076411347892 0 0.37437745269440093 -0.28151076411347892 0 0.37378481346472991 -0.29296134938855722 0 0.36613343536596399 -0.28579093609951589 0 0.35398758770981331 -0.28007448754046588 0 0.36613343536596399 -0.28579093609951589 0 0.3643316173912895 -0.30001618922043721 0 0.37378481346472991 -0.29296134938855722 0 0.36613343536596399 -0.28579093609951589 0 0.3643316173912895 -0.30001618922043721 0 0.34582104006026432 -0.28561723856343929 0 0.34633431705332007 -0.30203892294892759 0 0.3643316173912895 -0.30001618922043721 0 0.35398758770981331 -0.28007448754046588 0 0.3643316173912895 -0.30001618922043721 0 0.35398758770981331 -0.28007448754046588 0 0.34582104006026432 -0.28561723856343929 0 0.3643316173912895 -0.30001618922043721 0 0.3534789725297327 -0.31000168959135932 0 0.34633431705332007 -0.30203892294892759 0 0.33951260742318801 -0.32168540229175302 0 0.3534789725297327 -0.31000168959135932 0 0.34633431705332007 -0.30203892294892759 0 0.3643316173912895 -0.30001618922043721 0 0.3534789725297327 -0.31000168959135932 0 0.3643316173912895 -0.30001618922043721 0 0.36373734825113307 -0.31626624390431962 0 0.3643316173912895 -0.30001618922043721 0 0.36373734825113307 -0.31626624390431962 0 0.37467564707276402 -0.31995789090040938 0 0.3643316173912895 -0.30001618922043721 0 0.37467564707276402 -0.31995789090040938 0 0.3643316173912895 -0.30001618922043721 0 0.37403223464996899 -0.30575991864250951 0 0.37467564707276402 -0.31995789090040938 0 0.37378481346472991 -0.29296134938855722 0 0.3643316173912895 -0.30001618922043721 0 0.37403223464996899 -0.30575991864250951 0 0.36373734825113307 -0.31626624390431962 0 0.37467564707276402 -0.31995789090040938 0 0.35379550038179008 -0.32785877097711869 0 0.37824998550195549 -0.33999355215173233 0 0.35516905648941122 -0.34255076261445522 0 0.37467564707276402 -0.31995789090040938 0 0.35516905648941122 -0.34255076261445522 0 0.37467564707276402 -0.31995789090040938 0 0.35516905648941122 -0.34255076261445522 0 0.35379550038179008 -0.32785877097711869 0 0.38057046934759559 -0.33132220354073461 0 0.37467564707276402 -0.31995789090040938 0 0.35516905648941122 -0.34255076261445522 0 0.37824998550195549 -0.33999355215173233 0 0.38057046934759559 -0.33132220354073461 0 0.35516905648941122 -0.34255076261445522 0 0.35516905648941122 -0.34255076261445522 0 0.35379550038179008 -0.32785877097711869 0 0.33970312645525519 -0.34426428281451299 0 0.35379550038179008 -0.32785877097711869 0 0.33970312645525519 -0.34426428281451299 0 0.33951260742318801 -0.32168540229175302 0 0.35516905648941122 -0.34255076261445522 0 0.33970312645525519 -0.34426428281451299 0 0.36373734825113307 -0.31626624390431962 0 0.35379550038179008 -0.32785877097711869 0 0.33951260742318801 -0.32168540229175302 0 0.36373734825113307 -0.31626624390431962 0 0.33951260742318801 -0.32168540229175302 0 0.3534789725297327 -0.31000168959135932 0 0.36373734825113307 -0.31626624390431962 0 0.33951260742318801 -0.32168540229175302 0 0.37695186048652118 -0.36885426210637501 0 0.36023476968201051 -0.3817132109484076 0 0.36675948965093358 -0.35236410803460089 0 0.36023476968201051 -0.3817132109484076 0 0.36675948965093358 -0.35236410803460089 0 0.35238326162442918 -0.35759237253115789 0 0.36023476968201051 -0.3817132109484076 0 0.36675948965093358 -0.35236410803460089 0 0.37943243478071031 -0.35354406210900052 0 0.37695186048652118 -0.36885426210637501 0 0.36675948965093358 -0.35236410803460089 0 0.37824998550195549 -0.33999355215173233 0 0.35516905648941122 -0.34255076261445522 0 0.36675948965093358 -0.35236410803460089 0 0.37943243478071031 -0.35354406210900052 0 0.37824998550195549 -0.33999355215173233 0 0.36675948965093358 -0.35236410803460089 0 0.35516905648941122 -0.34255076261445522 0 0.35238326162442918 -0.35759237253115789 0 0.33790872805655459 -0.36254197452611708 0 0.35516905648941122 -0.34255076261445522 0 0.33790872805655459 -0.36254197452611708 0 0.35516905648941122 -0.34255076261445522 0 0.33790872805655459 -0.36254197452611708 0 0.33970312645525519 -0.34426428281451299 0 0.35516905648941122 -0.34255076261445522 0 0.36675948965093358 -0.35236410803460089 0 0.35238326162442918 -0.35759237253115789 0 0.36023476968201051 -0.3817132109484076 0 0.35238326162442918 -0.35759237253115789 0 0.34639511780885779 -0.37427017529119 0 0.35238326162442918 -0.35759237253115789 0 0.34639511780885779 -0.37427017529119 0 0.33790872805655459 -0.36254197452611708 0 0.33696056854412382 -0.37917019109103228 0 0.32064839962369818 -0.382533186437779 0 0.33790872805655459 -0.36254197452611708 0 0.32064839962369818 -0.382533186437779 0 0.33790872805655459 -0.36254197452611708 0 0.33696056854412382 -0.37917019109103228 0 0.34639511780885779 -0.37427017529119 0 0.33790872805655459 -0.36254197452611708 0 0.32064839962369818 -0.382533186437779 0 0.33790872805655459 -0.36254197452611708 0 0.32676405694028299 -0.35781631989411922 0 0.33790872805655459 -0.36254197452611708 0 0.33970312645525519 -0.34426428281451299 0 0.32676405694028299 -0.35781631989411922 0 0.33970312645525519 -0.34426428281451299 0 0.32423719642109922 -0.34597780301457048 0 0.32676405694028299 -0.35781631989411922 0 0.33970312645525519 -0.34426428281451299 0 0.32423719642109922 -0.34597780301457048 0 0.32423719642109922 -0.34597780301457048 0 0.31339811963427661 -0.3603557194742753 0 0.30753395186059512 -0.34233973996546557 0 0.32423719642109922 -0.34597780301457048 0 0.32676405694028299 -0.35781631989411922 0 0.31339811963427661 -0.3603557194742753 0 0.32064839962369818 -0.382533186437779 0 0.32676405694028299 -0.35781631989411922 0 0.31339811963427661 -0.3603557194742753 0 0.32064839962369818 -0.382533186437779 0 0.30348702133364058 -0.37836537210184418 0 0.31339811963427661 -0.3603557194742753 0 0.33951260742318801 -0.32168540229175302 0 0.32995595236787378 -0.33427017249997709 0 0.31528786659524299 -0.32710456067918631 0 0.33970312645525519 -0.34426428281451299 0 0.33951260742318801 -0.32168540229175302 0 0.32995595236787378 -0.33427017249997709 0 0.33970312645525519 -0.34426428281451299 0 0.32423719642109922 -0.34597780301457048 0 0.32995595236787378 -0.33427017249997709 0 0.32423719642109922 -0.34597780301457048 0 0.32995595236787378 -0.33427017249997709 0 0.31528786659524299 -0.32710456067918631 0 0.32423719642109922 -0.34597780301457048 0 0.31528786659524299 -0.32710456067918631 0 0.30753395186059512 -0.34233973996546557 0 0.33951260742318801 -0.32168540229175302 0 0.31528786659524299 -0.32710456067918631 0 0.32317977866177072 -0.31323277933141169 0 0.33951260742318801 -0.32168540229175302 0 0.31528786659524299 -0.32710456067918631 0 0.31528786659524299 -0.32710456067918631 0 0.32317977866177072 -0.31323277933141169 0 0.31136203896217979 -0.31154956542103862 0 0.31528786659524299 -0.32710456067918631 0 0.29106312576729809 -0.33252371906661948 0 0.29590793107210478 -0.31839339810666162 0 0.31528786659524299 -0.32710456067918631 0 0.29590793107210478 -0.31839339810666162 0 0.31136203896217979 -0.31154956542103862 0 0.30753395186059512 -0.34233973996546557 0 0.29106312576729809 -0.33252371906661948 0 0.29771809162634338 -0.35510189543187382 0 0.31528786659524299 -0.32710456067918631 0 0.29106312576729809 -0.33252371906661948 0 0.31528786659524299 -0.32710456067918631 0 0.30753395186059512 -0.34233973996546557 0 0.29106312576729809 -0.33252371906661948 0 0.29106312576729809 -0.33252371906661948 0 0.29590793107210478 -0.31839339810666162 0 0.27627542773723512 -0.32535514728647558 0 0.29590793107210478 -0.31839339810666162 0 0.27627542773723512 -0.32535514728647558 0 0.2772032834049557 -0.30780168760098991 0 0.30348702133364058 -0.37836537210184418 0 0.31339811963427661 -0.3603557194742753 0 0.29771809162634338 -0.35510189543187382 0 0.31339811963427661 -0.3603557194742753 0 0.30753395186059512 -0.34233973996546557 0 0.29771809162634338 -0.35510189543187382 0 0.29106312576729809 -0.33252371906661948 0 0.29771809162634338 -0.35510189543187382 0 0.28022169187585499 -0.34960308900527082 0 0.29771809162634338 -0.35510189543187382 0 0.28553059043963769 -0.36725497998784901 0 0.28022169187585499 -0.34960308900527082 0 0.30348702133364058 -0.37836537210184418 0 0.29771809162634338 -0.35510189543187382 0 0.28553059043963769 -0.36725497998784901 0 0.26868156352043798 -0.37129987208895321 0 0.27611478877502349 -0.36943417169444831 0 0.2736536800120577 -0.36120860083818429 0 0.27682442903643628 -0.3779906594642013 0 0.28553059043963769 -0.36725497998784901 0 0.27611478877502349 -0.36943417169444831 0 0.27682442903643628 -0.3779906594642013 0 0.26868156352043798 -0.37129987208895321 0 0.27611478877502349 -0.36943417169444831 0 0.28553059043963769 -0.36725497998784901 0 0.27611478877502349 -0.36943417169444831 0 0.2736536800120577 -0.36120860083818429 0 0.26868156352043798 -0.37129987208895321 0 0.2736536800120577 -0.36120860083818429 0 0.26243895115967791 -0.36126560689837661 0 0.2736536800120577 -0.36120860083818429 0 0.28022169187585499 -0.34960308900527082 0 0.26363462204014693 -0.35151243856530862 0 0.28022169187585499 -0.34960308900527082 0 0.26363462204014693 -0.35151243856530862 0 0.26683838493935308 -0.33794287745405288 0 0.28553059043963769 -0.36725497998784901 0 0.2736536800120577 -0.36120860083818429 0 0.28022169187585499 -0.34960308900527082 0 0.2736536800120577 -0.36120860083818429 0 0.26363462204014693 -0.35151243856530862 0 0.26243895115967791 -0.36126560689837661 0 0.26363462204014693 -0.35151243856530862 0 0.26683838493935308 -0.33794287745405288 0 0.25639758549380293 -0.34191423803772991 0 0.26363462204014693 -0.35151243856530862 0 0.25123768703370608 -0.35330126935272038 0 0.25639758549380293 -0.34191423803772991 0 0.25123768703370608 -0.35330126935272038 0 0.25639758549380293 -0.34191423803772991 0 0.2431082137690814 -0.33809774968166451 0 0.26363462204014693 -0.35151243856530862 0 0.25123768703370608 -0.35330126935272038 0 0.26243895115967791 -0.36126560689837661 0 0.25123768703370608 -0.35330126935272038 0 0.26243895115967791 -0.36126560689837661 0 0.25498720319204082 -0.36900585364671662 0 0.26544419704030642 -0.37912344317440089 0 0.26868156352043798 -0.37129987208895321 0 0.25498720319204082 -0.36900585364671662 0 0.26868156352043798 -0.37129987208895321 0 0.26243895115967791 -0.36126560689837661 0 0.25498720319204082 -0.36900585364671662 0 0.27627542773723512 -0.32535514728647558 0 0.26551792236663962 -0.31881000561372919 0 0.2772032834049557 -0.30780168760098991 0 0.27627542773723512 -0.32535514728647558 0 0.25701690261161758 -0.33029611939492642 0 0.26551792236663962 -0.31881000561372919 0 0.27627542773723512 -0.32535514728647558 0 0.26683838493935308 -0.33794287745405288 0 0.25701690261161758 -0.33029611939492642 0 0.29106312576729809 -0.33252371906661948 0 0.28022169187585499 -0.34960308900527082 0 0.26683838493935308 -0.33794287745405288 0 0.29106312576729809 -0.33252371906661948 0 0.27627542773723512 -0.32535514728647558 0 0.26683838493935308 -0.33794287745405288 0 0.29106312576729809 -0.33252371906661948 0 0.26683838493935308 -0.33794287745405288 0 0.26683838493935308 -0.33794287745405288 0 0.25639758549380293 -0.34191423803772991 0 0.25701690261161758 -0.33029611939492642 0 0.25639758549380293 -0.34191423803772991 0 0.25701690261161758 -0.33029611939492642 0 0.2431082137690814 -0.33809774968166451 0 0.25701690261161758 -0.33029611939492642 0 0.25086339927847218 -0.31068236739442168 0 0.2423481908646003 -0.3237944287766194 0 0.25701690261161758 -0.33029611939492642 0 0.26551792236663962 -0.31881000561372919 0 0.25086339927847218 -0.31068236739442168 0 0.25701690261161758 -0.33029611939492642 0 0.25086339927847218 -0.31068236739442168 0 0.25086339927847218 -0.31068236739442168 0 0.25446377432512612 -0.30286586320221309 0 0.24776843283644809 -0.3008174333954784 0 0.25086339927847218 -0.31068236739442168 0 0.2772032834049557 -0.30780168760098991 0 0.25086339927847218 -0.31068236739442168 0 0.25446377432512612 -0.30286586320221309 0 0.2772032834049557 -0.30780168760098991 0 0.26551792236663962 -0.31881000561372919 0 0.25086339927847218 -0.31068236739442168 0 0.2772032834049557 -0.30780168760098991 0 0.25446377432512612 -0.30286586320221309 0 0.25604046375313122 -0.2949213332279822 0 0.24776843283644809 -0.3008174333954784 0 0.25446377432512612 -0.30286586320221309 0 0.24776843283644809 -0.3008174333954784 0 0.25446377432512612 -0.30286586320221309 0 0.25604046375313122 -0.2949213332279822 0 0.26789382311303012 -0.29584193047881979 0 0.25625752529558909 -0.28698173806220589 0 0.26789382311303012 -0.29584193047881979 0 0.26325857627211779 -0.27964988826541648 0 0.25625752529558909 -0.28698173806220589 0 0.25022480277021308 -0.28279142013568742 0 0.25322681224375199 -0.27651438500400022 0 0.25625752529558909 -0.28698173806220589 0 0.25022480277021308 -0.28279142013568742 0 0.24869199004326281 -0.29071129202441531 0 0.25604046375313122 -0.2949213332279822 0 0.24869199004326281 -0.29071129202441531 0 0.24776843283644809 -0.3008174333954784 0 0.25625752529558909 -0.28698173806220589 0 0.25604046375313122 -0.2949213332279822 0 0.24869199004326281 -0.29071129202441531 0 0.25625752529558909 -0.28698173806220589 0 0.25604046375313122 -0.2949213332279822 0 0.26789382311303012 -0.29584193047881979 0 0.27330524408864559 -0.28148547968846821 0 0.26789382311303012 -0.29584193047881979 0 0.26325857627211779 -0.27964988826541648 0 0.27330524408864559 -0.28148547968846821 0 0.26789382311303012 -0.29584193047881979 0 0.2788370150043904 -0.29098390786030098 0 0.27330524408864559 -0.28148547968846821 0 0.2788370150043904 -0.29098390786030098 0 0.28273136609175542 -0.27861764693894647 0 0.25446377432512612 -0.30286586320221309 0 0.26789382311303012 -0.29584193047881979 0 0.2772032834049557 -0.30780168760098991 0 0.26789382311303012 -0.29584193047881979 0 0.2788370150043904 -0.29098390786030098 0 0.2772032834049557 -0.30780168760098991 0 0.2788370150043904 -0.29098390786030098 0 0.2772032834049557 -0.30780168760098991 0 0.29088539845366929 -0.29690427547828258 0 0.29590793107210478 -0.31839339810666162 0 0.2772032834049557 -0.30780168760098991 0 0.30354316753143901 -0.30492100780755721 0 0.2772032834049557 -0.30780168760098991 0 0.29088539845366929 -0.29690427547828258 0 0.30354316753143901 -0.30492100780755721 0 0.2772032834049557 -0.30780168760098991 0 0.30354316753143901 -0.30492100780755721 0 0.2788370150043904 -0.29098390786030098 0 0.29088539845366929 -0.29690427547828258 0 0.28739863398512339 -0.28687343883761229 0 0.2788370150043904 -0.29098390786030098 0 0.28739863398512339 -0.28687343883761229 0 0.28273136609175542 -0.27861764693894647 0 0.28739863398512339 -0.28687343883761229 0 0.29631626373528303 -0.28745841315880249 0 0.2926933119130653 -0.27579168963996692 0 0.29088539845366929 -0.29690427547828258 0 0.28739863398512339 -0.28687343883761229 0 0.29631626373528303 -0.28745841315880249 0 0.29088539845366929 -0.29690427547828258 0 0.29631626373528303 -0.28745841315880249 0 0.30128251763758129 -0.29442549046325839 0 0.30128251763758129 -0.29442549046325839 0 0.30972813465634452 -0.30179267727415732 0 0.30593962381117101 -0.28105107859749251 0 0.29631626373528303 -0.28745841315880249 0 0.30128251763758129 -0.29442549046325839 0 0.30593962381117101 -0.28105107859749251 0 0.29631626373528303 -0.28745841315880249 0 0.30593962381117101 -0.28105107859749251 0 0.2926933119130653 -0.27579168963996692 0 0.30128251763758129 -0.29442549046325839 0 0.30972813465634452 -0.30179267727415732 0 0.30354316753143901 -0.30492100780755721 0 0.30972813465634452 -0.30179267727415732 0 0.31136203896217979 -0.31154956542103862 0 0.30354316753143901 -0.30492100780755721 0 0.29590793107210478 -0.31839339810666162 0 0.31136203896217979 -0.31154956542103862 0 0.30354316753143901 -0.30492100780755721 0 0.29088539845366929 -0.29690427547828258 0 0.30128251763758129 -0.29442549046325839 0 0.30354316753143901 -0.30492100780755721 0 0.30046264092450109 -0.26535474955207089 0 0.31071280805396301 -0.25322095810988843 0 0.29515246101341941 -0.25144823455394449 0 0.31348716137170268 -0.26553265526387199 0 0.30046264092450109 -0.26535474955207089 0 0.31071280805396301 -0.25322095810988843 0 0.31348716137170268 -0.26553265526387199 0 0.30046264092450109 -0.26535474955207089 0 0.30593962381117101 -0.28105107859749251 0 0.30046264092450109 -0.26535474955207089 0 0.30593962381117101 -0.28105107859749251 0 0.2926933119130653 -0.27579168963996692 0 0.30046264092450109 -0.26535474955207089 0 0.2926933119130653 -0.27579168963996692 0 0.28373898675636078 -0.26573195978185182 0 0.28739863398512339 -0.28687343883761229 0 0.2926933119130653 -0.27579168963996692 0 0.28273136609175542 -0.27861764693894647 0 0.2926933119130653 -0.27579168963996692 0 0.28273136609175542 -0.27861764693894647 0 0.28373898675636078 -0.26573195978185182 0 0.30046264092450109 -0.26535474955207089 0 0.28373898675636078 -0.26573195978185182 0 0.29515246101341941 -0.25144823455394449 0 0.28373898675636078 -0.26573195978185182 0 0.29515246101341941 -0.25144823455394449 0 0.26910092132095192 -0.25375690703995157 0 0.26910092132095192 -0.25375690703995157 0 0.2707083140504985 -0.2710174460499114 0 0.257565180952535 -0.26757297057990331 0 0.28373898675636078 -0.26573195978185182 0 0.26910092132095192 -0.25375690703995157 0 0.2707083140504985 -0.2710174460499114 0 0.27330524408864559 -0.28148547968846821 0 0.28273136609175542 -0.27861764693894647 0 0.2707083140504985 -0.2710174460499114 0 0.28273136609175542 -0.27861764693894647 0 0.28373898675636078 -0.26573195978185182 0 0.2707083140504985 -0.2710174460499114 0 0.27330524408864559 -0.28148547968846821 0 0.2707083140504985 -0.2710174460499114 0 0.26325857627211779 -0.27964988826541648 0 0.26325857627211779 -0.27964988826541648 0 0.257565180952535 -0.26757297057990331 0 0.25322681224375199 -0.27651438500400022 0 0.2707083140504985 -0.2710174460499114 0 0.26325857627211779 -0.27964988826541648 0 0.257565180952535 -0.26757297057990331 0 0.257565180952535 -0.26757297057990331 0 0.25322681224375199 -0.27651438500400022 0 0.24573736844452179 -0.27130073928653498 0 0.25625752529558909 -0.28698173806220589 0 0.26325857627211779 -0.27964988826541648 0 0.25322681224375199 -0.27651438500400022 0 0.25022480277021308 -0.28279142013568742 0 0.25322681224375199 -0.27651438500400022 0 0.24757192396087541 -0.27775477871457482 0 0.25254176980284321 -0.24245692298047161 0 0.26910092132095192 -0.25375690703995157 0 0.25404973924343338 -0.25618606862097643 0 0.26910092132095192 -0.25375690703995157 0 0.257565180952535 -0.26757297057990331 0 0.25404973924343338 -0.25618606862097643 0 0.257565180952535 -0.26757297057990331 0 0.25404973924343338 -0.25618606862097643 0 0.24620137906514489 -0.26357843379564189 0 0.24620137906514489 -0.26357843379564189 0 0.24010795572092519 -0.27640033467708042 0 0.2330558259540863 -0.25392228975962328 0 0.24010795572092519 -0.27640033467708042 0 0.2330558259540863 -0.25392228975962328 0 0.25404973924343338 -0.25618606862097643 0 0.24396828193444881 -0.25131377364279722 0 0.24620137906514489 -0.26357843379564189 0 0.24396828193444881 -0.25131377364279722 0 0.24620137906514489 -0.26357843379564189 0 0.2330558259540863 -0.25392228975962328 0 0.24532132067530391 -0.28079020595513859 0 0.24265734797019839 -0.27742701335793651 0 0.24010795572092519 -0.27640033467708042 0 0.24532132067530391 -0.28079020595513859 0 0.24265734797019839 -0.27742701335793651 0 0.24757192396087541 -0.27775477871457482 0 0.25022480277021308 -0.28279142013568742 0 0.24532132067530391 -0.28079020595513859 0 0.24757192396087541 -0.27775477871457482 0 0.25322681224375199 -0.27651438500400022 0 0.24757192396087541 -0.27775477871457482 0 0.24573736844452179 -0.27130073928653498 0 0.24265734797019839 -0.27742701335793651 0 0.24573736844452179 -0.27130073928653498 0 0.24010795572092519 -0.27640033467708042 0 0.24265734797019839 -0.27742701335793651 0 0.24757192396087541 -0.27775477871457482 0 0.24573736844452179 -0.27130073928653498 0 0.24620137906514489 -0.26357843379564189 0 0.24573736844452179 -0.27130073928653498 0 0.24010795572092519 -0.27640033467708042 0 0.257565180952535 -0.26757297057990331 0 0.24620137906514489 -0.26357843379564189 0 0.24573736844452179 -0.27130073928653498 0 0.24265734797019839 -0.27742701335793651 0 0.24010795572092519 -0.27640033467708042 0 0.24010795572092519 -0.27640033467708042 0 0.21515736330576901 -0.26635235507932931 0 0.24010795572092519 -0.27640033467708042 0 0.22498494991879719 -0.27795099227718112 0 0.21515736330576901 -0.26635235507932931 0 0.24010795572092519 -0.27640033467708042 0 0.22498494991879719 -0.27795099227718112 0 0.2334077021475654 -0.28693147527741708 0 0.2330558259540863 -0.25392228975962328 0 0.21515736330576901 -0.26635235507932931 0 0.21604104887663891 -0.2491511282779057 0 0.24010795572092519 -0.27640033467708042 0 0.2330558259540863 -0.25392228975962328 0 0.21515736330576901 -0.26635235507932931 0 0.21515736330576901 -0.26635235507932931 0 0.19020677089061289 -0.25630437548157792 0 0.21604104887663891 -0.2491511282779057 0 0.22498494991879719 -0.27795099227718112 0 0.21515736330576901 -0.26635235507932931 0 0.1937705073917341 -0.28429684812437978 0 0.21515736330576901 -0.26635235507932931 0 0.19020677089061289 -0.25630437548157792 0 0.1937705073917341 -0.28429684812437978 0 0.19020677089061289 -0.25630437548157792 0 0.1937705073917341 -0.28429684812437978 0 0.18055628326280021 -0.26862551876869428 0 0.21515736330576901 -0.26635235507932931 0 0.19020677089061289 -0.25630437548157792 0 0.2014057929462558 -0.30171798940397437 0 0.1937705073917341 -0.28429684812437978 0 0.18326503966091029 -0.30550346997946398 0 0.2014057929462558 -0.30171798940397437 0 0.19503130186861281 -0.31542092679971467 0 0.18326503966091029 -0.30550346997946398 0 0.2014057929462558 -0.30171798940397437 0 0.2116184575266194 -0.3149744178133288 0 0.19503130186861281 -0.31542092679971467 0 0.1937705073917341 -0.28429684812437978 0 0.2207694701140912 -0.29255714075992878 0 0.2014057929462558 -0.30171798940397437 0 0.1937705073917341 -0.28429684812437978 0 0.2207694701140912 -0.29255714075992878 0 0.22498494991879719 -0.27795099227718112 0 0.1937705073917341 -0.28429684812437978 0 0.2207694701140912 -0.29255714075992878 0 0.2014057929462558 -0.30171798940397437 0 0.2207694701140912 -0.29255714075992878 0 0.2116184575266194 -0.3149744178133288 0 0.2207694701140912 -0.29255714075992878 0 0.24776843283644809 -0.3008174333954784 0 0.23124092840254579 -0.31282839260387568 0 0.2207694701140912 -0.29255714075992878 0 0.23124092840254579 -0.31282839260387568 0 0.2116184575266194 -0.3149744178133288 0 0.2207694701140912 -0.29255714075992878 0 0.24776843283644809 -0.3008174333954784 0 0.2207694701140912 -0.29255714075992878 0 0.2334077021475654 -0.28693147527741708 0 0.24776843283644809 -0.3008174333954784 0 0.22498494991879719 -0.27795099227718112 0 0.2207694701140912 -0.29255714075992878 0 0.2334077021475654 -0.28693147527741708 0 0.24010795572092519 -0.27640033467708042 0 0.24776843283644809 -0.3008174333954784 0 0.24010795572092519 -0.27640033467708042 0 0.24869199004326281 -0.29071129202441531 0 0.24776843283644809 -0.3008174333954784 0 0.24010795572092519 -0.27640033467708042 0 0.2334077021475654 -0.28693147527741708 0 0.24776843283644809 -0.3008174333954784 0 0.24532132067530391 -0.28079020595513859 0 0.24010795572092519 -0.27640033467708042 0 0.24869199004326281 -0.29071129202441531 0 0.25022480277021308 -0.28279142013568742 0 0.24532132067530391 -0.28079020595513859 0 0.24869199004326281 -0.29071129202441531 0 0.25086339927847218 -0.31068236739442168 0 0.23124092840254579 -0.31282839260387568 0 0.25086339927847218 -0.31068236739442168 0 0.24776843283644809 -0.3008174333954784 0 0.23124092840254579 -0.31282839260387568 0 0.25086339927847218 -0.31068236739442168 0 0.24776843283644809 -0.3008174333954784 0 0.25086339927847218 -0.31068236739442168 0 0.2423481908646003 -0.3237944287766194 0 0.23124092840254579 -0.31282839260387568 0 0.25701690261161758 -0.33029611939492642 0 0.2423481908646003 -0.3237944287766194 0 0.2431082137690814 -0.33809774968166451 0 0.2423481908646003 -0.3237944287766194 0 0.2431082137690814 -0.33809774968166451 0 0.22705000765481281 -0.32843075105587233 0 0.22433231064312131 -0.34369741759468853 0 0.22705000765481281 -0.32843075105587233 0 0.20946074650584509 -0.33906567699239382 0 0.2431082137690814 -0.33809774968166451 0 0.22433231064312131 -0.34369741759468853 0 0.22705000765481281 -0.32843075105587233 0 0.23124092840254579 -0.31282839260387568 0 0.2116184575266194 -0.3149744178133288 0 0.22705000765481281 -0.32843075105587233 0 0.23124092840254579 -0.31282839260387568 0 0.2116184575266194 -0.3149744178133288 0 0.2423481908646003 -0.3237944287766194 0 0.22705000765481281 -0.32843075105587233 0 0.23124092840254579 -0.31282839260387568 0 0.25123768703370608 -0.35330126935272038 0 0.25498720319204082 -0.36900585364671662 0 0.2396381804209676 -0.36364399304919481 0 0.2396381804209676 -0.36364399304919481 0 0.242832845791846 -0.37596734926023812 0 0.2285004544620334 -0.37753750688154131 0 0.25498720319204082 -0.36900585364671662 0 0.2396381804209676 -0.36364399304919481 0 0.242832845791846 -0.37596734926023812 0 0.2431082137690814 -0.33809774968166451 0 0.22433231064312131 -0.34369741759468853 0 0.2369755267153292 -0.35173190726592851 0 0.2396381804209676 -0.36364399304919481 0 0.2369755267153292 -0.35173190726592851 0 0.22656124170976949 -0.35991910665137422 0 0.25123768703370608 -0.35330126935272038 0 0.2396381804209676 -0.36364399304919481 0 0.2369755267153292 -0.35173190726592851 0 0.25123768703370608 -0.35330126935272038 0 0.2431082137690814 -0.33809774968166451 0 0.2369755267153292 -0.35173190726592851 0 0.22433231064312131 -0.34369741759468853 0 0.22656124170976949 -0.35991910665137422 0 0.21525084843860801 -0.35894614699781568 0 0.22433231064312131 -0.34369741759468853 0 0.2369755267153292 -0.35173190726592851 0 0.22656124170976949 -0.35991910665137422 0 0.22656124170976949 -0.35991910665137422 0 0.2181707349711435 -0.36962833341999679 0 0.2285004544620334 -0.37753750688154131 0 0.2396381804209676 -0.36364399304919481 0 0.22656124170976949 -0.35991910665137422 0 0.2285004544620334 -0.37753750688154131 0 0.22656124170976949 -0.35991910665137422 0 0.2181707349711435 -0.36962833341999679 0 0.21525084843860801 -0.35894614699781568 0 0.21066048371759619 -0.37442696402615772 0 0.2049294896595992 -0.36989950165104257 0 0.2010693806510265 -0.37613173570953429 0 0.21066048371759619 -0.37442696402615772 0 0.2049294896595992 -0.36989950165104257 0 0.20984827635469561 -0.36550946973078369 0 0.21066048371759619 -0.37442696402615772 0 0.2181707349711435 -0.36962833341999679 0 0.21775842382520541 -0.38051727648452871 0 0.21066048371759619 -0.37442696402615772 0 0.2181707349711435 -0.36962833341999679 0 0.20984827635469561 -0.36550946973078369 0 0.2181707349711435 -0.36962833341999679 0 0.20984827635469561 -0.36550946973078369 0 0.21525084843860801 -0.35894614699781568 0 0.20836172020937849 -0.36107351896847978 0 0.20984827635469561 -0.36550946973078369 0 0.21525084843860801 -0.35894614699781568 0 0.20836172020937849 -0.36107351896847978 0 0.20562471189297149 -0.35587777827516232 0 0.20272304415123901 -0.3639606808701577 0 0.2049294896595992 -0.36989950165104257 0 0.20984827635469561 -0.36550946973078369 0 0.20272304415123901 -0.3639606808701577 0 0.20836172020937849 -0.36107351896847978 0 0.20984827635469561 -0.36550946973078369 0 0.20272304415123901 -0.3639606808701577 0 0.22433231064312131 -0.34369741759468853 0 0.20562471189297149 -0.35587777827516232 0 0.21525084843860801 -0.35894614699781568 0 0.22433231064312131 -0.34369741759468853 0 0.20562471189297149 -0.35587777827516232 0 0.20946074650584509 -0.33906567699239382 0 0.22433231064312131 -0.34369741759468853 0 0.20562471189297149 -0.35587777827516232 0 0.20415112748724831 -0.35370891388774639 0 0.20562471189297149 -0.35587777827516232 0 0.20946074650584509 -0.33906567699239382 0 0.20836172020937849 -0.36107351896847978 0 0.20562471189297149 -0.35587777827516232 0 0.21525084843860801 -0.35894614699781568 0 0.20415112748724831 -0.35370891388774639 0 0.20946074650584509 -0.33906567699239382 0 0.19936201877516391 -0.34079447934275442 0 0.20415112748724831 -0.35370891388774639 0 0.18921850154452771 -0.33968994101290623 0 0.17573949946056469 -0.34428206054373028 0 0.20415112748724831 -0.35370891388774639 0 0.18691711314282161 -0.36805813895563588 0 0.17573949946056469 -0.34428206054373028 0 0.20415112748724831 -0.35370891388774639 0 0.20562471189297149 -0.35587777827516232 0 0.18691711314282161 -0.36805813895563588 0 0.20415112748724831 -0.35370891388774639 0 0.17573949946056469 -0.34428206054373028 0 0.20415112748724831 -0.35370891388774639 0 0.19936201877516391 -0.34079447934275442 0 0.18921850154452771 -0.33968994101290623 0 0.20562471189297149 -0.35587777827516232 0 0.20272304415123901 -0.3639606808701577 0 0.18691711314282161 -0.36805813895563588 0 0.20272304415123901 -0.3639606808701577 0 0.19897090735894199 -0.36859944390072902 0 0.18691711314282161 -0.36805813895563588 0 0.20562471189297149 -0.35587777827516232 0 0.18691711314282161 -0.36805813895563588 0 0.19471976580065981 -0.37287317811451831 0 0.18691711314282161 -0.36805813895563588 0 0.19192166204984901 -0.37870339389217389 0 0.19471976580065981 -0.37287317811451831 0 0.19897090735894199 -0.36859944390072902 0 0.18691711314282161 -0.36805813895563588 0 0.18691711314282161 -0.36805813895563588 0 0.19192166204984901 -0.37870339389217389 0 0.19471976580065981 -0.37287317811451831 0 0.19897090735894199 -0.36859944390072902 0 0.2010693806510265 -0.37613173570953429 0 0.2049294896595992 -0.36989950165104257 0 0.20272304415123901 -0.3639606808701577 0 0.19897090735894199 -0.36859944390072902 0 0.2049294896595992 -0.36989950165104257 0 0.19897090735894199 -0.36859944390072902 0 0.2010693806510265 -0.37613173570953429 0 0.2116184575266194 -0.3149744178133288 0 0.20946074650584509 -0.33906567699239382 0 0.1968552543807344 -0.33015628834046679 0 0.22705000765481281 -0.32843075105587233 0 0.2116184575266194 -0.3149744178133288 0 0.20946074650584509 -0.33906567699239382 0 0.1968552543807344 -0.33015628834046679 0 0.18921850154452771 -0.33968994101290623 0 0.18072487074388841 -0.32683389668981139 0 0.20946074650584509 -0.33906567699239382 0 0.1968552543807344 -0.33015628834046679 0 0.19936201877516391 -0.34079447934275442 0 0.1968552543807344 -0.33015628834046679 0 0.19936201877516391 -0.34079447934275442 0 0.18921850154452771 -0.33968994101290623 0 0.2116184575266194 -0.3149744178133288 0 0.1968552543807344 -0.33015628834046679 0 0.19503130186861281 -0.31542092679971467 0 0.1968552543807344 -0.33015628834046679 0 0.19503130186861281 -0.31542092679971467 0 0.18072487074388841 -0.32683389668981139 0 0.18072487074388841 -0.32683389668981139 0 0.16391395248505911 -0.31912775300135249 0 0.18326503966091029 -0.30550346997946398 0 0.19503130186861281 -0.31542092679971467 0 0.18072487074388841 -0.32683389668981139 0 0.18326503966091029 -0.30550346997946398 0 0.18072487074388841 -0.32683389668981139 0 0.16391395248505911 -0.31912775300135249 0 0.17573949946056469 -0.34428206054373028 0 0.18921850154452771 -0.33968994101290623 0 0.18072487074388841 -0.32683389668981139 0 0.17573949946056469 -0.34428206054373028 0 0.17573949946056469 -0.34428206054373028 0 0.15560645275465351 -0.33760200410745261 0 0.16391395248505911 -0.31912775300135249 0 0.17573949946056469 -0.34428206054373028 0 0.15560645275465351 -0.33760200410745261 0 0.16391395248505911 -0.31912775300135249 0 0.17573949946056469 -0.34428206054373028 0 0.18691711314282161 -0.36805813895563588 0 0.16825652426709259 -0.36345395167225159 0 0.16907849560872271 -0.37967271325286439 0 0.18691711314282161 -0.36805813895563588 0 0.1836332806757521 -0.37678614185270382 0 0.16907849560872271 -0.37967271325286439 0 0.18691711314282161 -0.36805813895563588 0 0.16907849560872271 -0.37967271325286439 0 0.18691711314282161 -0.36805813895563588 0 0.19192166204984901 -0.37870339389217389 0 0.1836332806757521 -0.37678614185270382 0 0.18691711314282161 -0.36805813895563588 0 0.17573949946056469 -0.34428206054373028 0 0.16825652426709259 -0.36345395167225159 0 0.18691711314282161 -0.36805813895563588 0 0.17573949946056469 -0.34428206054373028 0 0.17573949946056469 -0.34428206054373028 0 0.16825652426709259 -0.36345395167225159 0 0.1558231631185594 -0.35343917322010099 0 0.17573949946056469 -0.34428206054373028 0 0.1558231631185594 -0.35343917322010099 0 0.15560645275465351 -0.33760200410745261 0 0.16825652426709259 -0.36345395167225159 0 0.1545036698660559 -0.37277453059902987 0 0.1558231631185594 -0.35343917322010099 0 0.16825652426709259 -0.36345395167225159 0 0.1545036698660559 -0.37277453059902987 0 0.16907849560872271 -0.37967271325286439 0 0.1436604164714472 -0.36208219920794948 0 0.1545036698660559 -0.37277453059902987 0 0.1558231631185594 -0.35343917322010099 0 0.1436604164714472 -0.36208219920794948 0 0.1545036698660559 -0.37277453059902987 0 0.13957935105526451 -0.38232133893395093 0 0.1436604164714472 -0.36208219920794948 0 0.1558231631185594 -0.35343917322010099 0 0.14166129829240681 -0.34595179648038882 0 0.1558231631185594 -0.35343917322010099 0 0.14166129829240681 -0.34595179648038882 0 0.15560645275465351 -0.33760200410745261 0 0.1436604164714472 -0.36208219920794948 0 0.1228771392492745 -0.34884433669878362 0 0.1436604164714472 -0.36208219920794948 0 0.14166129829240681 -0.34595179648038882 0 0.1228771392492745 -0.34884433669878362 0 0.1436604164714472 -0.36208219920794948 0 0.13957935105526451 -0.38232133893395093 0 0.11847591279834881 -0.36822876780275732 0 0.1436604164714472 -0.36208219920794948 0 0.11847591279834881 -0.36822876780275732 0 0.1228771392492745 -0.34884433669878362 0 0.16391395248505911 -0.31912775300135249 0 0.14587594382794269 -0.31920847345960379 0 0.15560645275465351 -0.33760200410745261 0 0.16391395248505911 -0.31912775300135249 0 0.14587594382794269 -0.31920847345960379 0 0.14881662262757281 -0.30623937681366242 0 0.14166129829240681 -0.34595179648038882 0 0.15560645275465351 -0.33760200410745261 0 0.13547340604874281 -0.33092194767117361 0 0.14587594382794269 -0.31920847345960379 0 0.15560645275465351 -0.33760200410745261 0 0.13547340604874281 -0.33092194767117361 0 0.15560645275465351 -0.33760200410745261 0 0.13547340604874281 -0.33092194767117361 0 0.14166129829240681 -0.34595179648038882 0 0.13547340604874281 -0.33092194767117361 0 0.1228771392492745 -0.34884433669878362 0 0.13547340604874281 -0.33092194767117361 0 0.1153403593428321 -0.32424189123489439 0 0.13547340604874281 -0.33092194767117361 0 0.1309845370891318 -0.3158440886429672 0 0.1153403593428321 -0.32424189123489439 0 0.14587594382794269 -0.31920847345960379 0 0.13547340604874281 -0.33092194767117361 0 0.1309845370891318 -0.3158440886429672 0 0.14587594382794269 -0.31920847345960379 0 0.1309845370891318 -0.3158440886429672 0 0.13867340791257179 -0.30462705778637439 0 0.1309845370891318 -0.3158440886429672 0 0.12730726354009719 -0.30188827071706897 0 0.13867340791257179 -0.30462705778637439 0 0.1309845370891318 -0.3158440886429672 0 0.12730726354009719 -0.30188827071706897 0 0.1191619686692367 -0.30998468857291861 0 0.13867340791257179 -0.30462705778637439 0 0.1428980852463976 -0.29717517254619508 0 0.13497440129592231 -0.29454686326503671 0 0.12730726354009719 -0.30188827071706897 0 0.13867340791257179 -0.30462705778637439 0 0.13497440129592231 -0.29454686326503671 0 0.16391395248505911 -0.31912775300135249 0 0.14881662262757281 -0.30623937681366242 0 0.15208840550955269 -0.29397344545897502 0 0.14587594382794269 -0.31920847345960379 0 0.13867340791257179 -0.30462705778637439 0 0.14881662262757281 -0.30623937681366242 0 0.1428980852463976 -0.29717517254619508 0 0.14881662262757281 -0.30623937681366242 0 0.15208840550955269 -0.29397344545897502 0 0.13867340791257179 -0.30462705778637439 0 0.1428980852463976 -0.29717517254619508 0 0.14881662262757281 -0.30623937681366242 0 0.1428980852463976 -0.29717517254619508 0 0.15208840550955269 -0.29397344545897502 0 0.13993758888636859 -0.28648911940692712 0 0.15208840550955269 -0.29397344545897502 0 0.13993758888636859 -0.28648911940692712 0 0.14011326991300571 -0.27863147398200661 0 0.13993758888636859 -0.28648911940692712 0 0.13369360801809119 -0.28149201506558541 0 0.1360124706129302 -0.27845885417339611 0 0.13993758888636859 -0.28648911940692712 0 0.13369360801809119 -0.28149201506558541 0 0.1327902443437004 -0.28776366286979771 0 0.13993758888636859 -0.28648911940692712 0 0.13497440129592231 -0.29454686326503671 0 0.1327902443437004 -0.28776366286979771 0 0.1428980852463976 -0.29717517254619508 0 0.13993758888636859 -0.28648911940692712 0 0.13497440129592231 -0.29454686326503671 0 0.12730726354009719 -0.30188827071706897 0 0.13497440129592231 -0.29454686326503671 0 0.12545141895879261 -0.29063990132090112 0 0.13497440129592231 -0.29454686326503671 0 0.12545141895879261 -0.29063990132090112 0 0.1327902443437004 -0.28776366286979771 0 0.12545141895879261 -0.29063990132090112 0 0.1327902443437004 -0.28776366286979771 0 0.12582108285277899 -0.27941507326196968 0 0.13369360801809119 -0.28149201506558541 0 0.1327902443437004 -0.28776366286979771 0 0.12582108285277899 -0.27941507326196968 0 0.12582108285277899 -0.27941507326196968 0 0.12948723380283411 -0.27367699409482249 0 0.12444666248577969 -0.26773303321091391 0 0.13369360801809119 -0.28149201506558541 0 0.12582108285277899 -0.27941507326196968 0 0.13244656068483929 -0.27684216628871677 0 0.12582108285277899 -0.27941507326196968 0 0.13244656068483929 -0.27684216628871677 0 0.12948723380283411 -0.27367699409482249 0 0.13244656068483929 -0.27684216628871677 0 0.12948723380283411 -0.27367699409482249 0 0.1349113017268668 -0.27359203630535711 0 0.12948723380283411 -0.27367699409482249 0 0.13311057593662709 -0.27007557570711149 0 0.12444666248577969 -0.26773303321091391 0 0.13311057593662709 -0.27007557570711149 0 0.13591983717001119 -0.26659752129808051 0 0.12444666248577969 -0.26773303321091391 0 0.12948723380283411 -0.27367699409482249 0 0.13311057593662709 -0.27007557570711149 0 0.1349113017268668 -0.27359203630535711 0 0.13311057593662709 -0.27007557570711149 0 0.1367119720514634 -0.26854882582998219 0 0.13746699420826949 -0.27045625063078671 0 0.13311057593662709 -0.27007557570711149 0 0.13746699420826949 -0.27045625063078671 0 0.1349113017268668 -0.27359203630535711 0 0.1397725819470203 -0.26777626285328088 0 0.13746699420826949 -0.27045625063078671 0 0.14011326991300571 -0.27863147398200661 0 0.13311057593662709 -0.27007557570711149 0 0.1367119720514634 -0.26854882582998219 0 0.13591983717001119 -0.26659752129808051 0 0.13591983717001119 -0.26659752129808051 0 0.1397725819470203 -0.26777626285328088 0 0.138276163955104 -0.26874024163247368 0 0.1397725819470203 -0.26777626285328088 0 0.13746699420826949 -0.27045625063078671 0 0.1367119720514634 -0.26854882582998219 0 0.13591983717001119 -0.26659752129808051 0 0.1397725819470203 -0.26777626285328088 0 0.1367119720514634 -0.26854882582998219 0 0.138276163955104 -0.26874024163247368 0 0.1397725819470203 -0.26777626285328088 0 0.1367119720514634 -0.26854882582998219 0 0.138276163955104 -0.26874024163247368 0 0.13746699420826949 -0.27045625063078671 0 0.13746699420826949 -0.27045625063078671 0 0.14011326991300571 -0.27863147398200661 0 0.1349113017268668 -0.27359203630535711 0 0.14011326991300571 -0.27863147398200661 0 0.1360124706129302 -0.27845885417339611 0 0.1349113017268668 -0.27359203630535711 0 0.13993758888636859 -0.28648911940692712 0 0.14011326991300571 -0.27863147398200661 0 0.1360124706129302 -0.27845885417339611 0 0.13369360801809119 -0.28149201506558541 0 0.13244656068483929 -0.27684216628871677 0 0.1360124706129302 -0.27845885417339611 0 0.13244656068483929 -0.27684216628871677 0 0.1360124706129302 -0.27845885417339611 0 0.1349113017268668 -0.27359203630535711 0 0.1360573203735046 -0.2598734713448459 0 0.11752926043120079 -0.25008636991584848 0 0.13078172172674321 -0.2458027894733521 0 0.13591983717001119 -0.26659752129808051 0 0.1397725819470203 -0.26777626285328088 0 0.11752926043120079 -0.25008636991584848 0 0.13591983717001119 -0.26659752129808051 0 0.11752926043120079 -0.25008636991584848 0 0.12444666248577969 -0.26773303321091391 0 0.1397725819470203 -0.26777626285328088 0 0.11752926043120079 -0.25008636991584848 0 0.1397725819470203 -0.26777626285328088 0 0.1360573203735046 -0.2598734713448459 0 0.11752926043120079 -0.25008636991584848 0 0.1397725819470203 -0.26777626285328088 0 0.1360573203735046 -0.2598734713448459 0 0.1397725819470203 -0.26777626285328088 0 0.1360573203735046 -0.2598734713448459 0 0.14577477609173189 -0.25952772959407833 0 0.1360573203735046 -0.2598734713448459 0 0.14259733537338229 -0.24843802833874881 0 0.13078172172674321 -0.2458027894733521 0 0.14577477609173189 -0.25952772959407833 0 0.1546377368784837 -0.25356422273026019 0 0.14259733537338229 -0.24843802833874881 0 0.1360573203735046 -0.2598734713448459 0 0.14577477609173189 -0.25952772959407833 0 0.14259733537338229 -0.24843802833874881 0 0.1397725819470203 -0.26777626285328088 0 0.14577477609173189 -0.25952772959407833 0 0.15520314719209091 -0.26369156928721349 0 0.14577477609173189 -0.25952772959407833 0 0.15520314719209091 -0.26369156928721349 0 0.1546377368784837 -0.25356422273026019 0 0.15208840550955269 -0.29397344545897502 0 0.1397725819470203 -0.26777626285328088 0 0.14011326991300571 -0.27863147398200661 0 0.15208840550955269 -0.29397344545897502 0 0.1397725819470203 -0.26777626285328088 0 0.1397725819470203 -0.26777626285328088 0 0.15520314719209091 -0.26369156928721349 0 0.1667715446693771 -0.27603655548883088 0 0.1397725819470203 -0.26777626285328088 0 0.1667715446693771 -0.27603655548883088 0 0.1397725819470203 -0.26777626285328088 0 0.15294613908725119 -0.27927031907220451 0 0.1667715446693771 -0.27603655548883088 0 0.15208840550955269 -0.29397344545897502 0 0.1397725819470203 -0.26777626285328088 0 0.15294613908725119 -0.27927031907220451 0 0.1397725819470203 -0.26777626285328088 0 0.15294613908725119 -0.27927031907220451 0 0.15520314719209091 -0.26369156928721349 0 0.1667715446693771 -0.27603655548883088 0 0.169059096373842 -0.26155307576961612 0 0.1546377368784837 -0.25356422273026019 0 0.169059096373842 -0.26155307576961612 0 0.16525617847545679 -0.24625639588382661 0 0.15520314719209091 -0.26369156928721349 0 0.1546377368784837 -0.25356422273026019 0 0.169059096373842 -0.26155307576961612 0 0.19020677089061289 -0.25630437548157792 0 0.169059096373842 -0.26155307576961612 0 0.16525617847545679 -0.24625639588382661 0 0.19020677089061289 -0.25630437548157792 0 0.16525617847545679 -0.24625639588382661 0 0.19020677089061289 -0.25630437548157792 0 0.169059096373842 -0.26155307576961612 0 0.18055628326280021 -0.26862551876869428 0 0.1937705073917341 -0.28429684812437978 0 0.1667715446693771 -0.27603655548883088 0 0.1937705073917341 -0.28429684812437978 0 0.1667715446693771 -0.27603655548883088 0 0.18055628326280021 -0.26862551876869428 0 0.1667715446693771 -0.27603655548883088 0 0.169059096373842 -0.26155307576961612 0 0.18055628326280021 -0.26862551876869428 0 0.1937705073917341 -0.28429684812437978 0 0.18326503966091029 -0.30550346997946398 0 0.16562941964045619 -0.28972150022781129 0 0.1937705073917341 -0.28429684812437978 0 0.1667715446693771 -0.27603655548883088 0 0.16562941964045619 -0.28972150022781129 0 0.18326503966091029 -0.30550346997946398 0 0.1671789654383897 -0.30332637608856111 0 0.16562941964045619 -0.28972150022781129 0 0.16391395248505911 -0.31912775300135249 0 0.15208840550955269 -0.29397344545897502 0 0.1671789654383897 -0.30332637608856111 0 0.16391395248505911 -0.31912775300135249 0 0.18326503966091029 -0.30550346997946398 0 0.1671789654383897 -0.30332637608856111 0 0.16391395248505911 -0.31912775300135249 0 0.15208840550955269 -0.29397344545897502 0 0.15208840550955269 -0.29397344545897502 0 0.1671789654383897 -0.30332637608856111 0 0.16562941964045619 -0.28972150022781129 0 0.15208840550955269 -0.29397344545897502 0 0.15294613908725119 -0.27927031907220451 0 0.16562941964045619 -0.28972150022781129 0 0.15294613908725119 -0.27927031907220451 0 0.1667715446693771 -0.27603655548883088 0 0.16562941964045619 -0.28972150022781129 0 0.15294613908725119 -0.27927031907220451 0 0.16562941964045619 -0.28972150022781129 0 0.19092602916245069 -0.5 0 0.19118608245986901 -0.4743536472640042 0 0.21086033895952591 -0.47997041540089502 0 0.19118608245986901 -0.4743536472640042 0 0.21086033895952591 -0.47997041540089502 0 0.20255680990223751 -0.45994083080178783 0 0.21086033895952591 -0.47997041540089502 0 0.20255680990223751 -0.45994083080178783 0 0.21086033895952591 -0.47997041540089502 0 0.2221760611142253 -0.47604609204737819 0 0.21843232251462039 -0.46442764037040202 0 0.19092602916245069 -0.5 0 0.21086033895952591 -0.47997041540089502 0 0.21916386801681451 -0.50000000000000211 0 0.21086033895952591 -0.47997041540089502 0 0.21916386801681451 -0.50000000000000211 0 0.21086033895952591 -0.47997041540089502 0 0.21916386801681451 -0.50000000000000211 0 0.2248811017066564 -0.49143249248272269 0 0.21916386801681451 -0.50000000000000211 0 0.2248811017066564 -0.49143249248272269 0 0.24604268247014441 -0.5 0 0.2248811017066564 -0.49143249248272269 0 0.24604268247014441 -0.5 0 0.24284983233876559 -0.48389860352274389 0 0.25890284990802231 -0.48765868210896662 0 0.24604268247014441 -0.5 0 0.24284983233876559 -0.48389860352274389 0 0.25706748600020718 -0.47222361103605193 0 0.24284983233876559 -0.48389860352274389 0 0.2345304812760983 -0.46835381993549341 0 0.2248811017066564 -0.49143249248272269 0 0.2221760611142253 -0.47604609204737819 0 0.2345304812760983 -0.46835381993549341 0 0.2248811017066564 -0.49143249248272269 0 0.24284983233876559 -0.48389860352274389 0 0.2345304812760983 -0.46835381993549341 0 0.2221760611142253 -0.47604609204737819 0 0.2345304812760983 -0.46835381993549341 0 0.21843232251462039 -0.46442764037040202 0 0.2248811017066564 -0.49143249248272269 0 0.2345304812760983 -0.46835381993549341 0 0.21086033895952591 -0.47997041540089502 0 0.2248811017066564 -0.49143249248272269 0 0.2221760611142253 -0.47604609204737819 0 0.2345304812760983 -0.46835381993549341 0 0.2267639536269849 -0.44723348653652811 0 0.21843232251462039 -0.46442764037040202 0 0.2267639536269849 -0.44723348653652811 0 0.2119108870313311 -0.45717565563739249 0 0.21843232251462039 -0.46442764037040202 0 0.25614324648350772 -0.45631004300875472 0 0.25706748600020718 -0.47222361103605193 0 0.2345304812760983 -0.46835381993549341 0 0.2345304812760983 -0.46835381993549341 0 0.24417986084553961 -0.44527514738826363 0 0.2267639536269849 -0.44723348653652811 0 0.2345304812760983 -0.46835381993549341 0 0.24417986084553961 -0.44527514738826363 0 0.25614324648350772 -0.45631004300875472 0 0.2345304812760983 -0.46835381993549341 0 0.24417986084553961 -0.44527514738826363 0 0.24417986084553961 -0.44527514738826363 0 0.2267639536269849 -0.44723348653652811 0 0.24417986084553961 -0.44527514738826363 0 0.2267639536269849 -0.44723348653652811 0 0.23121097837887519 -0.43063172640338032 0 0.2267639536269849 -0.44723348653652811 0 0.2173291482274019 -0.43894245047988018 0 0.23121097837887519 -0.43063172640338032 0 0.2267639536269849 -0.44723348653652811 0 0.20934804640843019 -0.44919182568479288 0 0.2267639536269849 -0.44723348653652811 0 0.2173291482274019 -0.43894245047988018 0 0.20934804640843019 -0.44919182568479288 0 0.2267639536269849 -0.44723348653652811 0 0.20934804640843019 -0.44919182568479288 0 0.2119108870313311 -0.45717565563739249 0 0.20934804640843019 -0.44919182568479288 0 0.19578321903211199 -0.44360172842291951 0 0.20456714550848451 -0.43459606583071397 0 0.2173291482274019 -0.43894245047988018 0 0.20934804640843019 -0.44919182568479288 0 0.20456714550848451 -0.43459606583071397 0 0.20934804640843019 -0.44919182568479288 0 0.20473594697094361 -0.45401710586569438 0 0.19578321903211199 -0.44360172842291951 0 0.21086033895952591 -0.47997041540089502 0 0.21843232251462039 -0.46442764037040202 0 0.20408077248060641 -0.46017548878157982 0 0.21086033895952591 -0.47997041540089502 0 0.20408077248060641 -0.46017548878157982 0 0.20255680990223751 -0.45994083080178783 0 0.2119108870313311 -0.45717565563739249 0 0.21843232251462039 -0.46442764037040202 0 0.20408077248060641 -0.46017548878157982 0 0.2119108870313311 -0.45717565563739249 0 0.20408077248060641 -0.46017548878157982 0 0.20473594697094361 -0.45401710586569438 0 0.20934804640843019 -0.44919182568479288 0 0.2119108870313311 -0.45717565563739249 0 0.20473594697094361 -0.45401710586569438 0 0.20408077248060641 -0.46017548878157982 0 0.20473594697094361 -0.45401710586569438 0 0.20255680990223751 -0.45994083080178783 0 0.20408077248060641 -0.46017548878157982 0 0.20255680990223751 -0.45994083080178783 0 0.20255680990223751 -0.45994083080178783 0 0.19578321903211199 -0.44360172842291951 0 0.17907599924951051 -0.45632528297282832 0 0.20255680990223751 -0.45994083080178783 0 0.17907599924951051 -0.45632528297282832 0 0.19118608245986901 -0.4743536472640042 0 0.20255680990223751 -0.45994083080178783 0 0.17907599924951051 -0.45632528297282832 0 0.19578321903211199 -0.44360172842291951 0 0.18900962816198641 -0.42726262604405102 0 0.18404281370574729 -0.44179395450843922 0 0.20255680990223751 -0.45994083080178783 0 0.19578321903211199 -0.44360172842291951 0 0.20473594697094361 -0.45401710586569438 0 0.20255680990223751 -0.45994083080178783 0 0.19578321903211199 -0.44360172842291951 0 0.19578321903211199 -0.44360172842291951 0 0.18900962816198641 -0.42726262604405102 0 0.20456714550848451 -0.43459606583071397 0 0.19578321903211199 -0.44360172842291951 0 0.18900962816198641 -0.42726262604405102 0 0.18900962816198641 -0.42726262604405102 0 0.20085416033931511 -0.42173342554213672 0 0.20456714550848451 -0.43459606583071397 0 0.18900962816198641 -0.42726262604405102 0 0.19516782926705509 -0.40924567699231268 0 0.17939050241213 -0.40405958892008381 0 0.18900962816198641 -0.42726262604405102 0 0.19516782926705509 -0.40924567699231268 0 0.20085416033931511 -0.42173342554213672 0 0.18900962816198641 -0.42726262604405102 0 0.19516782926705509 -0.40924567699231268 0 0.19516782926705509 -0.40924567699231268 0 0.20085416033931511 -0.42173342554213672 0 0.20895589688219021 -0.41483133126459237 0 0.20085416033931511 -0.42173342554213672 0 0.20895589688219021 -0.41483133126459237 0 0.2150786708816608 -0.42684433881050332 0 0.19516782926705509 -0.40924567699231268 0 0.20895589688219021 -0.41483133126459237 0 0.21036559498252849 -0.40184652249723529 0 0.20895589688219021 -0.41483133126459237 0 0.22331322894039171 -0.41448669248077402 0 0.21036559498252849 -0.40184652249723529 0 0.20895589688219021 -0.41483133126459237 0 0.2150786708816608 -0.42684433881050332 0 0.22331322894039171 -0.41448669248077402 0 0.20085416033931511 -0.42173342554213672 0 0.2150786708816608 -0.42684433881050332 0 0.20456714550848451 -0.43459606583071397 0 0.2173291482274019 -0.43894245047988018 0 0.2150786708816608 -0.42684433881050332 0 0.20456714550848451 -0.43459606583071397 0 0.2150786708816608 -0.42684433881050332 0 0.23121097837887519 -0.43063172640338032 0 0.22331322894039171 -0.41448669248077402 0 0.2173291482274019 -0.43894245047988018 0 0.2150786708816608 -0.42684433881050332 0 0.23121097837887519 -0.43063172640338032 0 0.25126052337721477 -0.42834014231255368 0 0.24417986084553961 -0.44527514738826363 0 0.23121097837887519 -0.43063172640338032 0 0.25126052337721477 -0.42834014231255368 0 0.23121097837887519 -0.43063172640338032 0 0.24082720742464031 -0.41294591485880849 0 0.25126052337721477 -0.42834014231255368 0 0.24417986084553961 -0.44527514738826363 0 0.25834118590888883 -0.41140513723684341 0 0.24082720742464031 -0.41294591485880849 0 0.25834118590888883 -0.41140513723684341 0 0.24082720742464031 -0.41294591485880849 0 0.24465775561146269 -0.40136153150520643 0 0.24082720742464031 -0.41294591485880849 0 0.22331322894039171 -0.41448669248077402 0 0.22261629060302829 -0.39483962198494521 0 0.23121097837887519 -0.43063172640338032 0 0.24082720742464031 -0.41294591485880849 0 0.22331322894039171 -0.41448669248077402 0 0.24082720742464031 -0.41294591485880849 0 0.22331322894039171 -0.41448669248077402 0 0.22261629060302829 -0.39483962198494521 0 0.2459272988079019 -0.39009091536730189 0 0.22331322894039171 -0.41448669248077402 0 0.22261629060302829 -0.39483962198494521 0 0.21036559498252849 -0.40184652249723529 0 0.24082720742464031 -0.41294591485880849 0 0.22261629060302829 -0.39483962198494521 0 0.24465775561146269 -0.40136153150520643 0 0.22261629060302829 -0.39483962198494521 0 0.24465775561146269 -0.40136153150520643 0 0.2459272988079019 -0.39009091536730189 0 0.25557679531285399 -0.3975260680781334 0 0.24465775561146269 -0.40136153150520643 0 0.2459272988079019 -0.39009091536730189 0 0.242832845791846 -0.37596734926023812 0 0.2459272988079019 -0.39009091536730189 0 0.2285004544620334 -0.37753750688154131 0 0.25692860890622188 -0.38028312234872991 0 0.242832845791846 -0.37596734926023812 0 0.2459272988079019 -0.39009091536730189 0 0.22261629060302829 -0.39483962198494521 0 0.2459272988079019 -0.39009091536730189 0 0.2285004544620334 -0.37753750688154131 0 0.22261629060302829 -0.39483962198494521 0 0.2285004544620334 -0.37753750688154131 0 0.21775842382520541 -0.38051727648452871 0 0.2181707349711435 -0.36962833341999679 0 0.2285004544620334 -0.37753750688154131 0 0.21775842382520541 -0.38051727648452871 0 0.21066048371759619 -0.37442696402615772 0 0.21775842382520541 -0.38051727648452871 0 0.2088441553722255 -0.38615395611000258 0 0.21066048371759619 -0.37442696402615772 0 0.2088441553722255 -0.38615395611000258 0 0.2010693806510265 -0.37613173570953429 0 0.22261629060302829 -0.39483962198494521 0 0.21775842382520541 -0.38051727648452871 0 0.2088441553722255 -0.38615395611000258 0 0.22261629060302829 -0.39483962198494521 0 0.2088441553722255 -0.38615395611000258 0 0.21036559498252849 -0.40184652249723529 0 0.2088441553722255 -0.38615395611000258 0 0.21036559498252849 -0.40184652249723529 0 0.20132603037212329 -0.39122872794057451 0 0.19516782926705509 -0.40924567699231268 0 0.18887678439638481 -0.39511142973879998 0 0.17939050241213 -0.40405958892008381 0 0.19516782926705509 -0.40924567699231268 0 0.20132603037212329 -0.39122872794057451 0 0.18887678439638481 -0.39511142973879998 0 0.19516782926705509 -0.40924567699231268 0 0.21036559498252849 -0.40184652249723529 0 0.20132603037212329 -0.39122872794057451 0 0.19516782926705509 -0.40924567699231268 0 0.20132603037212329 -0.39122872794057451 0 0.20132603037212329 -0.39122872794057451 0 0.18887678439638481 -0.39511142973879998 0 0.19187838728901241 -0.38688853520022431 0 0.18887678439638481 -0.39511142973879998 0 0.19187838728901241 -0.38688853520022431 0 0.18424727478828121 -0.38292017306006321 0 0.19187838728901241 -0.38688853520022431 0 0.19192166204984901 -0.37870339389217389 0 0.18424727478828121 -0.38292017306006321 0 0.19187838728901241 -0.38688853520022431 0 0.19192166204984901 -0.37870339389217389 0 0.19900792314684729 -0.38382126977050202 0 0.19471976580065981 -0.37287317811451831 0 0.19192166204984901 -0.37870339389217389 0 0.2010693806510265 -0.37613173570953429 0 0.2088441553722255 -0.38615395611000258 0 0.2010693806510265 -0.37613173570953429 0 0.19900792314684729 -0.38382126977050202 0 0.19192166204984901 -0.37870339389217389 0 0.2010693806510265 -0.37613173570953429 0 0.19900792314684729 -0.38382126977050202 0 0.20132603037212329 -0.39122872794057451 0 0.19187838728901241 -0.38688853520022431 0 0.19900792314684729 -0.38382126977050202 0 0.2088441553722255 -0.38615395611000258 0 0.20132603037212329 -0.39122872794057451 0 0.19900792314684729 -0.38382126977050202 0 0.1836332806757521 -0.37678614185270382 0 0.18424727478828121 -0.38292017306006321 0 0.16907849560872271 -0.37967271325286439 0 0.19192166204984901 -0.37870339389217389 0 0.1836332806757521 -0.37678614185270382 0 0.18424727478828121 -0.38292017306006321 0 0.18424727478828121 -0.38292017306006321 0 0.17652057362250609 -0.39449594680419747 0 0.15918435495184219 -0.39488185698396988 0 0.18887678439638481 -0.39511142973879998 0 0.18424727478828121 -0.38292017306006321 0 0.17652057362250609 -0.39449594680419747 0 0.18887678439638481 -0.39511142973879998 0 0.17939050241213 -0.40405958892008381 0 0.17652057362250609 -0.39449594680419747 0 0.17939050241213 -0.40405958892008381 0 0.17652057362250609 -0.39449594680419747 0 0.16995061569716399 -0.40074813585696711 0 0.17652057362250609 -0.39449594680419747 0 0.16995061569716399 -0.40074813585696711 0 0.15918435495184219 -0.39488185698396988 0 0.15918435495184219 -0.39488185698396988 0 0.15258293625223929 -0.41061401087384553 0 0.1647070318021778 -0.4095551507196169 0 0.17939050241213 -0.40405958892008381 0 0.16995061569716399 -0.40074813585696711 0 0.1647070318021778 -0.4095551507196169 0 0.16995061569716399 -0.40074813585696711 0 0.15918435495184219 -0.39488185698396988 0 0.1647070318021778 -0.4095551507196169 0 0.18424727478828121 -0.38292017306006321 0 0.15918435495184219 -0.39488185698396988 0 0.16907849560872271 -0.37967271325286439 0 0.16907849560872271 -0.37967271325286439 0 0.15123987807462369 -0.39128728755009262 0 0.1545036698660559 -0.37277453059902987 0 0.16907849560872271 -0.37967271325286439 0 0.15123987807462369 -0.39128728755009262 0 0.18424727478828121 -0.38292017306006321 0 0.15918435495184219 -0.39488185698396988 0 0.15918435495184219 -0.39488185698396988 0 0.16907849560872271 -0.37967271325286439 0 0.15123987807462369 -0.39128728755009262 0 0.1545036698660559 -0.37277453059902987 0 0.13957935105526451 -0.38232133893395093 0 0.15123987807462369 -0.39128728755009262 0 0.13957935105526451 -0.38232133893395093 0 0.11644282805502031 -0.38762839203739757 0 0.13957935105526451 -0.38232133893395093 0 0.13412143511540339 -0.40684354090787661 0 0.11644282805502031 -0.38762839203739757 0 0.15918435495184219 -0.39488185698396988 0 0.15258293625223929 -0.41061401087384553 0 0.13412143511540339 -0.40684354090787661 0 0.13957935105526451 -0.38232133893395093 0 0.15123987807462369 -0.39128728755009262 0 0.13412143511540339 -0.40684354090787661 0 0.15918435495184219 -0.39488185698396988 0 0.15123987807462369 -0.39128728755009262 0 0.13412143511540339 -0.40684354090787661 0 0.15918435495184219 -0.39488185698396988 0 0.13412143511540339 -0.40684354090787661 0 0.15258293625223929 -0.41061401087384553 0 0.14338658854922309 -0.42169901221977912 0 0.13412143511540339 -0.40684354090787661 0 0.15258293625223929 -0.41061401087384553 0 0.14338658854922309 -0.42169901221977912 0 0.15905871472443439 -0.42230582879097073 0 0.14338658854922309 -0.42169901221977912 0 0.13412143511540339 -0.40684354090787661 0 0.1288778622163301 -0.42221934963618118 0 0.1288778622163301 -0.42221934963618118 0 0.135478784529072 -0.43212223293383623 0 0.1198874314908725 -0.43384207254061891 0 0.14338658854922309 -0.42169901221977912 0 0.1288778622163301 -0.42221934963618118 0 0.135478784529072 -0.43212223293383623 0 0.14338658854922309 -0.42169901221977912 0 0.135478784529072 -0.43212223293383623 0 0.15019979845785941 -0.43608911017596469 0 0.14338658854922309 -0.42169901221977912 0 0.15019979845785941 -0.43608911017596469 0 0.15905871472443439 -0.42230582879097073 0 0.15019979845785941 -0.43608911017596469 0 0.15905871472443439 -0.42230582879097073 0 0.1689168897310391 -0.4378231776503333 0 0.15905871472443439 -0.42230582879097073 0 0.1733724113249778 -0.42225538237945492 0 0.1689168897310391 -0.4378231776503333 0 0.15258293625223929 -0.41061401087384553 0 0.15905871472443439 -0.42230582879097073 0 0.1647070318021778 -0.4095551507196169 0 0.15905871472443439 -0.42230582879097073 0 0.1647070318021778 -0.4095551507196169 0 0.1733724113249778 -0.42225538237945492 0 0.17939050241213 -0.40405958892008381 0 0.1647070318021778 -0.4095551507196169 0 0.1733724113249778 -0.42225538237945492 0 0.18900962816198641 -0.42726262604405102 0 0.17939050241213 -0.40405958892008381 0 0.18900962816198641 -0.42726262604405102 0 0.17939050241213 -0.40405958892008381 0 0.1733724113249778 -0.42225538237945492 0 0.18900962816198641 -0.42726262604405102 0 0.17883543573093769 -0.43228378514556959 0 0.1733724113249778 -0.42225538237945492 0 0.18900962816198641 -0.42726262604405102 0 0.17883543573093769 -0.43228378514556959 0 0.18404281370574729 -0.44179395450843922 0 0.18900962816198641 -0.42726262604405102 0 0.18404281370574729 -0.44179395450843922 0 0.17883543573093769 -0.43228378514556959 0 0.1733724113249778 -0.42225538237945492 0 0.1689168897310391 -0.4378231776503333 0 0.17883543573093769 -0.43228378514556959 0 0.18404281370574729 -0.44179395450843922 0 0.1689168897310391 -0.4378231776503333 0 0.19578321903211199 -0.44360172842291951 0 0.18404281370574729 -0.44179395450843922 0 0.17907599924951051 -0.45632528297282832 0 0.18404281370574729 -0.44179395450843922 0 0.17907599924951051 -0.45632528297282832 0 0.1689168897310391 -0.4378231776503333 0 0.17659944915649059 -0.45594394667892629 0 0.17907599924951051 -0.45632528297282832 0 0.1689168897310391 -0.4378231776503333 0 0.18404281370574729 -0.44179395450843922 0 0.17907599924951051 -0.45632528297282832 0 0.19118608245986901 -0.4743536472640042 0 0.17907599924951051 -0.45632528297282832 0 0.1725112350256203 -0.4755317071445086 0 0.17659944915649059 -0.45594394667892629 0 0.17907599924951051 -0.45632528297282832 0 0.1725112350256203 -0.4755317071445086 0 0.17907599924951051 -0.45632528297282832 0 0.1725112350256203 -0.4755317071445086 0 0.17659944915649059 -0.45594394667892629 0 0.17907599924951051 -0.45632528297282832 0 0.17659944915649059 -0.45594394667892629 0 0.1548961734761454 -0.45260210161114289 0 0.17659944915649059 -0.45594394667892629 0 0.15968490538139449 -0.46108623842399771 0 0.17659944915649059 -0.45594394667892629 0 0.15968490538139449 -0.46108623842399771 0 0.1725112350256203 -0.4755317071445086 0 0.17659944915649059 -0.45594394667892629 0 0.15968490538139449 -0.46108623842399771 0 0.1548961734761454 -0.45260210161114289 0 0.15968490538139449 -0.46108623842399771 0 0.15261405178902979 -0.46832729847916899 0 0.15957621888031079 -0.47313757312682247 0 0.17659944915649059 -0.45594394667892629 0 0.1689168897310391 -0.4378231776503333 0 0.1548961734761454 -0.45260210161114289 0 0.15019979845785941 -0.43608911017596469 0 0.1689168897310391 -0.4378231776503333 0 0.1548961734761454 -0.45260210161114289 0 0.15019979845785941 -0.43608911017596469 0 0.1548961734761454 -0.45260210161114289 0 0.13071634770278051 -0.44887892024945641 0 0.1548961734761454 -0.45260210161114289 0 0.13071634770278051 -0.44887892024945641 0 0.135478784529072 -0.43212223293383623 0 0.15019979845785941 -0.43608911017596469 0 0.13071634770278051 -0.44887892024945641 0 0.135478784529072 -0.43212223293383623 0 0.13071634770278051 -0.44887892024945641 0 0.1198874314908725 -0.43384207254061891 0 0.13071634770278051 -0.44887892024945641 0 0.1198874314908725 -0.43384207254061891 0 0.13071634770278051 -0.44887892024945641 0 0.14284794804805301 -0.46572465284970832 0 0.14284794804805301 -0.46572465284970832 0 0.1216509167586752 -0.47156422432146472 0 0.13071634770278051 -0.44887892024945641 0 0.14284794804805301 -0.46572465284970832 0 0.1216509167586752 -0.47156422432146472 0 0.15968490538139449 -0.46108623842399771 0 0.14284794804805301 -0.46572465284970832 0 0.15968490538139449 -0.46108623842399771 0 0.1548961734761454 -0.45260210161114289 0 0.14284794804805301 -0.46572465284970832 0 0.1548961734761454 -0.45260210161114289 0 0.13071634770278051 -0.44887892024945641 0 0.14284794804805301 -0.46572465284970832 0 0.15968490538139449 -0.46108623842399771 0 0.14284794804805301 -0.46572465284970832 0 0.15261405178902979 -0.46832729847916899 0 0.15261405178902979 -0.46832729847916899 0 0.1483471348463605 -0.47336072951614822 0 0.15957621888031079 -0.47313757312682247 0 0.1483471348463605 -0.47336072951614822 0 0.14300876705792509 -0.4844913987671734 0 0.15457185542605181 -0.48718953308606089 0 0.1483471348463605 -0.47336072951614822 0 0.15457185542605181 -0.48718953308606089 0 0.15957621888031079 -0.47313757312682247 0 0.1483471348463605 -0.47336072951614822 0 0.13466572650556541 -0.47741533246648371 0 0.14300876705792509 -0.4844913987671734 0 0.14284794804805301 -0.46572465284970832 0 0.1483471348463605 -0.47336072951614822 0 0.13466572650556541 -0.47741533246648371 0 0.14284794804805301 -0.46572465284970832 0 0.15261405178902979 -0.46832729847916899 0 0.1483471348463605 -0.47336072951614822 0 0.14284794804805301 -0.46572465284970832 0 0.1483471348463605 -0.47336072951614822 0 0.14284794804805301 -0.46572465284970832 0 0.13466572650556541 -0.47741533246648371 0 0.1216509167586752 -0.47156422432146472 0 0.13466572650556541 -0.47741533246648371 0 0.1216509167586752 -0.47156422432146472 0 0.1199333080824805 -0.48379996465953951 0 0.13466572650556541 -0.47741533246648371 0 0.13445035145372289 -0.50000000000000033 0 0.14300876705792509 -0.4844913987671734 0 0.13466572650556541 -0.47741533246648371 0 0.13445035145372289 -0.50000000000000033 0 0.1199333080824805 -0.48379996465953951 0 0.13445035145372289 -0.50000000000000033 0 0.15457185542605181 -0.48718953308606089 0 0.16268819030808679 -0.5 0 0.13445035145372289 -0.50000000000000033 0 0.14300876705792509 -0.4844913987671734 0 0.15457185542605181 -0.48718953308606089 0 0.15457185542605181 -0.48718953308606089 0 0.16268819030808679 -0.5 0 0.1725112350256203 -0.4755317071445086 0 0.15457185542605181 -0.48718953308606089 0 0.15957621888031079 -0.47313757312682247 0 0.1725112350256203 -0.4755317071445086 0 0.15968490538139449 -0.46108623842399771 0 0.15957621888031079 -0.47313757312682247 0 0.1725112350256203 -0.4755317071445086 0 0.19092602916245069 -0.5 0 0.19118608245986901 -0.4743536472640042 0 0.1725112350256203 -0.4755317071445086 0 0.19092602916245069 -0.5 0 0.16268819030808679 -0.5 0 0.1725112350256203 -0.4755317071445086 0 0.071675057481887863 -0.48955391482197841 0 0.076720348972282637 -0.5 0 0.047366526056882068 -0.5 0 0.071675057481887863 -0.48955391482197841 0 0.064786132925143319 -0.48022019208016659 0 0.082440968996561642 -0.48523294143305779 0 0.071675057481887863 -0.48955391482197841 0 0.076720348972282637 -0.5 0 0.082440968996561642 -0.48523294143305779 0 0.064786132925143319 -0.48022019208016659 0 0.079256854179918901 -0.48324336726497491 0 0.082440968996561642 -0.48523294143305779 0 0.064786132925143319 -0.48022019208016659 0 0.082440968996561642 -0.48523294143305779 0 0.079256854179918901 -0.48324336726497491 0 0.061456451195066188 -0.4721208971282177 0 0.064786132925143319 -0.48022019208016659 0 0.079256854179918901 -0.48324336726497491 0 0.061456451195066188 -0.4721208971282177 0 0.079256854179918901 -0.48324336726497491 0 0.08071575821462651 -0.47051722774240301 0 0.061456451195066188 -0.4721208971282177 0 0.079256854179918901 -0.48324336726497491 0 0.100453885469297 -0.47740379579321929 0 0.079256854179918901 -0.48324336726497491 0 0.082440968996561642 -0.48523294143305779 0 0.100453885469297 -0.47740379579321929 0 0.08071575821462651 -0.47051722774240301 0 0.100453885469297 -0.47740379579321929 0 0.093467136576825066 -0.46172589060340719 0 0.079256854179918901 -0.48324336726497491 0 0.08071575821462651 -0.47051722774240301 0 0.100453885469297 -0.47740379579321929 0 0.079256854179918901 -0.48324336726497491 0 0.082440968996561642 -0.48523294143305779 0 0.076720348972282637 -0.5 0 0.082440968996561642 -0.48523294143305779 0 0.1060741718876832 -0.49999999999999839 0 0.082440968996561642 -0.48523294143305779 0 0.1084456602251422 -0.49261647071652931 0 0.082440968996561642 -0.48523294143305779 0 0.1060741718876832 -0.49999999999999839 0 0.082440968996561642 -0.48523294143305779 0 0.1084456602251422 -0.49261647071652931 0 0.1060741718876832 -0.49999999999999839 0 0.082440968996561642 -0.48523294143305779 0 0.1084456602251422 -0.49261647071652931 0 0.100453885469297 -0.47740379579321929 0 0.13445035145372289 -0.50000000000000033 0 0.1084456602251422 -0.49261647071652931 0 0.1199333080824805 -0.48379996465953951 0 0.13445035145372289 -0.50000000000000033 0 0.1084456602251422 -0.49261647071652931 0 0.1060741718876832 -0.49999999999999839 0 0.1084456602251422 -0.49261647071652931 0 0.1199333080824805 -0.48379996465953951 0 0.100453885469297 -0.47740379579321929 0 0.13445035145372289 -0.50000000000000033 0 0.1084456602251422 -0.49261647071652931 0 0.1216509167586752 -0.47156422432146472 0 0.100453885469297 -0.47740379579321929 0 0.10947040396997031 -0.46116955324859871 0 0.1216509167586752 -0.47156422432146472 0 0.1199333080824805 -0.48379996465953951 0 0.100453885469297 -0.47740379579321929 0 0.1216509167586752 -0.47156422432146472 0 0.100453885469297 -0.47740379579321929 0 0.100453885469297 -0.47740379579321929 0 0.10947040396997031 -0.46116955324859871 0 0.093467136576825066 -0.46172589060340719 0 0.10947040396997031 -0.46116955324859871 0 0.094844974949206698 -0.45191502630283709 0 0.093467136576825066 -0.46172589060340719 0 0.13071634770278051 -0.44887892024945641 0 0.1216509167586752 -0.47156422432146472 0 0.10947040396997031 -0.46116955324859871 0 0.13071634770278051 -0.44887892024945641 0 0.1074082138273663 -0.44528996098920409 0 0.13071634770278051 -0.44887892024945641 0 0.10947040396997031 -0.46116955324859871 0 0.1074082138273663 -0.44528996098920409 0 0.13071634770278051 -0.44887892024945641 0 0.1074082138273663 -0.44528996098920409 0 0.1198874314908725 -0.43384207254061891 0 0.10947040396997031 -0.46116955324859871 0 0.1074082138273663 -0.44528996098920409 0 0.094844974949206698 -0.45191502630283709 0 0.1074082138273663 -0.44528996098920409 0 0.094844974949206698 -0.45191502630283709 0 0.084100079951952261 -0.44170100172895121 0 0.1074082138273663 -0.44528996098920409 0 0.085880637599474757 -0.44105455200263088 0 0.097137974030377883 -0.43697673053301039 0 0.1074082138273663 -0.44528996098920409 0 0.084100079951952261 -0.44170100172895121 0 0.1074082138273663 -0.44528996098920409 0 0.085880637599474757 -0.44105455200263088 0 0.084100079951952261 -0.44170100172895121 0 0.083780228511186522 -0.43868811342243841 0 0.081705926765193282 -0.44015148032918933 0 0.082706691276752356 -0.43508772604803742 0 0.083780228511186522 -0.43868811342243841 0 0.085880637599474757 -0.44105455200263088 0 0.082706691276752356 -0.43508772604803742 0 0.083780228511186522 -0.43868811342243841 0 0.084100079951952261 -0.44170100172895121 0 0.081705926765193282 -0.44015148032918933 0 0.083780228511186522 -0.43868811342243841 0 0.085880637599474757 -0.44105455200263088 0 0.084100079951952261 -0.44170100172895121 0 0.084100079951952261 -0.44170100172895121 0 0.082778053320099687 -0.44484275621463809 0 0.085644916676998278 -0.44814106725053943 0 0.084100079951952261 -0.44170100172895121 0 0.082778053320099687 -0.44484275621463809 0 0.080899166728985464 -0.44308718153734911 0 0.084100079951952261 -0.44170100172895121 0 0.080899166728985464 -0.44308718153734911 0 0.081705926765193282 -0.44015148032918933 0 0.080899166728985464 -0.44308718153734911 0 0.078404455133579118 -0.43962628159820072 0 0.076343231383062496 -0.44517139965159419 0 0.080899166728985464 -0.44308718153734911 0 0.080468049922462731 -0.44644177434171312 0 0.076343231383062496 -0.44517139965159419 0 0.082778053320099687 -0.44484275621463809 0 0.080899166728985464 -0.44308718153734911 0 0.080468049922462731 -0.44644177434171312 0 0.078404455133579118 -0.43962628159820072 0 0.081705926765193282 -0.44015148032918933 0 0.082706691276752356 -0.43508772604803742 0 0.080899166728985464 -0.44308718153734911 0 0.078404455133579118 -0.43962628159820072 0 0.081705926765193282 -0.44015148032918933 0 0.085644916676998278 -0.44814106725053943 0 0.088979098692127945 -0.45346268399632172 0 0.07748619033380616 -0.45244467282406492 0 0.080468049922462731 -0.44644177434171312 0 0.085644916676998278 -0.44814106725053943 0 0.07748619033380616 -0.45244467282406492 0 0.082778053320099687 -0.44484275621463809 0 0.080468049922462731 -0.44644177434171312 0 0.085644916676998278 -0.44814106725053943 0 0.094844974949206698 -0.45191502630283709 0 0.085644916676998278 -0.44814106725053943 0 0.088979098692127945 -0.45346268399632172 0 0.094844974949206698 -0.45191502630283709 0 0.084100079951952261 -0.44170100172895121 0 0.085644916676998278 -0.44814106725053943 0 0.093467136576825066 -0.46172589060340719 0 0.068561592393519388 -0.46136215879743359 0 0.093467136576825066 -0.46172589060340719 0 0.068561592393519388 -0.46136215879743359 0 0.07748619033380616 -0.45244467282406492 0 0.08071575821462651 -0.47051722774240301 0 0.093467136576825066 -0.46172589060340719 0 0.068561592393519388 -0.46136215879743359 0 0.094844974949206698 -0.45191502630283709 0 0.088979098692127945 -0.45346268399632172 0 0.093467136576825066 -0.46172589060340719 0 0.088979098692127945 -0.45346268399632172 0 0.093467136576825066 -0.46172589060340719 0 0.07748619033380616 -0.45244467282406492 0 0.08071575821462651 -0.47051722774240301 0 0.068561592393519388 -0.46136215879743359 0 0.061456451195066188 -0.4721208971282177 0 0.068561592393519388 -0.46136215879743359 0 0.068532267291695717 -0.44827149883213491 0 0.07748619033380616 -0.45244467282406492 0 0.068561592393519388 -0.46136215879743359 0 0.068532267291695717 -0.44827149883213491 0 0.056642278990398587 -0.45109145671774997 0 0.068532267291695717 -0.44827149883213491 0 0.072269258887845869 -0.4411569887761031 0 0.061337515962904293 -0.43839736512023569 0 0.072269258887845869 -0.4411569887761031 0 0.074224448335338145 -0.43439974984090501 0 0.061337515962904293 -0.43839736512023569 0 0.068532267291695717 -0.44827149883213491 0 0.072269258887845869 -0.4411569887761031 0 0.076343231383062496 -0.44517139965159419 0 0.078404455133579118 -0.43962628159820072 0 0.072269258887845869 -0.4411569887761031 0 0.074224448335338145 -0.43439974984090501 0 0.078404455133579118 -0.43962628159820072 0 0.072269258887845869 -0.4411569887761031 0 0.076343231383062496 -0.44517139965159419 0 0.080468049922462731 -0.44644177434171312 0 0.076343231383062496 -0.44517139965159419 0 0.07748619033380616 -0.45244467282406492 0 0.068532267291695717 -0.44827149883213491 0 0.076343231383062496 -0.44517139965159419 0 0.07748619033380616 -0.45244467282406492 0 0.071320556935355772 -0.42568949225377711 0 0.059040135902766112 -0.41961109353182813 0 0.061337515962904293 -0.43839736512023569 0 0.071320556935355772 -0.42568949225377711 0 0.080032754417904958 -0.41901935093814119 0 0.080007082213230746 -0.42677683904940161 0 0.071320556935355772 -0.42568949225377711 0 0.074224448335338145 -0.43439974984090501 0 0.080007082213230746 -0.42677683904940161 0 0.071320556935355772 -0.42568949225377711 0 0.074224448335338145 -0.43439974984090501 0 0.061337515962904293 -0.43839736512023569 0 0.071320556935355772 -0.42568949225377711 0 0.071930627419809906 -0.41435151447669449 0 0.059040135902766112 -0.41961109353182813 0 0.071930627419809906 -0.41435151447669449 0 0.084864430964643398 -0.40647619681125657 0 0.063743351915837992 -0.39971659208333837 0 0.071930627419809906 -0.41435151447669449 0 0.063743351915837992 -0.39971659208333837 0 0.059040135902766112 -0.41961109353182813 0 0.071320556935355772 -0.42568949225377711 0 0.071930627419809906 -0.41435151447669449 0 0.080032754417904958 -0.41901935093814119 0 0.084864430964643398 -0.40647619681125657 0 0.089339519836124093 -0.41864063096866228 0 0.092798402072774663 -0.396226709934694 0 0.080032754417904958 -0.41901935093814119 0 0.089339519836124093 -0.41864063096866228 0 0.080007082213230746 -0.42677683904940161 0 0.089339519836124093 -0.41864063096866228 0 0.092798402072774663 -0.396226709934694 0 0.080032754417904958 -0.41901935093814119 0 0.084864430964643398 -0.40647619681125657 0 0.089339519836124093 -0.41864063096866228 0 0.071930627419809906 -0.41435151447669449 0 0.080032754417904958 -0.41901935093814119 0 0.084864430964643398 -0.40647619681125657 0 0.085880637599474757 -0.44105455200263088 0 0.089339519836124093 -0.41864063096866228 0 0.089339519836124093 -0.41864063096866228 0 0.080007082213230746 -0.42677683904940161 0 0.082706691276752356 -0.43508772604803742 0 0.089339519836124093 -0.41864063096866228 0 0.092214198113668253 -0.42684444768212221 0 0.090890544202925458 -0.43366183727403451 0 0.085880637599474757 -0.44105455200263088 0 0.089339519836124093 -0.41864063096866228 0 0.090890544202925458 -0.43366183727403451 0 0.085880637599474757 -0.44105455200263088 0 0.089339519836124093 -0.41864063096866228 0 0.082706691276752356 -0.43508772604803742 0 0.074224448335338145 -0.43439974984090501 0 0.080007082213230746 -0.42677683904940161 0 0.082706691276752356 -0.43508772604803742 0 0.078404455133579118 -0.43962628159820072 0 0.074224448335338145 -0.43439974984090501 0 0.082706691276752356 -0.43508772604803742 0 0.085880637599474757 -0.44105455200263088 0 0.090890544202925458 -0.43366183727403451 0 0.097137974030377883 -0.43697673053301039 0 0.092214198113668253 -0.42684444768212221 0 0.090890544202925458 -0.43366183727403451 0 0.096044315268145802 -0.43178120346655352 0 0.092214198113668253 -0.42684444768212221 0 0.10331169768073691 -0.42925544651781689 0 0.10905851527896381 -0.4188052248317819 0 0.1074082138273663 -0.44528996098920409 0 0.097137974030377883 -0.43697673053301039 0 0.10331169768073691 -0.42925544651781689 0 0.090890544202925458 -0.43366183727403451 0 0.097137974030377883 -0.43697673053301039 0 0.096044315268145802 -0.43178120346655352 0 0.092214198113668253 -0.42684444768212221 0 0.10905851527896381 -0.4188052248317819 0 0.097137974030377883 -0.43697673053301039 0 0.096044315268145802 -0.43178120346655352 0 0.10331169768073691 -0.42925544651781689 0 0.092214198113668253 -0.42684444768212221 0 0.096044315268145802 -0.43178120346655352 0 0.10331169768073691 -0.42925544651781689 0 0.1074082138273663 -0.44528996098920409 0 0.10331169768073691 -0.42925544651781689 0 0.1198874314908725 -0.43384207254061891 0 0.10331169768073691 -0.42925544651781689 0 0.1198874314908725 -0.43384207254061891 0 0.10905851527896381 -0.4188052248317819 0 0.1288778622163301 -0.42221934963618118 0 0.1198874314908725 -0.43384207254061891 0 0.10905851527896381 -0.4188052248317819 0 0.1198874314908725 -0.43384207254061891 0 0.10905851527896381 -0.4188052248317819 0 0.13412143511540339 -0.40684354090787661 0 0.10905851527896381 -0.4188052248317819 0 0.13412143511540339 -0.40684354090787661 0 0.10905851527896381 -0.4188052248317819 0 0.1063307292090329 -0.39663017629123182 0 0.13412143511540339 -0.40684354090787661 0 0.1288778622163301 -0.42221934963618118 0 0.10905851527896381 -0.4188052248317819 0 0.089339519836124093 -0.41864063096866228 0 0.092214198113668253 -0.42684444768212221 0 0.10905851527896381 -0.4188052248317819 0 0.089339519836124093 -0.41864063096866228 0 0.10905851527896381 -0.4188052248317819 0 0.092798402072774663 -0.396226709934694 0 0.10905851527896381 -0.4188052248317819 0 0.092798402072774663 -0.396226709934694 0 0.10905851527896381 -0.4188052248317819 0 0.1063307292090329 -0.39663017629123182 0 0.092798402072774663 -0.396226709934694 0 0.1063307292090329 -0.39663017629123182 0 0.11644282805502031 -0.38762839203739757 0 0.09330630505477655 -0.392935445140846 0 0.1063307292090329 -0.39663017629123182 0 0.09330630505477655 -0.392935445140846 0 0.092798402072774663 -0.396226709934694 0 0.13412143511540339 -0.40684354090787661 0 0.1063307292090329 -0.39663017629123182 0 0.11644282805502031 -0.38762839203739757 0 0.13957935105526451 -0.38232133893395093 0 0.11644282805502031 -0.38762839203739757 0 0.11847591279834881 -0.36822876780275732 0 0.11644282805502031 -0.38762839203739757 0 0.10645431254216151 -0.37848874301562069 0 0.11847591279834881 -0.36822876780275732 0 0.11644282805502031 -0.38762839203739757 0 0.10645431254216151 -0.37848874301562069 0 0.09330630505477655 -0.392935445140846 0 0.10645431254216151 -0.37848874301562069 0 0.09330630505477655 -0.392935445140846 0 0.097592204260499499 -0.3651623670814822 0 0.11644282805502031 -0.38762839203739757 0 0.09330630505477655 -0.392935445140846 0 0.09330630505477655 -0.392935445140846 0 0.097592204260499499 -0.3651623670814822 0 0.084159485584381466 -0.38423085835884452 0 0.09330630505477655 -0.392935445140846 0 0.097592204260499499 -0.3651623670814822 0 0.084159485584381466 -0.38423085835884452 0 0.09083620484946367 -0.39350203645451431 0 0.09330630505477655 -0.392935445140846 0 0.084159485584381466 -0.38423085835884452 0 0.09083620484946367 -0.39350203645451431 0 0.084159485584381466 -0.38423085835884452 0 0.09083620484946367 -0.39350203645451431 0 0.063743351915837992 -0.39971659208333837 0 0.084864430964643398 -0.40647619681125657 0 0.09083620484946367 -0.39350203645451431 0 0.063743351915837992 -0.39971659208333837 0 0.09083620484946367 -0.39350203645451431 0 0.09330630505477655 -0.392935445140846 0 0.09083620484946367 -0.39350203645451431 0 0.09330630505477655 -0.392935445140846 0 0.092798402072774663 -0.396226709934694 0 0.09330630505477655 -0.392935445140846 0 0.092798402072774663 -0.396226709934694 0 0.09083620484946367 -0.39350203645451431 0 0.092798402072774663 -0.396226709934694 0 0.084864430964643398 -0.40647619681125657 0 0.09083620484946367 -0.39350203645451431 0 0.092798402072774663 -0.396226709934694 0 0.09083620484946367 -0.39350203645451431 0 0.063743351915837992 -0.39971659208333837 0 0.084159485584381466 -0.38423085835884452 0 0.062589737464111755 -0.37699467366556633 0 0.078207687883947621 -0.36620624598216522 0 0.084159485584381466 -0.38423085835884452 0 0.063743351915837992 -0.39971659208333837 0 0.062589737464111755 -0.37699467366556633 0 0.063743351915837992 -0.39971659208333837 0 0.062589737464111755 -0.37699467366556633 0 0.042591447829969577 -0.38482599557946812 0 0.062589737464111755 -0.37699467366556633 0 0.042591447829969577 -0.38482599557946812 0 0.04779370668057073 -0.36677586772872001 0 0.063743351915837992 -0.39971659208333837 0 0.036650498982212683 -0.4059311477121641 0 0.063743351915837992 -0.39971659208333837 0 0.036650498982212683 -0.4059311477121641 0 0.042591447829969577 -0.38482599557946812 0 0.036650498982212683 -0.4059311477121641 0 0.042591447829969577 -0.38482599557946812 0 0.017810752622825391 -0.39061941419111229 0 0.042591447829969577 -0.38482599557946812 0 0.017810752622825391 -0.39061941419111229 0 0.026063859197063759 -0.36909312504123548 0 0.017810752622825391 -0.39061941419111229 0 0.026063859197063759 -0.36909312504123548 0 -0.001437518266137712 -0.39260329897227669 0 0.017810752622825391 -0.39061941419111229 0 0.001329830272625719 -0.37172096034497498 0 0.017810752622825391 -0.39061941419111229 0 0.026063859197063759 -0.36909312504123548 0 0.001329830272625719 -0.37172096034497498 0 -0.001437518266137712 -0.39260329897227669 0 0.017810752622825391 -0.39061941419111229 0 0.0095576460485872552 -0.41214570334098932 0 0.017810752622825391 -0.39061941419111229 0 0.0095576460485872552 -0.41214570334098932 0 0.036650498982212683 -0.4059311477121641 0 0.017810752622825391 -0.39061941419111229 0 0.0095576460485872552 -0.41214570334098932 0 0.036650498982212683 -0.4059311477121641 0 0.0095576460485872552 -0.41214570334098932 0 0.021070350288833532 -0.42807269501386203 0 0.036650498982212683 -0.4059311477121641 0 0.0095576460485872552 -0.41214570334098932 0 0.0095576460485872552 -0.41214570334098932 0 0.0010375023834286519 -0.4343684959930546 0 0.021070350288833532 -0.42807269501386203 0 0.0010375023834286519 -0.4343684959930546 0 0.021070350288833532 -0.42807269501386203 0 0.022346775296821528 -0.4476834614922568 0 0.0095576460485872552 -0.41214570334098932 0 0.0010375023834286519 -0.4343684959930546 0 0.021070350288833532 -0.42807269501386203 0 0.04026154125453299 -0.431020599452972 0 0.022346775296821528 -0.4476834614922568 0 0.036650498982212683 -0.4059311477121641 0 0.04026154125453299 -0.431020599452972 0 0.059040135902766112 -0.41961109353182813 0 0.036650498982212683 -0.4059311477121641 0 0.021070350288833532 -0.42807269501386203 0 0.04026154125453299 -0.431020599452972 0 0.063743351915837992 -0.39971659208333837 0 0.036650498982212683 -0.4059311477121641 0 0.059040135902766112 -0.41961109353182813 0 0.04026154125453299 -0.431020599452972 0 0.059040135902766112 -0.41961109353182813 0 0.061337515962904293 -0.43839736512023569 0 0.04026154125453299 -0.431020599452972 0 0.061337515962904293 -0.43839736512023569 0 0.044848831942974232 -0.44583826195493481 0 0.061337515962904293 -0.43839736512023569 0 0.056642278990398587 -0.45109145671774997 0 0.044848831942974232 -0.44583826195493481 0 0.056642278990398587 -0.45109145671774997 0 0.04365604821021371 -0.4609984269914601 0 0.044848831942974232 -0.44583826195493481 0 0.068532267291695717 -0.44827149883213491 0 0.061337515962904293 -0.43839736512023569 0 0.056642278990398587 -0.45109145671774997 0 0.04365604821021371 -0.4609984269914601 0 0.061456451195066188 -0.4721208971282177 0 0.068561592393519388 -0.46136215879743359 0 0.04365604821021371 -0.4609984269914601 0 0.068561592393519388 -0.46136215879743359 0 0.056642278990398587 -0.45109145671774997 0 0.04365604821021371 -0.4609984269914601 0 0.068561592393519388 -0.46136215879743359 0 0.04365604821021371 -0.4609984269914601 0 0.061456451195066188 -0.4721208971282177 0 0.04365604821021371 -0.4609984269914601 0 0.022346775296821528 -0.4476834614922568 0 0.04365604821021371 -0.4609984269914601 0 0.044848831942974232 -0.44583826195493481 0 0.022346775296821528 -0.4476834614922568 0 0.04026154125453299 -0.431020599452972 0 0.044848831942974232 -0.44583826195493481 0 0.022346775296821528 -0.4476834614922568 0 0.022346775296821528 -0.4476834614922568 0 0.012284146667964929 -0.44896166228649098 0 0.01876138713281331 -0.46063485412727628 0 0.0010375023834286519 -0.4343684959930546 0 0.012284146667964929 -0.44896166228649098 0 0.0069909218587964513 -0.45315983753337652 0 0.0010375023834286519 -0.4343684959930546 0 0.022346775296821528 -0.4476834614922568 0 0.0010375023834286519 -0.4343684959930546 0 0.022346775296821528 -0.4476834614922568 0 0.012284146667964929 -0.44896166228649098 0 0.0010375023834286519 -0.4343684959930546 0 0.0069909218587964513 -0.45315983753337652 0 0.0004496438087077761 -0.45535156770205759 0 -0.0061332739445871323 -0.46027128126309252 0 0.01876138713281331 -0.46063485412727628 0 0.0061377907538116318 -0.46935369526845938 0 -0.0061332739445871323 -0.46027128126309252 0 0.01876138713281331 -0.46063485412727628 0 0.0069909218587964513 -0.45315983753337652 0 0.0004496438087077761 -0.45535156770205759 0 0.01876138713281331 -0.46063485412727628 0 -0.0061332739445871323 -0.46027128126309252 0 0.0004496438087077761 -0.45535156770205759 0 0.01876138713281331 -0.46063485412727628 0 0.012284146667964929 -0.44896166228649098 0 0.0069909218587964513 -0.45315983753337652 0 0.01876138713281331 -0.46063485412727628 0 0.01876138713281331 -0.46063485412727628 0 0.01702227245600901 -0.47251237821737391 0 0.0061377907538116318 -0.46935369526845938 0 0.04365604821021371 -0.4609984269914601 0 0.01876138713281331 -0.46063485412727628 0 0.01876138713281331 -0.46063485412727628 0 0.030681816099201269 -0.47180719950809119 0 0.01702227245600901 -0.47251237821737391 0 0.04365604821021371 -0.4609984269914601 0 0.022346775296821528 -0.4476834614922568 0 0.01876138713281331 -0.46063485412727628 0 0.04365604821021371 -0.4609984269914601 0 0.01876138713281331 -0.46063485412727628 0 0.030681816099201269 -0.47180719950809119 0 0.030681816099201269 -0.47180719950809119 0 0.027035936928668521 -0.48378362026153449 0 0.01702227245600901 -0.47251237821737391 0 0.027035936928668521 -0.48378362026153449 0 0.01702227245600901 -0.47251237821737391 0 0.0058358895367897701 -0.48046532183178642 0 0.01702227245600901 -0.47251237821737391 0 0.0058358895367897701 -0.48046532183178642 0 0.0061377907538116318 -0.46935369526845938 0 -0.0042480672254351058 -0.47158187165537568 0 0.0058358895367897701 -0.48046532183178642 0 0.0061377907538116318 -0.46935369526845938 0 -0.01134111977391916 -0.5 0 0.0058358895367897701 -0.48046532183178642 0 0.018012703141481509 -0.5 0 0.027035936928668521 -0.48378362026153449 0 0.018012703141481509 -0.5 0 0.047366526056882068 -0.5 0 0.027035936928668521 -0.48378362026153449 0 0.0058358895367897701 -0.48046532183178642 0 0.018012703141481509 -0.5 0 0.027035936928668521 -0.48378362026153449 0 0.046933435768301709 -0.48110671794281101 0 0.047366526056882068 -0.5 0 0.030681816099201269 -0.47180719950809119 0 0.027035936928668521 -0.48378362026153449 0 0.046933435768301709 -0.48110671794281101 0 0.04365604821021371 -0.4609984269914601 0 0.030681816099201269 -0.47180719950809119 0 0.046933435768301709 -0.48110671794281101 0 0.04365604821021371 -0.4609984269914601 0 0.046933435768301709 -0.48110671794281101 0 0.061456451195066188 -0.4721208971282177 0 0.064786132925143319 -0.48022019208016659 0 0.046933435768301709 -0.48110671794281101 0 0.061456451195066188 -0.4721208971282177 0 0.071675057481887863 -0.48955391482197841 0 0.064786132925143319 -0.48022019208016659 0 0.047366526056882068 -0.5 0 0.064786132925143319 -0.48022019208016659 0 0.046933435768301709 -0.48110671794281101 0 0.047366526056882068 -0.5 0 0.077238668172060654 -0.29159356324833507 0 0.096723464173380125 -0.28075168183772148 0 0.098437522162106911 -0.29668038767722732 0 0.083914835434667656 -0.30626620625573547 0 0.077238668172060654 -0.29159356324833507 0 0.098437522162106911 -0.29668038767722732 0 0.083914835434667656 -0.30626620625573547 0 0.077238668172060654 -0.29159356324833507 0 0.060527307582756387 -0.30913074917128602 0 0.077238668172060654 -0.29159356324833507 0 0.052507570279497769 -0.28690534937899559 0 0.060527307582756387 -0.30913074917128602 0 0.077238668172060654 -0.29159356324833507 0 0.07941679692995085 -0.26892512709861349 0 0.052507570279497769 -0.28690534937899559 0 0.07941679692995085 -0.26892512709861349 0 0.044968477360730577 -0.26392798484498298 0 0.070597955020315906 -0.24843902790192149 0 0.07941679692995085 -0.26892512709861349 0 0.070597955020315906 -0.24843902790192149 0 0.07941679692995085 -0.26892512709861349 0 0.09955279329277085 -0.26794744480873262 0 0.09649499861537178 -0.25491946582551528 0 0.07941679692995085 -0.26892512709861349 0 0.09649499861537178 -0.25491946582551528 0 0.070597955020315906 -0.24843902790192149 0 0.077238668172060654 -0.29159356324833507 0 0.07941679692995085 -0.26892512709861349 0 0.096723464173380125 -0.28075168183772148 0 0.07941679692995085 -0.26892512709861349 0 0.096723464173380125 -0.28075168183772148 0 0.09955279329277085 -0.26794744480873262 0 0.096723464173380125 -0.28075168183772148 0 0.1127614931756532 -0.27303476036672469 0 0.11293351130773829 -0.2863288078266959 0 0.096723464173380125 -0.28075168183772148 0 0.09955279329277085 -0.26794744480873262 0 0.1127614931756532 -0.27303476036672469 0 0.09955279329277085 -0.26794744480873262 0 0.1101570416001553 -0.26274421482554688 0 0.1127614931756532 -0.27303476036672469 0 0.09649499861537178 -0.25491946582551528 0 0.1101570416001553 -0.26274421482554688 0 0.11752926043120079 -0.25008636991584848 0 0.09955279329277085 -0.26794744480873262 0 0.09649499861537178 -0.25491946582551528 0 0.1101570416001553 -0.26274421482554688 0 0.1101570416001553 -0.26274421482554688 0 0.11752926043120079 -0.25008636991584848 0 0.12444666248577969 -0.26773303321091391 0 0.12582108285277899 -0.27941507326196968 0 0.1127614931756532 -0.27303476036672469 0 0.11293351130773829 -0.2863288078266959 0 0.1101570416001553 -0.26274421482554688 0 0.1127614931756532 -0.27303476036672469 0 0.12444666248577969 -0.26773303321091391 0 0.12582108285277899 -0.27941507326196968 0 0.1127614931756532 -0.27303476036672469 0 0.12444666248577969 -0.26773303321091391 0 0.12545141895879261 -0.29063990132090112 0 0.12582108285277899 -0.27941507326196968 0 0.11293351130773829 -0.2863288078266959 0 0.12545141895879261 -0.29063990132090112 0 0.11293351130773829 -0.2863288078266959 0 0.11476177337883189 -0.29931823987432399 0 0.096723464173380125 -0.28075168183772148 0 0.11293351130773829 -0.2863288078266959 0 0.098437522162106911 -0.29668038767722732 0 0.11293351130773829 -0.2863288078266959 0 0.098437522162106911 -0.29668038767722732 0 0.11476177337883189 -0.29931823987432399 0 0.098437522162106911 -0.29668038767722732 0 0.104157809737565 -0.31247168082339088 0 0.11476177337883189 -0.29931823987432399 0 0.083914835434667656 -0.30626620625573547 0 0.098437522162106911 -0.29668038767722732 0 0.104157809737565 -0.31247168082339088 0 0.104157809737565 -0.31247168082339088 0 0.11476177337883189 -0.29931823987432399 0 0.1191619686692367 -0.30998468857291861 0 0.12730726354009719 -0.30188827071706897 0 0.12545141895879261 -0.29063990132090112 0 0.11476177337883189 -0.29931823987432399 0 0.12730726354009719 -0.30188827071706897 0 0.11476177337883189 -0.29931823987432399 0 0.1191619686692367 -0.30998468857291861 0 0.1309845370891318 -0.3158440886429672 0 0.1191619686692367 -0.30998468857291861 0 0.1153403593428321 -0.32424189123489439 0 0.104157809737565 -0.31247168082339088 0 0.1191619686692367 -0.30998468857291861 0 0.1153403593428321 -0.32424189123489439 0 0.13547340604874281 -0.33092194767117361 0 0.1153403593428321 -0.32424189123489439 0 0.1228771392492745 -0.34884433669878362 0 0.1153403593428321 -0.32424189123489439 0 0.1020938620271019 -0.33560647418961781 0 0.1228771392492745 -0.34884433669878362 0 0.1020938620271019 -0.33560647418961781 0 0.1228771392492745 -0.34884433669878362 0 0.104157809737565 -0.31247168082339088 0 0.1020938620271019 -0.33560647418961781 0 0.081310584804929184 -0.32236861168045189 0 0.104157809737565 -0.31247168082339088 0 0.1153403593428321 -0.32424189123489439 0 0.1020938620271019 -0.33560647418961781 0 0.11847591279834881 -0.36822876780275732 0 0.1228771392492745 -0.34884433669878362 0 0.1062289095280399 -0.35186494445686889 0 0.1020938620271019 -0.33560647418961781 0 0.1228771392492745 -0.34884433669878362 0 0.1062289095280399 -0.35186494445686889 0 0.1062289095280399 -0.35186494445686889 0 0.097592204260499499 -0.3651623670814822 0 0.084404062064450724 -0.34783051735512133 0 0.1020938620271019 -0.33560647418961781 0 0.1062289095280399 -0.35186494445686889 0 0.084404062064450724 -0.34783051735512133 0 0.11847591279834881 -0.36822876780275732 0 0.1062289095280399 -0.35186494445686889 0 0.097592204260499499 -0.3651623670814822 0 0.10645431254216151 -0.37848874301562069 0 0.11847591279834881 -0.36822876780275732 0 0.097592204260499499 -0.3651623670814822 0 0.097592204260499499 -0.3651623670814822 0 0.078207687883947621 -0.36620624598216522 0 0.084404062064450724 -0.34783051735512133 0 0.084159485584381466 -0.38423085835884452 0 0.097592204260499499 -0.3651623670814822 0 0.078207687883947621 -0.36620624598216522 0 0.078207687883947621 -0.36620624598216522 0 0.084404062064450724 -0.34783051735512133 0 0.06093751457273882 -0.35430356169624377 0 0.084404062064450724 -0.34783051735512133 0 0.070012746392177957 -0.33888767012345511 0 0.06093751457273882 -0.35430356169624377 0 0.062589737464111755 -0.37699467366556633 0 0.078207687883947621 -0.36620624598216522 0 0.06093751457273882 -0.35430356169624377 0 0.083914835434667656 -0.30626620625573547 0 0.104157809737565 -0.31247168082339088 0 0.081310584804929184 -0.32236861168045189 0 0.084404062064450724 -0.34783051735512133 0 0.081310584804929184 -0.32236861168045189 0 0.070012746392177957 -0.33888767012345511 0 0.1020938620271019 -0.33560647418961781 0 0.084404062064450724 -0.34783051735512133 0 0.081310584804929184 -0.32236861168045189 0 0.1020938620271019 -0.33560647418961781 0 0.081310584804929184 -0.32236861168045189 0 0.081310584804929184 -0.32236861168045189 0 0.070012746392177957 -0.33888767012345511 0 0.053398824126593143 -0.33104798976200328 0 0.081310584804929184 -0.32236861168045189 0 0.060527307582756387 -0.30913074917128602 0 0.081310584804929184 -0.32236861168045189 0 0.053398824126593143 -0.33104798976200328 0 0.060527307582756387 -0.30913074917128602 0 0.083914835434667656 -0.30626620625573547 0 0.081310584804929184 -0.32236861168045189 0 0.060527307582756387 -0.30913074917128602 0 0.053398824126593143 -0.33104798976200328 0 0.033555171930342478 -0.30843773012271081 0 0.060527307582756387 -0.30913074917128602 0 0.070012746392177957 -0.33888767012345511 0 0.053398824126593143 -0.33104798976200328 0 0.06093751457273882 -0.35430356169624377 0 0.053398824126593143 -0.33104798976200328 0 0.038966051717027307 -0.35018664802434463 0 0.02955159583021584 -0.33127107514057191 0 0.053398824126593143 -0.33104798976200328 0 0.02955159583021584 -0.33127107514057191 0 0.033555171930342478 -0.30843773012271081 0 0.062589737464111755 -0.37699467366556633 0 0.04779370668057073 -0.36677586772872001 0 0.06093751457273882 -0.35430356169624377 0 0.053398824126593143 -0.33104798976200328 0 0.06093751457273882 -0.35430356169624377 0 0.038966051717027307 -0.35018664802434463 0 0.04779370668057073 -0.36677586772872001 0 0.06093751457273882 -0.35430356169624377 0 0.038966051717027307 -0.35018664802434463 0 0.04779370668057073 -0.36677586772872001 0 0.038966051717027307 -0.35018664802434463 0 0.026063859197063759 -0.36909312504123548 0 0.042591447829969577 -0.38482599557946812 0 0.04779370668057073 -0.36677586772872001 0 0.026063859197063759 -0.36909312504123548 0 0.038966051717027307 -0.35018664802434463 0 0.026063859197063759 -0.36909312504123548 0 0.015154029777786369 -0.34880311572262079 0 -0.01132347348887399 -0.34647629943326852 0 0.015154029777786369 -0.34880311572262079 0 0.001329830272625719 -0.37172096034497498 0 0.026063859197063759 -0.36909312504123548 0 0.015154029777786369 -0.34880311572262079 0 0.001329830272625719 -0.37172096034497498 0 0.02955159583021584 -0.33127107514057191 0 0.0067780386225128313 -0.32069423561336358 0 0.033555171930342478 -0.30843773012271081 0 0.015154029777786369 -0.34880311572262079 0 0.02955159583021584 -0.33127107514057191 0 0.0067780386225128313 -0.32069423561336358 0 0.038966051717027307 -0.35018664802434463 0 0.015154029777786369 -0.34880311572262079 0 0.02955159583021584 -0.33127107514057191 0 -0.01132347348887399 -0.34647629943326852 0 0.015154029777786369 -0.34880311572262079 0 0.0067780386225128313 -0.32069423561336358 0 -0.0062904779584391293 -0.29490589873110767 0 0.0067780386225128313 -0.32069423561336358 0 0.01297807710556147 -0.30091513413229998 0 -0.0062904779584391293 -0.29490589873110767 0 0.01297807710556147 -0.30091513413229998 0 0.01933899970114571 -0.27941694178804538 0 -0.0062904779584391293 -0.29490589873110767 0 0.01933899970114571 -0.27941694178804538 0 0.01297807710556147 -0.30091513413229998 0 0.033555171930342478 -0.30843773012271081 0 0.01933899970114571 -0.27941694178804538 0 0.0067780386225128313 -0.32069423561336358 0 0.01297807710556147 -0.30091513413229998 0 0.033555171930342478 -0.30843773012271081 0 0.033555171930342478 -0.30843773012271081 0 0.052507570279497769 -0.28690534937899559 0 0.01933899970114571 -0.27941694178804538 0 0.033555171930342478 -0.30843773012271081 0 0.052507570279497769 -0.28690534937899559 0 0.060527307582756387 -0.30913074917128602 0 0.07941679692995085 -0.26892512709861349 0 0.052507570279497769 -0.28690534937899559 0 0.044968477360730577 -0.26392798484498298 0 0.052507570279497769 -0.28690534937899559 0 0.044968477360730577 -0.26392798484498298 0 0.01933899970114571 -0.27941694178804538 0 0.044968477360730577 -0.26392798484498298 0 0.051444957571831061 -0.2415958032662299 0 0.070597955020315906 -0.24843902790192149 0 0.044968477360730577 -0.26392798484498298 0 0.070597955020315906 -0.24843902790192149 0 0.044968477360730577 -0.26392798484498298 0 0.01933899970114571 -0.27941694178804538 0 -0.01372632204363926 -0.27253411672486377 0 0.01933899970114571 -0.27941694178804538 0 0.012011206364422111 -0.25275089785599059 0 0.044968477360730577 -0.26392798484498298 0 0.01933899970114571 -0.27941694178804538 0 0.012011206364422111 -0.25275089785599059 0 0.044968477360730577 -0.26392798484498298 0 0.012011206364422111 -0.25275089785599059 0 0.031512028441702859 -0.23321284547775881 0 0.012011206364422111 -0.25275089785599059 0 0.0022737653020384711 -0.2270177109581504 0 0.031512028441702859 -0.23321284547775881 0 0.0022737653020384711 -0.2270177109581504 0 0.019125435293842061 -0.20601306545420589 0 0.031512028441702859 -0.23321284547775881 0 -0.0034610342632233932 -0.19838100306331299 0 0.019125435293842061 -0.20601306545420589 0 0.016619050083094951 -0.18732360876822191 0 -0.0034610342632233932 -0.19838100306331299 0 0.0022737653020384711 -0.2270177109581504 0 0.019125435293842061 -0.20601306545420589 0 0.0022737653020384711 -0.2270177109581504 0 0.019125435293842061 -0.20601306545420589 0 0.019125435293842061 -0.20601306545420589 0 0.035256955753183439 -0.19926080709378119 0 0.039120498524419449 -0.2128540611920651 0 0.019125435293842061 -0.20601306545420589 0 0.039120498524419449 -0.2128540611920651 0 0.031512028441702859 -0.23321284547775881 0 0.019125435293842061 -0.20601306545420589 0 0.035977105285644212 -0.18500841995026029 0 0.016619050083094951 -0.18732360876822191 0 0.019125435293842061 -0.20601306545420589 0 0.035256955753183439 -0.19926080709378119 0 0.035977105285644212 -0.18500841995026029 0 0.019125435293842061 -0.20601306545420589 0 0.035977105285644212 -0.18500841995026029 0 0.04680478390882746 -0.1931676817785937 0 0.035256955753183439 -0.19926080709378119 0 0.039120498524419449 -0.2128540611920651 0 0.04680478390882746 -0.1931676817785937 0 0.035256955753183439 -0.19926080709378119 0 0.035977105285644212 -0.18500841995026029 0 0.04680478390882746 -0.1931676817785937 0 0.035977105285644212 -0.18500841995026029 0 0.04680478390882746 -0.1931676817785937 0 0.058348710276362438 -0.20186667636807731 0 0.058701369464574923 -0.22080335484025609 0 0.04680478390882746 -0.1931676817785937 0 0.058701369464574923 -0.22080335484025609 0 0.04680478390882746 -0.1931676817785937 0 0.039120498524419449 -0.2128540611920651 0 0.058701369464574923 -0.22080335484025609 0 0.04680478390882746 -0.1931676817785937 0 0.058348710276362438 -0.20186667636807731 0 0.058348710276362438 -0.20186667636807731 0 0.058009766296042958 -0.1905650417265127 0 0.069548959949920219 -0.19391291260790169 0 0.04680478390882746 -0.1931676817785937 0 0.058348710276362438 -0.20186667636807731 0 0.058009766296042958 -0.1905650417265127 0 0.04680478390882746 -0.1931676817785937 0 0.058009766296042958 -0.1905650417265127 0 0.053448161889463011 -0.18044694152537899 0 0.044968477360730577 -0.26392798484498298 0 0.031512028441702859 -0.23321284547775881 0 0.051444957571831061 -0.2415958032662299 0 0.039120498524419449 -0.2128540611920651 0 0.031512028441702859 -0.23321284547775881 0 0.058701369464574923 -0.22080335484025609 0 0.031512028441702859 -0.23321284547775881 0 0.058701369464574923 -0.22080335484025609 0 0.051444957571831061 -0.2415958032662299 0 0.058701369464574923 -0.22080335484025609 0 0.051444957571831061 -0.2415958032662299 0 0.070597955020315906 -0.24843902790192149 0 0.058701369464574923 -0.22080335484025609 0 0.070597955020315906 -0.24843902790192149 0 0.09649499861537178 -0.25491946582551528 0 0.070597955020315906 -0.24843902790192149 0 0.096519147796431143 -0.23277377540810121 0 0.070597955020315906 -0.24843902790192149 0 0.096519147796431143 -0.23277377540810121 0 0.070597955020315906 -0.24843902790192149 0 0.083293441499668691 -0.2218756286834799 0 0.096519147796431143 -0.23277377540810121 0 0.083293441499668691 -0.2218756286834799 0 0.096617433601549785 -0.2181221780822459 0 0.096519147796431143 -0.23277377540810121 0 0.083293441499668691 -0.2218756286834799 0 0.096519147796431143 -0.23277377540810121 0 0.058701369464574923 -0.22080335484025609 0 0.070597955020315906 -0.24843902790192149 0 0.083293441499668691 -0.2218756286834799 0 0.058701369464574923 -0.22080335484025609 0 0.083293441499668691 -0.2218756286834799 0 0.073409991200108687 -0.2077352626377432 0 0.058348710276362438 -0.20186667636807731 0 0.058701369464574923 -0.22080335484025609 0 0.073409991200108687 -0.2077352626377432 0 0.058009766296042958 -0.1905650417265127 0 0.069548959949920219 -0.19391291260790169 0 0.066748381073344951 -0.1782316062820504 0 0.058348710276362438 -0.20186667636807731 0 0.073409991200108687 -0.2077352626377432 0 0.069548959949920219 -0.19391291260790169 0 0.073409991200108687 -0.2077352626377432 0 0.069548959949920219 -0.19391291260790169 0 0.083627783250574406 -0.19826916827806171 0 0.069548959949920219 -0.19391291260790169 0 0.083627783250574406 -0.19826916827806171 0 0.079085541090789663 -0.186028558586118 0 0.083627783250574406 -0.19826916827806171 0 0.10163612080431381 -0.2035047492546978 0 0.092865831107906319 -0.1844822302174346 0 0.083627783250574406 -0.19826916827806171 0 0.092865831107906319 -0.1844822302174346 0 0.079085541090789663 -0.186028558586118 0 0.083627783250574406 -0.19826916827806171 0 0.087792780540138046 -0.2101541025071938 0 0.10163612080431381 -0.2035047492546978 0 0.083293441499668691 -0.2218756286834799 0 0.073409991200108687 -0.2077352626377432 0 0.087792780540138046 -0.2101541025071938 0 0.073409991200108687 -0.2077352626377432 0 0.083627783250574406 -0.19826916827806171 0 0.087792780540138046 -0.2101541025071938 0 0.083293441499668691 -0.2218756286834799 0 0.087792780540138046 -0.2101541025071938 0 0.096617433601549785 -0.2181221780822459 0 0.096617433601549785 -0.2181221780822459 0 0.10163612080431381 -0.2035047492546978 0 0.1138456773671972 -0.22230263455775701 0 0.087792780540138046 -0.2101541025071938 0 0.096617433601549785 -0.2181221780822459 0 0.10163612080431381 -0.2035047492546978 0 0.10163612080431381 -0.2035047492546978 0 0.1078738585493737 -0.18940212187189431 0 0.092865831107906319 -0.1844822302174346 0 0.1078738585493737 -0.18940212187189431 0 0.11945698867659681 -0.20120022094666171 0 0.1224308172542093 -0.18471731460296639 0 0.10163612080431381 -0.2035047492546978 0 0.1078738585493737 -0.18940212187189431 0 0.11945698867659681 -0.20120022094666171 0 0.11945698867659681 -0.20120022094666171 0 0.1138456773671972 -0.22230263455775701 0 0.1311722069379628 -0.21183149370741189 0 0.10163612080431381 -0.2035047492546978 0 0.11945698867659681 -0.20120022094666171 0 0.1138456773671972 -0.22230263455775701 0 0.1138456773671972 -0.22230263455775701 0 0.1311722069379628 -0.21183149370741189 0 0.1138456773671972 -0.22230263455775701 0 0.12944783529313439 -0.22516525038185559 0 0.1311722069379628 -0.21183149370741189 0 0.1138456773671972 -0.22230263455775701 0 0.1206413850607744 -0.2351162915799947 0 0.096519147796431143 -0.23277377540810121 0 0.1138456773671972 -0.22230263455775701 0 0.1206413850607744 -0.2351162915799947 0 0.12944783529313439 -0.22516525038185559 0 0.11752926043120079 -0.25008636991584848 0 0.1206413850607744 -0.2351162915799947 0 0.096519147796431143 -0.23277377540810121 0 0.11752926043120079 -0.25008636991584848 0 0.1206413850607744 -0.2351162915799947 0 0.13078172172674321 -0.2458027894733521 0 0.09649499861537178 -0.25491946582551528 0 0.11752926043120079 -0.25008636991584848 0 0.096519147796431143 -0.23277377540810121 0 0.11752926043120079 -0.25008636991584848 0 0.096519147796431143 -0.23277377540810121 0 0.1138456773671972 -0.22230263455775701 0 0.096519147796431143 -0.23277377540810121 0 0.096617433601549785 -0.2181221780822459 0 0.1138456773671972 -0.22230263455775701 0 0.096519147796431143 -0.23277377540810121 0 0.097135913984547781 -0.15143503744315781 0 0.11531846677866089 -0.14873535452697209 0 0.1057360350582122 -0.16846141094816361 0 0.11531846677866089 -0.14873535452697209 0 0.089678408740790611 -0.13439397333871239 0 0.097135913984547781 -0.15143503744315781 0 0.11531846677866089 -0.14873535452697209 0 0.089678408740790611 -0.13439397333871239 0 0.098532950748233469 -0.13198426542535421 0 0.11531846677866089 -0.14873535452697209 0 0.089678408740790611 -0.13439397333871239 0 0.098532950748233469 -0.13198426542535421 0 0.1097372394465249 -0.13312578398223721 0 0.11531846677866089 -0.14873535452697209 0 0.098532950748233469 -0.13198426542535421 0 0.10012775415512309 -0.1228097791917933 0 0.098532950748233469 -0.13198426542535421 0 0.089678408740790611 -0.13439397333871239 0 0.10012775415512309 -0.1228097791917933 0 0.1097372394465249 -0.13312578398223721 0 0.1155122719511297 -0.1252996771304683 0 0.10012775415512309 -0.1228097791917933 0 0.098532950748233469 -0.13198426542535421 0 0.1097372394465249 -0.13312578398223721 0 0.10012775415512309 -0.1228097791917933 0 0.1097372394465249 -0.13312578398223721 0 0.1191947535994773 -0.13679984363659781 0 0.11531846677866089 -0.14873535452697209 0 0.1097372394465249 -0.13312578398223721 0 0.1155122719511297 -0.1252996771304683 0 0.1191947535994773 -0.13679984363659781 0 0.1155122719511297 -0.1252996771304683 0 0.1191947535994773 -0.13679984363659781 0 0.128587300494203 -0.13248088605997579 0 0.1155122719511297 -0.1252996771304683 0 0.13089678974713631 -0.12778957506914301 0 0.128587300494203 -0.13248088605997579 0 0.1155122719511297 -0.1252996771304683 0 0.13089678974713631 -0.12778957506914301 0 0.1191947535994773 -0.13679984363659781 0 0.11531846677866089 -0.14873535452697209 0 0.1279866395688315 -0.14491316741122809 0 0.11531846677866089 -0.14873535452697209 0 0.1219787527980354 -0.16658724503717809 0 0.1057360350582122 -0.16846141094816361 0 0.1078738585493737 -0.18940212187189431 0 0.1224308172542093 -0.18471731460296639 0 0.1057360350582122 -0.16846141094816361 0 0.1219787527980354 -0.16658724503717809 0 0.1224308172542093 -0.18471731460296639 0 0.1057360350582122 -0.16846141094816361 0 0.1078738585493737 -0.18940212187189431 0 0.1057360350582122 -0.16846141094816361 0 0.092865831107906319 -0.1844822302174346 0 0.1057360350582122 -0.16846141094816361 0 0.091981672220327521 -0.17118054220850981 0 0.092865831107906319 -0.1844822302174346 0 0.1057360350582122 -0.16846141094816361 0 0.088172338003280448 -0.15901270272345219 0 0.091981672220327521 -0.17118054220850981 0 0.097135913984547781 -0.15143503744315781 0 0.1057360350582122 -0.16846141094816361 0 0.088172338003280448 -0.15901270272345219 0 0.088172338003280448 -0.15901270272345219 0 0.091981672220327521 -0.17118054220850981 0 0.080393805360080367 -0.17359368073599299 0 0.088172338003280448 -0.15901270272345219 0 0.080393805360080367 -0.17359368073599299 0 0.073741435117430087 -0.15980062507077539 0 0.091981672220327521 -0.17118054220850981 0 0.092865831107906319 -0.1844822302174346 0 0.080393805360080367 -0.17359368073599299 0 0.092865831107906319 -0.1844822302174346 0 0.080393805360080367 -0.17359368073599299 0 0.079085541090789663 -0.186028558586118 0 0.069548959949920219 -0.19391291260790169 0 0.079085541090789663 -0.186028558586118 0 0.066748381073344951 -0.1782316062820504 0 0.080393805360080367 -0.17359368073599299 0 0.079085541090789663 -0.186028558586118 0 0.066748381073344951 -0.1782316062820504 0 0.066748381073344951 -0.1782316062820504 0 0.073741435117430087 -0.15980062507077539 0 0.055950428814724291 -0.160112811356695 0 0.080393805360080367 -0.17359368073599299 0 0.066748381073344951 -0.1782316062820504 0 0.073741435117430087 -0.15980062507077539 0 0.071162957104714916 -0.14115126249504531 0 0.055950428814724291 -0.160112811356695 0 0.073741435117430087 -0.15980062507077539 0 0.071162957104714916 -0.14115126249504531 0 0.084034420235148496 -0.14673351525305259 0 0.073741435117430087 -0.15980062507077539 0 0.071162957104714916 -0.14115126249504531 0 0.055950428814724291 -0.160112811356695 0 0.071162957104714916 -0.14115126249504531 0 0.084034420235148496 -0.14673351525305259 0 0.079052942590925254 -0.1381821566746711 0 0.088172338003280448 -0.15901270272345219 0 0.073741435117430087 -0.15980062507077539 0 0.084034420235148496 -0.14673351525305259 0 0.097135913984547781 -0.15143503744315781 0 0.084034420235148496 -0.14673351525305259 0 0.089678408740790611 -0.13439397333871239 0 0.097135913984547781 -0.15143503744315781 0 0.088172338003280448 -0.15901270272345219 0 0.084034420235148496 -0.14673351525305259 0 0.089678408740790611 -0.13439397333871239 0 0.079052942590925254 -0.1381821566746711 0 0.071335984283046994 -0.1304498756118741 0 0.089678408740790611 -0.13439397333871239 0 0.083714564567708052 -0.12015339649181719 0 0.10012775415512309 -0.1228097791917933 0 0.084034420235148496 -0.14673351525305259 0 0.089678408740790611 -0.13439397333871239 0 0.079052942590925254 -0.1381821566746711 0 0.089678408740790611 -0.13439397333871239 0 0.064038350702920577 -0.1200525921504523 0 0.089678408740790611 -0.13439397333871239 0 0.071335984283046994 -0.1304498756118741 0 0.064038350702920577 -0.1200525921504523 0 0.071162957104714916 -0.14115126249504531 0 0.079052942590925254 -0.1381821566746711 0 0.071335984283046994 -0.1304498756118741 0 0.071162957104714916 -0.14115126249504531 0 0.071335984283046994 -0.1304498756118741 0 0.061561252179095097 -0.1343058399122383 0 0.071162957104714916 -0.14115126249504531 0 0.061561252179095097 -0.1343058399122383 0 0.055642902349357093 -0.14412382134887669 0 0.071335984283046994 -0.1304498756118741 0 0.061561252179095097 -0.1343058399122383 0 0.064038350702920577 -0.1200525921504523 0 0.045824927983060981 -0.13431722060014509 0 0.064038350702920577 -0.1200525921504523 0 0.061561252179095097 -0.1343058399122383 0 0.045824927983060981 -0.13431722060014509 0 0.064038350702920577 -0.1200525921504523 0 0.045824927983060981 -0.13431722060014509 0 0.049505601229949778 -0.1215885661579921 0 0.064038350702920577 -0.1200525921504523 0 0.061561252179095097 -0.1343058399122383 0 0.055642902349357093 -0.14412382134887669 0 0.045824927983060981 -0.13431722060014509 0 0.055642902349357093 -0.14412382134887669 0 0.0437149456651902 -0.15073197238025979 0 0.055950428814724291 -0.160112811356695 0 0.071162957104714916 -0.14115126249504531 0 0.055642902349357093 -0.14412382134887669 0 0.055950428814724291 -0.160112811356695 0 0.055642902349357093 -0.14412382134887669 0 0.0437149456651902 -0.15073197238025979 0 0.045824927983060981 -0.13431722060014509 0 0.0437149456651902 -0.15073197238025979 0 0.034174702893966798 -0.16382810463409039 0 0.027611505263201799 -0.14858184904983859 0 0.045824927983060981 -0.13431722060014509 0 0.027611505263201799 -0.14858184904983859 0 0.0437149456651902 -0.15073197238025979 0 0.045824927983060981 -0.13431722060014509 0 0.027611505263201799 -0.14858184904983859 0 0.031642011758090963 -0.1332430955043605 0 0.045824927983060981 -0.13431722060014509 0 0.027611505263201799 -0.14858184904983859 0 0.031642011758090963 -0.1332430955043605 0 0.029039967374838931 -0.12567178738944931 0 0.037338036066858087 -0.12412637833583651 0 0.031642011758090963 -0.1332430955043605 0 0.045824927983060981 -0.13431722060014509 0 0.037338036066858087 -0.12412637833583651 0 0.045824927983060981 -0.13431722060014509 0 0.049505601229949778 -0.1215885661579921 0 0.037338036066858087 -0.12412637833583651 0 0.053448161889463011 -0.18044694152537899 0 0.055950428814724291 -0.160112811356695 0 0.040737900524731252 -0.17907436021834269 0 0.066748381073344951 -0.1782316062820504 0 0.053448161889463011 -0.18044694152537899 0 0.055950428814724291 -0.160112811356695 0 0.04680478390882746 -0.1931676817785937 0 0.053448161889463011 -0.18044694152537899 0 0.040737900524731252 -0.17907436021834269 0 0.058009766296042958 -0.1905650417265127 0 0.066748381073344951 -0.1782316062820504 0 0.053448161889463011 -0.18044694152537899 0 0.055950428814724291 -0.160112811356695 0 0.040737900524731252 -0.17907436021834269 0 0.0437149456651902 -0.15073197238025979 0 0.055950428814724291 -0.160112811356695 0 0.034174702893966798 -0.16382810463409039 0 0.055950428814724291 -0.160112811356695 0 0.034174702893966798 -0.16382810463409039 0 0.040737900524731252 -0.17907436021834269 0 0.034174702893966798 -0.16382810463409039 0 0.040737900524731252 -0.17907436021834269 0 0.034174702893966798 -0.16382810463409039 0 0.040737900524731252 -0.17907436021834269 0 0.035977105285644212 -0.18500841995026029 0 0.040737900524731252 -0.17907436021834269 0 0.035977105285644212 -0.18500841995026029 0 0.04680478390882746 -0.1931676817785937 0 0.040737900524731252 -0.17907436021834269 0 0.035977105285644212 -0.18500841995026029 0 0.04680478390882746 -0.1931676817785937 0 0.040737900524731252 -0.17907436021834269 0 0.035977105285644212 -0.18500841995026029 0 0.016619050083094951 -0.18732360876822191 0 0.01552669069151031 -0.16959788801830389 0 0.035977105285644212 -0.18500841995026029 0 0.01552669069151031 -0.16959788801830389 0 0.034174702893966798 -0.16382810463409039 0 0.035977105285644212 -0.18500841995026029 0 0.01552669069151031 -0.16959788801830389 0 0.034174702893966798 -0.16382810463409039 0 0.026854037202767671 -0.15929882095847789 0 0.01552669069151031 -0.16959788801830389 0 0.034174702893966798 -0.16382810463409039 0 0.026854037202767671 -0.15929882095847789 0 0.027611505263201799 -0.14858184904983859 0 0.026854037202767671 -0.15929882095847789 0 0.017766242097127821 -0.1588206902167813 0 0.020791586753149641 -0.15444002579508539 0 0.026854037202767671 -0.15929882095847789 0 0.017766242097127821 -0.1588206902167813 0 0.01552669069151031 -0.16959788801830389 0 -0.0049237239026245858 -0.15418735608634859 0 0.01552669069151031 -0.16959788801830389 0 -0.0049237239026245858 -0.15418735608634859 0 0.0082188127272855883 -0.1567990386731081 0 0.01552669069151031 -0.16959788801830389 0 -0.0049237239026245858 -0.15418735608634859 0 -0.0003562882565626862 -0.1747178663493702 0 0.01552669069151031 -0.16959788801830389 0 0.017766242097127821 -0.1588206902167813 0 0.0082188127272855883 -0.1567990386731081 0 0.01552669069151031 -0.16959788801830389 0 -0.0003562882565626862 -0.1747178663493702 0 0.016619050083094951 -0.18732360876822191 0 0.01552669069151031 -0.16959788801830389 0 -0.0003562882565626862 -0.1747178663493702 0 -0.0034610342632233932 -0.19838100306331299 0 0.016619050083094951 -0.18732360876822191 0 0.019576782177309109 -0.1299172516069593 0 0.027611505263201799 -0.14858184904983859 0 0.031642011758090963 -0.1332430955043605 0 0.019576782177309109 -0.1299172516069593 0 0.027611505263201799 -0.14858184904983859 0 0.017456773739827611 -0.1402627748608517 0 0.019576782177309109 -0.1299172516069593 0 0.021369069518575319 -0.14410588833822541 0 0.017456773739827611 -0.1402627748608517 0 0.019576782177309109 -0.1299172516069593 0 0.01383999591620748 -0.1369497664178484 0 0.031642011758090963 -0.1332430955043605 0 0.019576782177309109 -0.1299172516069593 0 0.029039967374838931 -0.12567178738944931 0 0.019576782177309109 -0.1299172516069593 0 0.027611505263201799 -0.14858184904983859 0 0.021369069518575319 -0.14410588833822541 0 0.027611505263201799 -0.14858184904983859 0 0.024500682026214009 -0.1510182245917023 0 0.021369069518575319 -0.14410588833822541 0 0.026854037202767671 -0.15929882095847789 0 0.024500682026214009 -0.1510182245917023 0 0.020791586753149641 -0.15444002579508539 0 0.026854037202767671 -0.15929882095847789 0 0.027611505263201799 -0.14858184904983859 0 0.024500682026214009 -0.1510182245917023 0 0.034174702893966798 -0.16382810463409039 0 0.027611505263201799 -0.14858184904983859 0 0.027611505263201799 -0.14858184904983859 0 0.024500682026214009 -0.1510182245917023 0 0.017766242097127821 -0.1588206902167813 0 0.020791586753149641 -0.15444002579508539 0 0.01708031919136694 -0.15065657426001081 0 0.024500682026214009 -0.1510182245917023 0 0.020791586753149641 -0.15444002579508539 0 0.020417836562184249 -0.14919458248856879 0 0.020417836562184249 -0.14919458248856879 0 0.01708031919136694 -0.15065657426001081 0 0.018268871778614939 -0.14567695869710701 0 0.020791586753149641 -0.15444002579508539 0 0.020417836562184249 -0.14919458248856879 0 0.01708031919136694 -0.15065657426001081 0 0.024500682026214009 -0.1510182245917023 0 0.020417836562184249 -0.14919458248856879 0 0.021369069518575319 -0.14410588833822541 0 0.020417836562184249 -0.14919458248856879 0 0.021369069518575319 -0.14410588833822541 0 0.018268871778614939 -0.14567695869710701 0 0.01708031919136694 -0.15065657426001081 0 0.018268871778614939 -0.14567695869710701 0 0.014488449288093831 -0.14446652417578251 0 0.017456773739827611 -0.1402627748608517 0 0.021369069518575319 -0.14410588833822541 0 0.018268871778614939 -0.14567695869710701 0 0.017456773739827611 -0.1402627748608517 0 0.018268871778614939 -0.14567695869710701 0 0.014488449288093831 -0.14446652417578251 0 0.009275596944061883 -0.14265418990250009 0 0.01074318286197078 -0.15074965623532879 0 0.0042185540073147038 -0.14807634944553011 0 -0.0049237239026245858 -0.15418735608634859 0 0.0042185540073147038 -0.14807634944553011 0 0.0084465345920672896 -0.12804710113955539 0 0.014488449288093831 -0.14446652417578251 0 0.009275596944061883 -0.14265418990250009 0 0.01074318286197078 -0.15074965623532879 0 0.014488449288093831 -0.14446652417578251 0 0.009275596944061883 -0.14265418990250009 0 0.01383999591620748 -0.1369497664178484 0 -0.0049237239026245858 -0.15418735608634859 0 0.0084465345920672896 -0.12804710113955539 0 0.017766242097127821 -0.1588206902167813 0 0.0082188127272855883 -0.1567990386731081 0 0.01074318286197078 -0.15074965623532879 0 0.017766242097127821 -0.1588206902167813 0 0.01708031919136694 -0.15065657426001081 0 0.01074318286197078 -0.15074965623532879 0 0.01708031919136694 -0.15065657426001081 0 0.014488449288093831 -0.14446652417578251 0 0.01074318286197078 -0.15074965623532879 0 0.0082188127272855883 -0.1567990386731081 0 0.01074318286197078 -0.15074965623532879 0 0.0042185540073147038 -0.14807634944553011 0 -0.0049237239026245858 -0.15418735608634859 0 0.0082188127272855883 -0.1567990386731081 0 0.0042185540073147038 -0.14807634944553011 0 0.009275596944061883 -0.14265418990250009 0 0.0042185540073147038 -0.14807634944553011 0 0.0084465345920672896 -0.12804710113955539 0 0.009275596944061883 -0.14265418990250009 0 0.01383999591620748 -0.1369497664178484 0 0.0084465345920672896 -0.12804710113955539 0 0.017456773739827611 -0.1402627748608517 0 0.014488449288093831 -0.14446652417578251 0 0.01383999591620748 -0.1369497664178484 0 0.019576782177309109 -0.1299172516069593 0 0.01383999591620748 -0.1369497664178484 0 0.0084465345920672896 -0.12804710113955539 0 0.019576782177309109 -0.1299172516069593 0 0.011542059091414449 -0.11125265416408089 0 0.019576782177309109 -0.1299172516069593 0 0.0084465345920672896 -0.12804710113955539 0 0.011542059091414449 -0.11125265416408089 0 -1.1024891662820941e-05 -0.1179733914109671 0 0.0084465345920672896 -0.12804710113955539 0 0.011542059091414449 -0.11125265416408089 0 -1.1024891662820941e-05 -0.1179733914109671 0 0.011542059091414449 -0.11125265416408089 0 0.001824658357327627 -0.1054733871029431 0 0.019576782177309109 -0.1299172516069593 0 0.011542059091414449 -0.11125265416408089 0 0.02760303949709756 -0.115400424110641 0 0.019576782177309109 -0.1299172516069593 0 0.029039967374838931 -0.12567178738944931 0 0.02760303949709756 -0.115400424110641 0 0.011542059091414449 -0.11125265416408089 0 0.02760303949709756 -0.115400424110641 0 0.018208046785689078 -0.099520136409745608 0 0.02760303949709756 -0.115400424110641 0 0.018208046785689078 -0.099520136409745608 0 0.030067336465553551 -0.098490223751028866 0 0.018208046785689078 -0.099520136409745608 0 0.030067336465553551 -0.098490223751028866 0 0.02029191750834192 -0.083418136478836891 0 0.011542059091414449 -0.11125265416408089 0 0.018208046785689078 -0.099520136409745608 0 0.003275135286582184 -0.092134748841791653 0 0.011542059091414449 -0.11125265416408089 0 0.003275135286582184 -0.092134748841791653 0 0.011542059091414449 -0.11125265416408089 0 0.001824658357327627 -0.1054733871029431 0 0.003275135286582184 -0.092134748841791653 0 -0.0019803882487723222 -0.094826818401422736 0 0.001824658357327627 -0.1054733871029431 0 0.003275135286582184 -0.092134748841791653 0 -0.0019803882487723222 -0.094826818401422736 0 0.003275135286582184 -0.092134748841791653 0 0.003275135286582184 -0.092134748841791653 0 0.02029191750834192 -0.083418136478836891 0 0.018208046785689078 -0.099520136409745608 0 0.003275135286582184 -0.092134748841791653 0 0.02029191750834192 -0.083418136478836891 0 0.003275135286582184 -0.092134748841791653 0 0.0061302044082681591 -0.072685309045958837 0 0.02029191750834192 -0.083418136478836891 0 -0.0019803882487723222 -0.094826818401422736 0 0.003275135286582184 -0.092134748841791653 0 0.0061302044082681591 -0.072685309045958837 0 0.0061302044082681591 -0.072685309045958837 0 0.021321653615345559 -0.055910213406934167 0 0.00029661487375323931 -0.063456112584095156 0 0.0061302044082681591 -0.072685309045958837 0 0.0078838076849434731 -0.055547621232976643 0 0.02029191750834192 -0.083418136478836891 0 0.042564223265456148 -0.07200945455625106 0 0.021321653615345559 -0.055910213406934167 0 0.0061302044082681591 -0.072685309045958837 0 0.02029191750834192 -0.083418136478836891 0 0.021321653615345559 -0.055910213406934167 0 0.030067336465553551 -0.098490223751028866 0 0.02029191750834192 -0.083418136478836891 0 0.043182045606454993 -0.092391672781695786 0 0.02029191750834192 -0.083418136478836891 0 0.043182045606454993 -0.092391672781695786 0 0.042564223265456148 -0.07200945455625106 0 0.02029191750834192 -0.083418136478836891 0 0.042564223265456148 -0.07200945455625106 0 0.042564223265456148 -0.07200945455625106 0 0.064836529022570394 -0.060600772633665222 0 0.042564223265456148 -0.07200945455625106 0 0.064836529022570394 -0.060600772633665222 0 0.065421565856859765 -0.076290709326437736 0 0.043182045606454993 -0.092391672781695786 0 0.042564223265456148 -0.07200945455625106 0 0.055541204283563302 -0.087090012678884665 0 0.042564223265456148 -0.07200945455625106 0 0.055541204283563302 -0.087090012678884665 0 0.065421565856859765 -0.076290709326437736 0 0.055541204283563302 -0.087090012678884665 0 0.052372658197136358 -0.1018768095635337 0 0.065317281255102763 -0.094620814240321469 0 0.052372658197136358 -0.1018768095635337 0 0.062822720990625192 -0.10624341152843909 0 0.065317281255102763 -0.094620814240321469 0 0.043182045606454993 -0.092391672781695786 0 0.055541204283563302 -0.087090012678884665 0 0.052372658197136358 -0.1018768095635337 0 0.052372658197136358 -0.1018768095635337 0 0.05622235688885778 -0.11568083345603029 0 0.062822720990625192 -0.10624341152843909 0 0.05622235688885778 -0.11568083345603029 0 0.067301374980292761 -0.1174970137918423 0 0.062822720990625192 -0.10624341152843909 0 0.05622235688885778 -0.11568083345603029 0 0.067301374980292761 -0.1174970137918423 0 0.05622235688885778 -0.11568083345603029 0 0.049505601229949778 -0.1215885661579921 0 0.064038350702920577 -0.1200525921504523 0 0.05622235688885778 -0.11568083345603029 0 0.064038350702920577 -0.1200525921504523 0 0.052372658197136358 -0.1018768095635337 0 0.05622235688885778 -0.11568083345603029 0 0.044107978218916682 -0.1137432925798567 0 0.05622235688885778 -0.11568083345603029 0 0.049505601229949778 -0.1215885661579921 0 0.044107978218916682 -0.1137432925798567 0 0.05622235688885778 -0.11568083345603029 0 0.044107978218916682 -0.1137432925798567 0 0.02760303949709756 -0.115400424110641 0 0.044107978218916682 -0.1137432925798567 0 0.039466611597031832 -0.1043804845573512 0 0.02760303949709756 -0.115400424110641 0 0.044107978218916682 -0.1137432925798567 0 0.037338036066858087 -0.12412637833583651 0 0.049505601229949778 -0.1215885661579921 0 0.044107978218916682 -0.1137432925798567 0 0.037338036066858087 -0.12412637833583651 0 0.029039967374838931 -0.12567178738944931 0 0.02760303949709756 -0.115400424110641 0 0.037338036066858087 -0.12412637833583651 0 0.02760303949709756 -0.115400424110641 0 0.030067336465553551 -0.098490223751028866 0 0.039466611597031832 -0.1043804845573512 0 0.030067336465553551 -0.098490223751028866 0 0.043182045606454993 -0.092391672781695786 0 0.039466611597031832 -0.1043804845573512 0 0.043182045606454993 -0.092391672781695786 0 0.052372658197136358 -0.1018768095635337 0 0.039466611597031832 -0.1043804845573512 0 0.052372658197136358 -0.1018768095635337 0 0.044107978218916682 -0.1137432925798567 0 0.039466611597031832 -0.1043804845573512 0 0.027470930869090721 -0.0051934323317437137 0 0.01474968702861479 -0.013572709952776291 0 0.032793081835488423 -0.020026022629241629 0 0.022935506817611171 0.0096653664055293999 0 0.027470930869090721 -0.0051934323317437137 0 0.01474968702861479 -0.013572709952776291 0 0.022935506817611171 0.0096653664055293999 0 0.001300284477923656 -0.0064203740176691469 0 0.01474968702861479 -0.013572709952776291 0 -0.0080762768916106727 -0.022154101554753981 0 0.001300284477923656 -0.0064203740176691469 0 0.01474968702861479 -0.013572709952776291 0 -0.0080762768916106727 -0.022154101554753981 0 0.01474968702861479 -0.013572709952776291 0 0.01090422342544064 -0.028312273988929021 0 -0.0080762768916106727 -0.022154101554753981 0 0.01090422342544064 -0.028312273988929021 0 0.01090422342544064 -0.028312273988929021 0 0.0298847237424919 -0.034470446423104567 0 0.032793081835488423 -0.020026022629241629 0 0.01474968702861479 -0.013572709952776291 0 0.01090422342544064 -0.028312273988929021 0 0.032793081835488423 -0.020026022629241629 0 0.01090422342544064 -0.028312273988929021 0 0.0298847237424919 -0.034470446423104567 0 0.0091413640716527019 -0.044743127020136303 0 0.0298847237424919 -0.034470446423104567 0 0.0091413640716527019 -0.044743127020136303 0 0.021321653615345559 -0.055910213406934167 0 0.01090422342544064 -0.028312273988929021 0 0.0298847237424919 -0.034470446423104567 0 -0.0064242675956501551 -0.039195660703315788 0 0.01090422342544064 -0.028312273988929021 0 0.0091413640716527019 -0.044743127020136303 0 -0.0064242675956501551 -0.039195660703315788 0 -0.00078708000148443357 -0.048538300474750183 0 0.0091413640716527019 -0.044743127020136303 0 0.0061302044082681591 -0.072685309045958837 0 0.0078838076849434731 -0.055547621232976643 0 0.021321653615345559 -0.055910213406934167 0 0.0091413640716527019 -0.044743127020136303 0 0.0078838076849434731 -0.055547621232976643 0 0.021321653615345559 -0.055910213406934167 0 -0.00078708000148443357 -0.048538300474750183 0 -0.0033324927636182362 -0.055788865741512143 0 0.0078838076849434731 -0.055547621232976643 0 -0.00078708000148443357 -0.048538300474750183 0 0.0091413640716527019 -0.044743127020136303 0 0.0078838076849434731 -0.055547621232976643 0 -0.0033324927636182362 -0.055788865741512143 0 0.00029661487375323931 -0.063456112584095156 0 0.0078838076849434731 -0.055547621232976643 0 0.0298847237424919 -0.034470446423104567 0 0.021321653615345559 -0.055910213406934167 0 0.04019302175483426 -0.051017527751015063 0 0.042564223265456148 -0.07200945455625106 0 0.021321653615345559 -0.055910213406934167 0 0.04019302175483426 -0.051017527751015063 0 0.04019302175483426 -0.051017527751015063 0 0.050309404478728961 -0.034352423221867052 0 0.064836529022570394 -0.060600772633665222 0 0.042564223265456148 -0.07200945455625106 0 0.04019302175483426 -0.051017527751015063 0 0.064836529022570394 -0.060600772633665222 0 0.0298847237424919 -0.034470446423104567 0 0.04019302175483426 -0.051017527751015063 0 0.050309404478728961 -0.034352423221867052 0 0.0298847237424919 -0.034470446423104567 0 0.050309404478728961 -0.034352423221867052 0 0.032793081835488423 -0.020026022629241629 0 0.050309404478728961 -0.034352423221867052 0 0.032793081835488423 -0.020026022629241629 0 0.048422182644202977 -0.01458676514045767 0 0.050309404478728961 -0.034352423221867052 0 0.048422182644202977 -0.01458676514045767 0 0.050309404478728961 -0.034352423221867052 0 0.048422182644202977 -0.01458676514045767 0 0.064426505563596928 -0.02228150356322723 0 0.046534960809677742 0.005178892940951748 0 0.048422182644202977 -0.01458676514045767 0 0.067309607389994364 -0.0035842951844848791 0 0.046534960809677742 0.005178892940951748 0 0.048422182644202977 -0.01458676514045767 0 0.048422182644202977 -0.01458676514045767 0 0.067309607389994364 -0.0035842951844848791 0 0.064426505563596928 -0.02228150356322723 0 0.046534960809677742 0.005178892940951748 0 0.027470930869090721 -0.0051934323317437137 0 0.048422182644202977 -0.01458676514045767 0 0.046534960809677742 0.005178892940951748 0 0.027470930869090721 -0.0051934323317437137 0 0.027470930869090721 -0.0051934323317437137 0 0.032793081835488423 -0.020026022629241629 0 0.048422182644202977 -0.01458676514045767 0 0.094181460218896534 0.00364190637146985 0 0.082613005966983677 -0.01914513020725735 0 0.10132624085993611 -0.015835605744297931 0 0.094181460218896534 0.00364190637146985 0 0.067309607389994364 -0.0035842951844848791 0 0.082613005966983677 -0.01914513020725735 0 0.067309607389994364 -0.0035842951844848791 0 0.064426505563596928 -0.02228150356322723 0 0.082613005966983677 -0.01914513020725735 0 0.064426505563596928 -0.02228150356322723 0 0.082613005966983677 -0.01914513020725735 0 0.073478327338074662 -0.039738904062069209 0 0.082613005966983677 -0.01914513020725735 0 0.094049146286771759 -0.034799481211730217 0 0.10132624085993611 -0.015835605744297931 0 0.082613005966983677 -0.01914513020725735 0 0.073478327338074662 -0.039738904062069209 0 0.094049146286771759 -0.034799481211730217 0 0.073478327338074662 -0.039738904062069209 0 0.089213385669547743 -0.054556815066673661 0 0.094049146286771759 -0.034799481211730217 0 0.050309404478728961 -0.034352423221867052 0 0.073478327338074662 -0.039738904062069209 0 0.064836529022570394 -0.060600772633665222 0 0.050309404478728961 -0.034352423221867052 0 0.064426505563596928 -0.02228150356322723 0 0.073478327338074662 -0.039738904062069209 0 0.073478327338074662 -0.039738904062069209 0 0.064836529022570394 -0.060600772633665222 0 0.089213385669547743 -0.054556815066673661 0 0.064836529022570394 -0.060600772633665222 0 0.089213385669547743 -0.054556815066673661 0 0.082236436545707475 -0.069715371917353761 0 0.089213385669547743 -0.054556815066673661 0 0.097938227422578295 -0.069885319451053737 0 0.089213385669547743 -0.054556815066673661 0 0.1016089273547981 -0.048335871655864657 0 0.097938227422578295 -0.069885319451053737 0 0.1016089273547981 -0.048335871655864657 0 0.1113590298534511 -0.058199192184825957 0 0.097938227422578295 -0.069885319451053737 0 0.1113590298534511 -0.058199192184825957 0 0.1160549905312903 -0.031184560534218499 0 0.12634024086196699 -0.054055955158950633 0 0.1113590298534511 -0.058199192184825957 0 0.12477980797479719 -0.072480297101731733 0 0.12634024086196699 -0.054055955158950633 0 0.1016089273547981 -0.048335871655864657 0 0.1113590298534511 -0.058199192184825957 0 0.1160549905312903 -0.031184560534218499 0 0.1113590298534511 -0.058199192184825957 0 0.1160549905312903 -0.031184560534218499 0 0.089213385669547743 -0.054556815066673661 0 0.1016089273547981 -0.048335871655864657 0 0.094049146286771759 -0.034799481211730217 0 0.1016089273547981 -0.048335871655864657 0 0.094049146286771759 -0.034799481211730217 0 0.1160549905312903 -0.031184560534218499 0 0.094049146286771759 -0.034799481211730217 0 0.10132624085993611 -0.015835605744297931 0 0.1160549905312903 -0.031184560534218499 0 0.10132624085993611 -0.015835605744297931 0 0.1160549905312903 -0.031184560534218499 0 0.1207509512091294 -0.0041699288836110626 0 0.1160549905312903 -0.031184560534218499 0 0.1207509512091294 -0.0041699288836110626 0 0.094181460218896534 0.00364190637146985 0 0.10132624085993611 -0.015835605744297931 0 0.1207509512091294 -0.0041699288836110626 0 0.07972467942485216 -0.098464624470702422 0 0.083762022567420158 -0.095920337108045955 0 0.088534192035176928 -0.1008676162927148 0 0.07972467942485216 -0.098464624470702422 0 0.088534192035176928 -0.1008676162927148 0 0.076331493208979959 -0.10434640871748981 0 0.07972467942485216 -0.098464624470702422 0 0.083762022567420158 -0.095920337108045955 0 0.077267160974094085 -0.092604928229340036 0 0.083762022567420158 -0.095920337108045955 0 0.088534192035176928 -0.1008676162927148 0 0.086942099690968055 -0.090993693740888962 0 0.083714564567708052 -0.12015339649181719 0 0.10012775415512309 -0.1228097791917933 0 0.093890738697452361 -0.1122611823864451 0 0.083714564567708052 -0.12015339649181719 0 0.10012775415512309 -0.1228097791917933 0 0.088534192035176928 -0.1008676162927148 0 0.083714564567708052 -0.12015339649181719 0 0.093890738697452361 -0.1122611823864451 0 0.088534192035176928 -0.1008676162927148 0 0.083714564567708052 -0.12015339649181719 0 0.067301374980292761 -0.1174970137918423 0 0.089678408740790611 -0.13439397333871239 0 0.083714564567708052 -0.12015339649181719 0 0.064038350702920577 -0.1200525921504523 0 0.083714564567708052 -0.12015339649181719 0 0.067301374980292761 -0.1174970137918423 0 0.067301374980292761 -0.1174970137918423 0 0.068890657078974987 -0.10769177992212139 0 0.076331493208979959 -0.10434640871748981 0 0.083714564567708052 -0.12015339649181719 0 0.067301374980292761 -0.1174970137918423 0 0.064038350702920577 -0.1200525921504523 0 0.05622235688885778 -0.11568083345603029 0 0.067301374980292761 -0.1174970137918423 0 0.064038350702920577 -0.1200525921504523 0 0.067301374980292761 -0.1174970137918423 0 0.064038350702920577 -0.1200525921504523 0 0.067301374980292761 -0.1174970137918423 0 0.062822720990625192 -0.10624341152843909 0 0.068890657078974987 -0.10769177992212139 0 0.088534192035176928 -0.1008676162927148 0 0.067301374980292761 -0.1174970137918423 0 0.076331493208979959 -0.10434640871748981 0 0.088534192035176928 -0.1008676162927148 0 0.067301374980292761 -0.1174970137918423 0 0.062822720990625192 -0.10624341152843909 0 0.06910703913600183 -0.1026802856507156 0 0.068890657078974987 -0.10769177992212139 0 0.06910703913600183 -0.1026802856507156 0 0.068890657078974987 -0.10769177992212139 0 0.076331493208979959 -0.10434640871748981 0 0.06910703913600183 -0.1026802856507156 0 0.076331493208979959 -0.10434640871748981 0 0.073764804640243847 -0.09889122432619385 0 0.073764804640243847 -0.09889122432619385 0 0.065317281255102763 -0.094620814240321469 0 0.077267160974094085 -0.092604928229340036 0 0.07972467942485216 -0.098464624470702422 0 0.073764804640243847 -0.09889122432619385 0 0.077267160974094085 -0.092604928229340036 0 0.07972467942485216 -0.098464624470702422 0 0.076331493208979959 -0.10434640871748981 0 0.073764804640243847 -0.09889122432619385 0 0.06910703913600183 -0.1026802856507156 0 0.073764804640243847 -0.09889122432619385 0 0.065317281255102763 -0.094620814240321469 0 0.062822720990625192 -0.10624341152843909 0 0.06910703913600183 -0.1026802856507156 0 0.065317281255102763 -0.094620814240321469 0 0.055541204283563302 -0.087090012678884665 0 0.065317281255102763 -0.094620814240321469 0 0.070186917252729769 -0.085905786944323853 0 0.055541204283563302 -0.087090012678884665 0 0.070186917252729769 -0.085905786944323853 0 0.065421565856859765 -0.076290709326437736 0 0.070186917252729769 -0.085905786944323853 0 0.065421565856859765 -0.076290709326437736 0 0.080462314646971331 -0.081694115981130674 0 0.070186917252729769 -0.085905786944323853 0 0.077267160974094085 -0.092604928229340036 0 0.080462314646971331 -0.081694115981130674 0 0.065317281255102763 -0.094620814240321469 0 0.070186917252729769 -0.085905786944323853 0 0.077267160974094085 -0.092604928229340036 0 0.064836529022570394 -0.060600772633665222 0 0.065421565856859765 -0.076290709326437736 0 0.082236436545707475 -0.069715371917353761 0 0.065421565856859765 -0.076290709326437736 0 0.082236436545707475 -0.069715371917353761 0 0.080462314646971331 -0.081694115981130674 0 0.089213385669547743 -0.054556815066673661 0 0.082236436545707475 -0.069715371917353761 0 0.097938227422578295 -0.069885319451053737 0 0.082236436545707475 -0.069715371917353761 0 0.090967172499586885 -0.080367162963375344 0 0.097938227422578295 -0.069885319451053737 0 0.082236436545707475 -0.069715371917353761 0 0.080462314646971331 -0.081694115981130674 0 0.090967172499586885 -0.080367162963375344 0 0.088534192035176928 -0.1008676162927148 0 0.086942099690968055 -0.090993693740888962 0 0.1001039193800044 -0.08494147163917351 0 0.077267160974094085 -0.092604928229340036 0 0.080462314646971331 -0.081694115981130674 0 0.086942099690968055 -0.090993693740888962 0 0.083762022567420158 -0.095920337108045955 0 0.077267160974094085 -0.092604928229340036 0 0.086942099690968055 -0.090993693740888962 0 0.090967172499586885 -0.080367162963375344 0 0.086942099690968055 -0.090993693740888962 0 0.1001039193800044 -0.08494147163917351 0 0.080462314646971331 -0.081694115981130674 0 0.090967172499586885 -0.080367162963375344 0 0.086942099690968055 -0.090993693740888962 0 0.10723603662048101 -0.086220459169280991 0 0.1001039193800044 -0.08494147163917351 0 0.097938227422578295 -0.069885319451053737 0 0.088534192035176928 -0.1008676162927148 0 0.10723603662048101 -0.086220459169280991 0 0.088534192035176928 -0.1008676162927148 0 0.10723603662048101 -0.086220459169280991 0 0.1001039193800044 -0.08494147163917351 0 0.090967172499586885 -0.080367162963375344 0 0.1001039193800044 -0.08494147163917351 0 0.097938227422578295 -0.069885319451053737 0 0.10723603662048101 -0.086220459169280991 0 0.097938227422578295 -0.069885319451053737 0 0.1113590298534511 -0.058199192184825957 0 0.10723603662048101 -0.086220459169280991 0 0.1113590298534511 -0.058199192184825957 0 0.10723603662048101 -0.086220459169280991 0 0.097938227422578295 -0.069885319451053737 0 0.1113590298534511 -0.058199192184825957 0 0.10723603662048101 -0.086220459169280991 0 0.12477980797479719 -0.072480297101731733 0 0.10723603662048101 -0.086220459169280991 0 0.12477980797479719 -0.072480297101731733 0 0.12190728630831391 -0.085949120270940468 0 0.10723603662048101 -0.086220459169280991 0 0.12190728630831391 -0.085949120270940468 0 0.12593324783461429 -0.096824002089741526 0 0.10723603662048101 -0.086220459169280991 0 0.12477980797479719 -0.072480297101731733 0 0.10723603662048101 -0.086220459169280991 0 0.10318644403180161 -0.1052139375694552 0 0.1210656761125582 -0.1105174831829361 0 0.10723603662048101 -0.086220459169280991 0 0.1210656761125582 -0.1105174831829361 0 0.10318644403180161 -0.1052139375694552 0 0.1210656761125582 -0.1105174831829361 0 0.10723603662048101 -0.086220459169280991 0 0.1210656761125582 -0.1105174831829361 0 0.12593324783461429 -0.096824002089741526 0 0.10723603662048101 -0.086220459169280991 0 0.10318644403180161 -0.1052139375694552 0 0.088534192035176928 -0.1008676162927148 0 0.10723603662048101 -0.086220459169280991 0 0.10318644403180161 -0.1052139375694552 0 0.088534192035176928 -0.1008676162927148 0 0.10318644403180161 -0.1052139375694552 0 0.093890738697452361 -0.1122611823864451 0 0.088534192035176928 -0.1008676162927148 0 0.10318644403180161 -0.1052139375694552 0 0.10318644403180161 -0.1052139375694552 0 0.10012775415512309 -0.1228097791917933 0 0.10318644403180161 -0.1052139375694552 0 0.10012775415512309 -0.1228097791917933 0 0.10976139161025091 -0.11577977204300149 0 0.10318644403180161 -0.1052139375694552 0 0.10012775415512309 -0.1228097791917933 0 0.093890738697452361 -0.1122611823864451 0 0.1155122719511297 -0.1252996771304683 0 0.10012775415512309 -0.1228097791917933 0 0.1155122719511297 -0.1252996771304683 0 0.10012775415512309 -0.1228097791917933 0 0.10976139161025091 -0.11577977204300149 0 0.1155122719511297 -0.1252996771304683 0 0.1210656761125582 -0.1105174831829361 0 0.13089678974713631 -0.12778957506914301 0 0.1155122719511297 -0.1252996771304683 0 0.10976139161025091 -0.11577977204300149 0 0.1210656761125582 -0.1105174831829361 0 0.10318644403180161 -0.1052139375694552 0 0.10976139161025091 -0.11577977204300149 0 0.1210656761125582 -0.1105174831829361 0 0.1210656761125582 -0.1105174831829361 0 0.1365087204569618 -0.1150983784765192 0 0.13089678974713631 -0.12778957506914301 0 0.1210656761125582 -0.1105174831829361 0 0.13089678974713631 -0.12778957506914301 0 0.1210656761125582 -0.1105174831829361 0 0.1365087204569618 -0.1150983784765192 0 0.1365087204569618 -0.1150983784765192 0 0.13089678974713631 -0.12778957506914301 0 0.1357237020369727 -0.12857078375699391 0 0.1365087204569618 -0.1150983784765192 0 0.15195176480136471 -0.11967927377010409 0 0.1365087204569618 -0.1150983784765192 0 0.15195176480136471 -0.11967927377010409 0 0.1357237020369727 -0.12857078375699391 0 0.15195176480136471 -0.11967927377010409 0 0.1357237020369727 -0.12857078375699391 0 0.1365087204569618 -0.1150983784765192 0 0.15195176480136471 -0.11967927377010409 0 0.14779030211157931 -0.10501349599467689 0 0.1365087204569618 -0.1150983784765192 0 0.14779030211157931 -0.10501349599467689 0 0.13817040105071851 -0.097074653343686312 0 0.15195176480136471 -0.11967927377010409 0 0.14779030211157931 -0.10501349599467689 0 0.1588180175211589 -0.1034223017111198 0 0.14779030211157931 -0.10501349599467689 0 0.1517985121546552 -0.091923401908585015 0 0.1588180175211589 -0.1034223017111198 0 0.14779030211157931 -0.10501349599467689 0 0.13817040105071851 -0.097074653343686312 0 0.1517985121546552 -0.091923401908585015 0 0.1365087204569618 -0.1150983784765192 0 0.13817040105071851 -0.097074653343686312 0 0.12593324783461429 -0.096824002089741526 0 0.1210656761125582 -0.1105174831829361 0 0.1365087204569618 -0.1150983784765192 0 0.12593324783461429 -0.096824002089741526 0 0.12190728630831391 -0.085949120270940468 0 0.12593324783461429 -0.096824002089741526 0 0.13071136645865161 -0.086083918095086545 0 0.13817040105071851 -0.097074653343686312 0 0.12593324783461429 -0.096824002089741526 0 0.13071136645865161 -0.086083918095086545 0 0.12477980797479719 -0.072480297101731733 0 0.13071136645865161 -0.086083918095086545 0 0.1340331069290808 -0.078119875573589501 0 0.12477980797479719 -0.072480297101731733 0 0.12190728630831391 -0.085949120270940468 0 0.13071136645865161 -0.086083918095086545 0 0.14005045281892739 -0.086692372828682529 0 0.1340331069290808 -0.078119875573589501 0 0.14700773684561819 -0.080181060013444633 0 0.13071136645865161 -0.086083918095086545 0 0.14005045281892739 -0.086692372828682529 0 0.1340331069290808 -0.078119875573589501 0 0.13817040105071851 -0.097074653343686312 0 0.13071136645865161 -0.086083918095086545 0 0.14005045281892739 -0.086692372828682529 0 0.12477980797479719 -0.072480297101731733 0 0.14232357932911241 -0.058740135034181337 0 0.12477980797479719 -0.072480297101731733 0 0.1391013907239862 -0.068824876462959317 0 0.14232357932911241 -0.058740135034181337 0 0.12477980797479719 -0.072480297101731733 0 0.1340331069290808 -0.078119875573589501 0 0.1391013907239862 -0.068824876462959317 0 0.1391013907239862 -0.068824876462959317 0 0.14957763764213569 -0.067297539040423821 0 0.14232357932911241 -0.058740135034181337 0 0.1340331069290808 -0.078119875573589501 0 0.14957763764213569 -0.067297539040423821 0 0.14700773684561819 -0.080181060013444633 0 0.1340331069290808 -0.078119875573589501 0 0.14957763764213569 -0.067297539040423821 0 0.1340331069290808 -0.078119875573589501 0 0.1391013907239862 -0.068824876462959317 0 0.14957763764213569 -0.067297539040423821 0 0.14957763764213569 -0.067297539040423821 0 0.14700773684561819 -0.080181060013444633 0 0.15974295150865411 -0.080141728669295018 0 0.14005045281892739 -0.086692372828682529 0 0.14700773684561819 -0.080181060013444633 0 0.1517985121546552 -0.091923401908585015 0 0.13817040105071851 -0.097074653343686312 0 0.14005045281892739 -0.086692372828682529 0 0.1517985121546552 -0.091923401908585015 0 0.14700773684561819 -0.080181060013444633 0 0.1517985121546552 -0.091923401908585015 0 0.15974295150865411 -0.080141728669295018 0 0.15974295150865411 -0.080141728669295018 0 0.1773460516741166 -0.079902548428466988 0 0.17025307202020351 -0.094356781524173247 0 0.1517985121546552 -0.091923401908585015 0 0.15974295150865411 -0.080141728669295018 0 0.17025307202020351 -0.094356781524173247 0 0.1624746987151954 -0.067189041100676514 0 0.1773460516741166 -0.079902548428466988 0 0.16886737340575611 -0.058685142964399292 0 0.15974295150865411 -0.080141728669295018 0 0.1624746987151954 -0.067189041100676514 0 0.1773460516741166 -0.079902548428466988 0 0.14957763764213569 -0.067297539040423821 0 0.1624746987151954 -0.067189041100676514 0 0.16512216835519161 -0.056475202507259362 0 0.14957763764213569 -0.067297539040423821 0 0.15974295150865411 -0.080141728669295018 0 0.1624746987151954 -0.067189041100676514 0 0.1773460516741166 -0.079902548428466988 0 0.19382945424395101 -0.078802877956419937 0 0.18792561632993149 -0.065573779004173133 0 0.1773460516741166 -0.079902548428466988 0 0.16886737340575611 -0.058685142964399292 0 0.18792561632993149 -0.065573779004173133 0 0.1773460516741166 -0.079902548428466988 0 0.16886737340575611 -0.058685142964399292 0 0.1773460516741166 -0.079902548428466988 0 0.18582472994247151 -0.101119953892537 0 0.19382945424395101 -0.078802877956419937 0 0.1773460516741166 -0.079902548428466988 0 0.18582472994247151 -0.101119953892537 0 0.17025307202020351 -0.094356781524173247 0 0.1773460516741166 -0.079902548428466988 0 0.18582472994247151 -0.101119953892537 0 0.18582472994247151 -0.101119953892537 0 0.16888824737191849 -0.1103996138313212 0 0.18582472994247151 -0.101119953892537 0 0.16888824737191849 -0.1103996138313212 0 0.17025307202020351 -0.094356781524173247 0 0.18582472994247151 -0.101119953892537 0 0.16888824737191849 -0.1103996138313212 0 0.1926930021363526 -0.1163654132120072 0 0.16888824737191849 -0.1103996138313212 0 0.1926930021363526 -0.1163654132120072 0 0.17537273609379669 -0.1266266744750329 0 0.15195176480136471 -0.11967927377010409 0 0.16888824737191849 -0.1103996138313212 0 0.1588180175211589 -0.1034223017111198 0 0.15195176480136471 -0.11967927377010409 0 0.16888824737191849 -0.1103996138313212 0 0.15195176480136471 -0.11967927377010409 0 0.16888824737191849 -0.1103996138313212 0 0.17537273609379669 -0.1266266744750329 0 0.15195176480136471 -0.11967927377010409 0 0.17537273609379669 -0.1266266744750329 0 0.1517985121546552 -0.091923401908585015 0 0.17025307202020351 -0.094356781524173247 0 0.1588180175211589 -0.1034223017111198 0 0.16888824737191849 -0.1103996138313212 0 0.17025307202020351 -0.094356781524173247 0 0.1588180175211589 -0.1034223017111198 0 0.1411603670788972 0.0101018168278833 0 0.1207509512091294 -0.0041699288836110626 0 0.15044925678359081 -0.010035133472833069 0 0.1207509512091294 -0.0041699288836110626 0 0.15044925678359081 -0.010035133472833069 0 0.13863666454740969 -0.025313099017596711 0 0.1160549905312903 -0.031184560534218499 0 0.1207509512091294 -0.0041699288836110626 0 0.13863666454740969 -0.025313099017596711 0 0.13863666454740969 -0.025313099017596711 0 0.15027175598130349 -0.038055022415550657 0 0.1585413998141022 -0.024324393239404371 0 0.15044925678359081 -0.010035133472833069 0 0.13863666454740969 -0.025313099017596711 0 0.1585413998141022 -0.024324393239404371 0 0.13863666454740969 -0.025313099017596711 0 0.15027175598130349 -0.038055022415550657 0 0.13686592108511961 -0.042795221891360667 0 0.15027175598130349 -0.038055022415550657 0 0.14746097116028711 -0.048495454055242491 0 0.15533039947011029 -0.047172598861770457 0 0.15027175598130349 -0.038055022415550657 0 0.15533039947011029 -0.047172598861770457 0 0.16015174273291041 -0.039344167531665468 0 0.15027175598130349 -0.038055022415550657 0 0.13686592108511961 -0.042795221891360667 0 0.14746097116028711 -0.048495454055242491 0 0.1160549905312903 -0.031184560534218499 0 0.13686592108511961 -0.042795221891360667 0 0.12634024086196699 -0.054055955158950633 0 0.1160549905312903 -0.031184560534218499 0 0.13863666454740969 -0.025313099017596711 0 0.13686592108511961 -0.042795221891360667 0 0.12477980797479719 -0.072480297101731733 0 0.12634024086196699 -0.054055955158950633 0 0.14232357932911241 -0.058740135034181337 0 0.13686592108511961 -0.042795221891360667 0 0.12634024086196699 -0.054055955158950633 0 0.14232357932911241 -0.058740135034181337 0 0.14957763764213569 -0.067297539040423821 0 0.14232357932911241 -0.058740135034181337 0 0.15251319993578941 -0.055714292073349332 0 0.13686592108511961 -0.042795221891360667 0 0.14232357932911241 -0.058740135034181337 0 0.14746097116028711 -0.048495454055242491 0 0.14232357932911241 -0.058740135034181337 0 0.14746097116028711 -0.048495454055242491 0 0.15251319993578941 -0.055714292073349332 0 0.14746097116028711 -0.048495454055242491 0 0.15533039947011029 -0.047172598861770457 0 0.15251319993578941 -0.055714292073349332 0 0.14957763764213569 -0.067297539040423821 0 0.15251319993578941 -0.055714292073349332 0 0.16512216835519161 -0.056475202507259362 0 0.15533039947011029 -0.047172598861770457 0 0.16512216835519161 -0.056475202507259362 0 0.16015174273291041 -0.039344167531665468 0 0.14957763764213569 -0.067297539040423821 0 0.16512216835519161 -0.056475202507259362 0 0.1624746987151954 -0.067189041100676514 0 0.16512216835519161 -0.056475202507259362 0 0.15533039947011029 -0.047172598861770457 0 0.15251319993578941 -0.055714292073349332 0 0.16512216835519161 -0.056475202507259362 0 0.16886737340575611 -0.058685142964399292 0 0.16512216835519161 -0.056475202507259362 0 0.1796337807540383 -0.055827241538648702 0 0.1624746987151954 -0.067189041100676514 0 0.16886737340575611 -0.058685142964399292 0 0.16512216835519161 -0.056475202507259362 0 0.16886737340575611 -0.058685142964399292 0 0.1796337807540383 -0.055827241538648702 0 0.18792561632993149 -0.065573779004173133 0 0.16512216835519161 -0.056475202507259362 0 0.18175877326540399 -0.044892547460847892 0 0.16512216835519161 -0.056475202507259362 0 0.1796337807540383 -0.055827241538648702 0 0.18175877326540399 -0.044892547460847892 0 0.1796337807540383 -0.055827241538648702 0 0.18175877326540399 -0.044892547460847892 0 0.19885264502226779 -0.051878811813686143 0 0.16512216835519161 -0.056475202507259362 0 0.18175877326540399 -0.044892547460847892 0 0.1714929900438443 -0.030693620634342521 0 0.18175877326540399 -0.044892547460847892 0 0.1714929900438443 -0.030693620634342521 0 0.18605172133211159 -0.020613262235088348 0 0.16512216835519161 -0.056475202507259362 0 0.16015174273291041 -0.039344167531665468 0 0.1714929900438443 -0.030693620634342521 0 0.16512216835519161 -0.056475202507259362 0 0.1714929900438443 -0.030693620634342521 0 0.16015174273291041 -0.039344167531665468 0 0.1585413998141022 -0.024324393239404371 0 0.1714929900438443 -0.030693620634342521 0 0.15027175598130349 -0.038055022415550657 0 0.16015174273291041 -0.039344167531665468 0 0.1585413998141022 -0.024324393239404371 0 0.1585413998141022 -0.024324393239404371 0 0.1714929900438443 -0.030693620634342521 0 0.17786381173249591 -0.0049120387614253417 0 0.1714929900438443 -0.030693620634342521 0 0.18605172133211159 -0.020613262235088348 0 0.17786381173249591 -0.0049120387614253417 0 0.1714929900438443 -0.030693620634342521 0 0.17786381173249591 -0.0049120387614253417 0 0.15044925678359081 -0.010035133472833069 0 0.1585413998141022 -0.024324393239404371 0 0.17786381173249591 -0.0049120387614253417 0 0.1618730276221457 0.0041269218756689969 0 0.15044925678359081 -0.010035133472833069 0 0.17786381173249591 -0.0049120387614253417 0 0.19965179260945101 -0.006237775483830631 0 0.21503198308583049 -0.02172723736802747 0 0.220789283074 -0.0054652510294427546 0 0.21533446997814071 0.0077553549547846202 0 0.19965179260945101 -0.006237775483830631 0 0.220789283074 -0.0054652510294427546 0 0.18605172133211159 -0.020613262235088348 0 0.17786381173249591 -0.0049120387614253417 0 0.19965179260945101 -0.006237775483830631 0 0.18605172133211159 -0.020613262235088348 0 0.19965179260945101 -0.006237775483830631 0 0.1983953781756172 -0.033309892414437693 0 0.19965179260945101 -0.006237775483830631 0 0.21503198308583049 -0.02172723736802747 0 0.1983953781756172 -0.033309892414437693 0 0.21503198308583049 -0.02172723736802747 0 0.1983953781756172 -0.033309892414437693 0 0.21503198308583049 -0.02172723736802747 0 0.2170964621441146 -0.038572589190799117 0 0.1983953781756172 -0.033309892414437693 0 0.2170964621441146 -0.038572589190799117 0 0.1983953781756172 -0.033309892414437693 0 0.19885264502226779 -0.051878811813686143 0 0.18175877326540399 -0.044892547460847892 0 0.1983953781756172 -0.033309892414437693 0 0.19885264502226779 -0.051878811813686143 0 0.18175877326540399 -0.044892547460847892 0 0.18605172133211159 -0.020613262235088348 0 0.1983953781756172 -0.033309892414437693 0 0.18175877326540399 -0.044892547460847892 0 0.1983953781756172 -0.033309892414437693 0 0.19885264502226779 -0.051878811813686143 0 0.18792561632993149 -0.065573779004173133 0 0.20622434399201431 -0.069946793681596314 0 0.1796337807540383 -0.055827241538648702 0 0.19885264502226779 -0.051878811813686143 0 0.18792561632993149 -0.065573779004173133 0 0.2170964621441146 -0.038572589190799117 0 0.19885264502226779 -0.051878811813686143 0 0.2198989128943451 -0.056798249390024307 0 0.19885264502226779 -0.051878811813686143 0 0.2198989128943451 -0.056798249390024307 0 0.20622434399201431 -0.069946793681596314 0 0.2170964621441146 -0.038572589190799117 0 0.2198989128943451 -0.056798249390024307 0 0.23004965076849629 -0.046836502439355172 0 0.2198989128943451 -0.056798249390024307 0 0.23491429517275769 -0.058985540688996509 0 0.23004965076849629 -0.046836502439355172 0 0.23491429517275769 -0.058985540688996509 0 0.24559753116350999 -0.047866447589777733 0 0.24926260807076001 -0.066361736900529933 0 0.23491429517275769 -0.058985540688996509 0 0.24559753116350999 -0.047866447589777733 0 0.23004965076849629 -0.046836502439355172 0 0.24559753116350999 -0.047866447589777733 0 0.23274105246775401 -0.031959685337178169 0 0.23004965076849629 -0.046836502439355172 0 0.25297361813098018 -0.02896679100252595 0 0.24559753116350999 -0.047866447589777733 0 0.23274105246775401 -0.031959685337178169 0 0.2170964621441146 -0.038572589190799117 0 0.23274105246775401 -0.031959685337178169 0 0.23004965076849629 -0.046836502439355172 0 0.21503198308583049 -0.02172723736802747 0 0.23274105246775401 -0.031959685337178169 0 0.2371090799037909 -0.0090673757815772048 0 0.21503198308583049 -0.02172723736802747 0 0.2170964621441146 -0.038572589190799117 0 0.23274105246775401 -0.031959685337178169 0 0.25297361813098018 -0.02896679100252595 0 0.23274105246775401 -0.031959685337178169 0 0.24348455405878369 -0.021527038746463539 0 0.23274105246775401 -0.031959685337178169 0 0.24348455405878369 -0.021527038746463539 0 0.2371090799037909 -0.0090673757815772048 0 0.25297361813098018 -0.02896679100252595 0 0.25111446573260982 -0.016114302864572851 0 0.24348455405878369 -0.021527038746463539 0 0.25935681487488282 0.0032901558470991299 0 0.25111446573260982 -0.016114302864572851 0 0.2371090799037909 -0.0090673757815772048 0 0.25111446573260982 -0.016114302864572851 0 0.24348455405878369 -0.021527038746463539 0 0.2371090799037909 -0.0090673757815772048 0 0.21503198308583049 -0.02172723736802747 0 0.2371090799037909 -0.0090673757815772048 0 0.220789283074 -0.0054652510294427546 0 0.2331723590802052 0.011777074170138679 0 0.2371090799037909 -0.0090673757815772048 0 0.220789283074 -0.0054652510294427546 0 0.2182564282160134 -0.098071085256202714 0 0.2069822786931807 -0.1059163909028045 0 0.2158330319536709 -0.11500733013279101 0 0.2182564282160134 -0.098071085256202714 0 0.2069822786931807 -0.1059163909028045 0 0.20697068931856741 -0.089533881561867534 0 0.2069822786931807 -0.1059163909028045 0 0.1966397267049029 -0.1079348837285518 0 0.20697068931856741 -0.089533881561867534 0 0.2158330319536709 -0.11500733013279101 0 0.20518050960206141 -0.1208415024451413 0 0.21172863418796201 -0.1283816923486987 0 0.20518050960206141 -0.1208415024451413 0 0.21172863418796201 -0.1283816923486987 0 0.20356312025705889 -0.12522498604124011 0 0.2069822786931807 -0.1059163909028045 0 0.2158330319536709 -0.11500733013279101 0 0.20328889448788251 -0.1134008563745047 0 0.2158330319536709 -0.11500733013279101 0 0.20518050960206141 -0.1208415024451413 0 0.20328889448788251 -0.1134008563745047 0 0.20328889448788251 -0.1134008563745047 0 0.1926930021363526 -0.1163654132120072 0 0.1966397267049029 -0.1079348837285518 0 0.20518050960206141 -0.1208415024451413 0 0.20328889448788251 -0.1134008563745047 0 0.1926930021363526 -0.1163654132120072 0 0.1926930021363526 -0.1163654132120072 0 0.1987937073862284 -0.13357407517996259 0 0.20518050960206141 -0.1208415024451413 0 0.1926930021363526 -0.1163654132120072 0 0.20356312025705889 -0.12522498604124011 0 0.18582472994247151 -0.101119953892537 0 0.20697068931856741 -0.089533881561867534 0 0.18582472994247151 -0.101119953892537 0 0.1926930021363526 -0.1163654132120072 0 0.18582472994247151 -0.101119953892537 0 0.1966397267049029 -0.1079348837285518 0 0.20697068931856741 -0.089533881561867534 0 0.18582472994247151 -0.101119953892537 0 0.1926930021363526 -0.1163654132120072 0 0.1966397267049029 -0.1079348837285518 0 0.2069822786931807 -0.1059163909028045 0 0.20328889448788251 -0.1134008563745047 0 0.1966397267049029 -0.1079348837285518 0 0.19382945424395101 -0.078802877956419937 0 0.20622434399201431 -0.069946793681596314 0 0.20697068931856741 -0.089533881561867534 0 0.18582472994247151 -0.101119953892537 0 0.19382945424395101 -0.078802877956419937 0 0.20697068931856741 -0.089533881561867534 0 0.19382945424395101 -0.078802877956419937 0 0.18792561632993149 -0.065573779004173133 0 0.20622434399201431 -0.069946793681596314 0 0.2198989128943451 -0.056798249390024307 0 0.20622434399201431 -0.069946793681596314 0 0.22811664869466369 -0.077947809231198761 0 0.2182564282160134 -0.098071085256202714 0 0.20697068931856741 -0.089533881561867534 0 0.22811664869466369 -0.077947809231198761 0 0.20697068931856741 -0.089533881561867534 0 0.22811664869466369 -0.077947809231198761 0 0.20622434399201431 -0.069946793681596314 0 0.20697068931856741 -0.089533881561867534 0 0.22811664869466369 -0.077947809231198761 0 0.2182564282160134 -0.098071085256202714 0 0.22811664869466369 -0.077947809231198761 0 0.23337949241998429 -0.1019500144523518 0 0.2198989128943451 -0.056798249390024307 0 0.23491429517275769 -0.058985540688996509 0 0.22811664869466369 -0.077947809231198761 0 0.23491429517275769 -0.058985540688996509 0 0.22811664869466369 -0.077947809231198761 0 0.24926260807076001 -0.066361736900529933 0 0.22811664869466369 -0.077947809231198761 0 0.24926260807076001 -0.066361736900529933 0 0.25423757924488499 -0.084574533875597505 0 0.22811664869466369 -0.077947809231198761 0 0.24926260807076001 -0.066361736900529933 0 0.25423757924488499 -0.084574533875597505 0 0.22811664869466369 -0.077947809231198761 0 0.23337949241998429 -0.1019500144523518 0 0.25347137480431198 -0.1092851374296199 0 0.25423757924488499 -0.084574533875597505 0 0.23337949241998429 -0.1019500144523518 0 0.2182564282160134 -0.098071085256202714 0 0.2158330319536709 -0.11500733013279101 0 0.23337949241998429 -0.1019500144523518 0 0.2158330319536709 -0.11500733013279101 0 0.23549286339231321 -0.1202631443097719 0 0.2239364950719209 -0.13203007808741521 0 0.2158330319536709 -0.11500733013279101 0 0.23337949241998429 -0.1019500144523518 0 0.23549286339231321 -0.1202631443097719 0 0.25347137480431198 -0.1092851374296199 0 0.25038660859628642 -0.12916482769145279 0 0.23549286339231321 -0.1202631443097719 0 0.25347137480431198 -0.1092851374296199 0 0.23337949241998429 -0.1019500144523518 0 0.23549286339231321 -0.1202631443097719 0 0.25038660859628642 -0.12916482769145279 0 0.25552941609067897 -0.1423190848585997 0 0.24406929433954069 -0.14266874187143419 0 0.25038660859628642 -0.12916482769145279 0 0.2367251809387679 -0.13519011597198791 0 0.24406929433954069 -0.14266874187143419 0 0.2367251809387679 -0.13519011597198791 0 0.24406929433954069 -0.14266874187143419 0 0.2372153499728536 -0.1433817943427354 0 0.25038660859628642 -0.12916482769145279 0 0.23549286339231321 -0.1202631443097719 0 0.2367251809387679 -0.13519011597198791 0 0.2492368802989727 -0.1525917679456707 0 0.23829114531859069 -0.15175128360896051 0 0.24510980772627189 -0.16261656135264829 0 0.2492368802989727 -0.1525917679456707 0 0.24406929433954069 -0.14266874187143419 0 0.23829114531859069 -0.15175128360896051 0 0.25552941609067897 -0.1423190848585997 0 0.2492368802989727 -0.1525917679456707 0 0.24406929433954069 -0.14266874187143419 0 0.2367251809387679 -0.13519011597198791 0 0.2372153499728536 -0.1433817943427354 0 0.22977577929451509 -0.14391703591855901 0 0.2372153499728536 -0.1433817943427354 0 0.23829114531859069 -0.15175128360896051 0 0.22977577929451509 -0.14391703591855901 0 0.24406929433954069 -0.14266874187143419 0 0.2372153499728536 -0.1433817943427354 0 0.23829114531859069 -0.15175128360896051 0 0.23829114531859069 -0.15175128360896051 0 0.22977577929451509 -0.14391703591855901 0 0.22750864012715971 -0.15667195158526781 0 0.22977577929451509 -0.14391703591855901 0 0.22072593332390791 -0.1447234725429567 0 0.22750864012715971 -0.15667195158526781 0 0.22072593332390791 -0.1447234725429567 0 0.21541862261468231 -0.15237326343660151 0 0.22750864012715971 -0.15667195158526781 0 0.23549286339231321 -0.1202631443097719 0 0.2367251809387679 -0.13519011597198791 0 0.2239364950719209 -0.13203007808741521 0 0.2367251809387679 -0.13519011597198791 0 0.22977577929451509 -0.14391703591855901 0 0.2239364950719209 -0.13203007808741521 0 0.22072593332390791 -0.1447234725429567 0 0.2239364950719209 -0.13203007808741521 0 0.21413550517844041 -0.13812493754454119 0 0.22977577929451509 -0.14391703591855901 0 0.22072593332390791 -0.1447234725429567 0 0.2239364950719209 -0.13203007808741521 0 0.2158330319536709 -0.11500733013279101 0 0.2239364950719209 -0.13203007808741521 0 0.21172863418796201 -0.1283816923486987 0 0.21172863418796201 -0.1283816923486987 0 0.20356312025705889 -0.12522498604124011 0 0.2046503351018597 -0.1353113361591132 0 0.2046503351018597 -0.1353113361591132 0 0.21413550517844041 -0.13812493754454119 0 0.21172863418796201 -0.1283816923486987 0 0.2046503351018597 -0.1353113361591132 0 0.21413550517844041 -0.13812493754454119 0 0.2239364950719209 -0.13203007808741521 0 0.21172863418796201 -0.1283816923486987 0 0.21413550517844041 -0.13812493754454119 0 0.22072593332390791 -0.1447234725429567 0 0.21413550517844041 -0.13812493754454119 0 0.21541862261468231 -0.15237326343660151 0 0.2046503351018597 -0.1353113361591132 0 0.21541862261468231 -0.15237326343660151 0 0.1987937073862284 -0.13357407517996259 0 0.2083630314068842 -0.15752075900695969 0 0.2046503351018597 -0.1353113361591132 0 0.21541862261468231 -0.15237326343660151 0 0.2083630314068842 -0.15752075900695969 0 0.2046503351018597 -0.1353113361591132 0 0.1987937073862284 -0.13357407517996259 0 0.2083630314068842 -0.15752075900695969 0 0.2046503351018597 -0.1353113361591132 0 0.21413550517844041 -0.13812493754454119 0 0.21541862261468231 -0.15237326343660151 0 0.19377962363836981 -0.14974221022152739 0 0.1987937073862284 -0.13357407517996259 0 0.18341643225747989 -0.14169361356560731 0 0.19377962363836981 -0.14974221022152739 0 0.1987937073862284 -0.13357407517996259 0 0.2083630314068842 -0.15752075900695969 0 0.1926930021363526 -0.1163654132120072 0 0.1987937073862284 -0.13357407517996259 0 0.17537273609379669 -0.1266266744750329 0 0.1926930021363526 -0.1163654132120072 0 0.2046503351018597 -0.1353113361591132 0 0.1926930021363526 -0.1163654132120072 0 0.2046503351018597 -0.1353113361591132 0 0.1987937073862284 -0.13357407517996259 0 0.1926930021363526 -0.1163654132120072 0 0.20356312025705889 -0.12522498604124011 0 0.2046503351018597 -0.1353113361591132 0 0.2046503351018597 -0.1353113361591132 0 0.1987937073862284 -0.13357407517996259 0 0.20287663492861821 -0.17350091166800921 0 0.1880217582768188 -0.17951209519154521 0 0.1950819499596633 -0.16311979581688379 0 0.20287663492861821 -0.17350091166800921 0 0.2016502484191931 -0.18741525883515811 0 0.1880217582768188 -0.17951209519154521 0 0.20287663492861821 -0.17350091166800921 0 0.1950819499596633 -0.16311979581688379 0 0.2083630314068842 -0.15752075900695969 0 0.1880217582768188 -0.17951209519154521 0 0.1950819499596633 -0.16311979581688379 0 0.18207344564223571 -0.15597739581098299 0 0.19377962363836981 -0.14974221022152739 0 0.1950819499596633 -0.16311979581688379 0 0.18207344564223571 -0.15597739581098299 0 0.19377962363836981 -0.14974221022152739 0 0.1950819499596633 -0.16311979581688379 0 0.2083630314068842 -0.15752075900695969 0 0.2083630314068842 -0.15752075900695969 0 0.2179323554275385 -0.18146744283395741 0 0.21541862261468231 -0.15237326343660151 0 0.2083630314068842 -0.15752075900695969 0 0.2261869101275045 -0.16943519071409019 0 0.20287663492861821 -0.17350091166800921 0 0.2083630314068842 -0.15752075900695969 0 0.2179323554275385 -0.18146744283395741 0 0.2083630314068842 -0.15752075900695969 0 0.2179323554275385 -0.18146744283395741 0 0.2261869101275045 -0.16943519071409019 0 0.20287663492861821 -0.17350091166800921 0 0.2016502484191931 -0.18741525883515811 0 0.2179323554275385 -0.18146744283395741 0 0.2261869101275045 -0.16943519071409019 0 0.23695519764032669 -0.18649711799157889 0 0.2261869101275045 -0.16943519071409019 0 0.23878667882334781 -0.1706899811504255 0 0.23695519764032669 -0.18649711799157889 0 0.2179323554275385 -0.18146744283395741 0 0.2261869101275045 -0.16943519071409019 0 0.23695519764032669 -0.18649711799157889 0 0.21541862261468231 -0.15237326343660151 0 0.2261869101275045 -0.16943519071409019 0 0.21541862261468231 -0.15237326343660151 0 0.2261869101275045 -0.16943519071409019 0 0.22750864012715971 -0.15667195158526781 0 0.2261869101275045 -0.16943519071409019 0 0.23539654237302071 -0.1618003676553349 0 0.23878667882334781 -0.1706899811504255 0 0.23829114531859069 -0.15175128360896051 0 0.22750864012715971 -0.15667195158526781 0 0.23539654237302071 -0.1618003676553349 0 0.2261869101275045 -0.16943519071409019 0 0.22750864012715971 -0.15667195158526781 0 0.23539654237302071 -0.1618003676553349 0 0.23829114531859069 -0.15175128360896051 0 0.23539654237302071 -0.1618003676553349 0 0.24510980772627189 -0.16261656135264829 0 0.23539654237302071 -0.1618003676553349 0 0.23878667882334781 -0.1706899811504255 0 0.24510980772627189 -0.16261656135264829 0 0.23878667882334781 -0.1706899811504255 0 0.24510980772627189 -0.16261656135264829 0 0.24973517137850049 -0.17418223310583419 0 0.25934289229493679 -0.18554747239811101 0 0.23695519764032669 -0.18649711799157889 0 0.24973517137850049 -0.17418223310583419 0 0.23878667882334781 -0.1706899811504255 0 0.23695519764032669 -0.18649711799157889 0 0.24973517137850049 -0.17418223310583419 0 0.25460667917070579 -0.19812350440861901 0 0.23695519764032669 -0.18649711799157889 0 0.24458048830593099 -0.20694120463227139 0 0.23695519764032669 -0.18649711799157889 0 0.24458048830593099 -0.20694120463227139 0 0.22750167944819291 -0.20541412666095499 0 0.24458048830593099 -0.20694120463227139 0 0.22750167944819291 -0.20541412666095499 0 0.23372596231376089 -0.2174809412529185 0 0.25061808270443731 -0.22383476374792011 0 0.24458048830593099 -0.20694120463227139 0 0.23372596231376089 -0.2174809412529185 0 0.22750167944819291 -0.20541412666095499 0 0.23372596231376089 -0.2174809412529185 0 0.21367919178599309 -0.21529212829840561 0 0.2179323554275385 -0.18146744283395741 0 0.22750167944819291 -0.20541412666095499 0 0.2179323554275385 -0.18146744283395741 0 0.23695519764032669 -0.18649711799157889 0 0.22750167944819291 -0.20541412666095499 0 0.25254176980284321 -0.24245692298047161 0 0.24396828193444881 -0.25131377364279722 0 0.23225036932425 -0.23592248292504031 0 0.24396828193444881 -0.25131377364279722 0 0.2330558259540863 -0.25392228975962328 0 0.23225036932425 -0.23592248292504031 0 0.25061808270443731 -0.22383476374792011 0 0.23372596231376089 -0.2174809412529185 0 0.23225036932425 -0.23592248292504031 0 0.25254176980284321 -0.24245692298047161 0 0.25061808270443731 -0.22383476374792011 0 0.23225036932425 -0.23592248292504031 0 0.23372596231376089 -0.2174809412529185 0 0.23225036932425 -0.23592248292504031 0 0.21367919178599309 -0.21529212829840561 0 0.23225036932425 -0.23592248292504031 0 0.21604104887663891 -0.2491511282779057 0 0.20953491490847631 -0.23325413814395771 0 0.2330558259540863 -0.25392228975962328 0 0.23225036932425 -0.23592248292504031 0 0.21604104887663891 -0.2491511282779057 0 0.19020677089061289 -0.25630437548157792 0 0.21604104887663891 -0.2491511282779057 0 0.20953491490847631 -0.23325413814395771 0 0.20953491490847631 -0.23325413814395771 0 0.18908309615611221 -0.22884972618782171 0 0.21367919178599309 -0.21529212829840561 0 0.23225036932425 -0.23592248292504031 0 0.20953491490847631 -0.23325413814395771 0 0.21367919178599309 -0.21529212829840561 0 0.19020677089061289 -0.25630437548157792 0 0.20953491490847631 -0.23325413814395771 0 0.18908309615611221 -0.22884972618782171 0 0.2016502484191931 -0.18741525883515811 0 0.2179323554275385 -0.18146744283395741 0 0.2086255522891223 -0.19907186907246219 0 0.2179323554275385 -0.18146744283395741 0 0.22750167944819291 -0.20541412666095499 0 0.2086255522891223 -0.19907186907246219 0 0.2086255522891223 -0.19907186907246219 0 0.21367919178599309 -0.21529212829840561 0 0.1907949411738675 -0.2035239754098164 0 0.22750167944819291 -0.20541412666095499 0 0.2086255522891223 -0.19907186907246219 0 0.21367919178599309 -0.21529212829840561 0 0.18908309615611221 -0.22884972618782171 0 0.21367919178599309 -0.21529212829840561 0 0.1907949411738675 -0.2035239754098164 0 0.2016502484191931 -0.18741525883515811 0 0.2086255522891223 -0.19907186907246219 0 0.1907949411738675 -0.2035239754098164 0 0.2016502484191931 -0.18741525883515811 0 0.1880217582768188 -0.17951209519154521 0 0.1907949411738675 -0.2035239754098164 0 0.1880217582768188 -0.17951209519154521 0 0.1907949411738675 -0.2035239754098164 0 0.1703931907865926 -0.1984008881936658 0 0.1907949411738675 -0.2035239754098164 0 0.165026579702267 -0.21846734390934591 0 0.1703931907865926 -0.1984008881936658 0 0.18908309615611221 -0.22884972618782171 0 0.1907949411738675 -0.2035239754098164 0 0.165026579702267 -0.21846734390934591 0 0.165026579702267 -0.21846734390934591 0 0.1703931907865926 -0.1984008881936658 0 0.14495446384390751 -0.1969899492874535 0 0.1703931907865926 -0.1984008881936658 0 0.14495446384390751 -0.1969899492874535 0 0.16659858285440171 -0.17741811690349171 0 0.19020677089061289 -0.25630437548157792 0 0.18908309615611221 -0.22884972618782171 0 0.16525617847545679 -0.24625639588382661 0 0.18908309615611221 -0.22884972618782171 0 0.165026579702267 -0.21846734390934591 0 0.16525617847545679 -0.24625639588382661 0 0.165026579702267 -0.21846734390934591 0 0.16525617847545679 -0.24625639588382661 0 0.15151628958822119 -0.23721697048771601 0 0.1546377368784837 -0.25356422273026019 0 0.16525617847545679 -0.24625639588382661 0 0.15151628958822119 -0.23721697048771601 0 0.1546377368784837 -0.25356422273026019 0 0.14259733537338229 -0.24843802833874881 0 0.15151628958822119 -0.23721697048771601 0 0.14259733537338229 -0.24843802833874881 0 0.15151628958822119 -0.23721697048771601 0 0.137083307394854 -0.23549978618732251 0 0.15151628958822119 -0.23721697048771601 0 0.14449659970488371 -0.22107604587679211 0 0.137083307394854 -0.23549978618732251 0 0.165026579702267 -0.21846734390934591 0 0.15151628958822119 -0.23721697048771601 0 0.14449659970488371 -0.22107604587679211 0 0.1206413850607744 -0.2351162915799947 0 0.12944783529313439 -0.22516525038185559 0 0.137083307394854 -0.23549978618732251 0 0.14449659970488371 -0.22107604587679211 0 0.12944783529313439 -0.22516525038185559 0 0.1311722069379628 -0.21183149370741189 0 0.14449659970488371 -0.22107604587679211 0 0.12944783529313439 -0.22516525038185559 0 0.137083307394854 -0.23549978618732251 0 0.1206413850607744 -0.2351162915799947 0 0.137083307394854 -0.23549978618732251 0 0.13078172172674321 -0.2458027894733521 0 0.14259733537338229 -0.24843802833874881 0 0.137083307394854 -0.23549978618732251 0 0.13078172172674321 -0.2458027894733521 0 0.165026579702267 -0.21846734390934591 0 0.14449659970488371 -0.22107604587679211 0 0.14495446384390751 -0.1969899492874535 0 0.14449659970488371 -0.22107604587679211 0 0.14495446384390751 -0.1969899492874535 0 0.1311722069379628 -0.21183149370741189 0 0.11945698867659681 -0.20120022094666171 0 0.14495446384390751 -0.1969899492874535 0 0.1311722069379628 -0.21183149370741189 0 0.11945698867659681 -0.20120022094666171 0 0.1224308172542093 -0.18471731460296639 0 0.14495446384390751 -0.1969899492874535 0 0.1224308172542093 -0.18471731460296639 0 0.14495446384390751 -0.1969899492874535 0 0.14095852481653129 -0.1630767357152319 0 0.14495446384390751 -0.1969899492874535 0 0.14095852481653129 -0.1630767357152319 0 0.16659858285440171 -0.17741811690349171 0 0.14095852481653129 -0.1630767357152319 0 0.16659858285440171 -0.17741811690349171 0 0.1219787527980354 -0.16658724503717809 0 0.1224308172542093 -0.18471731460296639 0 0.14095852481653129 -0.1630767357152319 0 0.11531846677866089 -0.14873535452697209 0 0.1219787527980354 -0.16658724503717809 0 0.14095852481653129 -0.1630767357152319 0 0.14095852481653129 -0.1630767357152319 0 0.1279866395688315 -0.14491316741122809 0 0.13923597263151699 -0.14555828477908031 0 0.11531846677866089 -0.14873535452697209 0 0.14095852481653129 -0.1630767357152319 0 0.1279866395688315 -0.14491316741122809 0 0.11531846677866089 -0.14873535452697209 0 0.14095852481653129 -0.1630767357152319 0 0.1279866395688315 -0.14491316741122809 0 0.13923597263151699 -0.14555828477908031 0 0.1348625456492957 -0.1347569343009031 0 0.13089678974713631 -0.12778957506914301 0 0.128587300494203 -0.13248088605997579 0 0.13238322444509229 -0.1304010632118123 0 0.128587300494203 -0.13248088605997579 0 0.13238322444509229 -0.1304010632118123 0 0.128587300494203 -0.13248088605997579 0 0.13238322444509229 -0.1304010632118123 0 0.1348625456492957 -0.1347569343009031 0 0.13089678974713631 -0.12778957506914301 0 0.13238322444509229 -0.1304010632118123 0 0.1279866395688315 -0.14491316741122809 0 0.128587300494203 -0.13248088605997579 0 0.1348625456492957 -0.1347569343009031 0 0.1191947535994773 -0.13679984363659781 0 0.1279866395688315 -0.14491316741122809 0 0.128587300494203 -0.13248088605997579 0 0.13923597263151699 -0.14555828477908031 0 0.1348625456492957 -0.1347569343009031 0 0.14350742392940699 -0.13889638740010571 0 0.14020850312619809 -0.13468913417066189 0 0.1348625456492957 -0.1347569343009031 0 0.14350742392940699 -0.13889638740010571 0 0.13238322444509229 -0.1304010632118123 0 0.1348625456492957 -0.1347569343009031 0 0.13238322444509229 -0.1304010632118123 0 0.1348625456492957 -0.1347569343009031 0 0.1357237020369727 -0.12857078375699391 0 0.13089678974713631 -0.12778957506914301 0 0.13238322444509229 -0.1304010632118123 0 0.1357237020369727 -0.12857078375699391 0 0.13238322444509229 -0.1304010632118123 0 0.1357237020369727 -0.12857078375699391 0 0.14020850312619809 -0.13468913417066189 0 0.1348625456492957 -0.1347569343009031 0 0.1357237020369727 -0.12857078375699391 0 0.1357237020369727 -0.12857078375699391 0 0.1415495162532687 -0.12951365912043361 0 0.14020850312619809 -0.13468913417066189 0 0.1357237020369727 -0.12857078375699391 0 0.1415495162532687 -0.12951365912043361 0 0.13089678974713631 -0.12778957506914301 0 0.1357237020369727 -0.12857078375699391 0 0.15195176480136471 -0.11967927377010409 0 0.1357237020369727 -0.12857078375699391 0 0.1415495162532687 -0.12951365912043361 0 0.1415495162532687 -0.12951365912043361 0 0.14350742392940699 -0.13889638740010571 0 0.15461081573906521 -0.13451207353682401 0 0.14020850312619809 -0.13468913417066189 0 0.1415495162532687 -0.12951365912043361 0 0.14350742392940699 -0.13889638740010571 0 0.14350742392940699 -0.13889638740010571 0 0.15461081573906521 -0.13451207353682401 0 0.1488647291935197 -0.14614819906793261 0 0.15195176480136471 -0.11967927377010409 0 0.1415495162532687 -0.12951365912043361 0 0.15461081573906521 -0.13451207353682401 0 0.14095852481653129 -0.1630767357152319 0 0.13923597263151699 -0.14555828477908031 0 0.1488647291935197 -0.14614819906793261 0 0.14095852481653129 -0.1630767357152319 0 0.1488647291935197 -0.14614819906793261 0 0.1647235454480552 -0.14889688868604911 0 0.15461081573906521 -0.13451207353682401 0 0.1488647291935197 -0.14614819906793261 0 0.1647235454480552 -0.14889688868604911 0 0.13923597263151699 -0.14555828477908031 0 0.14350742392940699 -0.13889638740010571 0 0.1488647291935197 -0.14614819906793261 0 0.15461081573906521 -0.13451207353682401 0 0.1647235454480552 -0.14889688868604911 0 0.17537273609379669 -0.1266266744750329 0 0.15195176480136471 -0.11967927377010409 0 0.15461081573906521 -0.13451207353682401 0 0.17537273609379669 -0.1266266744750329 0 0.1647235454480552 -0.14889688868604911 0 0.17537273609379669 -0.1266266744750329 0 0.18341643225747989 -0.14169361356560731 0 0.1987937073862284 -0.13357407517996259 0 0.17537273609379669 -0.1266266744750329 0 0.1987937073862284 -0.13357407517996259 0 0.17537273609379669 -0.1266266744750329 0 0.18341643225747989 -0.14169361356560731 0 0.1647235454480552 -0.14889688868604911 0 0.18341643225747989 -0.14169361356560731 0 0.18207344564223571 -0.15597739581098299 0 0.19377962363836981 -0.14974221022152739 0 0.18341643225747989 -0.14169361356560731 0 0.18207344564223571 -0.15597739581098299 0 0.1880217582768188 -0.17951209519154521 0 0.18207344564223571 -0.15597739581098299 0 0.16659858285440171 -0.17741811690349171 0 0.1880217582768188 -0.17951209519154521 0 0.1703931907865926 -0.1984008881936658 0 0.16659858285440171 -0.17741811690349171 0 0.14095852481653129 -0.1630767357152319 0 0.1647235454480552 -0.14889688868604911 0 0.16659858285440171 -0.17741811690349171 0 0.1647235454480552 -0.14889688868604911 0 0.18207344564223571 -0.15597739581098299 0 0.16659858285440171 -0.17741811690349171 0 
</DataArray>
</Points>
<Cells>
<DataArray type="UInt32" Name="connectivity" format="ascii">
0 1 2 3 4 5 6 7 8 9 10 11 12 13 14 15 16 17 18 19 20 21 22 23 24 25 26 27 28 29 30 31 32 33 34 35 36 37 38 39 40 41 42 43 44 45 46 47 48 49 50 51 52 53 54 55 56 57 58 59 60 61 62 63 64 65 66 67 68 69 70 71 72 73 74 75 76 77 78 79 80 81 82 83 84 85 86 87 88 89 90 91 92 93 94 95 96 97 98 99 100 101 102 103 104 105 106 107 108 109 110 111 112 113 114 115 116 117 118 119 120 121 122 123 124 125 126 127 128 129 130 131 132 133 134 135 136 137 138 139 140 141 142 143 144 145 146 147 148 149 150 151 152 153 154 155 156 157 158 159 160 161 162 163 164 165 166 167 168 169 170 171 172 173 174 175 176 177 178 179 180 181 182 183 184 185 186 187 188 189 190 191 192 193 194 195 196 197 198 199 200 201 202 203 204 205 206 207 208 209 210 211 212 213 214 215 216 217 218 219 220 221 222 223 224 225 226 227 228 229 230 231 232 233 234 235 236 237 238 239 240 241 242 243 244 245 246 247 248 249 250 251 252 253 254 255 256 257 258 259 260 261 262 263 264 265 266 267 268 269 270 271 272 273 274 275 276 277 278 279 280 281 282 283 284 285 286 287 288 289 290 291 292 293 294 295 296 297 298 299 300 301 302 303 304 305 306 307 308 309 310 311 312 313 314 315 316 317 318 319 320 321 322 323 324 325 326 327 328 329 330 331 332 333 334 335 336 337 338 339 340 341 342 343 344 345 346 347 348 349 350 351 352 353 354 355 356 357 358 359 360 361 362 363 364 365 366 367 368 369 370 371 372 373 374 375 376 377 378 379 380 381 382 383 384 385 386 387 388 389 390 391 392 393 394 395 396 397 398 399 400 401 402 403 404 405 406 407 408 409 410 411 412 413 414 415 416 417 418 419 420 421 422 423 424 425 426 427 428 429 430 431 432 433 434 435 436 437 438 439 440 441 442 443 444 445 446 447 448 449 450 451 452 453 454 455 456 457 458 459 460 461 462 463 464 465 466 467 468 469 470 471 472 473 474 475 476 477 478 479 480 481 482 483 484 485 486 487 488 489 490 491 492 493 494 495 496 497 498 499 500 501 502 503 504 505 506 507 508 509 510 511 512 513 514 515 516 517 518 519 520 521 522 523 524 525 526 527 528 529 530 531 532 533 534 535 536 537 538 539 540 541 542 543 544 545 546 547 548 549 550 551 552 553 554 555 556 557 558 559 560 561 562 563 564 565 566 567 568 569 570 571 572 573 574 575 576 577 578 579 580 581 582 583 584 585 586 587 588 589 590 591 592 593 594 595 596 597 598 599 600 601 602 603 604 605 606 607 608 609 610 611 612 613 614 615 616 617 618 619 620 621 622 623 624 625 626 627 628 629 630 631 632 633 634 635 636 637 638 639 640 641 642 643 644 645 646 647 648 649 650 651 652 653 654 655 656 657 658 659 660 661 662 663 664 665 666 667 668 669 670 671 672 673 674 675 676 677 678 679 680 681 682 683 684 685 686 687 688 689 690 691 692 693 694 695 696 697 698 699 700 701 702 703 704 705 706 707 708 709 710 711 712 713 714 715 716 717 718 719 720 721 722 723 724 725 726 727 728 729 730 731 732 733 734 735 736 737 738 739 740 741 742 743 744 745 746 747 748 749 750 751 752 753 754 755 756 757 758 759 760 761 762 763 764 765 766 767 768 769 770 771 772 773 774 775 776 777 778 779 780 781 782 783 784 785 786 787 788 789 790 791 792 793 794 795 796 797 798 799 800 801 802 803 804 805 806 807 808 809 810 811 812 813 814 815 816 817 818 819 820 821 822 823 824 825 826 827 828 829 830 831 832 833 834 835 836 837 838 839 840 841 842 843 844 845 846 847 848 849 850 851 852 853 854 855 856 857 858 859 860 861 862 863 864 865 866 867 868 869 870 871 872 873 874 875 876 877 878 879 880 881 882 883 884 885 886 887 888 889 890 891 892 893 894 895 896 897 898 899 900 901 902 903 904 905 906 907 908 909 910 911 912 913 914 915 916 917 918 919 920 921 922 923 924 925 926 927 928 929 930 931 932 933 934 935 936 937 938 939 940 941 942 943 944 945 946 947 948 949 950 951 952 953 954 955 956 957 958 959 960 961 962 963 964 965 966 967 968 969 970 971 972 973 974 975 976 977 978 979 980 981 982 983 984 985 986 987 988 989 990 991 992 993 994 995 996 997 998 999 1000 1001 1002 1003 1004 1005 1006 1007 1008 1009 1010 1011 1012 1013 1014 1015 1016 1017 1018 1019 1020 1021 1022 1023 1024 1025 1026 1027 1028 1029 1030 1031 1032 1033 1034 1035 1036 1037 1038 1039 1040 1041 1042 1043 1044 1045 1046 1047 1048 1049 1050 1051 1052 1053 1054 1055 1056 1057 1058 1059 1060 1061 1062 1063 1064 1065 1066 1067 1068 1069 1070 1071 1072 1073 1074 1075 1076 1077 1078 1079 1080 1081 1082 1083 1084 1085 1086 1087 1088 1089 1090 1091 1092 1093 1094 1095 1096 1097 1098 1099 1100 1101 1102 1103 1104 1105 1106 1107 1108 1109 1110 1111 1112 1113 1114 1115 1116 1117 1118 1119 1120 1121 1122 1123 1124 1125 1126 1127 1128 1129 1130 1131 1132 1133 1134 1135 1136 1137 1138 1139 1140 1141 1142 1143 1144 1145 1146 1147 1148 1149 1150 1151 1152 1153 1154 1155 1156 1157 1158 1159 1160 1161 1162 1163 1164 1165 1166 1167 1168 1169 1170 1171 1172 1173 1174 1175 1176 1177 1178 1179 1180 1181 1182 1183 1184 1185 1186 1187 1188 1189 1190 1191 1192 1193 1194 1195 1196 1197 1198 1199 1200 1201 1202 1203 1204 1205 1206 1207 1208 1209 1210 1211 1212 1213 1214 1215 1216 1217 1218 1219 1220 1221 1222 1223 1224 1225 1226 1227 1228 1229 1230 1231 1232 1233 1234 1235 1236 1237 1238 1239 1240 1241 1242 1243 1244 1245 1246 1247 1248 1249 1250 1251 1252 1253 1254 1255 1256 1257 1258 1259 1260 1261 1262 1263 1264 1265 1266 1267 1268 1269 1270 1271 1272 1273 1274 1275 1276 1277 1278 1279 1280 1281 1282 1283 1284 1285 1286 1287 1288 1289 1290 1291 1292 1293 1294 1295 1296 1297 1298 1299 1300 1301 1302 1303 1304 1305 1306 1307 1308 1309 1310 1311 1312 1313 1314 1315 1316 1317 1318 1319 1320 1321 1322 1323 1324 1325 1326 1327 1328 1329 1330 1331 1332 1333 1334 1335 1336 1337 1338 1339 1340 1341 1342 1343 1344 1345 1346 1347 1348 1349 1350 1351 1352 1353 1354 1355 1356 1357 1358 1359 1360 1361 1362 1363 1364 1365 1366 1367 1368 1369 1370 1371 1372 1373 1374 1375 1376 1377 1378 1379 1380 1381 1382 1383 1384 1385 1386 1387 1388 1389 1390 1391 1392 1393 1394 1395 1396 1397 1398 1399 1400 1401 1402 1403 1404 1405 1406 1407 1408 1409 1410 1411 1412 1413 1414 1415 1416 1417 1418 1419 1420 1421 1422 1423 1424 1425 1426 1427 1428 1429 1430 1431 1432 1433 1434 1435 1436 1437 1438 1439 1440 1441 1442 1443 1444 1445 1446 1447 1448 1449 1450 1451 1452 1453 1454 1455 1456 1457 1458 1459 1460 1461 1462 1463 1464 1465 1466 1467 1468 1469 1470 1471 1472 1473 1474 1475 1476 1477 1478 1479 1480 1481 1482 1483 1484 1485 1486 1487 1488 1489 1490 1491 1492 1493 1494 1495 1496 1497 1498 1499 1500 1501 1502 1503 1504 1505 1506 1507 1508 1509 1510 1511 1512 1513 1514 1515 1516 1517 1518 1519 1520 1521 1522 1523 1524 1525 1526 1527 1528 1529 1530 1531 1532 1533 1534 1535 1536 1537 1538 1539 1540 1541 1542 1543 1544 1545 1546 1547 1548 1549 1550 1551 1552 1553 1554 1555 1556 1557 1558 1559 1560 1561 1562 1563 1564 1565 1566 1567 1568 1569 1570 1571 1572 1573 1574 1575 1576 1577 1578 1579 1580 1581 1582 1583 1584 1585 1586 1587 1588 1589 1590 1591 1592 1593 1594 1595 1596 1597 1598 1599 1600 1601 1602 1603 1604 1605 1606 1607 1608 1609 1610 1611 1612 1613 1614 1615 1616 1617 1618 1619 1620 1621 1622 1623 1624 1625 1626 1627 1628 1629 1630 1631 1632 1633 1634 1635 1636 1637 1638 1639 1640 1641 1642 1643 1644 1645 1646 1647 1648 1649 1650 1651 1652 1653 1654 1655 1656 1657 1658 1659 1660 1661 1662 1663 1664 1665 1666 1667 1668 1669 1670 1671 1672 1673 1674 1675 1676 1677 1678 1679 1680 1681 1682 1683 1684 1685 1686 1687 1688 1689 1690 1691 1692 1693 1694 1695 1696 1697 1698 1699 1700 1701 1702 1703 1704 1705 1706 1707 1708 1709 1710 1711 1712 1713 1714 1715 1716 1717 1718 1719 1720 1721 1722 1723 1724 1725 1726 1727 1728 1729 1730 1731 1732 1733 1734 1735 1736 1737 1738 1739 1740 1741 1742 1743 1744 1745 1746 1747 1748 1749 1750 1751 1752 1753 1754 1755 1756 1757 1758 1759 1760 1761 1762 1763 1764 1765 1766 1767 1768 1769 1770 1771 1772 1773 1774 1775 1776 1777 1778 1779 1780 1781 1782 1783 1784 1785 1786 1787 1788 1789 1790 1791 1792 1793 1794 1795 1796 1797 1798 1799 1800 1801 1802 1803 1804 1805 1806 1807 1808 1809 1810 1811 1812 1813 1814 1815 1816 1817 1818 1819 1820 1821 1822 1823 1824 1825 1826 1827 1828 1829 1830 1831 1832 1833 1834 1835 1836 1837 1838 1839 1840 1841 1842 1843 1844 1845 1846 1847 1848 1849 1850 1851 1852 1853 1854 1855 1856 1857 1858 1859 1860 1861 1862 1863 1864 1865 1866 1867 1868 1869 1870 1871 1872 1873 1874 1875 1876 1877 1878 1879 1880 1881 1882 1883 1884 1885 1886 1887 1888 1889 1890 1891 1892 1893 1894 1895 1896 1897 1898 1899 1900 1901 1902 1903 1904 1905 1906 1907 1908 1909 1910 1911 1912 1913 1914 1915 1916 1917 1918 1919 1920 1921 1922 1923 1924 1925 1926 1927 1928 1929 1930 1931 1932 1933 1934 1935 1936 1937 1938 1939 1940 1941 1942 1943 1944 1945 1946 1947 1948 1949 1950 1951 1952 1953 1954 1955 1956 1957 1958 1959 1960 1961 1962 1963 1964 1965 1966 1967 1968 1969 1970 1971 1972 1973 1974 1975 1976 1977 1978 1979 1980 1981 1982 1983 1984 1985 1986 1987 1988 1989 1990 1991 1992 1993 1994 1995 1996 1997 1998 1999 2000 2001 2002 2003 2004 2005 2006 2007 2008 2009 2010 2011 2012 2013 2014 2015 2016 2017 2018 2019 2020 2021 2022 2023 2024 2025 2026 2027 2028 2029 2030 2031 2032 2033 2034 2035 2036 2037 2038 2039 2040 2041 2042 2043 2044 2045 2046 2047 2048 2049 2050 2051 2052 2053 2054 2055 2056 2057 2058 2059 2060 2061 2062 2063 2064 2065 2066 2067 2068 2069 2070 2071 2072 2073 2074 2075 2076 2077 2078 2079 2080 2081 2082 2083 2084 2085 2086 2087 2088 2089 2090 2091 2092 2093 2094 2095 2096 2097 2098 2099 2100 2101 2102 2103 2104 2105 2106 2107 2108 2109 2110 2111 2112 2113 2114 2115 2116 2117 2118 2119 2120 2121 2122 2123 2124 2125 2126 2127 2128 2129 2130 2131 2132 2133 2134 2135 2136 2137 2138 2139 2140 2141 2142 2143 2144 2145 2146 2147 2148 2149 2150 2151 2152 2153 2154 2155 2156 2157 2158 2159 2160 2161 2162 2163 2164 2165 2166 2167 2168 2169 2170 2171 2172 2173 2174 2175 2176 2177 2178 2179 2180 2181 2182 2183 2184 2185 2186 2187 2188 2189 2190 2191 2192 2193 2194 2195 2196 2197 2198 2199 2200 2201 2202 2203 2204 2205 2206 2207 2208 2209 2210 2211 2212 2213 2214 2215 2216 2217 2218 2219 2220 2221 2222 2223 2224 2225 2226 2227 2228 2229 2230 2231 2232 2233 2234 2235 2236 2237 2238 2239 2240 2241 2242 2243 2244 2245 2246 2247 2248 2249 2250 2251 2252 2253 2254 2255 2256 2257 2258 2259 2260 2261 2262 2263 2264 2265 2266 2267 2268 2269 2270 2271 2272 2273 2274 2275 2276 2277 2278 2279 2280 2281 2282 2283 2284 2285 2286 2287 2288 2289 2290 2291 2292 2293 2294 2295 2296 2297 2298 2299 2300 2301 2302 2303 2304 2305 2306 2307 2308 2309 2310 2311 2312 2313 2314 2315 2316 2317 2318 2319 2320 2321 2322 2323 2324 2325 2326 2327 2328 2329 2330 2331 2332 2333 2334 2335 2336 2337 2338 2339 2340 2341 2342 2343 2344 2345 2346 2347 2348 2349 2350 2351 2352 2353 2354 2355 2356 2357 2358 2359 2360 2361 2362 2363 2364 2365 2366 2367 2368 2369 2370 2371 2372 2373 2374 2375 2376 2377 2378 2379 2380 2381 2382 2383 2384 2385 2386 2387 2388 2389 2390 2391 2392 2393 2394 2395 2396 2397 2398 2399 2400 2401 2402 2403 2404 2405 2406 2407 2408 2409 2410 2411 2412 2413 2414 2415 2416 2417 2418 2419 2420 2421 2422 2423 2424 2425 2426 2427 2428 2429 2430 2431 2432 2433 2434 2435 2436 2437 2438 2439 2440 2441 2442 2443 2444 2445 2446 2447 2448 2449 2450 2451 2452 2453 2454 2455 2456 2457 2458 2459 2460 2461 2462 2463 2464 2465 2466 2467 2468 2469 2470 2471 2472 2473 2474 2475 2476 2477 2478 2479 2480 2481 2482 2483 2484 2485 2486 2487 2488 2489 2490 2491 2492 2493 2494 2495 2496 2497 2498 2499 2500 2501 2502 2503 2504 2505 2506 2507 2508 2509 2510 2511 2512 2513 2514 2515 2516 2517 2518 2519 2520 2521 2522 2523 2524 2525 2526 2527 2528 2529 2530 2531 2532 2533 2534 2535 2536 2537 2538 2539 2540 2541 2542 2543 2544 2545 2546 2547 2548 2549 2550 2551 2552 2553 2554 2555 2556 2557 2558 2559 2560 2561 2562 2563 2564 2565 2566 2567 2568 2569 2570 2571 2572 2573 2574 2575 2576 2577 2578 2579 2580 2581 2582 2583 2584 2585 2586 2587 2588 2589 2590 2591 2592 2593 2594 2595 2596 2597 2598 2599 2600 2601 2602 2603 2604 2605 2606 2607 2608 2609 2610 2611 2612 2613 2614 2615 2616 2617 2618 2619 2620 2621 2622 2623 2624 2625 2626 2627 2628 2629 2630 2631 2632 2633 2634 2635 2636 2637 2638 2639 2640 2641 2642 2643 2644 2645 2646 2647 2648 2649 2650 2651 2652 2653 2654 2655 2656 2657 2658 2659 2660 2661 2662 2663 2664 2665 2666 2667 2668 2669 2670 2671 2672 2673 2674 2675 2676 2677 2678 2679 2680 2681 2682 2683 2684 2685 2686 2687 2688 2689 2690 2691 2692 2693 2694 2695 2696 2697 2698 2699 2700 2701 2702 2703 2704 2705 2706 2707 2708 2709 2710 2711 2712 2713 2714 2715 2716 2717 2718 2719 2720 2721 2722 2723 2724 2725 2726 2727 2728 2729 2730 2731 2732 2733 2734 2735 2736 2737 2738 2739 2740 2741 2742 2743 2744 2745 2746 2747 2748 2749 2750 2751 2752 2753 2754 2755 2756 2757 2758 2759 2760 2761 2762 2763 2764 2765 2766 2767 2768 2769 2770 2771 2772 2773 2774 2775 2776 2777 2778 2779 2780 2781 2782 2783 2784 2785 2786 2787 2788 2789 2790 2791 2792 2793 2794 2795 2796 2797 2798 2799 2800 2801 2802 2803 2804 2805 2806 2807 2808 2809 2810 2811 2812 2813 2814 2815 2816 2817 2818 2819 2820 2821 2822 2823 2824 2825 2826 2827 2828 2829 2830 2831 2832 2833 2834 2835 2836 2837 2838 2839 2840 2841 2842 2843 2844 2845 2846 2847 2848 2849 2850 2851 2852 2853 2854 2855 2856 2857 2858 2859 2860 2861 2862 2863 2864 2865 2866 2867 2868 2869 2870 2871 2872 2873 2874 2875 2876 2877 2878 2879 2880 2881 2882 2883 2884 2885 2886 2887 2888 2889 2890 2891 2892 2893 2894 2895 2896 2897 2898 2899 2900 2901 2902 2903 2904 2905 2906 2907 2908 2909 2910 2911 2912 2913 2914 2915 2916 2917 2918 2919 2920 2921 2922 2923 2924 2925 2926 2927 2928 2929 2930 2931 2932 2933 2934 2935 2936 2937 2938 2939 2940 2941 2942 2943 2944 2945 2946 2947 2948 2949 2950 2951 2952 2953 2954 2955 2956 2957 2958 2959 2960 2961 2962 2963 2964 2965 2966 2967 2968 2969 2970 2971 2972 2973 2974 2975 2976 2977 2978 2979 2980 2981 2982 2983 2984 2985 2986 2987 2988 2989 2990 2991 2992 2993 2994 2995 2996 2997 2998 2999 3000 3001 3002 3003 3004 3005 3006 3007 3008 3009 3010 3011 3012 3013 3014 3015 3016 3017 3018 3019 3020 3021 3022 3023 3024 3025 3026 3027 3028 3029 3030 3031 3032 3033 3034 3035 3036 3037 3038 3039 3040 3041 3042 3043 3044 3045 3046 3047 3048 3049 3050 3051 3052 3053 3054 3055 3056 3057 3058 3059 3060 3061 3062 3063 3064 3065 3066 3067 3068 3069 3070 3071 3072 3073 3074 3075 3076 3077 3078 3079 3080 3081 3082 3083 3084 3085 3086 3087 3088 3089 3090 3091 3092 3093 3094 3095 3096 3097 3098 3099 3100 3101 3102 3103 3104 3105 3106 3107 3108 3109 3110 3111 3112 3113 3114 3115 3116 3117 3118 3119 3120 3121 3122 3123 3124 3125 3126 3127 3128 3129 3130 3131 3132 3133 3134 3135 3136 3137 3138 3139 3140 3141 3142 3143 3144 3145 3146 3147 3148 3149 3150 3151 3152 3153 3154 3155 3156 3157 3158 3159 3160 3161 3162 3163 3164 3165 3166 3167 3168 3169 3170 3171 3172 3173 3174 3175 3176 3177 3178 3179 3180 3181 3182 3183 3184 3185 3186 3187 3188 3189 3190 3191 3192 3193 3194 3195 3196 3197 3198 3199 3200 3201 3202 3203 3204 3205 3206 3207 3208 3209 3210 3211 3212 3213 3214 3215 3216 3217 3218 3219 3220 3221 3222 3223 3224 3225 3226 3227 3228 3229 3230 3231 3232 3233 3234 3235 3236 3237 3238 3239 3240 3241 3242 3243 3244 3245 3246 3247 3248 3249 3250 3251 3252 3253 3254 3255 3256 3257 3258 3259 3260 3261 3262 3263 3264 3265 3266 3267 3268 3269 3270 3271 3272 3273 3274 3275 3276 3277 3278 3279 3280 3281 3282 3283 3284 3285 3286 3287 3288 3289 3290 3291 3292 3293 3294 3295 3296 3297 3298 3299 3300 3301 3302 3303 3304 3305 3306 3307 3308 3309 3310 3311 3312 3313 3314 3315 3316 3317 3318 3319 3320 3321 3322 3323 3324 3325 3326 3327 3328 3329 3330 3331 3332 3333 3334 3335 3336 3337 3338 3339 3340 3341 3342 3343 3344 3345 3346 3347 3348 3349 3350 3351 3352 3353 3354 3355 3356 3357 3358 3359 3360 3361 3362 3363 3364 3365 3366 3367 3368 3369 3370 3371 3372 3373 3374 3375 3376 3377 3378 3379 3380 3381 3382 3383 3384 3385 3386 3387 3388 3389 3390 3391 3392 3393 3394 3395 3396 3397 3398 3399 3400 3401 3402 3403 3404 3405 3406 3407 3408 3409 3410 3411 3412 3413 3414 3415 3416 3417 3418 3419 3420 3421 3422 3423 3424 3425 3426 3427 3428 3429 3430 3431 3432 3433 3434 3435 3436 3437 3438 3439 3440 3441 3442 3443 3444 3445 3446 3447 3448 3449 3450 3451 3452 3453 3454 3455 3456 3457 3458 3459 3460 3461 3462 3463 3464 3465 3466 3467 3468 3469 3470 3471 3472 3473 3474 3475 3476 3477 3478 3479 3480 3481 3482 3483 3484 3485 3486 3487 3488 3489 3490 3491 3492 3493 3494 3495 3496 3497 3498 3499 3500 3501 3502 3503 3504 3505 3506 3507 3508 3509 3510 3511 3512 3513 3514 3515 3516 3517 3518 3519 3520 3521 3522 3523 3524 3525 3526 3527 3528 3529 3530 3531 3532 3533 3534 3535 3536 3537 3538 3539 3540 3541 3542 3543 3544 3545 3546 3547 3548 3549 3550 3551 3552 3553 3554 3555 3556 3557 3558 3559 3560 3561 3562 3563 3564 3565 3566 3567 3568 3569 3570 3571 3572 3573 3574 3575 3576 3577 3578 3579 3580 3581 3582 3583 3584 3585 3586 3587 3588 3589 3590 3591 3592 3593 3594 3595 3596 3597 3598 3599 3600 3601 3602 3603 3604 3605 3606 3607 3608 3609 3610 3611 3612 3613 3614 3615 3616 3617 3618 3619 3620 3621 3622 3623 3624 3625 3626 3627 3628 3629 3630 3631 3632 3633 3634 3635 3636 3637 3638 3639 3640 3641 3642 3643 3644 3645 3646 3647 3648 3649 3650 3651 3652 3653 3654 3655 3656 3657 3658 3659 3660 3661 3662 3663 3664 3665 3666 3667 3668 3669 3670 3671 3672 3673 3674 3675 3676 3677 3678 3679 3680 3681 3682 3683 3684 3685 3686 3687 3688 3689 3690 3691 3692 3693 3694 3695 3696 3697 3698 3699 3700 3701 3702 3703 3704 3705 3706 3707 3708 3709 3710 3711 3712 3713 3714 3715 3716 3717 3718 3719 3720 3721 3722 3723 3724 3725 3726 3727 3728 3729 3730 3731 3732 3733 3734 3735 3736 3737 3738 3739 3740 3741 3742 3743 3744 3745 3746 3747 3748 3749 3750 3751 3752 3753 3754 3755 3756 3757 3758 3759 3760 3761 3762 3763 3764 3765 3766 3767 3768 3769 3770 3771 3772 3773 3774 3775 3776 3777 3778 3779 3780 3781 3782 3783 3784 3785 3786 3787 3788 3789 3790 3791 3792 3793 3794 3795 3796 3797 3798 3799 3800 3801 3802 3803 3804 3805 3806 3807 3808 3809 3810 3811 3812 3813 3814 3815 3816 3817 3818 3819 3820 3821 3822 3823 3824 3825 3826 3827 3828 3829 3830 3831 3832 3833 3834 3835 3836 3837 3838 3839 3840 3841 3842 3843 3844 3845 3846 3847 3848 3849 3850 3851 3852 3853 3854 3855 3856 3857 3858 3859 3860 3861 3862 3863 3864 3865 3866 3867 3868 3869 3870 3871 3872 3873 3874 3875 3876 3877 3878 3879 3880 3881 3882 3883 3884 3885 3886 3887 3888 3889 3890 3891 3892 3893 3894 3895 3896 3897 3898 3899 3900 3901 3902 3903 3904 3905 3906 3907 3908 3909 3910 3911 3912 3913 3914 3915 3916 3917 3918 3919 3920 3921 3922 3923 3924 3925 3926 3927 3928 3929 3930 3931 3932 3933 3934 3935 3936 3937 3938 3939 3940 3941 3942 3943 3944 3945 3946 3947 3948 3949 3950 3951 3952 3953 3954 3955 3956 3957 3958 3959 3960 3961 3962 3963 3964 3965 3966 3967 3968 3969 3970 3971 3972 3973 3974 3975 3976 3977 3978 3979 3980 3981 3982 3983 3984 3985 3986 3987 3988 3989 3990 3991 3992 3993 3994 3995 3996 3997 3998 3999 4000 4001 4002 4003 4004 4005 4006 4007 4008 4009 4010 4011 4012 4013 4014 4015 4016 4017 4018 4019 4020 4021 4022 4023 4024 4025 4026 4027 4028 4029 4030 4031 4032 4033 4034 4035 4036 4037 4038 4039 4040 4041 4042 4043 4044 4045 4046 4047 4048 4049 4050 4051 4052 4053 4054 4055 4056 4057 4058 4059 4060 4061 4062 4063 4064 4065 4066 4067 4068 4069 4070 4071 4072 4073 4074 4075 4076 4077 4078 4079 4080 4081 4082 4083 4084 4085 4086 4087 4088 4089 4090 4091 4092 4093 4094 4095 4096 4097 4098 4099 4100 4101 4102 4103 4104 4105 4106 4107 4108 4109 4110 4111 4112 4113 4114 4115 4116 4117 4118 4119 4120 4121 4122 4123 4124 4125 4126 4127 4128 4129 4130 4131 4132 4133 4134 4135 4136 4137 4138 4139 4140 4141 4142 4143 4144 4145 4146 4147 4148 4149 4150 4151 4152 4153 4154 4155 4156 4157 4158 4159 4160 4161 4162 4163 4164 4165 4166 4167 4168 4169 4170 4171 4172 4173 4174 4175 4176 4177 4178 4179 4180 4181 4182 4183 4184 4185 4186 4187 4188 4189 4190 4191 4192 4193 4194 4195 4196 4197 4198 4199 4200 4201 4202 4203 4204 4205 4206 4207 4208 4209 4210 4211 4212 4213 4214 4215 4216 4217 4218 4219 4220 4221 4222 4223 4224 4225 4226 4227 4228 4229 4230 4231 4232 4233 4234 4235 4236 4237 4238 4239 4240 4241 4242 4243 4244 4245 4246 4247 4248 4249 4250 4251 4252 4253 4254 4255 4256 4257 4258 4259 4260 4261 4262 4263 4264 4265 4266 4267 4268 4269 4270 4271 4272 4273 4274 4275 4276 4277 4278 4279 4280 4281 4282 4283 4284 4285 4286 4287 4288 4289 4290 4291 4292 4293 4294 4295 4296 4297 4298 4299 4300 4301 4302 4303 4304 4305 4306 4307 4308 4309 4310 4311 4312 4313 4314 4315 4316 4317 4318 4319 4320 4321 4322 4323 4324 4325 4326 4327 4328 4329 4330 4331 4332 4333 4334 4335 4336 4337 4338 4339 4340 4341 4342 4343 4344 4345 4346 4347 4348 4349 4350 4351 4352 4353 4354 4355 4356 4357 4358 4359 4360 4361 4362 4363 4364 4365 4366 4367 4368 4369 4370 4371 4372 4373 4374 4375 4376 4377 4378 4379 4380 4381 4382 4383 4384 4385 4386 4387 4388 4389 4390 4391 4392 4393 4394 4395 4396 4397 4398 4399 4400 4401 4402 4403 4404 4405 4406 4407 4408 4409 4410 4411 4412 4413 4414 4415 4416 4417 4418 4419 4420 4421 4422 4423 4424 4425 4426 4427 4428 4429 4430 4431 4432 4433 4434 4435 4436 4437 4438 4439 4440 4441 4442 4443 4444 4445 4446 4447 4448 4449 4450 4451 4452 4453 4454 4455 4456 4457 4458 4459 4460 4461 4462 4463 4464 4465 4466 4467 4468 4469 4470 4471 4472 4473 4474 4475 4476 4477 4478 4479 4480 4481 4482 4483 4484 4485 4486 4487 4488 4489 4490 4491 4492 4493 4494 4495 4496 4497 4498 4499 4500 4501 4502 4503 4504 4505 4506 4507 4508 4509 4510 4511 4512 4513 4514 4515 4516 4517 4518 4519 4520 4521 4522 4523 4524 4525 4526 4527 4528 4529 4530 4531 4532 4533 4534 4535 4536 4537 4538 4539 4540 4541 4542 4543 4544 4545 4546 4547 4548 4549 4550 4551 4552 4553 4554 4555 4556 4557 4558 4559 4560 4561 4562 4563 4564 4565 4566 4567 4568 4569 4570 4571 4572 4573 4574 4575 4576 4577 4578 4579 4580 4581 4582 4583 4584 4585 4586 4587 4588 4589 4590 4591 4592 4593 4594 4595 4596 4597 4598 4599 4600 4601 4602 4603 4604 4605 4606 4607 4608 4609 4610 4611 4612 4613 4614 4615 4616 4617 4618 4619 4620 4621 4622 4623 4624 4625 4626 4627 4628 4629 4630 4631 4632 4633 4634 4635 4636 4637 4638 4639 4640 4641 4642 4643 4644 4645 4646 4647 4648 4649 4650 4651 4652 4653 4654 4655 4656 4657 4658 4659 4660 4661 4662 4663 4664 4665 4666 4667 4668 4669 4670 4671 4672 4673 4674 4675 4676 4677 4678 4679 4680 4681 4682 4683 4684 4685 4686 4687 4688 4689 4690 4691 4692 4693 4694 4695 4696 4697 4698 4699 4700 4701 4702 4703 4704 4705 4706 4707 4708 4709 4710 4711 4712 4713 4714 4715 4716 4717 4718 4719 4720 4721 4722 4723 4724 4725 4726 4727 4728 4729 4730 4731 4732 4733 4734 4735 4736 4737 4738 4739 4740 4741 4742 4743 4744 4745 4746 4747 4748 4749 4750 4751 4752 4753 4754 4755 4756 4757 4758 4759 4760 4761 4762 4763 4764 4765 4766 4767 4768 4769 4770 4771 4772 4773 4774 4775 4776 4777 4778 4779 4780 4781 4782 4783 4784 4785 4786 4787 4788 4789 4790 4791 4792 4793 4794 4795 4796 4797 4798 4799 4800 4801 4802 4803 4804 4805 4806 4807 4808 4809 4810 4811 4812 4813 4814 4815 4816 4817 4818 4819 4820 4821 4822 4823 4824 4825 4826 4827 4828 4829 4830 4831 4832 4833 4834 4835 4836 4837 4838 4839 4840 4841 4842 4843 4844 4845 4846 4847 4848 4849 4850 4851 4852 4853 4854 4855 4856 4857 4858 4859 4860 4861 4862 4863 4864 4865 4866 4867 4868 4869 4870 4871 4872 4873 4874 4875 4876 4877 4878 4879 4880 4881 4882 4883 4884 4885 4886 4887 4888 4889 4890 4891 4892 4893 4894 4895 4896 4897 4898 4899 4900 4901 4902 4903 4904 4905 4906 4907 4908 4909 4910 4911 4912 4913 4914 4915 4916 4917 4918 4919 4920 4921 4922 4923 4924 4925 4926 4927 4928 4929 4930 4931 4932 4933 4934 4935 4936 4937 4938 4939 4940 4941 4942 4943 4944 4945 4946 4947 4948 4949 4950 4951 4952 4953 4954 4955 4956 4957 4958 4959 4960 4961 4962 4963 4964 4965 4966 4967 4968 4969 4970 4971 4972 4973 4974 4975 4976 4977 4978 4979 4980 4981 4982 4983 4984 4985 4986 4987 4988 4989 4990 4991 4992 4993 4994 4995 4996 4997 4998 4999 5000 5001 5002 5003 5004 5005 5006 5007 5008 5009 5010 5011 5012 5013 5014 5015 5016 5017 5018 5019 5020 5021 5022 5023 5024 5025 5026 5027 5028 5029 5030 5031 5032 5033 5034 5035 5036 5037 5038 5039 5040 5041 5042 5043 5044 5045 5046 5047 5048 5049 5050 5051 5052 5053 5054 5055 5056 5057 5058 5059 5060 5061 5062 5063 5064 5065 5066 5067 5068 5069 5070 5071 5072 5073 5074 5075 5076 5077 5078 5079 5080 5081 5082 5083 5084 5085 5086 5087 5088 5089 5090 5091 5092 5093 5094 5095 5096 5097 5098 5099 5100 5101 5102 5103 5104 5105 5106 5107 5108 5109 5110 5111 5112 5113 5114 5115 5116 5117 5118 5119 5120 5121 5122 5123 5124 5125 5126 5127 5128 5129 5130 5131 5132 5133 5134 5135 5136 5137 5138 5139 5140 5141 5142 5143 5144 5145 5146 5147 5148 5149 5150 5151 5152 5153 5154 5155 5156 5157 5158 5159 5160 5161 5162 5163 5164 5165 5166 5167 5168 5169 5170 5171 5172 5173 5174 5175 5176 5177 5178 5179 5180 5181 5182 5183 5184 5185 5186 5187 5188 5189 5190 5191 5192 5193 5194 5195 5196 5197 5198 5199 5200 5201 5202 5203 5204 5205 5206 5207 5208 5209 5210 5211 5212 5213 5214 5215 5216 5217 5218 5219 5220 5221 5222 5223 5224 5225 5226 5227 5228 5229 5230 5231 5232 5233 5234 5235 5236 5237 5238 5239 5240 5241 5242 5243 5244 5245 5246 5247 5248 5249 5250 5251 5252 5253 5254 5255 5256 5257 5258 5259 5260 5261 5262 5263 5264 5265 5266 5267 5268 5269 5270 5271 5272 5273 5274 5275 5276 5277 5278 5279 5280 5281 5282 5283 5284 5285 5286 5287 5288 5289 5290 5291 5292 5293 5294 5295 5296 5297 5298 5299 5300 5301 5302 5303 5304 5305 5306 5307 5308 5309 5310 5311 5312 5313 5314 5315 5316 5317 5318 5319 5320 5321 5322 5323 5324 5325 5326 5327 5328 5329 5330 5331 5332 5333 5334 5335 5336 5337 5338 5339 5340 5341 5342 5343 5344 5345 5346 5347 5348 5349 5350 5351 5352 5353 5354 5355 5356 5357 5358 5359 5360 5361 5362 5363 5364 5365 5366 5367 5368 5369 5370 5371 5372 5373 5374 5375 5376 5377 5378 5379 5380 5381 5382 5383 5384 5385 5386 5387 5388 5389 5390 5391 5392 5393 5394 5395 5396 5397 5398 5399 5400 5401 5402 5403 5404 5405 5406 5407 5408 5409 5410 5411 5412 5413 5414 5415 5416 5417 5418 5419 5420 5421 5422 5423 5424 5425 5426 5427 5428 5429 5430 5431 5432 5433 5434 5435 5436 5437 5438 5439 5440 5441 5442 5443 5444 5445 5446 5447 5448 5449 5450 5451 5452 5453 5454 5455 5456 5457 5458 5459 5460 5461 5462 5463 5464 5465 5466 5467 5468 5469 5470 5471 5472 5473 5474 5475 5476 5477 5478 5479 5480 5481 5482 5483 5484 5485 5486 5487 5488 5489 5490 5491 5492 5493 5494 5495 5496 5497 5498 5499 5500 5501 5502 5503 5504 5505 5506 5507 5508 5509 5510 5511 5512 5513 5514 5515 5516 5517 5518 5519 5520 5521 5522 5523 5524 5525 5526 5527 5528 5529 5530 5531 5532 5533 5534 5535 5536 5537 5538 5539 5540 5541 5542 5543 5544 5545 5546 5547 5548 5549 5550 5551 5552 5553 5554 5555 5556 5557 5558 5559 5560 5561 5562 5563 5564 5565 5566 5567 5568 5569 5570 5571 5572 5573 5574 5575 5576 5577 5578 5579 5580 5581 5582 5583 5584 5585 5586 5587 5588 5589 5590 5591 5592 5593 5594 5595 5596 5597 5598 5599 5600 5601 5602 5603 5604 5605 5606 5607 5608 5609 5610 5611 5612 5613 5614 5615 5616 5617 5618 5619 5620 5621 5622 5623 5624 5625 5626 5627 5628 5629 5630 5631 5632 5633 5634 5635 5636 5637 5638 5639 5640 5641 5642 5643 5644 5645 5646 5647 5648 5649 5650 5651 5652 5653 5654 5655 5656 5657 5658 5659 5660 5661 5662 5663 5664 5665 5666 5667 5668 5669 5670 5671 5672 5673 5674 5675 5676 5677 5678 5679 5680 5681 5682 5683 5684 5685 5686 5687 5688 5689 5690 5691 5692 5693 5694 5695 5696 5697 5698 5699 5700 5701 5702 5703 5704 5705 5706 5707 5708 5709 5710 5711 5712 5713 5714 5715 5716 5717 5718 5719 5720 5721 5722 5723 5724 5725 5726 5727 5728 5729 5730 5731 5732 5733 5734 5735 5736 5737 5738 5739 5740 5741 5742 5743 5744 5745 5746 5747 5748 5749 5750 5751 5752 5753 5754 5755 5756 5757 5758 5759 5760 5761 5762 5763 5764 5765 5766 5767 5768 5769 5770 5771 5772 5773 5774 5775 5776 5777 5778 5779 5780 5781 5782 5783 5784 5785 5786 5787 5788 5789 5790 5791 5792 5793 5794 5795 5796 5797 5798 5799 5800 5801 5802 5803 5804 5805 5806 5807 5808 5809 5810 5811 5812 5813 5814 5815 5816 5817 5818 5819 5820 5821 5822 5823 5824 5825 5826 5827 5828 5829 5830 5831 5832 5833 5834 5835 5836 5837 5838 5839 5840 5841 5842 5843 5844 5845 5846 5847 5848 5849 5850 5851 5852 5853 5854 5855 5856 5857 5858 5859 5860 5861 5862 5863 5864 5865 5866 5867 5868 5869 5870 5871 5872 5873 5874 5875 5876 5877 5878 5879 5880 5881 5882 5883 5884 5885 5886 5887 5888 5889 5890 5891 5892 5893 5894 5895 5896 5897 5898 5899 5900 5901 5902 5903 5904 5905 5906 5907 5908 5909 5910 5911 5912 5913 5914 5915 5916 5917 5918 5919 5920 5921 5922 5923 5924 5925 5926 5927 5928 5929 5930 5931 5932 5933 5934 5935 5936 5937 5938 5939 5940 5941 5942 5943 5944 5945 5946 5947 5948 5949 5950 5951 5952 5953 5954 5955 5956 5957 5958 5959 5960 5961 5962 5963 5964 5965 5966 5967 5968 5969 5970 5971 5972 5973 5974 5975 5976 5977 5978 5979 5980 5981 5982 5983 5984 5985 5986 5987 5988 5989 5990 5991 5992 5993 5994 5995 5996 5997 5998 5999 6000 6001 6002 6003 6004 6005 6006 6007 6008 6009 6010 6011 6012 6013 6014 6015 6016 6017 6018 6019 6020 6021 6022 6023 6024 6025 6026 6027 6028 6029 6030 6031 6032 6033 6034 6035 6036 6037 6038 6039 6040 6041 6042 6043 6044 6045 6046 6047 6048 6049 6050 6051 6052 6053 6054 6055 6056 6057 6058 6059 6060 6061 6062 6063 6064 6065 6066 6067 6068 6069 6070 6071 6072 6073 6074 6075 6076 6077 6078 6079 6080 6081 6082 6083 6084 6085 6086 6087 6088 6089 6090 6091 6092 6093 6094 6095 6096 6097 6098 6099 6100 6101 6102 6103 6104 6105 6106 6107 6108 6109 6110 6111 6112 6113 6114 6115 6116 6117 6118 6119 6120 6121 6122 6123 6124 6125 6126 6127 6128 6129 6130 6131 6132 6133 6134 6135 6136 6137 6138 6139 6140 6141 6142 6143 6144 6145 6146 6147 6148 6149 6150 6151 6152 6153 6154 6155 6156 6157 6158 6159 6160 6161 6162 6163 6164 6165 6166 6167 6168 6169 6170 6171 6172 6173 6174 6175 6176 6177 6178 6179 6180 6181 6182 6183 6184 6185 6186 6187 6188 6189 6190 6191 6192 6193 6194 6195 6196 6197 6198 6199 6200 6201 6202 6203 6204 6205 6206 6207 6208 6209 6210 6211 6212 6213 6214 6215 6216 6217 6218 6219 6220 6221 6222 6223 6224 6225 6226 6227 6228 6229 6230 6231 6232 6233 6234 6235 6236 6237 6238 6239 6240 6241 6242 6243 6244 6245 6246 6247 6248 6249 6250 6251 6252 6253 6254 6255 6256 6257 6258 6259 6260 6261 6262 6263 6264 6265 6266 6267 6268 6269 6270 6271 6272 6273 6274 6275 6276 6277 6278 6279 6280 6281 6282 6283 6284 6285 6286 6287 6288 6289 6290 6291 6292 6293 6294 6295 6296 6297 6298 6299 6300 6301 6302 6303 6304 6305 6306 6307 6308 6309 6310 6311 6312 6313 6314 6315 6316 6317 6318 6319 6320 6321 6322 6323 6324 6325 6326 6327 6328 6329 6330 6331 6332 6333 6334 6335 6336 6337 6338 6339 6340 6341 6342 6343 6344 6345 6346 6347 6348 6349 6350 6351 6352 6353 6354 6355 6356 6357 6358 6359 6360 6361 6362 6363 6364 6365 6366 6367 6368 6369 6370 6371 6372 6373 6374 6375 6376 6377 6378 6379 6380 6381 6382 6383 6384 6385 6386 6387 6388 6389 6390 6391 6392 6393 6394 6395 6396 6397 6398 6399 6400 6401 6402 6403 6404 6405 6406 6407 6408 6409 6410 6411 6412 6413 6414 6415 6416 6417 6418 6419 6420 6421 6422 6423 6424 6425 6426 6427 6428 6429 6430 6431 6432 6433 6434 6435 6436 6437 6438 6439 6440 6441 6442 6443 6444 6445 6446 6447 6448 6449 6450 6451 6452 6453 6454 6455 6456 6457 6458 6459 6460 6461 6462 6463 6464 6465 6466 6467 6468 6469 6470 6471 6472 6473 6474 6475 6476 6477 6478 6479 6480 6481 6482 6483 6484 6485 6486 6487 6488 6489 6490 6491 6492 6493 6494 6495 6496 6497 6498 6499 6500 6501 6502 6503 6504 6505 6506 6507 6508 6509 6510 6511 6512 6513 6514 6515 6516 6517 6518 6519 6520 6521 6522 6523 6524 6525 6526 6527 6528 6529 6530 6531 6532 6533 6534 6535 6536 6537 6538 6539 6540 6541 6542 6543 6544 6545 6546 6547 6548 6549 6550 6551 6552 6553 6554 6555 6556 6557 6558 6559 6560 6561 6562 6563 6564 6565 6566 6567 6568 6569 6570 6571 6572 6573 6574 6575 6576 6577 6578 6579 6580 6581 6582 6583 6584 6585 6586 6587 6588 6589 6590 6591 6592 6593 6594 6595 6596 6597 6598 6599 6600 6601 6602 6603 6604 6605 6606 6607 6608 6609 6610 6611 6612 6613 6614 6615 6616 6617 6618 6619 6620 6621 6622 6623 6624 6625 6626 6627 6628 6629 6630 6631 6632 6633 6634 6635 6636 6637 6638 6639 6640 6641 6642 6643 6644 6645 6646 6647 6648 6649 6650 6651 6652 6653 6654 6655 6656 6657 6658 6659 6660 6661 6662 6663 6664 6665 6666 6667 6668 6669 6670 6671 6672 6673 6674 6675 6676 6677 6678 6679 6680 6681 6682 6683 6684 6685 6686 6687 6688 6689 6690 6691 6692 6693 6694 6695 6696 6697 6698 6699 6700 6701 6702 6703 6704 6705 6706 6707 6708 6709 6710 6711 6712 6713 6714 6715 6716 6717 6718 6719 6720 6721 6722 6723 6724 6725 6726 6727 6728 6729 6730 6731 6732 6733 6734 6735 6736 6737 6738 6739 6740 6741 6742 6743 6744 6745 6746 6747 6748 6749 6750 6751 6752 6753 6754 6755 6756 6757 6758 6759 6760 6761 6762 6763 6764 6765 6766 6767 6768 6769 6770 6771 6772 6773 6774 6775 6776 6777 6778 6779 6780 6781 6782 6783 6784 6785 6786 6787 6788 6789 6790 6791 6792 6793 6794 6795 6796 6797 6798 6799 6800 6801 6802 6803 6804 6805 6806 6807 6808 6809 6810 6811 6812 6813 6814 6815 6816 6817 6818 6819 6820 6821 6822 6823 6824 6825 6826 6827 6828 6829 6830 6831 6832 6833 6834 6835 6836 6837 6838 6839 6840 6841 6842 6843 6844 6845 6846 6847 6848 6849 6850 6851 6852 6853 6854 6855 6856 6857 6858 6859 6860 6861 6862 6863 6864 6865 6866 6867 6868 6869 6870 6871 6872 6873 6874 6875 6876 6877 6878 6879 6880 6881 6882 6883 6884 6885 6886 6887 6888 6889 6890 6891 6892 6893 6894 6895 6896 6897 6898 6899 6900 6901 6902 6903 6904 6905 6906 6907 6908 6909 6910 6911 6912 6913 6914 6915 6916 6917 6918 6919 6920 6921 6922 6923 6924 6925 6926 6927 6928 6929 6930 6931 6932 6933 6934 6935 6936 6937 6938 6939 6940 6941 6942 6943 6944 6945 6946 6947 6948 6949 6950 6951 6952 6953 6954 6955 6956 6957 6958 6959 6960 6961 6962 6963 6964 6965 6966 6967 6968 6969 6970 6971 6972 6973 6974 6975 6976 6977 6978 6979 6980 6981 6982 6983 6984 6985 6986 6987 6988 6989 6990 6991 6992 6993 6994 6995 6996 6997 6998 6999 7000 7001 7002 7003 7004 7005 7006 7007 7008 7009 7010 7011 7012 7013 7014 7015 7016 7017 7018 7019 7020 7021 7022 7023 7024 7025 7026 7027 7028 7029 7030 7031 7032 7033 7034 7035 7036 7037 7038 7039 7040 7041 7042 7043 7044 7045 7046 7047 7048 7049 7050 7051 7052 7053 7054 7055 7056 7057 7058 7059 7060 7061 7062 7063 7064 7065 7066 7067 7068 7069 7070 7071 7072 7073 7074 7075 7076 7077 7078 7079 7080 7081 7082 7083 7084 7085 7086 7087 7088 7089 7090 7091 7092 7093 7094 7095 7096 7097 7098 7099 7100 7101 7102 7103 7104 7105 7106 7107 7108 7109 7110 7111 7112 7113 7114 7115 7116 7117 7118 7119 7120 7121 7122 7123 7124 7125 7126 7127 7128 7129 7130 7131 7132 7133 7134 7135 7136 7137 7138 7139 7140 7141 7142 7143 7144 7145 7146 7147 7148 7149 7150 7151 7152 7153 7154 7155 7156 7157 7158 7159 7160 7161 7162 7163 7164 7165 7166 7167 7168 7169 7170 7171 7172 7173 7174 7175 7176 7177 7178 7179 7180 7181 7182 7183 7184 7185 7186 7187 7188 7189 7190 7191 7192 7193 7194 7195 7196 7197 7198 7199 7200 7201 7202 7203 7204 7205 7206 7207 7208 7209 7210 7211 7212 7213 7214 7215 7216 7217 7218 7219 7220 7221 7222 7223 7224 7225 7226 7227 7228 7229 7230 7231 7232 7233 7234 7235 7236 7237 7238 7239 7240 7241 7242 7243 7244 7245 7246 7247 7248 7249 7250 7251 7252 7253 7254 7255 7256 7257 7258 7259 7260 7261 7262 7263 7264 7265 7266 7267 7268 7269 7270 7271 7272 7273 7274 7275 7276 7277 7278 7279 7280 7281 7282 7283 7284 7285 7286 7287 7288 7289 7290 7291 7292 7293 7294 7295 7296 7297 7298 7299 7300 7301 7302 7303 7304 7305 7306 7307 7308 7309 7310 7311 7312 7313 7314 7315 7316 7317 7318 7319 7320 7321 7322 7323 7324 7325 7326 7327 7328 7329 7330 7331 7332 7333 7334 7335 7336 7337 7338 7339 7340 7341 7342 7343 7344 7345 7346 7347 7348 7349 7350 7351 7352 7353 7354 7355 7356 7357 7358 7359 7360 7361 7362 7363 7364 7365 7366 7367 7368 7369 7370 7371 7372 7373 7374 7375 7376 7377 7378 7379 7380 7381 7382 7383 7384 7385 7386 7387 7388 7389 7390 7391 7392 7393 7394 7395 7396 7397 7398 7399 7400 7401 7402 7403 7404 7405 7406 7407 7408 7409 7410 7411 7412 7413 7414 7415 7416 7417 7418 7419 7420 7421 7422 7423 7424 7425 7426 7427 7428 7429 7430 7431 7432 7433 7434 7435 7436 7437 7438 7439 7440 7441 7442 7443 7444 7445 7446 7447 7448 7449 7450 7451 7452 7453 7454 7455 7456 7457 7458 7459 7460 7461 7462 7463 7464 7465 7466 7467 7468 7469 7470 7471 7472 7473 7474 7475 7476 7477 7478 7479 7480 7481 7482 7483 7484 7485 7486 7487 7488 7489 7490 7491 7492 7493 7494 7495 7496 7497 7498 7499 7500 7501 7502 7503 7504 7505 7506 7507 7508 7509 7510 7511 7512 7513 7514 7515 7516 7517 7518 7519 7520 7521 7522 7523 7524 7525 7526 7527 7528 7529 7530 7531 7532 7533 7534 7535 7536 7537 7538 7539 7540 7541 7542 7543 7544 7545 7546 7547 7548 7549 7550 7551 7552 7553 7554 7555 7556 7557 7558 7559 7560 7561 7562 7563 7564 7565 7566 7567 7568 7569 7570 7571 7572 7573 7574 7575 7576 7577 7578 7579 7580 7581 7582 7583 7584 7585 7586 7587 7588 7589 7590 7591 7592 7593 7594 7595 7596 7597 7598 7599 7600 7601 7602 7603 7604 7605 7606 7607 7608 7609 7610 7611 7612 7613 7614 7615 7616 7617 7618 7619 7620 7621 7622 7623 7624 7625 7626 7627 7628 7629 7630 7631 7632 7633 7634 7635 7636 7637 7638 7639 7640 7641 7642 7643 7644 7645 7646 7647 7648 7649 7650 7651 7652 7653 7654 7655 7656 7657 7658 7659 7660 7661 7662 7663 7664 7665 7666 7667 7668 7669 7670 7671 7672 7673 7674 7675 7676 7677 7678 7679 7680 7681 7682 7683 7684 7685 7686 7687 7688 7689 7690 7691 7692 7693 7694 7695 7696 7697 7698 7699 7700 7701 7702 7703 7704 7705 7706 7707 7708 7709 7710 7711 7712 7713 7714 7715 7716 7717 7718 7719 7720 7721 7722 7723 7724 7725 7726 7727 7728 7729 7730 7731 7732 7733 7734 7735 7736 7737 7738 7739 7740 7741 7742 7743 7744 7745 7746 7747 7748 7749 7750 7751 7752 7753 7754 7755 7756 7757 7758 7759 7760 7761 7762 7763 7764 7765 7766 7767 7768 7769 7770 7771 7772 7773 7774 7775 7776 7777 7778 7779 7780 7781 7782 7783 7784 7785 7786 7787 7788 7789 7790 7791 7792 7793 7794 7795 7796 7797 7798 7799 7800 7801 7802 7803 7804 7805 7806 7807 7808 7809 7810 7811 7812 7813 7814 7815 7816 7817 7818 7819 7820 7821 7822 7823 7824 7825 7826 7827 7828 7829 7830 7831 7832 7833 7834 7835 7836 7837 7838 7839 7840 7841 7842 7843 7844 7845 7846 7847 7848 7849 7850 7851 7852 7853 7854 7855 7856 7857 7858 7859 7860 7861 7862 7863 7864 7865 7866 7867 7868 7869 7870 7871 7872 7873 7874 7875 7876 7877 7878 7879 7880 7881 7882 7883 7884 7885 7886 7887 7888 7889 7890 7891 7892 7893 7894 7895 7896 7897 7898 7899 7900 7901 7902 7903 7904 7905 7906 7907 7908 7909 7910 7911 7912 7913 7914 7915 7916 7917 7918 7919 7920 7921 7922 7923 7924 7925 7926 7927 7928 7929 7930 7931 7932 7933 7934 7935 7936 7937 7938 7939 7940 7941 7942 7943 7944 7945 7946 7947 7948 7949 7950 7951 7952 7953 7954 7955 7956 7957 7958 7959 7960 7961 7962 7963 7964 7965 7966 7967 7968 7969 7970 7971 7972 7973 7974 7975 7976 7977 7978 7979 7980 7981 7982 7983 7984 7985 7986 7987 7988 7989 7990 7991 7992 7993 7994 7995 7996 7997 7998 7999 8000 8001 8002 8003 8004 8005 8006 8007 8008 8009 8010 8011 8012 8013 8014 8015 8016 8017 8018 8019 8020 8021 8022 8023 8024 8025 8026 8027 8028 8029 8030 8031 8032 8033 8034 8035 8036 8037 8038 8039 8040 8041 8042 8043 8044 8045 8046 8047 8048 8049 8050 8051 8052 8053 8054 8055 8056 8057 8058 8059 8060 8061 8062 8063 8064 8065 8066 8067 8068 8069 8070 8071 8072 8073 8074 8075 8076 8077 8078 8079 8080 8081 8082 8083 8084 8085 8086 8087 8088 8089 8090 8091 8092 8093 8094 8095 8096 8097 8098 8099 8100 8101 8102 8103 8104 8105 8106 8107 8108 8109 8110 8111 8112 8113 8114 8115 8116 8117 8118 8119 8120 8121 8122 8123 8124 8125 8126 8127 8128 8129 8130 8131 8132 8133 8134 8135 8136 8137 8138 8139 8140 8141 8142 8143 8144 8145 8146 8147 8148 8149 8150 8151 8152 8153 8154 8155 8156 8157 8158 8159 8160 8161 8162 8163 8164 8165 8166 8167 8168 8169 8170 8171 8172 8173 8174 8175 8176 8177 8178 8179 8180 8181 8182 8183 8184 8185 8186 8187 8188 8189 8190 8191 8192 8193 8194 8195 8196 8197 8198 8199 8200 8201 8202 8203 8204 8205 8206 8207 8208 8209 8210 8211 8212 8213 8214 8215 8216 8217 8218 8219 8220 8221 8222 8223 8224 8225 8226 8227 8228 8229 8230 8231 8232 8233 8234 8235 8236 8237 8238 8239 8240 8241 8242 8243 8244 8245 8246 8247 8248 8249 8250 8251 8252 8253 8254 8255 8256 8257 8258 8259 8260 8261 8262 8263 8264 8265 8266 8267 8268 8269 8270 8271 8272 8273 8274 8275 8276 8277 8278 8279 8280 8281 8282 8283 8284 8285 8286 8287 8288 8289 8290 8291 8292 8293 8294 8295 8296 8297 8298 8299 8300 8301 8302 8303 8304 8305 8306 8307 8308 8309 8310 8311 8312 8313 8314 8315 8316 8317 8318 8319 8320 8321 8322 8323 8324 8325 8326 8327 8328 8329 8330 8331 8332 8333 8334 8335 8336 8337 8338 8339 8340 8341 8342 8343 8344 8345 8346 8347 8348 8349 8350 8351 8352 8353 8354 8355 8356 8357 8358 8359 8360 8361 8362 8363 8364 8365 8366 8367 8368 8369 8370 8371 8372 8373 8374 8375 8376 8377 8378 8379 8380 8381 8382 8383 8384 8385 8386 8387 8388 8389 8390 8391 8392 8393 8394 8395 8396 8397 8398 8399 8400 8401 8402 8403 8404 8405 8406 8407 8408 8409 8410 8411 8412 8413 8414 8415 8416 8417 8418 8419 8420 8421 8422 8423 8424 8425 8426 8427 8428 8429 8430 8431 8432 8433 8434 8435 8436 8437 8438 8439 8440 8441 8442 8443 8444 8445 8446 8447 8448 8449 8450 8451 8452 8453 8454 8455 8456 8457 8458 8459 8460 8461 8462 8463 8464 8465 8466 8467 8468 8469 8470 8471 8472 8473 8474 8475 8476 8477 8478 8479 8480 8481 8482 8483 8484 8485 8486 8487 8488 8489 8490 8491 8492 8493 8494 8495 8496 8497 8498 8499 8500 8501 8502 8503 8504 8505 8506 8507 8508 8509 8510 8511 8512 8513 8514 8515 8516 8517 8518 8519 8520 8521 8522 8523 8524 8525 8526 8527 8528 8529 8530 8531 8532 8533 8534 8535 8536 8537 8538 8539 8540 8541 8542 8543 8544 8545 8546 8547 8548 8549 8550 8551 8552 8553 8554 8555 8556 8557 8558 8559 8560 8561 8562 8563 8564 8565 8566 8567 8568 8569 8570 8571 8572 8573 8574 8575 8576 8577 8578 8579 8580 8581 8582 8583 8584 8585 8586 8587 8588 8589 8590 8591 8592 8593 8594 8595 8596 8597 8598 8599 8600 8601 8602 8603 8604 8605 8606 8607 8608 8609 8610 8611 8612 8613 8614 8615 8616 8617 8618 8619 8620 8621 8622 8623 8624 8625 8626 8627 8628 8629 8630 8631 8632 8633 8634 8635 8636 8637 8638 8639 8640 8641 8642 8643 8644 8645 8646 8647 8648 8649 8650 8651 8652 8653 8654 8655 8656 8657 8658 8659 8660 8661 8662 8663 8664 8665 8666 8667 8668 8669 8670 8671 8672 8673 8674 8675 8676 8677 8678 8679 8680 8681 8682 8683 8684 8685 8686 8687 8688 8689 8690 8691 8692 8693 8694 8695 8696 8697 8698 8699 8700 8701 8702 8703 8704 8705 8706 8707 8708 8709 8710 8711 8712 8713 8714 8715 8716 8717 8718 8719 8720 8721 8722 8723 8724 8725 8726 8727 8728 8729 8730 8731 8732 8733 8734 8735 8736 8737 8738 8739 8740 8741 8742 8743 8744 8745 8746 8747 8748 8749 8750 8751 8752 8753 8754 8755 8756 8757 8758 8759 8760 8761 8762 8763 8764 8765 8766 8767 8768 8769 8770 8771 8772 8773 8774 8775 8776 8777 8778 8779 8780 8781 8782 8783 8784 8785 8786 8787 8788 8789 8790 8791 8792 8793 8794 8795 8796 8797 8798 8799 8800 8801 8802 8803 8804 8805 8806 8807 8808 8809 8810 8811 8812 8813 8814 8815 8816 8817 8818 8819 8820 8821 8822 8823 8824 8825 8826 8827 8828 8829 8830 8831 8832 8833 8834 8835 8836 8837 8838 8839 8840 8841 8842 8843 8844 8845 8846 8847 8848 8849 8850 8851 8852 8853 8854 8855 8856 8857 8858 8859 8860 8861 8862 8863 8864 8865 8866 8867 8868 8869 8870 8871 8872 8873 8874 8875 8876 8877 8878 8879 8880 8881 8882 8883 8884 8885 8886 8887 8888 8889 8890 8891 8892 8893 8894 8895 8896 8897 8898 8899 8900 8901 8902 8903 8904 8905 8906 8907 8908 8909 8910 8911 8912 8913 8914 8915 8916 8917 8918 8919 8920 8921 8922 8923 8924 8925 8926 8927 8928 8929 8930 8931 8932 8933 8934 8935 8936 8937 8938 8939 8940 8941 8942 8943 8944 8945 8946 8947 8948 8949 8950 8951 8952 8953 8954 8955 8956 8957 8958 8959 8960 8961 8962 8963 8964 8965 8966 8967 8968 8969 8970 8971 8972 8973 8974 8975 8976 8977 8978 8979 8980 8981 8982 8983 8984 8985 8986 8987 8988 8989 8990 8991 8992 8993 8994 8995 8996 8997 8998 8999 9000 9001 9002 9003 9004 9005 9006 9007 9008 9009 9010 9011 9012 9013 9014 9015 9016 9017 9018 9019 9020 9021 9022 9023 9024 9025 9026 9027 9028 9029 9030 9031 9032 9033 9034 9035 9036 9037 9038 9039 9040 9041 9042 9043 9044 9045 9046 9047 9048 9049 9050 9051 9052 9053 9054 9055 9056 9057 9058 9059 9060 9061 9062 9063 9064 9065 9066 9067 9068 9069 9070 9071 9072 9073 9074 9075 9076 9077 9078 9079 9080 9081 9082 9083 9084 9085 9086 9087 9088 9089 9090 9091 9092 9093 9094 9095 9096 9097 9098 9099 9100 9101 9102 9103 9104 9105 9106 9107 9108 9109 9110 9111 9112 9113 9114 9115 9116 9117 9118 9119 9120 9121 9122 9123 9124 9125 9126 9127 9128 9129 9130 9131 9132 9133 9134 9135 9136 9137 9138 9139 9140 9141 9142 9143 9144 9145 9146 9147 9148 9149 9150 9151 9152 9153 9154 9155 9156 9157 9158 9159 9160 9161 9162 9163 9164 9165 9166 9167 9168 9169 9170 9171 9172 9173 9174 9175 9176 9177 9178 9179 9180 9181 9182 9183 9184 9185 9186 9187 9188 9189 9190 9191 9192 9193 9194 9195 9196 9197 9198 9199 9200 9201 9202 9203 9204 9205 9206 9207 9208 9209 9210 9211 9212 9213 9214 9215 9216 9217 9218 9219 9220 9221 9222 9223 9224 9225 9226 9227 9228 9229 9230 9231 9232 9233 9234 9235 9236 9237 9238 9239 9240 9241 9242 9243 9244 9245 9246 9247 9248 9249 9250 9251 9252 9253 9254 9255 9256 9257 9258 9259 9260 9261 9262 9263 9264 9265 9266 9267 9268 9269 9270 9271 9272 9273 9274 9275 9276 9277 9278 9279 9280 9281 9282 9283 9284 9285 9286 9287 9288 9289 9290 9291 9292 9293 9294 9295 9296 9297 9298 9299 9300 9301 9302 9303 9304 9305 9306 9307 9308 9309 9310 9311 9312 9313 9314 9315 9316 9317 9318 9319 9320 9321 9322 9323 9324 9325 9326 9327 9328 9329 9330 9331 9332 9333 9334 9335 9336 9337 9338 9339 9340 9341 9342 9343 9344 9345 9346 9347 9348 9349 9350 9351 9352 9353 9354 9355 9356 9357 9358 9359 9360 9361 9362 9363 9364 9365 9366 9367 9368 9369 9370 9371 9372 9373 9374 9375 9376 9377 9378 9379 9380 9381 9382 9383 9384 9385 9386 9387 9388 9389 9390 9391 9392 9393 9394 9395 9396 9397 9398 9399 9400 9401 9402 9403 9404 9405 9406 9407 9408 9409 9410 9411 9412 9413 9414 9415 9416 9417 9418 9419 9420 9421 9422 9423 9424 9425 9426 9427 9428 9429 9430 9431 9432 9433 9434 9435 9436 9437 9438 9439 9440 9441 9442 9443 9444 9445 9446 9447 9448 9449 9450 9451 9452 9453 9454 9455 9456 9457 9458 9459 9460 9461 9462 9463 9464 9465 9466 9467 9468 9469 9470 9471 9472 9473 9474 9475 9476 9477 9478 9479 9480 9481 9482 9483 9484 9485 9486 9487 9488 9489 9490 9491 9492 9493 9494 9495 9496 9497 9498 9499 9500 9501 9502 9503 9504 9505 9506 9507 9508 9509 9510 9511 9512 9513 9514 9515 9516 9517 9518 9519 9520 9521 9522 9523 9524 9525 9526 9527 9528 9529 9530 9531 9532 9533 9534 9535 9536 9537 9538 9539 9540 9541 9542 9543 9544 9545 9546 9547 9548 9549 9550 9551 9552 9553 9554 9555 9556 9557 9558 9559 9560 9561 9562 9563 9564 9565 9566 9567 9568 9569 9570 9571 9572 9573 9574 9575 9576 9577 9578 9579 9580 9581 9582 9583 9584 9585 9586 9587 9588 9589 9590 9591 9592 9593 9594 9595 9596 9597 9598 9599 9600 9601 9602 9603 9604 9605 9606 9607 9608 9609 9610 9611 9612 9613 9614 9615 9616 9617 9618 9619 9620 9621 9622 9623 9624 9625 9626 9627 9628 9629 9630 9631 9632 9633 9634 9635 9636 9637 9638 9639 9640 9641 9642 9643 9644 9645 9646 9647 9648 9649 9650 9651 9652 9653 9654 9655 9656 9657 9658 9659 9660 9661 9662 9663 9664 9665 9666 9667 9668 9669 9670 9671 9672 9673 9674 9675 9676 9677 9678 9679 9680 9681 9682 9683 9684 9685 9686 9687 9688 9689 9690 9691 9692 9693 9694 9695 9696 9697 9698 9699 9700 9701 9702 9703 9704 9705 9706 9707 9708 9709 9710 9711 9712 9713 9714 9715 9716 9717 9718 9719 9720 9721 9722 9723 9724 9725 9726 9727 9728 9729 9730 9731 9732 9733 9734 9735 9736 9737 9738 9739 9740 9741 9742 9743 9744 9745 9746 9747 9748 9749 9750 9751 9752 9753 9754 9755 9756 9757 9758 9759 9760 9761 9762 9763 9764 9765 9766 9767 9768 9769 9770 9771 9772 9773 9774 9775 9776 9777 9778 9779 9780 9781 9782 9783 9784 9785 9786 9787 9788 9789 9790 9791 9792 9793 9794 9795 9796 9797 9798 9799 9800 9801 9802 9803 9804 9805 9806 9807 9808 9809 9810 9811 9812 9813 9814 9815 9816 9817 9818 9819 9820 9821 9822 9823 9824 9825 9826 9827 9828 9829 9830 9831 9832 9833 9834 9835 9836 9837 9838 9839 9840 9841 9842 9843 9844 9845 9846 9847 9848 9849 9850 9851 9852 9853 9854 9855 9856 9857 9858 9859 9860 9861 9862 9863 9864 9865 9866 9867 9868 9869 9870 9871 9872 9873 9874 9875 9876 9877 9878 9879 9880 9881 9882 9883 9884 9885 9886 9887 9888 9889 9890 9891 9892 9893 9894 9895 9896 9897 9898 9899 9900 9901 9902 9903 9904 9905 9906 9907 9908 9909 9910 9911 9912 9913 9914 9915 9916 9917 9918 9919 9920 9921 9922 9923 9924 9925 9926 9927 9928 9929 9930 9931 9932 9933 9934 9935 9936 9937 9938 9939 9940 9941 9942 9943 9944 9945 9946 9947 9948 9949 9950 9951 9952 9953 9954 9955 9956 9957 9958 9959 9960 9961 9962 9963 9964 9965 9966 9967 9968 9969 9970 9971 9972 9973 9974 9975 9976 9977 9978 9979 9980 9981 9982 9983 9984 9985 9986 9987 9988 9989 9990 9991 9992 9993 9994 9995 9996 9997 9998 9999 10000 10001 10002 10003 10004 10005 10006 10007 10008 10009 10010 10011 10012 10013 10014 10015 10016 10017 10018 10019 10020 10021 10022 10023 10024 10025 10026 10027 10028 10029 10030 10031 10032 10033 10034 10035 10036 10037 10038 10039 10040 10041 10042 10043 10044 10045 10046 10047 10048 10049 10050 10051 10052 10053 10054 10055 10056 10057 10058 10059 10060 10061 10062 10063 10064 10065 10066 10067 10068 10069 10070 10071 10072 10073 10074 10075 10076 10077 10078 10079 10080 10081 10082 10083 10084 10085 10086 10087 10088 10089 10090 10091 10092 10093 10094 10095 10096 10097 10098 10099 10100 10101 10102 10103 10104 10105 10106 10107 10108 10109 10110 10111 10112 10113 10114 10115 10116 10117 10118 10119 10120 10121 10122 10123 10124 10125 10126 10127 10128 10129 10130 10131 10132 10133 10134 10135 10136 10137 10138 10139 10140 10141 10142 10143 10144 10145 10146 10147 10148 10149 10150 10151 10152 10153 10154 10155 10156 10157 10158 10159 10160 10161 10162 10163 10164 10165 10166 10167 10168 10169 10170 10171 10172 10173 10174 10175 10176 10177 10178 10179 10180 10181 10182 10183 10184 10185 10186 10187 10188 10189 10190 10191 10192 10193 10194 10195 10196 10197 10198 10199 10200 10201 10202 10203 10204 10205 10206 10207 10208 10209 10210 10211 10212 10213 10214 10215 10216 10217 10218 10219 10220 10221 10222 10223 10224 10225 10226 10227 10228 10229 10230 10231 10232 10233 10234 10235 10236 10237 10238 10239 10240 10241 10242 10243 10244 10245 10246 10247 10248 10249 10250 10251 10252 10253 10254 10255 10256 10257 10258 10259 10260 10261 10262 10263 10264 10265 10266 10267 10268 10269 10270 10271 10272 10273 10274 10275 10276 10277 10278 10279 10280 10281 10282 10283 10284 10285 10286 10287 10288 10289 10290 10291 10292 10293 10294 10295 10296 10297 10298 10299 10300 10301 10302 10303 10304 10305 10306 10307 10308 10309 10310 10311 10312 10313 10314 10315 10316 10317 10318 10319 10320 10321 10322 10323 10324 10325 10326 10327 10328 10329 10330 10331 10332 10333 10334 10335 10336 10337 10338 10339 10340 10341 10342 10343 10344 10345 10346 10347 10348 10349 10350 10351 10352 10353 10354 10355 10356 10357 10358 10359 10360 10361 10362 10363 10364 10365 10366 10367 10368 10369 10370 10371 10372 10373 10374 10375 10376 10377 10378 10379 10380 10381 10382 10383 10384 10385 10386 10387 10388 10389 10390 10391 10392 10393 10394 10395 10396 10397 10398 10399 10400 10401 10402 10403 10404 10405 10406 10407 10408 10409 10410 10411 10412 10413 10414 10415 10416 10417 10418 10419 10420 10421 10422 10423 10424 10425 10426 10427 10428 10429 10430 10431 10432 10433 10434 10435 10436 10437 10438 10439 10440 10441 10442 10443 10444 10445 10446 10447 10448 10449 10450 10451 10452 10453 10454 10455 10456 10457 10458 10459 10460 10461 10462 10463 10464 10465 10466 10467 10468 10469 10470 10471 10472 10473 10474 10475 10476 10477 10478 10479 10480 10481 10482 10483 10484 10485 10486 10487 10488 10489 10490 10491 10492 10493 10494 10495 10496 10497 10498 10499 10500 10501 10502 10503 10504 10505 10506 10507 10508 10509 10510 10511 10512 10513 10514 10515 10516 10517 10518 10519 10520 10521 10522 10523 10524 10525 10526 10527 10528 10529 10530 10531 10532 10533 10534 10535 10536 10537 10538 10539 10540 10541 10542 10543 10544 10545 10546 10547 10548 10549 10550 10551 10552 10553 10554 10555 10556 10557 10558 10559 10560 10561 10562 10563 10564 10565 10566 10567 10568 10569 10570 10571 10572 10573 10574 10575 10576 10577 10578 10579 10580 10581 10582 10583 10584 10585 10586 10587 10588 10589 10590 10591 10592 10593 10594 10595 10596 10597 10598 10599 10600 10601 10602 10603 10604 10605 10606 10607 10608 10609 10610 10611 10612 10613 10614 10615 10616 10617 10618 10619 10620 10621 10622 10623 10624 10625 10626 10627 10628 10629 10630 10631 10632 10633 10634 10635 10636 10637 10638 10639 10640 10641 10642 10643 10644 10645 10646 10647 10648 10649 10650 10651 10652 10653 10654 10655 10656 10657 10658 10659 10660 10661 10662 10663 10664 10665 10666 10667 10668 10669 10670 10671 10672 10673 10674 10675 10676 10677 10678 10679 10680 10681 10682 10683 10684 10685 10686 10687 10688 10689 10690 10691 10692 10693 10694 10695 10696 10697 10698 10699 10700 10701 10702 10703 10704 10705 10706 10707 10708 10709 10710 10711 10712 10713 10714 10715 10716 10717 10718 10719 10720 10721 10722 10723 10724 10725 10726 10727 10728 10729 10730 10731 10732 10733 10734 10735 10736 10737 10738 10739 10740 10741 10742 10743 10744 10745 10746 10747 10748 10749 10750 10751 10752 10753 10754 10755 10756 10757 10758 10759 10760 10761 10762 10763 10764 10765 10766 10767 10768 10769 10770 10771 10772 10773 10774 10775 10776 10777 10778 10779 10780 10781 10782 10783 10784 10785 10786 10787 10788 10789 10790 10791 10792 10793 10794 10795 10796 10797 10798 10799 10800 10801 10802 10803 10804 10805 10806 10807 10808 10809 10810 10811 10812 10813 10814 10815 10816 10817 10818 10819 10820 10821 10822 10823 10824 10825 10826 10827 10828 10829 10830 10831 10832 10833 10834 10835 10836 10837 10838 10839 10840 10841 10842 10843 10844 10845 10846 10847 10848 10849 10850 10851 10852 10853 10854 10855 10856 10857 10858 10859 10860 10861 10862 10863 10864 10865 10866 10867 10868 10869 10870 10871 10872 10873 10874 10875 10876 10877 10878 10879 10880 10881 10882 10883 10884 10885 10886 10887 10888 10889 10890 10891 10892 10893 10894 10895 10896 10897 10898 10899 10900 10901 10902 10903 10904 10905 10906 10907 10908 10909 10910 10911 10912 10913 10914 10915 10916 10917 10918 10919 10920 10921 10922 10923 10924 10925 10926 10927 10928 10929 10930 10931 10932 10933 10934 10935 10936 10937 10938 10939 10940 10941 10942 10943 10944 10945 10946 10947 10948 10949 10950 10951 10952 10953 10954 10955 10956 10957 10958 10959 10960 10961 10962 10963 10964 10965 10966 10967 10968 10969 10970 10971 10972 10973 10974 10975 10976 10977 10978 10979 10980 10981 10982 10983 10984 10985 10986 10987 10988 10989 10990 10991 10992 10993 10994 10995 10996 10997 10998 10999 11000 11001 11002 11003 11004 11005 11006 11007 11008 11009 11010 11011 11012 11013 11014 11015 11016 11017 11018 11019 11020 11021 11022 11023 11024 11025 11026 11027 11028 11029 11030 11031 11032 11033 11034 11035 11036 11037 11038 11039 11040 11041 11042 11043 11044 11045 11046 11047 11048 11049 11050 11051 11052 11053 11054 11055 11056 11057 11058 11059 11060 11061 11062 11063 11064 11065 11066 11067 11068 11069 11070 11071 11072 11073 11074 11075 11076 11077 11078 11079 11080 11081 11082 11083 11084 11085 11086 11087 11088 11089 11090 11091 11092 11093 11094 11095 11096 11097 11098 11099 11100 11101 11102 11103 11104 11105 11106 11107 11108 11109 11110 11111 11112 11113 11114 11115 11116 11117 11118 11119 11120 11121 11122 11123 11124 11125 11126 11127 11128 11129 11130 11131 11132 11133 11134 11135 11136 11137 11138 11139 11140 11141 11142 11143 11144 11145 11146 11147 11148 11149 11150 11151 11152 11153 11154 11155 11156 11157 11158 11159 11160 11161 11162 11163 11164 11165 11166 11167 11168 11169 11170 11171 11172 11173 11174 11175 11176 11177 11178 11179 11180 11181 11182 11183 11184 11185 11186 11187 11188 11189 11190 11191 11192 11193 11194 11195 11196 11197 11198 11199 11200 11201 11202 11203 11204 11205 11206 11207 11208 11209 11210 11211 11212 11213 11214 11215 11216 11217 11218 11219 11220 11221 11222 11223 11224 11225 11226 11227 11228 11229 11230 11231 11232 11233 11234 11235 11236 11237 11238 11239 11240 11241 11242 11243 11244 11245 11246 11247 11248 11249 11250 11251 11252 11253 11254 11255 11256 11257 11258 11259 11260 11261 11262 11263 11264 11265 11266 11267 11268 11269 11270 11271 11272 11273 11274 11275 11276 11277 11278 11279 11280 11281 11282 11283 11284 11285 11286 11287 11288 11289 11290 11291 11292 11293 11294 11295 11296 11297 11298 11299 11300 11301 11302 11303 11304 11305 11306 11307 11308 11309 11310 11311 11312 11313 11314 11315 11316 11317 11318 11319 11320 11321 11322 11323 11324 11325 11326 11327 11328 11329 11330 11331 11332 11333 11334 11335 11336 11337 11338 11339 11340 11341 11342 11343 11344 11345 11346 11347 11348 11349 11350 11351 11352 11353 11354 11355 11356 11357 11358 11359 11360 11361 11362 11363 11364 11365 11366 11367 11368 11369 11370 11371 11372 11373 11374 11375 11376 11377 11378 11379 11380 11381 11382 11383 11384 11385 11386 11387 11388 11389 11390 11391 11392 11393 11394 11395 11396 11397 11398 11399 11400 11401 11402 11403 11404 11405 11406 11407 11408 11409 11410 11411 11412 11413 11414 11415 11416 11417 11418 11419 11420 11421 11422 11423 11424 11425 11426 11427 11428 11429 11430 11431 11432 11433 11434 11435 11436 11437 11438 11439 11440 11441 11442 11443 11444 11445 11446 11447 11448 11449 11450 11451 11452 11453 11454 11455 11456 11457 11458 11459 11460 11461 11462 11463 11464 11465 11466 11467 11468 11469 11470 11471 11472 11473 11474 11475 11476 11477 11478 11479 11480 11481 11482 11483 11484 11485 11486 11487 11488 11489 11490 11491 11492 11493 11494 11495 11496 11497 11498 11499 11500 11501 11502 11503 11504 11505 11506 11507 11508 11509 11510 11511 11512 11513 11514 11515 11516 11517 11518 11519 11520 11521 11522 11523 11524 11525 11526 11527 11528 11529 11530 11531 11532 11533 11534 11535 11536 11537 11538 11539 11540 11541 11542 11543 11544 11545 11546 11547 11548 11549 11550 11551 11552 11553 11554 11555 11556 11557 11558 11559 11560 11561 11562 11563 11564 11565 11566 11567 11568 11569 11570 11571 11572 11573 11574 11575 11576 11577 11578 11579 11580 11581 11582 11583 11584 11585 11586 11587 11588 11589 11590 11591 11592 11593 11594 11595 11596 11597 11598 11599 11600 11601 11602 11603 11604 11605 11606 11607 11608 11609 11610 11611 11612 11613 11614 11615 11616 11617 11618 11619 11620 11621 11622 11623 11624 11625 11626 11627 11628 11629 11630 11631 11632 11633 11634 11635 11636 11637 11638 11639 11640 11641 11642 11643 11644 11645 11646 11647 11648 11649 11650 11651 11652 11653 11654 11655 11656 11657 11658 11659 11660 11661 11662 11663 11664 11665 11666 11667 11668 11669 11670 11671 11672 11673 11674 11675 11676 11677 11678 11679 11680 11681 11682 11683 11684 11685 11686 11687 11688 11689 11690 11691 11692 11693 11694 11695 11696 11697 11698 11699 11700 11701 11702 11703 11704 11705 11706 11707 11708 11709 11710 11711 11712 11713 11714 11715 11716 11717 11718 11719 11720 11721 11722 11723 11724 11725 11726 11727 11728 11729 11730 11731 11732 11733 11734 11735 11736 11737 11738 11739 11740 11741 11742 11743 11744 11745 11746 11747 11748 11749 11750 11751 11752 11753 11754 11755 11756 11757 11758 11759 11760 11761 11762 11763 11764 11765 11766 11767 11768 11769 11770 11771 11772 11773 11774 11775 11776 11777 11778 11779 11780 11781 11782 11783 11784 11785 11786 11787 11788 11789 11790 11791 11792 11793 11794 11795 11796 11797 11798 11799 11800 11801 11802 11803 11804 11805 11806 11807 11808 11809 11810 11811 11812 11813 11814 11815 11816 11817 11818 11819 11820 11821 11822 11823 11824 11825 11826 11827 11828 11829 11830 11831 11832 11833 11834 11835 11836 11837 11838 11839 11840 11841 11842 11843 11844 11845 11846 11847 11848 11849 11850 11851 11852 11853 11854 11855 11856 11857 11858 11859 11860 11861 11862 11863 11864 11865 11866 11867 11868 11869 11870 11871 11872 11873 11874 11875 11876 11877 11878 11879 11880 11881 11882 11883 11884 11885 11886 11887 11888 11889 11890 11891 11892 11893 11894 11895 11896 11897 11898 11899 11900 11901 11902 11903 11904 11905 11906 11907 11908 11909 11910 11911 11912 11913 11914 11915 11916 11917 11918 11919 11920 11921 11922 11923 11924 11925 11926 11927 11928 11929 11930 11931 11932 11933 11934 11935 11936 11937 11938 11939 11940 11941 11942 11943 11944 11945 11946 11947 11948 11949 11950 11951 11952 11953 11954 11955 11956 11957 11958 11959 11960 11961 11962 11963 11964 11965 11966 11967 11968 11969 11970 11971 11972 11973 11974 11975 11976 11977 11978 11979 11980 11981 11982 11983 11984 11985 11986 11987 11988 11989 11990 11991 11992 11993 11994 11995 11996 11997 11998 11999 12000 12001 12002 12003 12004 12005 12006 12007 12008 12009 12010 12011 12012 12013 12014 12015 12016 12017 12018 12019 12020 12021 12022 12023 12024 12025 12026 12027 12028 12029 12030 12031 12032 12033 12034 12035 12036 12037 12038 12039 12040 12041 12042 12043 12044 12045 12046 12047 12048 12049 12050 12051 12052 12053 12054 12055 12056 12057 12058 12059 12060 12061 12062 12063 12064 12065 12066 12067 12068 12069 12070 12071 12072 12073 12074 12075 12076 12077 12078 12079 12080 12081 12082 12083 12084 12085 12086 12087 12088 12089 12090 12091 12092 12093 12094 12095 12096 12097 12098 12099 12100 12101 12102 12103 12104 12105 12106 12107 12108 12109 12110 12111 12112 12113 12114 12115 12116 12117 12118 12119 12120 12121 12122 12123 12124 12125 12126 12127 12128 12129 12130 12131 12132 12133 12134 12135 12136 12137 12138 12139 12140 12141 12142 12143 12144 12145 12146 12147 12148 12149 12150 12151 12152 12153 12154 12155 12156 12157 12158 12159 12160 12161 12162 12163 12164 12165 12166 12167 12168 12169 12170 12171 12172 12173 12174 12175 12176 12177 12178 12179 12180 12181 12182 12183 12184 12185 12186 12187 12188 12189 12190 12191 12192 12193 12194 12195 12196 12197 12198 12199 12200 12201 12202 12203 12204 12205 12206 12207 12208 12209 12210 12211 12212 12213 12214 12215 12216 12217 12218 12219 12220 12221 12222 12223 12224 12225 12226 12227 12228 12229 12230 12231 12232 12233 12234 12235 12236 12237 12238 12239 12240 12241 12242 12243 12244 12245 12246 12247 12248 12249 12250 12251 12252 12253 12254 12255 12256 12257 12258 12259 12260 12261 12262 12263 12264 12265 12266 12267 12268 12269 12270 12271 12272 12273 12274 12275 12276 12277 12278 12279 12280 12281 12282 12283 12284 12285 12286 12287 12288 12289 12290 12291 12292 12293 12294 12295 12296 12297 12298 12299 12300 12301 12302 12303 12304 12305 12306 12307 12308 12309 12310 12311 12312 12313 12314 12315 12316 12317 12318 12319 12320 12321 12322 12323 12324 12325 12326 12327 12328 12329 12330 12331 12332 12333 12334 12335 12336 12337 12338 12339 12340 12341 12342 12343 12344 12345 12346 12347 12348 12349 12350 12351 12352 12353 12354 12355 12356 12357 12358 12359 12360 12361 12362 12363 12364 12365 12366 12367 12368 12369 12370 12371 12372 12373 12374 12375 12376 12377 12378 12379 12380 12381 12382 12383 12384 12385 12386 12387 12388 12389 12390 12391 12392 12393 12394 12395 12396 12397 12398 12399 12400 12401 12402 12403 12404 12405 12406 12407 12408 12409 12410 12411 12412 12413 12414 12415 12416 12417 12418 12419 12420 12421 12422 12423 12424 12425 12426 12427 12428 12429 12430 12431 12432 12433 12434 12435 12436 12437 12438 12439 12440 12441 12442 12443 12444 12445 12446 12447 12448 12449 12450 12451 12452 12453 12454 12455 12456 12457 12458 12459 12460 12461 12462 12463 12464 12465 12466 12467 12468 12469 12470 12471 12472 12473 12474 12475 12476 12477 12478 12479 12480 12481 12482 12483 12484 12485 12486 12487 12488 12489 12490 12491 12492 12493 12494 12495 12496 12497 12498 12499 12500 12501 12502 12503 12504 12505 12506 12507 12508 12509 12510 12511 12512 12513 12514 12515 12516 12517 12518 12519 12520 12521 12522 12523 12524 12525 12526 12527 12528 12529 12530 12531 12532 12533 12534 12535 12536 12537 12538 12539 12540 12541 12542 12543 12544 12545 12546 12547 12548 12549 12550 12551 12552 12553 12554 12555 12556 12557 12558 12559 12560 12561 12562 12563 12564 12565 12566 12567 12568 12569 12570 12571 12572 12573 12574 12575 12576 12577 12578 12579 12580 12581 12582 12583 12584 12585 12586 12587 12588 12589 12590 12591 12592 12593 12594 12595 12596 12597 12598 12599 12600 12601 12602 12603 12604 12605 12606 12607 12608 12609 12610 12611 12612 12613 12614 12615 12616 12617 12618 12619 12620 12621 12622 12623 12624 12625 12626 12627 12628 12629 12630 12631 12632 12633 12634 12635 12636 12637 12638 12639 12640 12641 12642 12643 12644 12645 12646 12647 12648 12649 12650 12651 12652 12653 12654 12655 12656 12657 12658 12659 12660 12661 12662 12663 12664 12665 12666 12667 12668 12669 12670 12671 12672 12673 12674 12675 12676 12677 12678 12679 12680 12681 12682 12683 12684 12685 12686 12687 12688 12689 12690 12691 12692 12693 12694 12695 12696 12697 12698 12699 12700 12701 12702 12703 12704 12705 12706 12707 12708 12709 12710 12711 12712 12713 12714 12715 12716 12717 12718 12719 12720 12721 12722 12723 12724 12725 12726 12727 12728 12729 12730 12731 12732 12733 12734 12735 12736 12737 12738 12739 12740 12741 12742 12743 12744 12745 12746 12747 12748 12749 12750 12751 12752 12753 12754 12755 12756 12757 12758 12759 12760 12761 12762 12763 12764 12765 12766 12767 12768 12769 12770 12771 12772 12773 12774 12775 12776 12777 12778 12779 12780 12781 12782 12783 12784 12785 12786 12787 12788 12789 12790 12791 12792 12793 12794 12795 12796 12797 12798 12799 12800 12801 12802 12803 12804 12805 12806 12807 12808 12809 12810 12811 12812 12813 12814 12815 12816 12817 12818 12819 12820 12821 12822 12823 12824 12825 12826 12827 12828 12829 12830 12831 12832 12833 12834 12835 12836 12837 12838 12839 12840 12841 12842 12843 12844 12845 12846 12847 12848 12849 12850 12851 12852 12853 12854 12855 12856 12857 12858 12859 12860 12861 12862 12863 12864 12865 12866 12867 12868 12869 12870 12871 12872 12873 12874 12875 12876 12877 12878 12879 12880 12881 12882 12883 12884 12885 12886 12887 12888 12889 12890 12891 12892 12893 12894 12895 12896 12897 12898 12899 12900 12901 12902 12903 12904 12905 12906 12907 12908 12909 12910 12911 12912 12913 12914 12915 12916 12917 12918 12919 12920 12921 12922 12923 12924 12925 12926 12927 12928 12929 12930 12931 12932 12933 12934 12935 12936 12937 12938 12939 12940 12941 12942 12943 12944 12945 12946 12947 12948 12949 12950 12951 12952 12953 12954 12955 12956 12957 12958 12959 12960 12961 12962 12963 12964 12965 12966 12967 12968 12969 12970 12971 12972 12973 12974 12975 12976 12977 12978 12979 12980 12981 12982 12983 12984 12985 12986 12987 12988 12989 12990 12991 12992 12993 12994 12995 12996 12997 12998 12999 13000 13001 13002 13003 13004 13005 13006 13007 13008 13009 13010 13011 13012 13013 13014 13015 13016 13017 13018 13019 13020 13021 13022 13023 13024 13025 13026 13027 13028 13029 13030 13031 13032 13033 13034 13035 13036 13037 13038 13039 13040 13041 13042 13043 13044 13045 13046 13047 13048 13049 13050 13051 13052 13053 13054 13055 13056 13057 13058 13059 13060 13061 13062 13063 13064 13065 13066 13067 13068 13069 13070 13071 13072 13073 13074 13075 13076 13077 13078 13079 13080 13081 13082 13083 13084 13085 13086 13087 13088 13089 13090 13091 13092 13093 13094 13095 13096 13097 13098 13099 13100 13101 13102 13103 13104 13105 13106 13107 13108 13109 13110 13111 13112 13113 13114 13115 13116 13117 13118 13119 13120 13121 13122 13123 13124 13125 13126 13127 13128 13129 13130 13131 13132 13133 13134 13135 13136 13137 13138 13139 13140 13141 13142 13143 13144 13145 13146 13147 13148 13149 13150 13151 13152 13153 13154 13155 13156 13157 13158 13159 13160 13161 13162 13163 13164 13165 13166 13167 13168 13169 13170 13171 13172 13173 13174 13175 13176 13177 13178 13179 13180 13181 13182 13183 13184 13185 13186 13187 13188 13189 13190 13191 13192 13193 13194 13195 13196 13197 13198 13199 13200 13201 13202 13203 13204 13205 13206 13207 13208 13209 13210 13211 13212 13213 13214 13215 13216 13217 13218 13219 13220 13221 13222 13223 13224 13225 13226 13227 13228 13229 13230 13231 13232 13233 13234 13235 13236 13237 13238 13239 13240 13241 13242 13243 13244 13245 13246 13247 13248 13249 13250 13251 13252 13253 13254 13255 13256 13257 13258 13259 13260 13261 13262 13263 13264 13265 13266 13267 13268 13269 13270 13271 13272 13273 13274 13275 13276 13277 13278 13279 13280 13281 13282 13283 13284 13285 13286 13287 13288 13289 13290 13291 13292 13293 13294 13295 13296 13297 13298 13299 13300 13301 13302 13303 13304 13305 13306 13307 13308 13309 13310 13311 13312 13313 13314 13315 13316 13317 13318 13319 13320 13321 13322 13323 13324 13325 13326 13327 13328 13329 13330 13331 13332 13333 13334 13335 13336 13337 13338 13339 13340 13341 13342 13343 13344 13345 13346 13347 13348 13349 13350 13351 13352 13353 13354 13355 13356 13357 13358 13359 13360 13361 13362 13363 13364 13365 13366 13367 13368 13369 13370 13371 13372 13373 13374 13375 13376 13377 13378 13379 13380 13381 13382 13383 13384 13385 13386 13387 13388 13389 13390 13391 13392 13393 13394 13395 13396 13397 13398 13399 13400 13401 13402 13403 13404 13405 13406 13407 13408 13409 13410 13411 13412 13413 13414 13415 13416 13417 13418 13419 13420 13421 13422 13423 13424 13425 13426 13427 13428 13429 13430 13431 13432 13433 13434 13435 13436 13437 13438 13439 13440 13441 13442 13443 13444 13445 13446 13447 13448 13449 13450 13451 13452 13453 13454 13455 13456 13457 13458 13459 13460 13461 13462 13463 13464 13465 13466 13467 13468 13469 13470 13471 13472 13473 13474 13475 13476 13477 13478 13479 13480 13481 13482 13483 13484 13485 13486 13487 13488 13489 13490 13491 13492 13493 13494 13495 13496 13497 13498 13499 13500 13501 13502 13503 13504 13505 13506 13507 13508 13509 13510 13511 13512 13513 13514 13515 13516 13517 13518 13519 13520 13521 13522 13523 13524 13525 13526 13527 13528 13529 13530 13531 13532 13533 13534 13535 13536 13537 13538 13539 13540 13541 13542 13543 13544 13545 13546 13547 13548 13549 13550 13551 13552 13553 13554 13555 13556 13557 13558 13559 13560 13561 13562 13563 13564 13565 13566 13567 13568 13569 13570 13571 13572 13573 13574 13575 13576 13577 13578 13579 13580 13581 13582 13583 13584 13585 13586 13587 13588 13589 13590 13591 13592 13593 13594 13595 13596 13597 13598 13599 13600 13601 13602 13603 13604 13605 13606 13607 13608 13609 13610 13611 13612 13613 13614 13615 13616 13617 13618 13619 13620 13621 13622 13623 13624 13625 13626 13627 13628 13629 13630 13631 13632 13633 13634 13635 13636 13637 13638 13639 13640 13641 13642 13643 13644 13645 13646 13647 13648 13649 13650 13651 13652 13653 13654 13655 13656 13657 13658 13659 13660 13661 13662 13663 13664 13665 13666 13667 13668 13669 13670 13671 13672 13673 13674 13675 13676 13677 13678 13679 13680 13681 13682 13683 13684 13685 13686 13687 13688 13689 13690 13691 13692 13693 13694 13695 13696 13697 13698 13699 13700 13701 13702 13703 13704 13705 13706 13707 13708 13709 13710 13711 13712 13713 13714 13715 13716 13717 13718 13719 13720 13721 13722 13723 13724 13725 13726 13727 13728 13729 13730 13731 13732 13733 13734 13735 13736 13737 13738 13739 13740 13741 13742 13743 13744 13745 13746 13747 13748 13749 13750 13751 13752 13753 13754 13755 13756 13757 13758 13759 13760 13761 13762 13763 13764 13765 13766 13767 13768 13769 13770 13771 13772 13773 13774 13775 13776 13777 13778 13779 13780 13781 13782 13783 13784 13785 13786 13787 13788 13789 13790 13791 13792 13793 13794 13795 13796 13797 13798 13799 13800 13801 13802 13803 13804 13805 13806 13807 13808 13809 13810 13811 13812 13813 13814 13815 13816 13817 13818 13819 13820 13821 13822 13823 13824 13825 13826 13827 13828 13829 13830 13831 13832 13833 13834 13835 13836 13837 13838 13839 13840 13841 13842 13843 13844 13845 13846 13847 13848 13849 13850 13851 13852 13853 13854 13855 13856 13857 13858 13859 13860 13861 13862 13863 13864 13865 13866 13867 13868 13869 13870 13871 13872 13873 13874 13875 13876 13877 13878 13879 13880 13881 13882 13883 13884 13885 13886 13887 13888 13889 13890 13891 13892 13893 13894 13895 13896 13897 13898 13899 13900 13901 13902 13903 13904 13905 13906 13907 13908 13909 13910 13911 13912 13913 13914 13915 13916 13917 13918 13919 13920 13921 13922 13923 13924 13925 13926 13927 13928 13929 13930 13931 13932 13933 13934 13935 13936 13937 13938 13939 13940 13941 13942 13943 13944 13945 13946 13947 13948 13949 13950 13951 13952 13953 13954 13955 13956 13957 13958 13959 13960 13961 13962 13963 13964 13965 13966 13967 13968 13969 13970 13971 13972 13973 13974 13975 13976 13977 13978 13979 13980 13981 13982 13983 13984 13985 13986 13987 13988 13989 13990 13991 13992 13993 13994 13995 13996 13997 13998 13999 14000 14001 14002 14003 14004 14005 14006 14007 14008 14009 14010 14011 14012 14013 14014 14015 14016 14017 14018 14019 14020 14021 14022 14023 14024 14025 14026 14027 14028 14029 14030 14031 14032 14033 14034 14035 14036 14037 14038 14039 14040 14041 14042 14043 14044 14045 14046 14047 14048 14049 14050 14051 14052 14053 14054 14055 14056 14057 14058 14059 14060 14061 14062 14063 14064 14065 14066 14067 14068 14069 14070 14071 14072 14073 14074 14075 14076 14077 14078 14079 14080 14081 14082 14083 14084 14085 14086 14087 14088 14089 14090 14091 14092 14093 14094 14095 14096 14097 14098 14099 14100 14101 14102 14103 14104 14105 14106 14107 14108 14109 14110 14111 14112 14113 14114 14115 14116 14117 14118 14119 14120 14121 14122 14123 14124 14125 14126 14127 14128 14129 14130 14131 14132 14133 14134 14135 14136 14137 14138 14139 14140 14141 14142 14143 14144 14145 14146 14147 14148 14149 14150 14151 14152 14153 14154 14155 14156 14157 14158 14159 14160 14161 14162 14163 14164 14165 14166 14167 14168 14169 14170 14171 14172 14173 14174 14175 14176 14177 14178 14179 14180 14181 14182 14183 14184 14185 14186 14187 14188 14189 14190 14191 14192 14193 14194 14195 14196 14197 14198 14199 14200 14201 14202 14203 14204 14205 14206 14207 14208 14209 14210 14211 14212 14213 14214 14215 14216 14217 14218 14219 14220 14221 14222 14223 14224 14225 14226 14227 14228 14229 14230 14231 14232 14233 14234 14235 14236 14237 14238 14239 14240 14241 14242 14243 14244 14245 14246 14247 14248 14249 14250 14251 14252 14253 14254 14255 14256 14257 14258 14259 14260 14261 14262 14263 14264 14265 14266 14267 14268 14269 14270 14271 14272 14273 14274 14275 14276 14277 14278 14279 14280 14281 14282 14283 14284 14285 14286 14287 14288 14289 14290 14291 14292 14293 14294 14295 14296 14297 14298 14299 14300 14301 14302 14303 14304 14305 14306 14307 14308 14309 14310 14311 14312 14313 14314 14315 14316 14317 14318 14319 14320 14321 14322 14323 14324 14325 14326 14327 14328 14329 14330 14331 14332 14333 14334 14335 14336 14337 14338 14339 14340 14341 14342 14343 14344 14345 14346 14347 14348 14349 14350 14351 14352 14353 14354 14355 14356 14357 14358 14359 14360 14361 14362 14363 14364 14365 14366 14367 14368 14369 14370 14371 14372 14373 14374 14375 14376 14377 14378 14379 14380 14381 14382 14383 14384 14385 14386 14387 14388 14389 14390 14391 14392 14393 14394 14395 14396 14397 14398 14399 14400 14401 14402 14403 14404 14405 14406 14407 14408 14409 14410 14411 14412 14413 14414 14415 14416 14417 14418 14419 14420 14421 14422 14423 14424 14425 14426 14427 14428 14429 14430 14431 14432 14433 14434 14435 14436 14437 14438 14439 14440 14441 14442 14443 14444 14445 14446 14447 14448 14449 14450 14451 14452 14453 14454 14455 14456 14457 14458 14459 14460 14461 14462 14463 14464 14465 14466 14467 14468 14469 14470 14471 14472 14473 14474 14475 14476 14477 14478 14479 14480 14481 14482 14483 14484 14485 14486 14487 14488 14489 14490 14491 14492 14493 14494 14495 14496 14497 14498 14499 14500 14501 14502 14503 14504 14505 14506 14507 14508 14509 14510 14511 14512 14513 14514 14515 14516 14517 14518 14519 14520 14521 14522 14523 14524 14525 14526 14527 14528 14529 14530 14531 14532 14533 14534 14535 14536 14537 14538 14539 14540 14541 14542 14543 14544 14545 14546 14547 14548 14549 14550 14551 14552 14553 14554 14555 14556 14557 14558 14559 14560 14561 14562 14563 14564 14565 14566 14567 14568 14569 14570 14571 14572 14573 14574 14575 14576 14577 14578 14579 14580 14581 14582 14583 14584 14585 14586 14587 14588 14589 14590 14591 14592 14593 14594 14595 14596 14597 14598 14599 14600 14601 14602 14603 14604 14605 14606 14607 14608 14609 14610 14611 14612 14613 14614 14615 14616 14617 14618 14619 14620 14621 14622 14623 14624 14625 14626 14627 14628 14629 14630 14631 14632 14633 14634 14635 14636 14637 14638 14639 14640 14641 14642 14643 14644 14645 14646 14647 14648 14649 14650 14651 14652 14653 14654 14655 14656 14657 14658 14659 14660 14661 14662 14663 14664 14665 14666 14667 14668 14669 14670 14671 14672 14673 14674 14675 14676 14677 14678 14679 14680 14681 14682 14683 14684 14685 14686 14687 14688 14689 14690 14691 14692 14693 14694 14695 14696 14697 14698 14699 14700 14701 14702 14703 14704 14705 14706 14707 14708 14709 14710 14711 14712 14713 14714 14715 14716 14717 14718 14719 14720 14721 14722 14723 14724 14725 14726 14727 14728 14729 14730 14731 14732 14733 14734 14735 14736 14737 14738 14739 14740 14741 14742 14743 14744 14745 14746 14747 14748 14749 14750 14751 14752 14753 14754 14755 14756 14757 14758 14759 14760 14761 14762 14763 14764 14765 14766 14767 14768 14769 14770 14771 14772 14773 14774 14775 14776 14777 14778 14779 14780 14781 14782 14783 14784 14785 14786 14787 14788 14789 14790 14791 14792 14793 14794 14795 14796 14797 14798 14799 14800 14801 14802 14803 14804 14805 14806 14807 14808 14809 14810 14811 14812 14813 14814 14815 14816 14817 14818 14819 14820 14821 14822 14823 14824 14825 14826 14827 14828 14829 14830 14831 14832 14833 14834 14835 14836 14837 14838 14839 14840 14841 14842 14843 14844 14845 14846 14847 14848 14849 14850 14851 14852 14853 14854 14855 14856 14857 14858 14859 14860 14861 14862 14863 14864 14865 14866 14867 14868 14869 14870 14871 14872 14873 14874 14875 14876 14877 14878 14879 14880 14881 14882 14883 14884 14885 14886 14887 14888 14889 14890 14891 14892 14893 14894 14895 14896 14897 14898 14899 14900 14901 14902 14903 14904 14905 14906 14907 14908 14909 14910 14911 14912 14913 14914 14915 14916 14917 14918 14919 14920 14921 14922 14923 14924 14925 14926 14927 14928 14929 14930 14931 14932 14933 14934 14935 14936 14937 14938 14939 14940 14941 14942 14943 14944 14945 14946 14947 14948 14949 14950 14951 14952 14953 14954 14955 14956 14957 14958 14959 14960 14961 14962 14963 14964 14965 14966 14967 14968 14969 14970 14971 14972 14973 14974 14975 14976 14977 14978 14979 14980 14981 14982 14983 14984 14985 14986 14987 14988 14989 14990 14991 14992 14993 14994 14995 14996 14997 14998 14999 15000 15001 15002 15003 15004 15005 15006 15007 15008 15009 15010 15011 15012 15013 15014 15015 15016 15017 15018 15019 15020 15021 15022 15023 15024 15025 15026 15027 15028 15029 15030 15031 15032 15033 15034 15035 15036 15037 15038 15039 15040 15041 15042 15043 15044 15045 15046 15047 15048 15049 15050 15051 15052 15053 15054 15055 15056 15057 15058 15059 15060 15061 15062 15063 15064 15065 15066 15067 15068 15069 15070 15071 15072 15073 15074 15075 15076 15077 15078 15079 15080 15081 15082 15083 15084 15085 15086 15087 15088 15089 15090 15091 15092 15093 15094 15095 15096 15097 15098 15099 15100 15101 15102 15103 15104 15105 15106 15107 15108 15109 15110 15111 15112 15113 15114 15115 15116 15117 15118 15119 15120 15121 15122 15123 15124 15125 15126 15127 15128 15129 15130 15131 15132 15133 15134 15135 15136 15137 15138 15139 15140 15141 15142 15143 15144 15145 15146 15147 15148 15149 15150 15151 15152 15153 15154 15155 15156 15157 15158 15159 15160 15161 15162 15163 15164 15165 15166 15167 15168 15169 15170 15171 15172 15173 15174 15175 15176 15177 15178 15179 15180 15181 15182 15183 15184 15185 15186 15187 15188 15189 15190 15191 15192 15193 15194 15195 15196 15197 15198 15199 15200 15201 15202 15203 15204 15205 15206 15207 15208 15209 15210 15211 15212 15213 15214 15215 15216 15217 15218 15219 15220 15221 15222 15223 15224 15225 15226 15227 15228 15229 15230 15231 15232 15233 15234 15235 15236 15237 15238 15239 15240 15241 15242 15243 15244 15245 15246 15247 15248 15249 15250 15251 15252 15253 15254 15255 15256 15257 15258 15259 15260 15261 15262 15263 15264 15265 15266 15267 15268 15269 15270 15271 15272 15273 15274 15275 15276 15277 15278 15279 15280 15281 15282 15283 15284 15285 15286 15287 15288 15289 15290 15291 15292 15293 15294 15295 15296 15297 15298 15299 15300 15301 15302 15303 15304 15305 15306 15307 15308 15309 15310 15311 15312 15313 15314 15315 15316 15317 15318 15319 15320 15321 15322 15323 15324 15325 15326 15327 15328 15329 15330 15331 15332 15333 15334 15335 15336 15337 15338 15339 15340 15341 15342 15343 15344 15345 15346 15347 15348 15349 15350 15351 15352 15353 15354 15355 15356 15357 15358 15359 15360 15361 15362 15363 15364 15365 15366 15367 15368 15369 15370 15371 15372 15373 15374 15375 15376 15377 15378 15379 15380 15381 15382 15383 15384 15385 15386 15387 15388 15389 15390 15391 15392 15393 15394 15395 15396 15397 15398 15399 15400 15401 15402 15403 15404 15405 15406 15407 15408 15409 15410 15411 15412 15413 15414 15415 15416 15417 15418 15419 15420 15421 15422 15423 15424 15425 15426 15427 15428 15429 15430 15431 15432 15433 15434 15435 15436 15437 15438 15439 15440 15441 15442 15443 15444 15445 15446 15447 15448 15449 15450 15451 15452 15453 15454 15455 15456 15457 15458 15459 15460 15461 15462 15463 15464 15465 15466 15467 15468 15469 15470 15471 15472 15473 15474 15475 15476 15477 15478 15479 15480 15481 15482 15483 15484 15485 15486 15487 15488 15489 15490 15491 15492 15493 15494 15495 15496 15497 15498 15499 15500 15501 15502 15503 15504 15505 15506 15507 15508 15509 15510 15511 15512 15513 15514 15515 15516 15517 15518 15519 15520 15521 15522 15523 15524 15525 15526 15527 15528 15529 15530 15531 15532 15533 15534 15535 15536 15537 15538 15539 15540 15541 15542 15543 15544 15545 15546 15547 15548 15549 15550 15551 15552 15553 15554 15555 15556 15557 15558 15559 15560 15561 15562 15563 15564 15565 15566 15567 15568 15569 15570 15571 15572 15573 15574 15575 15576 15577 15578 15579 15580 15581 15582 15583 15584 15585 15586 15587 15588 15589 15590 15591 15592 15593 15594 15595 15596 15597 15598 15599 15600 15601 15602 15603 15604 15605 15606 15607 15608 15609 15610 15611 15612 15613 15614 15615 15616 15617 15618 15619 15620 15621 15622 15623 15624 15625 15626 15627 15628 15629 15630 15631 15632 15633 15634 15635 15636 15637 15638 15639 15640 15641 15642 15643 15644 15645 15646 15647 15648 15649 15650 15651 15652 15653 15654 15655 15656 15657 15658 15659 15660 15661 15662 15663 15664 15665 15666 15667 15668 15669 15670 15671 15672 15673 15674 15675 15676 15677 15678 15679 15680 15681 15682 15683 15684 15685 15686 15687 15688 15689 15690 15691 15692 15693 15694 15695 15696 15697 15698 15699 15700 15701 15702 15703 15704 15705 15706 15707 15708 15709 15710 15711 15712 15713 15714 15715 15716 15717 15718 15719 15720 15721 15722 15723 15724 15725 15726 15727 15728 15729 15730 15731 15732 15733 15734 15735 15736 15737 15738 15739 15740 15741 15742 15743 15744 15745 15746 15747 15748 15749 15750 15751 15752 15753 15754 15755 15756 15757 15758 15759 15760 15761 15762 15763 15764 15765 15766 15767 15768 15769 15770 15771 15772 15773 15774 15775 15776 15777 15778 15779 15780 15781 15782 15783 15784 15785 15786 15787 15788 15789 15790 15791 15792 15793 15794 15795 15796 15797 15798 15799 15800 15801 15802 15803 15804 15805 15806 15807 15808 15809 15810 15811 15812 15813 15814 15815 15816 15817 15818 15819 15820 15821 15822 15823 15824 15825 15826 15827 15828 15829 15830 15831 15832 15833 15834 15835 15836 15837 15838 15839 15840 15841 15842 15843 15844 15845 15846 15847 15848 15849 15850 15851 15852 15853 15854 15855 15856 15857 15858 15859 15860 15861 15862 15863 15864 15865 15866 15867 15868 15869 15870 15871 15872 15873 15874 15875 15876 15877 15878 15879 15880 15881 15882 15883 15884 15885 15886 15887 15888 15889 15890 15891 15892 15893 15894 15895 15896 15897 15898 15899 15900 15901 15902 15903 15904 15905 15906 15907 15908 15909 15910 15911 15912 15913 15914 15915 15916 15917 15918 15919 15920 15921 15922 15923 15924 15925 15926 15927 15928 15929 15930 15931 15932 15933 15934 15935 15936 15937 15938 15939 15940 15941 15942 15943 15944 15945 15946 15947 15948 15949 15950 15951 15952 15953 15954 15955 15956 15957 15958 15959 15960 15961 15962 15963 15964 15965 15966 15967 15968 15969 15970 15971 15972 15973 15974 15975 15976 15977 15978 15979 15980 15981 15982 15983 15984 15985 15986 15987 15988 15989 15990 15991 15992 15993 15994 15995 15996 15997 15998 15999 16000 16001 16002 16003 16004 16005 16006 16007 16008 16009 16010 16011 16012 16013 16014 16015 16016 16017 16018 16019 16020 16021 16022 16023 16024 16025 16026 16027 16028 16029 16030 16031 16032 16033 16034 16035 16036 16037 16038 16039 16040 16041 16042 16043 16044 16045 16046 16047 16048 16049 16050 16051 16052 16053 16054 16055 16056 16057 16058 16059 16060 16061 16062 16063 16064 16065 16066 16067 16068 16069 16070 16071 16072 16073 16074 16075 16076 16077 16078 16079 16080 16081 16082 16083 16084 16085 16086 16087 16088 16089 16090 16091 16092 16093 16094 16095 16096 16097 16098 16099 16100 16101 16102 16103 16104 16105 16106 16107 16108 16109 16110 16111 16112 16113 16114 16115 16116 16117 16118 16119 16120 16121 16122 16123 16124 16125 16126 16127 16128 16129 16130 16131 16132 16133 16134 16135 16136 16137 16138 16139 16140 16141 16142 16143 16144 16145 16146 16147 16148 16149 16150 16151 16152 16153 16154 16155 16156 16157 16158 16159 16160 16161 16162 16163 16164 16165 16166 16167 16168 16169 16170 16171 16172 16173 16174 16175 16176 16177 16178 16179 16180 16181 16182 16183 16184 16185 16186 16187 16188 16189 16190 16191 16192 16193 16194 16195 16196 16197 16198 16199 16200 16201 16202 16203 16204 16205 16206 16207 16208 16209 16210 16211 16212 16213 16214 16215 16216 16217 16218 16219 16220 16221 16222 16223 16224 16225 16226 16227 16228 16229 16230 16231 16232 16233 16234 16235 16236 16237 16238 16239 16240 16241 16242 16243 16244 16245 16246 16247 16248 16249 16250 16251 16252 16253 16254 16255 16256 16257 16258 16259 16260 16261 16262 16263 16264 16265 16266 16267 16268 16269 16270 16271 16272 16273 16274 16275 16276 16277 16278 16279 16280 16281 16282 16283 16284 16285 16286 16287 16288 16289 16290 16291 16292 16293 16294 16295 16296 16297 16298 16299 16300 16301 16302 16303 16304 16305 16306 16307 16308 16309 16310 16311 16312 16313 16314 16315 16316 16317 16318 16319 16320 16321 16322 16323 16324 16325 16326 16327 16328 16329 16330 16331 16332 16333 16334 16335 16336 16337 16338 16339 16340 16341 16342 16343 16344 16345 16346 16347 16348 16349 16350 16351 16352 16353 16354 16355 16356 16357 16358 16359 16360 16361 16362 16363 16364 16365 16366 16367 16368 16369 16370 16371 16372 16373 16374 16375 16376 16377 16378 16379 16380 16381 16382 16383 16384 16385 16386 16387 16388 16389 16390 16391 16392 16393 16394 16395 16396 16397 16398 16399 16400 16401 16402 16403 16404 16405 16406 16407 16408 16409 16410 16411 16412 16413 16414 16415 16416 16417 16418 16419 16420 16421 16422 16423 16424 16425 16426 16427 16428 16429 16430 16431 16432 16433 16434 16435 16436 16437 16438 16439 16440 16441 16442 16443 16444 16445 16446 16447 16448 16449 16450 16451 16452 16453 16454 16455 16456 16457 16458 16459 16460 16461 16462 16463 16464 16465 16466 16467 16468 16469 16470 16471 16472 16473 16474 16475 16476 16477 16478 16479 16480 16481 16482 16483 16484 16485 16486 16487 16488 16489 16490 16491 16492 16493 16494 16495 16496 16497 16498 16499 16500 16501 16502 16503 16504 16505 16506 16507 16508 16509 16510 16511 16512 16513 16514 16515 16516 16517 16518 16519 16520 16521 16522 16523 16524 16525 16526 16527 16528 16529 16530 16531 16532 16533 16534 16535 16536 16537 16538 16539 16540 16541 16542 16543 16544 16545 16546 16547 16548 16549 16550 16551 16552 16553 16554 16555 16556 16557 16558 16559 16560 16561 16562 16563 16564 16565 16566 16567 16568 16569 16570 16571 16572 16573 16574 16575 16576 16577 16578 16579 16580 16581 16582 16583 16584 16585 16586 16587 16588 16589 16590 16591 16592 16593 16594 16595 16596 16597 16598 16599 16600 16601 16602 16603 16604 16605 16606 16607 16608 16609 16610 16611 16612 16613 16614 16615 16616 16617 16618 16619 16620 16621 16622 16623 16624 16625 16626 16627 16628 16629 16630 16631 16632 16633 16634 16635 16636 16637 16638 16639 16640 16641 16642 16643 16644 16645 16646 16647 16648 16649 16650 16651 16652 16653 16654 16655 16656 16657 16658 16659 16660 16661 16662 16663 16664 16665 16666 16667 16668 16669 16670 16671 16672 16673 16674 16675 16676 16677 16678 16679 16680 16681 16682 16683 16684 16685 16686 16687 16688 16689 16690 16691 16692 16693 16694 16695 16696 16697 16698 16699 16700 16701 16702 16703 16704 16705 16706 16707 16708 16709 16710 16711 16712 16713 16714 16715 16716 16717 16718 16719 16720 16721 16722 16723 16724 16725 16726 16727 16728 16729 16730 16731 16732 16733 16734 16735 16736 16737 16738 16739 16740 16741 16742 16743 16744 16745 16746 16747 16748 16749 16750 16751 16752 16753 16754 16755 16756 16757 16758 16759 16760 16761 16762 16763 16764 16765 16766 16767 16768 16769 16770 16771 16772 16773 16774 16775 16776 16777 16778 16779 16780 16781 16782 16783 16784 16785 16786 16787 16788 16789 16790 16791 16792 16793 16794 16795 16796 16797 16798 16799 16800 16801 16802 16803 16804 16805 16806 16807 16808 16809 16810 16811 16812 16813 16814 16815 16816 16817 16818 16819 16820 16821 16822 16823 16824 16825 16826 16827 16828 16829 16830 16831 16832 16833 16834 16835 16836 16837 16838 16839 16840 16841 16842 16843 16844 16845 16846 16847 16848 16849 16850 16851 16852 16853 16854 16855 16856 16857 16858 16859 16860 16861 16862 16863 16864 16865 16866 16867 16868 16869 16870 16871 16872 16873 16874 16875 16876 16877 16878 16879 16880 16881 16882 16883 16884 16885 16886 16887 16888 16889 16890 16891 16892 16893 16894 16895 16896 16897 16898 16899 16900 16901 16902 16903 16904 16905 16906 16907 16908 16909 16910 16911 16912 16913 16914 16915 16916 16917 16918 16919 16920 16921 16922 16923 16924 16925 16926 16927 16928 16929 16930 16931 16932 16933 16934 16935 16936 16937 16938 16939 16940 16941 16942 16943 16944 16945 16946 16947 16948 16949 16950 16951 16952 16953 16954 16955 16956 16957 16958 16959 16960 16961 16962 16963 16964 16965 16966 16967 16968 16969 16970 16971 16972 16973 16974 16975 16976 16977 16978 16979 16980 16981 16982 16983 16984 16985 16986 16987 16988 16989 16990 16991 16992 16993 16994 16995 16996 16997 16998 16999 17000 17001 17002 17003 17004 17005 17006 17007 17008 17009 17010 17011 17012 17013 17014 17015 17016 17017 17018 17019 17020 17021 17022 17023 17024 17025 17026 17027 17028 17029 17030 17031 17032 17033 17034 17035 17036 17037 17038 17039 17040 17041 17042 17043 17044 17045 17046 17047 17048 17049 17050 17051 17052 17053 17054 17055 17056 17057 17058 17059 17060 17061 17062 17063 17064 17065 17066 17067 17068 17069 17070 17071 17072 17073 17074 17075 17076 17077 17078 17079 17080 17081 17082 17083 17084 17085 17086 17087 17088 17089 17090 17091 17092 17093 17094 17095 17096 17097 17098 17099 17100 17101 17102 17103 17104 17105 17106 17107 17108 17109 17110 17111 17112 17113 17114 17115 17116 17117 17118 17119 17120 17121 17122 17123 17124 17125 17126 17127 17128 17129 17130 17131 17132 17133 17134 17135 17136 17137 17138 17139 17140 17141 17142 17143 17144 17145 17146 17147 17148 17149 17150 17151 17152 17153 17154 17155 17156 17157 17158 17159 17160 17161 17162 17163 17164 17165 17166 17167 17168 17169 17170 17171 17172 17173 17174 17175 17176 17177 17178 17179 17180 17181 17182 17183 17184 17185 17186 17187 17188 17189 17190 17191 17192 17193 17194 17195 17196 17197 17198 17199 17200 17201 17202 17203 17204 17205 17206 17207 17208 17209 17210 17211 17212 17213 17214 17215 17216 17217 17218 17219 17220 17221 17222 17223 17224 17225 17226 17227 17228 17229 17230 17231 17232 17233 17234 17235 17236 17237 17238 17239 17240 17241 17242 17243 17244 17245 17246 17247 17248 17249 17250 17251 17252 17253 17254 17255 17256 17257 17258 17259 17260 17261 17262 17263 17264 17265 17266 17267 17268 17269 17270 17271 17272 17273 17274 17275 17276 17277 17278 17279 17280 17281 17282 17283 17284 17285 17286 17287 17288 17289 17290 17291 17292 17293 17294 17295 17296 17297 17298 17299 17300 17301 17302 17303 17304 17305 17306 17307 17308 17309 17310 17311 17312 17313 17314 17315 17316 17317 17318 17319 17320 17321 17322 17323 17324 17325 17326 17327 17328 17329 17330 17331 17332 17333 17334 17335 17336 17337 17338 17339 17340 17341 17342 17343 17344 17345 17346 17347 17348 17349 17350 17351 17352 17353 17354 17355 17356 17357 17358 17359 17360 17361 17362 17363 17364 17365 17366 17367 17368 17369 17370 17371 17372 17373 17374 17375 17376 17377 17378 17379 17380 17381 17382 17383 17384 17385 17386 17387 17388 17389 17390 17391 17392 17393 17394 17395 17396 17397 17398 17399 17400 17401 17402 17403 17404 17405 17406 17407 17408 17409 17410 17411 17412 17413 17414 17415 17416 17417 17418 17419 17420 17421 17422 17423 17424 17425 17426 17427 17428 17429 17430 17431 17432 17433 17434 17435 17436 17437 17438 17439 17440 17441 17442 17443 17444 17445 17446 17447 17448 17449 17450 17451 17452 17453 17454 17455 17456 17457 17458 17459 17460 17461 17462 17463 17464 17465 17466 17467 17468 17469 17470 17471 17472 17473 17474 17475 17476 17477 17478 17479 17480 17481 17482 17483 17484 17485 17486 17487 17488 17489 17490 17491 17492 17493 17494 17495 17496 17497 17498 17499 17500 17501 17502 17503 17504 17505 17506 17507 17508 17509 17510 17511 17512 17513 17514 17515 17516 17517 17518 17519 17520 17521 17522 17523 17524 17525 17526 17527 17528 17529 17530 17531 17532 17533 17534 17535 17536 17537 17538 17539 17540 17541 17542 17543 17544 17545 17546 17547 17548 17549 17550 17551 17552 17553 17554 17555 17556 17557 17558 17559 17560 17561 17562 17563 17564 17565 17566 17567 17568 17569 17570 17571 17572 17573 17574 17575 17576 17577 17578 17579 17580 17581 17582 17583 17584 17585 17586 17587 17588 17589 17590 17591 17592 17593 17594 17595 17596 17597 17598 17599 17600 17601 17602 17603 17604 17605 17606 17607 17608 17609 17610 17611 17612 17613 17614 17615 17616 17617 17618 17619 17620 17621 17622 17623 17624 17625 17626 17627 17628 17629 17630 17631 17632 17633 17634 17635 17636 17637 17638 17639 17640 17641 17642 17643 17644 17645 17646 17647 17648 17649 17650 17651 17652 17653 17654 17655 17656 17657 17658 17659 17660 17661 17662 17663 17664 17665 17666 17667 17668 17669 17670 17671 17672 17673 17674 17675 17676 17677 17678 17679 17680 17681 17682 17683 17684 17685 17686 17687 17688 17689 17690 17691 17692 17693 17694 17695 17696 17697 17698 17699 17700 17701 17702 17703 17704 17705 17706 17707 17708 17709 17710 17711 17712 17713 17714 17715 17716 17717 17718 17719 17720 17721 17722 17723 17724 17725 17726 17727 17728 17729 17730 17731 17732 17733 17734 17735 17736 17737 17738 17739 17740 17741 17742 17743 17744 17745 17746 17747 17748 17749 17750 17751 17752 17753 17754 17755 17756 17757 17758 17759 17760 17761 17762 17763 17764 17765 17766 17767 17768 17769 17770 17771 17772 17773 17774 17775 17776 17777 17778 17779 17780 17781 17782 17783 17784 17785 17786 17787 17788 17789 17790 17791 17792 17793 17794 17795 17796 17797 17798 17799 17800 17801 17802 17803 17804 17805 17806 17807 17808 17809 17810 17811 17812 17813 17814 17815 17816 17817 17818 17819 17820 17821 17822 17823 17824 17825 17826 17827 17828 17829 17830 17831 17832 17833 17834 17835 17836 17837 17838 17839 17840 17841 17842 17843 17844 17845 17846 17847 17848 17849 17850 17851 17852 17853 17854 17855 17856 17857 17858 17859 17860 17861 17862 17863 17864 17865 17866 17867 17868 17869 17870 17871 17872 17873 17874 17875 17876 17877 17878 17879 17880 17881 17882 17883 17884 17885 17886 17887 17888 17889 17890 17891 17892 17893 17894 17895 17896 17897 17898 17899 17900 17901 17902 17903 17904 17905 17906 17907 17908 17909 17910 17911 17912 17913 17914 17915 17916 17917 17918 17919 17920 17921 17922 17923 17924 17925 17926 17927 17928 17929 17930 17931 17932 17933 17934 17935 17936 17937 17938 17939 17940 17941 17942 17943 17944 17945 17946 17947 17948 17949 17950 17951 17952 17953 17954 17955 17956 17957 17958 17959 17960 17961 17962 17963 17964 17965 17966 17967 17968 17969 17970 17971 17972 17973 17974 17975 17976 17977 17978 17979 17980 17981 17982 17983 17984 17985 17986 17987 17988 17989 17990 17991 17992 17993 17994 17995 17996 17997 17998 17999 18000 18001 18002 18003 18004 18005 18006 18007 18008 18009 18010 18011 18012 18013 18014 18015 18016 18017 18018 18019 18020 18021 18022 18023 18024 18025 18026 18027 18028 18029 18030 18031 18032 18033 18034 18035 18036 18037 18038 18039 18040 18041 18042 18043 18044 18045 18046 18047 18048 18049 18050 18051 18052 18053 18054 18055 18056 18057 18058 18059 18060 18061 18062 18063 18064 18065 18066 18067 18068 18069 18070 18071 18072 18073 18074 18075 18076 18077 18078 18079 18080 18081 18082 18083 18084 18085 18086 18087 18088 18089 18090 18091 18092 18093 18094 18095 18096 18097 18098 18099 18100 18101 18102 18103 18104 18105 18106 18107 18108 18109 18110 18111 18112 18113 18114 18115 18116 18117 18118 18119 18120 18121 18122 18123 18124 18125 18126 18127 18128 18129 18130 18131 18132 18133 18134 18135 18136 18137 18138 18139 18140 18141 18142 18143 18144 18145 18146 18147 18148 18149 18150 18151 18152 18153 18154 18155 18156 18157 18158 18159 18160 18161 18162 18163 18164 18165 18166 18167 18168 18169 18170 18171 18172 18173 18174 18175 18176 18177 18178 18179 18180 18181 18182 18183 18184 18185 18186 18187 18188 18189 18190 18191 18192 18193 18194 18195 18196 18197 18198 18199 18200 18201 18202 18203 18204 18205 18206 18207 18208 18209 18210 18211 18212 18213 18214 18215 18216 18217 18218 18219 18220 18221 18222 18223 18224 18225 18226 18227 18228 18229 18230 18231 18232 18233 18234 18235 18236 18237 18238 18239 18240 18241 18242 18243 18244 18245 18246 18247 18248 18249 18250 18251 18252 18253 18254 18255 18256 18257 18258 18259 18260 18261 18262 18263 18264 18265 18266 18267 18268 18269 18270 18271 18272 18273 18274 18275 18276 18277 18278 18279 18280 18281 18282 18283 18284 18285 18286 18287 18288 18289 18290 18291 18292 18293 18294 18295 18296 18297 18298 18299 18300 18301 18302 18303 18304 18305 18306 18307 18308 18309 18310 18311 18312 18313 18314 18315 18316 18317 18318 18319 18320 18321 18322 18323 18324 18325 18326 18327 18328 18329 18330 18331 18332 18333 18334 18335 18336 18337 18338 18339 18340 18341 18342 18343 18344 18345 18346 18347 18348 18349 18350 18351 18352 18353 18354 18355 18356 18357 18358 18359 18360 18361 18362 18363 18364 18365 18366 18367 18368 18369 18370 18371 18372 18373 18374 18375 18376 18377 18378 18379 18380 18381 18382 18383 18384 18385 18386 18387 18388 18389 18390 18391 18392 18393 18394 18395 18396 18397 18398 18399 18400 18401 18402 18403 18404 18405 18406 18407 18408 18409 18410 18411 18412 18413 18414 18415 18416 18417 18418 18419 18420 18421 18422 18423 18424 18425 18426 18427 18428 18429 18430 18431 18432 18433 18434 18435 18436 18437 18438 18439 18440 18441 18442 18443 18444 18445 18446 18447 18448 18449 18450 18451 18452 18453 18454 18455 18456 18457 18458 18459 18460 18461 18462 18463 18464 18465 18466 18467 18468 18469 18470 18471 18472 18473 18474 18475 18476 18477 18478 18479 18480 18481 18482 18483 18484 18485 18486 18487 18488 18489 18490 18491 18492 18493 18494 18495 18496 18497 18498 18499 18500 18501 18502 18503 18504 18505 18506 18507 18508 18509 18510 18511 18512 18513 18514 18515 18516 18517 18518 18519 18520 18521 18522 18523 18524 18525 18526 18527 18528 18529 18530 18531 18532 18533 18534 18535 18536 18537 18538 18539 18540 18541 18542 18543 18544 18545 18546 18547 18548 18549 18550 18551 18552 18553 18554 18555 18556 18557 18558 18559 18560 18561 18562 18563 18564 18565 18566 18567 18568 18569 18570 18571 18572 18573 18574 18575 18576 18577 18578 18579 18580 18581 18582 18583 18584 18585 18586 18587 18588 18589 18590 18591 18592 18593 18594 18595 18596 18597 18598 18599 18600 18601 18602 18603 18604 18605 18606 18607 18608 18609 18610 18611 18612 18613 18614 18615 18616 18617 18618 18619 18620 18621 18622 18623 18624 18625 18626 18627 18628 18629 18630 18631 18632 18633 18634 18635 18636 18637 18638 18639 18640 18641 18642 18643 18644 18645 18646 18647 18648 18649 18650 18651 18652 18653 18654 18655 18656 18657 18658 18659 18660 18661 18662 18663 18664 18665 18666 18667 18668 18669 18670 18671 18672 18673 18674 18675 18676 18677 18678 18679 18680 18681 18682 18683 18684 18685 18686 18687 18688 18689 18690 18691 18692 18693 18694 18695 18696 18697 18698 18699 18700 18701 18702 18703 18704 18705 18706 18707 18708 18709 18710 18711 18712 18713 18714 18715 18716 18717 18718 18719 18720 18721 18722 18723 18724 18725 18726 18727 18728 18729 18730 18731 18732 18733 18734 18735 18736 18737 18738 18739 18740 18741 18742 18743 18744 18745 18746 18747 18748 18749 18750 18751 18752 18753 18754 18755 18756 18757 18758 18759 18760 18761 18762 18763 18764 18765 18766 18767 18768 18769 18770 18771 18772 18773 18774 18775 18776 18777 18778 18779 18780 18781 18782 18783 18784 18785 18786 18787 18788 18789 18790 18791 18792 18793 18794 18795 18796 18797 18798 18799 18800 18801 18802 18803 18804 18805 18806 18807 18808 18809 18810 18811 18812 18813 18814 18815 18816 18817 18818 18819 18820 18821 18822 18823 18824 18825 18826 18827 18828 18829 18830 18831 18832 18833 18834 18835 18836 18837 18838 18839 18840 18841 18842 18843 18844 18845 18846 18847 18848 18849 18850 18851 18852 18853 18854 18855 18856 18857 18858 18859 18860 18861 18862 18863 18864 18865 18866 18867 18868 18869 18870 18871 18872 18873 18874 18875 18876 18877 18878 18879 18880 18881 18882 18883 18884 18885 18886 18887 18888 18889 18890 18891 18892 18893 18894 18895 18896 18897 18898 18899 18900 18901 18902 18903 18904 18905 18906 18907 18908 18909 18910 18911 18912 18913 18914 18915 18916 18917 18918 18919 18920 18921 18922 18923 18924 18925 18926 18927 18928 18929 18930 18931 18932 18933 18934 18935 18936 18937 18938 18939 18940 18941 18942 18943 18944 18945 18946 18947 18948 18949 18950 18951 18952 18953 18954 18955 18956 18957 18958 18959 18960 18961 18962 18963 18964 18965 18966 18967 18968 18969 18970 18971 18972 18973 18974 18975 18976 18977 18978 18979 18980 18981 18982 18983 18984 18985 18986 18987 18988 18989 18990 18991 18992 18993 18994 18995 18996 18997 18998 18999 19000 19001 19002 19003 19004 19005 19006 19007 19008 19009 19010 19011 19012 19013 19014 19015 19016 19017 19018 19019 19020 19021 19022 19023 19024 19025 19026 19027 19028 19029 19030 19031 19032 19033 19034 19035 19036 19037 19038 19039 19040 19041 19042 19043 19044 19045 19046 19047 19048 19049 19050 19051 19052 19053 19054 19055 19056 19057 19058 19059 19060 19061 19062 19063 19064 19065 19066 19067 19068 19069 19070 19071 19072 19073 19074 19075 19076 19077 19078 19079 19080 19081 19082 19083 19084 19085 19086 19087 19088 19089 19090 19091 19092 19093 19094 19095 19096 19097 19098 19099 19100 19101 19102 19103 19104 19105 19106 19107 19108 19109 19110 19111 19112 19113 19114 19115 19116 19117 19118 19119 19120 19121 19122 19123 19124 19125 19126 19127 19128 19129 19130 19131 19132 19133 19134 19135 19136 19137 19138 19139 19140 19141 19142 19143 19144 19145 19146 19147 19148 19149 19150 19151 19152 19153 19154 19155 19156 19157 19158 19159 19160 19161 19162 19163 19164 19165 19166 19167 19168 19169 19170 19171 19172 19173 19174 19175 19176 19177 19178 19179 19180 19181 19182 19183 19184 19185 19186 19187 19188 19189 19190 19191 19192 19193 19194 19195 19196 19197 19198 19199 19200 19201 19202 19203 19204 19205 19206 19207 19208 19209 19210 19211 19212 19213 19214 19215 19216 19217 19218 19219 19220 19221 19222 19223 19224 19225 19226 19227 19228 19229 19230 19231 19232 19233 19234 19235 19236 19237 19238 19239 19240 19241 19242 19243 19244 19245 19246 19247 19248 19249 19250 19251 19252 19253 19254 19255 19256 19257 19258 19259 19260 19261 19262 19263 19264 19265 19266 19267 19268 19269 19270 19271 19272 19273 19274 19275 19276 19277 19278 19279 19280 19281 19282 19283 19284 19285 19286 19287 19288 19289 19290 19291 19292 19293 19294 19295 19296 19297 19298 19299 19300 19301 19302 19303 19304 19305 19306 19307 19308 19309 19310 19311 19312 19313 19314 19315 19316 19317 19318 19319 19320 19321 19322 19323 19324 19325 19326 19327 19328 19329 19330 19331 19332 19333 19334 19335 19336 19337 19338 19339 19340 19341 19342 19343 19344 19345 19346 19347 19348 19349 19350 19351 19352 19353 19354 19355 19356 19357 19358 19359 19360 19361 19362 19363 19364 19365 19366 19367 19368 19369 19370 19371 19372 19373 19374 19375 19376 19377 19378 19379 19380 19381 19382 19383 19384 19385 19386 19387 19388 19389 19390 19391 19392 19393 19394 19395 19396 19397 19398 19399 19400 19401 19402 19403 19404 19405 19406 19407 19408 19409 19410 19411 19412 19413 19414 19415 19416 19417 19418 19419 19420 19421 19422 19423 19424 19425 19426 19427 19428 19429 19430 19431 19432 19433 19434 19435 19436 19437 19438 19439 19440 19441 19442 19443 19444 19445 19446 19447 19448 19449 19450 19451 19452 19453 19454 19455 19456 19457 19458 19459 19460 19461 19462 19463 19464 19465 19466 19467 19468 19469 19470 19471 19472 19473 19474 19475 19476 19477 19478 19479 19480 19481 19482 19483 19484 19485 19486 19487 19488 19489 19490 19491 19492 19493 19494 19495 19496 19497 19498 19499 19500 19501 19502 19503 19504 19505 19506 19507 19508 19509 19510 19511 19512 19513 19514 19515 19516 19517 19518 19519 19520 19521 19522 19523 19524 19525 19526 19527 19528 19529 19530 19531 19532 19533 19534 19535 19536 19537 19538 19539 19540 19541 19542 19543 19544 19545 19546 19547 19548 19549 19550 19551 19552 19553 19554 19555 19556 19557 19558 19559 19560 19561 19562 19563 19564 19565 19566 19567 19568 19569 19570 19571 19572 19573 19574 19575 19576 19577 19578 19579 19580 19581 19582 19583 19584 19585 19586 19587 19588 19589 19590 19591 19592 19593 19594 19595 19596 19597 19598 19599 19600 19601 19602 19603 19604 19605 19606 19607 19608 19609 19610 19611 19612 19613 19614 19615 19616 19617 19618 19619 19620 19621 19622 19623 19624 19625 19626 19627 19628 19629 19630 19631 19632 19633 19634 19635 19636 19637 19638 19639 19640 19641 19642 19643 19644 19645 19646 19647 19648 19649 19650 19651 19652 19653 19654 19655 19656 19657 19658 19659 19660 19661 19662 19663 19664 19665 19666 19667 19668 19669 19670 19671 19672 19673 19674 19675 19676 19677 19678 19679 19680 19681 19682 19683 19684 19685 19686 19687 19688 19689 19690 19691 19692 19693 19694 19695 19696 19697 19698 19699 19700 19701 19702 19703 19704 19705 19706 19707 19708 19709 19710 19711 19712 19713 19714 19715 19716 19717 19718 19719 19720 19721 19722 19723 19724 19725 19726 19727 19728 19729 19730 19731 19732 19733 19734 19735 19736 19737 19738 19739 19740 19741 19742 19743 19744 19745 19746 19747 19748 19749 19750 19751 19752 19753 19754 19755 19756 19757 19758 19759 19760 19761 19762 19763 19764 19765 19766 19767 19768 19769 19770 19771 19772 19773 19774 19775 19776 19777 19778 19779 19780 19781 19782 19783 19784 19785 19786 19787 19788 19789 19790 19791 19792 19793 19794 19795 19796 19797 19798 19799 19800 19801 19802 19803 19804 19805 19806 19807 19808 19809 19810 19811 19812 19813 19814 19815 19816 19817 19818 19819 19820 19821 19822 19823 19824 19825 19826 19827 19828 19829 19830 19831 19832 19833 19834 19835 19836 19837 19838 19839 19840 19841 19842 19843 19844 19845 19846 19847 19848 19849 19850 19851 19852 19853 19854 19855 19856 19857 19858 19859 19860 19861 19862 19863 19864 19865 19866 19867 19868 19869 19870 19871 19872 19873 19874 19875 19876 19877 19878 19879 19880 19881 19882 19883 19884 19885 19886 19887 19888 19889 19890 19891 19892 19893 19894 19895 19896 19897 19898 19899 19900 19901 19902 19903 19904 19905 19906 19907 19908 19909 19910 19911 19912 19913 19914 19915 19916 19917 19918 19919 19920 19921 19922 19923 19924 19925 19926 19927 19928 19929 19930 19931 19932 19933 19934 19935 19936 19937 19938 19939 19940 19941 19942 19943 19944 19945 19946 19947 19948 19949 19950 19951 19952 19953 19954 19955 19956 19957 19958 19959 19960 19961 19962 19963 19964 19965 19966 19967 19968 19969 19970 19971 19972 19973 19974 19975 19976 19977 19978 19979 19980 19981 19982 19983 19984 19985 19986 19987 19988 19989 19990 19991 19992 19993 19994 19995 19996 19997 19998 19999 20000 20001 20002 20003 20004 20005 20006 20007 20008 20009 20010 20011 20012 20013 20014 20015 20016 20017 20018 20019 20020 20021 20022 20023 20024 20025 20026 20027 20028 20029 20030 20031 20032 20033 20034 20035 20036 20037 20038 20039 20040 20041 20042 20043 20044 20045 20046 20047 20048 20049 20050 20051 20052 20053 20054 20055 20056 20057 20058 20059 20060 20061 20062 20063 20064 20065 20066 20067 20068 20069 20070 20071 20072 20073 20074 20075 20076 20077 20078 20079 20080 20081 20082 20083 20084 20085 20086 20087 20088 20089 20090 20091 20092 20093 20094 20095 20096 20097 20098 20099 20100 20101 20102 20103 20104 20105 20106 20107 20108 20109 20110 20111 20112 20113 20114 20115 20116 20117 20118 20119 20120 20121 20122 20123 20124 20125 20126 20127 20128 20129 20130 20131 20132 20133 20134 20135 20136 20137 20138 20139 20140 20141 20142 20143 20144 20145 20146 20147 20148 20149 20150 20151 20152 20153 20154 20155 20156 20157 20158 20159 20160 20161 20162 20163 20164 20165 20166 20167 20168 20169 20170 20171 20172 20173 20174 20175 20176 20177 20178 20179 20180 20181 20182 20183 20184 20185 20186 20187 20188 20189 20190 20191 20192 20193 20194 20195 20196 20197 20198 20199 20200 20201 20202 20203 20204 20205 20206 20207 20208 20209 20210 20211 20212 20213 20214 20215 20216 20217 20218 20219 20220 20221 20222 20223 20224 20225 20226 20227 20228 20229 20230 20231 20232 20233 20234 20235 20236 20237 20238 20239 20240 20241 20242 20243 20244 20245 20246 20247 20248 20249 20250 20251 20252 20253 20254 20255 20256 20257 20258 20259 20260 20261 20262 20263 20264 20265 20266 20267 20268 20269 20270 20271 20272 20273 20274 20275 20276 20277 20278 20279 20280 20281 20282 20283 20284 20285 20286 20287 20288 20289 20290 20291 20292 20293 20294 20295 20296 20297 20298 20299 20300 20301 20302 20303 20304 20305 20306 20307 20308 20309 20310 20311 20312 20313 20314 20315 20316 20317 20318 20319 20320 20321 20322 20323 20324 20325 20326 20327 20328 20329 20330 20331 20332 20333 20334 20335 20336 20337 20338 20339 20340 20341 20342 20343 20344 20345 20346 20347 20348 20349 20350 20351 20352 20353 20354 20355 20356 20357 20358 20359 20360 20361 20362 20363 20364 20365 20366 20367 20368 20369 20370 20371 20372 20373 20374 20375 20376 20377 20378 20379 20380 20381 20382 20383 20384 20385 20386 20387 20388 20389 20390 20391 20392 20393 20394 20395 20396 20397 20398 20399 20400 20401 20402 20403 20404 20405 20406 20407 20408 20409 20410 20411 20412 20413 20414 20415 20416 20417 20418 20419 20420 20421 20422 20423 20424 20425 20426 20427 20428 20429 20430 20431 20432 20433 20434 20435 20436 20437 20438 20439 20440 20441 20442 20443 20444 20445 20446 20447 20448 20449 20450 20451 20452 20453 20454 20455 20456 20457 20458 20459 20460 20461 20462 20463 20464 20465 20466 20467 20468 20469 20470 20471 20472 20473 20474 20475 20476 20477 20478 20479 20480 20481 20482 20483 20484 20485 20486 20487 20488 20489 20490 20491 20492 20493 20494 20495 20496 20497 20498 20499 20500 20501 20502 20503 20504 20505 20506 20507 20508 20509 20510 20511 20512 20513 20514 20515 20516 20517 20518 20519 20520 20521 20522 20523 20524 20525 20526 20527 20528 20529 20530 20531 20532 20533 20534 20535 20536 20537 20538 20539 20540 20541 20542 20543 20544 20545 20546 20547 20548 20549 20550 20551 20552 20553 20554 20555 20556 20557 20558 20559 20560 20561 20562 20563 20564 20565 20566 20567 20568 20569 20570 20571 20572 20573 20574 20575 20576 20577 20578 20579 20580 20581 20582 20583 20584 20585 20586 20587 20588 20589 20590 20591 20592 20593 20594 20595 20596 20597 20598 20599 20600 20601 20602 20603 20604 20605 20606 20607 20608 20609 20610 20611 20612 20613 20614 20615 20616 20617 20618 20619 20620 20621 20622 20623 20624 20625 20626 20627 20628 20629 20630 20631 20632 20633 20634 20635 20636 20637 20638 20639 20640 20641 20642 20643 20644 20645 20646 20647 20648 20649 20650 20651 20652 20653 20654 20655 20656 20657 20658 20659 20660 20661 20662 20663 20664 20665 20666 20667 20668 20669 20670 20671 20672 20673 20674 20675 20676 20677 20678 20679 20680 20681 20682 20683 20684 20685 20686 20687 20688 20689 20690 20691 20692 20693 20694 20695 20696 20697 20698 20699 20700 20701 20702 20703 20704 20705 20706 20707 20708 20709 20710 20711 20712 20713 20714 20715 20716 20717 20718 20719 20720 20721 20722 20723 20724 20725 20726 20727 20728 20729 20730 20731 20732 20733 20734 20735 20736 20737 20738 20739 20740 20741 20742 20743 20744 20745 20746 20747 20748 20749 20750 20751 20752 20753 20754 20755 20756 20757 20758 20759 20760 20761 20762 20763 20764 20765 20766 20767 20768 20769 20770 20771 20772 20773 20774 20775 20776 20777 20778 20779 20780 20781 20782 20783 20784 20785 20786 20787 20788 20789 20790 20791 20792 20793 20794 20795 20796 20797 20798 20799 20800 20801 20802 20803 20804 20805 20806 20807 20808 20809 20810 20811 20812 20813 20814 20815 20816 20817 20818 20819 20820 20821 20822 20823 20824 20825 20826 20827 20828 20829 20830 20831 20832 20833 20834 20835 20836 20837 20838 20839 20840 20841 20842 20843 20844 20845 20846 20847 20848 20849 20850 20851 20852 20853 20854 20855 20856 20857 20858 20859 20860 20861 20862 20863 20864 20865 20866 20867 20868 20869 20870 20871 20872 20873 20874 20875 20876 20877 20878 20879 20880 20881 20882 20883 20884 20885 20886 20887 20888 20889 20890 20891 20892 20893 20894 20895 20896 20897 20898 20899 20900 20901 20902 20903 20904 20905 20906 20907 20908 20909 20910 20911 20912 20913 20914 20915 20916 20917 20918 20919 20920 20921 20922 20923 20924 20925 20926 20927 20928 20929 20930 20931 20932 20933 20934 20935 20936 20937 20938 20939 20940 20941 20942 20943 20944 20945 20946 20947 20948 20949 20950 20951 20952 20953 20954 20955 20956 20957 20958 20959 20960 20961 20962 20963 20964 20965 20966 20967 20968 20969 20970 20971 20972 20973 20974 20975 20976 20977 20978 20979 20980 20981 20982 20983 20984 20985 20986 20987 20988 20989 20990 20991 20992 20993 20994 20995 20996 20997 20998 20999 21000 21001 21002 21003 21004 21005 21006 21007 21008 21009 21010 21011 21012 21013 21014 21015 21016 21017 21018 21019 21020 21021 21022 21023 21024 21025 21026 21027 21028 21029 21030 21031 21032 21033 21034 21035 21036 21037 21038 21039 21040 21041 21042 21043 21044 21045 21046 21047 21048 21049 21050 21051 21052 21053 21054 21055 21056 21057 21058 21059 21060 21061 21062 21063 21064 21065 21066 21067 21068 21069 21070 21071 21072 21073 21074 21075 21076 21077 21078 21079 21080 21081 21082 21083 21084 21085 21086 21087 21088 21089 21090 21091 21092 21093 21094 21095 21096 21097 21098 21099 21100 21101 21102 21103 21104 21105 21106 21107 21108 21109 21110 21111 21112 21113 21114 21115 21116 21117 21118 21119 21120 21121 21122 21123 21124 21125 21126 21127 21128 21129 21130 21131 21132 21133 21134 21135 21136 21137 21138 21139 21140 21141 21142 21143 21144 21145 21146 21147 21148 21149 21150 21151 21152 21153 21154 21155 21156 21157 21158 21159 21160 21161 21162 21163 21164 21165 21166 21167 21168 21169 21170 21171 21172 21173 21174 21175 21176 21177 21178 21179 21180 21181 21182 21183 21184 21185 21186 21187 21188 21189 21190 21191 21192 21193 21194 21195 21196 21197 21198 21199 21200 21201 21202 21203 21204 21205 21206 21207 21208 21209 21210 21211 21212 21213 21214 21215 21216 21217 21218 21219 21220 21221 21222 21223 21224 21225 21226 21227 21228 21229 21230 21231 21232 21233 21234 21235 21236 21237 21238 21239 21240 21241 21242 21243 21244 21245 21246 21247 21248 21249 21250 21251 21252 21253 21254 21255 21256 21257 21258 21259 21260 21261 21262 21263 21264 21265 21266 21267 21268 21269 21270 21271 21272 21273 21274 21275 21276 21277 21278 21279 21280 21281 21282 21283 21284 21285 21286 21287 21288 21289 21290 21291 21292 21293 21294 21295 21296 21297 21298 21299 21300 21301 21302 21303 21304 21305 21306 21307 21308 21309 21310 21311 21312 21313 21314 21315 21316 21317 21318 21319 21320 21321 21322 21323 21324 21325 21326 21327 21328 21329 21330 21331 21332 21333 21334 21335 21336 21337 21338 21339 21340 21341 21342 21343 21344 21345 21346 21347 21348 21349 21350 21351 21352 21353 21354 21355 21356 21357 21358 21359 21360 21361 21362 21363 21364 21365 21366 21367 21368 21369 21370 21371 21372 21373 21374 21375 21376 21377 21378 21379 21380 21381 21382 21383 21384 21385 21386 21387 21388 21389 21390 21391 21392 21393 21394 21395 21396 21397 21398 21399 21400 21401 21402 21403 21404 21405 21406 21407 21408 21409 21410 21411 21412 21413 21414 21415 21416 21417 21418 21419 21420 21421 21422 21423 21424 21425 21426 21427 21428 21429 21430 21431 21432 21433 21434 21435 21436 21437 21438 21439 21440 21441 21442 21443 21444 21445 21446 21447 21448 21449 21450 21451 21452 21453 21454 21455 21456 21457 21458 21459 21460 21461 21462 21463 21464 21465 21466 21467 21468 21469 21470 21471 21472 21473 21474 21475 21476 21477 21478 21479 21480 21481 21482 21483 21484 21485 21486 21487 21488 21489 21490 21491 21492 21493 21494 21495 21496 21497 21498 21499 21500 21501 21502 21503 21504 21505 21506 21507 21508 21509 21510 21511 21512 21513 21514 21515 21516 21517 21518 21519 21520 21521 21522 21523 21524 21525 21526 21527 21528 21529 21530 21531 21532 21533 21534 21535 21536 21537 21538 21539 21540 21541 21542 21543 21544 21545 21546 21547 21548 21549 21550 21551 21552 21553 21554 21555 21556 21557 21558 21559 21560 21561 21562 21563 21564 21565 21566 21567 21568 21569 21570 21571 21572 21573 21574 21575 21576 21577 21578 21579 21580 21581 21582 21583 21584 21585 21586 21587 21588 21589 21590 21591 21592 21593 21594 21595 21596 21597 21598 21599 21600 21601 21602 21603 21604 21605 21606 21607 21608 21609 21610 21611 21612 21613 21614 21615 21616 21617 21618 21619 21620 21621 21622 21623 21624 21625 21626 21627 21628 21629 21630 21631 21632 21633 21634 21635 21636 21637 21638 21639 21640 21641 21642 21643 21644 21645 21646 21647 21648 21649 21650 21651 21652 21653 21654 21655 21656 21657 21658 21659 21660 21661 21662 21663 21664 21665 21666 21667 21668 21669 21670 21671 21672 21673 21674 21675 21676 21677 21678 21679 21680 21681 21682 21683 21684 21685 21686 21687 21688 21689 21690 21691 21692 21693 21694 21695 21696 21697 21698 21699 21700 21701 21702 21703 21704 21705 21706 21707 21708 21709 21710 21711 21712 21713 21714 21715 21716 21717 21718 21719 21720 21721 21722 21723 21724 21725 21726 21727 21728 21729 21730 21731 21732 21733 21734 21735 21736 21737 21738 21739 21740 21741 21742 21743 21744 21745 21746 21747 21748 21749 21750 21751 21752 21753 21754 21755 21756 21757 21758 21759 21760 21761 21762 21763 21764 21765 21766 21767 21768 21769 21770 21771 21772 21773 21774 21775 21776 21777 21778 21779 21780 21781 21782 21783 21784 21785 21786 21787 21788 21789 21790 21791 21792 21793 21794 21795 21796 21797 21798 21799 21800 21801 21802 21803 21804 21805 21806 21807 21808 21809 21810 21811 21812 21813 21814 21815 21816 21817 21818 21819 21820 21821 21822 21823 21824 21825 21826 21827 21828 21829 21830 21831 21832 21833 21834 21835 21836 21837 21838 21839 21840 21841 21842 21843 21844 21845 21846 21847 21848 21849 21850 21851 21852 21853 21854 21855 21856 21857 21858 21859 21860 21861 21862 21863 21864 21865 21866 21867 21868 21869 21870 21871 21872 21873 21874 21875 21876 21877 21878 21879 21880 21881 21882 21883 21884 21885 21886 21887 21888 21889 21890 21891 21892 21893 21894 21895 21896 21897 21898 21899 21900 21901 21902 21903 21904 21905 21906 21907 21908 21909 21910 21911 21912 21913 21914 21915 21916 21917 21918 21919 21920 21921 21922 21923 21924 21925 21926 21927 21928 21929 21930 21931 21932 21933 21934 21935 21936 21937 21938 21939 21940 21941 21942 21943 21944 21945 21946 21947 21948 21949 21950 21951 21952 21953 21954 21955 21956 21957 21958 21959 21960 21961 21962 21963 21964 21965 21966 21967 21968 21969 21970 21971 21972 21973 21974 21975 21976 21977 21978 21979 21980 21981 21982 21983 21984 21985 21986 21987 21988 21989 21990 21991 21992 21993 21994 21995 21996 21997 21998 21999 22000 22001 22002 22003 22004 22005 22006 22007 22008 22009 22010 22011 22012 22013 22014 22015 22016 22017 22018 22019 22020 22021 22022 22023 22024 22025 22026 22027 22028 22029 22030 22031 22032 22033 22034 22035 22036 22037 22038 22039 22040 22041 22042 22043 22044 22045 22046 22047 22048 22049 22050 22051 22052 22053 22054 22055 22056 22057 22058 22059 22060 22061 22062 22063 22064 22065 22066 22067 22068 22069 22070 22071 22072 22073 22074 22075 22076 22077 22078 22079 22080 22081 22082 22083 22084 22085 22086 22087 22088 22089 22090 22091 22092 22093 22094 22095 22096 22097 22098 22099 22100 22101 22102 22103 22104 22105 22106 22107 22108 22109 22110 22111 22112 22113 22114 22115 22116 22117 22118 22119 22120 22121 22122 22123 22124 22125 22126 22127 22128 22129 22130 22131 22132 22133 22134 22135 22136 22137 22138 22139 22140 22141 22142 22143 22144 22145 22146 22147 22148 22149 22150 22151 22152 22153 22154 22155 22156 22157 22158 22159 22160 22161 22162 22163 22164 22165 22166 22167 22168 22169 22170 22171 22172 22173 22174 22175 22176 22177 22178 22179 22180 22181 22182 22183 22184 22185 22186 22187 22188 22189 22190 22191 22192 22193 22194 22195 22196 22197 22198 22199 22200 22201 22202 22203 22204 22205 22206 22207 22208 22209 22210 22211 22212 22213 22214 22215 22216 22217 22218 22219 22220 22221 22222 22223 22224 22225 22226 22227 22228 22229 22230 22231 22232 22233 22234 22235 22236 22237 22238 22239 22240 22241 22242 22243 22244 22245 22246 22247 22248 22249 22250 22251 22252 22253 22254 22255 22256 22257 22258 22259 22260 22261 22262 22263 22264 22265 22266 22267 22268 22269 22270 22271 22272 22273 22274 22275 22276 22277 22278 22279 22280 22281 22282 22283 22284 22285 22286 22287 22288 22289 22290 22291 22292 22293 22294 22295 22296 22297 22298 22299 22300 22301 22302 22303 22304 22305 22306 22307 22308 22309 22310 22311 22312 22313 22314 22315 22316 22317 22318 22319 22320 22321 22322 22323 22324 22325 22326 22327 22328 22329 22330 22331 22332 22333 22334 22335 22336 22337 22338 22339 22340 22341 22342 22343 22344 22345 22346 22347 22348 22349 22350 22351 22352 22353 22354 22355 22356 22357 22358 22359 22360 22361 22362 22363 22364 22365 22366 22367 22368 22369 22370 22371 22372 22373 22374 22375 22376 22377 22378 22379 22380 22381 22382 22383 22384 22385 22386 22387 22388 22389 22390 22391 22392 22393 22394 22395 22396 22397 22398 22399 22400 22401 22402 22403 22404 22405 22406 22407 22408 22409 22410 22411 22412 22413 22414 22415 22416 22417 22418 22419 22420 22421 22422 22423 22424 22425 22426 22427 22428 22429 22430 22431 22432 22433 22434 22435 22436 22437 22438 22439 22440 22441 22442 22443 22444 22445 22446 22447 22448 22449 22450 22451 22452 22453 22454 22455 22456 22457 22458 22459 22460 22461 22462 22463 22464 22465 22466 22467 22468 22469 22470 22471 22472 22473 22474 22475 22476 22477 22478 22479 22480 22481 22482 22483 22484 22485 22486 22487 22488 22489 22490 22491 22492 22493 22494 22495 22496 22497 22498 22499 22500 22501 22502 22503 22504 22505 22506 22507 22508 22509 22510 22511 22512 22513 22514 22515 22516 22517 22518 22519 22520 22521 22522 22523 22524 22525 22526 22527 22528 22529 22530 22531 22532 22533 22534 22535 22536 22537 22538 22539 22540 22541 22542 22543 22544 22545 22546 22547 22548 22549 22550 22551 22552 22553 22554 22555 22556 22557 22558 22559 22560 22561 22562 22563 22564 22565 22566 22567 22568 22569 22570 22571 22572 22573 22574 22575 22576 22577 22578 22579 22580 22581 22582 22583 22584 22585 22586 22587 22588 22589 22590 22591 22592 22593 22594 22595 22596 22597 22598 22599 22600 22601 22602 22603 22604 22605 22606 22607 22608 22609 22610 22611 22612 22613 22614 22615 22616 22617 22618 22619 22620 22621 22622 22623 22624 22625 22626 22627 22628 22629 22630 22631 22632 22633 22634 22635 22636 22637 22638 22639 22640 22641 22642 22643 22644 22645 22646 22647 22648 22649 22650 22651 22652 22653 22654 22655 22656 22657 22658 22659 22660 22661 22662 22663 22664 22665 22666 22667 22668 22669 22670 22671 22672 22673 22674 22675 22676 22677 22678 22679 22680 22681 22682 22683 22684 22685 22686 22687 22688 22689 22690 22691 22692 22693 22694 22695 22696 22697 22698 22699 22700 22701 22702 22703 22704 22705 22706 22707 22708 22709 22710 22711 22712 22713 22714 22715 22716 22717 22718 22719 22720 22721 22722 22723 22724 22725 22726 22727 22728 22729 22730 22731 22732 22733 22734 22735 22736 22737 22738 22739 22740 22741 22742 22743 22744 22745 22746 22747 22748 22749 22750 22751 22752 22753 22754 22755 22756 22757 22758 22759 22760 22761 22762 22763 22764 22765 22766 22767 22768 22769 22770 22771 22772 22773 22774 22775 22776 22777 22778 22779 22780 22781 22782 22783 22784 22785 22786 22787 22788 22789 22790 22791 22792 22793 22794 22795 22796 22797 22798 22799 22800 22801 22802 22803 22804 22805 22806 22807 22808 22809 22810 22811 22812 22813 22814 22815 22816 22817 22818 22819 22820 22821 22822 22823 22824 22825 22826 22827 22828 22829 22830 22831 22832 22833 22834 22835 22836 22837 22838 22839 22840 22841 22842 22843 22844 22845 22846 22847 22848 22849 22850 22851 22852 22853 22854 22855 22856 22857 22858 22859 22860 22861 22862 22863 22864 22865 22866 22867 22868 22869 22870 22871 22872 22873 22874 22875 22876 22877 22878 22879 22880 22881 22882 22883 22884 22885 22886 22887 22888 22889 22890 22891 22892 22893 22894 22895 22896 22897 22898 22899 22900 22901 22902 22903 22904 22905 22906 22907 22908 22909 22910 22911 22912 22913 22914 22915 22916 22917 22918 22919 22920 22921 22922 22923 22924 22925 22926 22927 22928 22929 22930 22931 22932 22933 22934 22935 22936 22937 22938 22939 22940 22941 22942 22943 22944 22945 22946 22947 22948 22949 22950 22951 22952 22953 22954 22955 22956 22957 22958 22959 22960 22961 22962 22963 22964 22965 22966 22967 22968 22969 22970 22971 22972 22973 22974 22975 22976 22977 22978 22979 22980 22981 22982 22983 22984 22985 22986 22987 22988 22989 22990 22991 22992 22993 22994 22995 22996 22997 22998 22999 23000 23001 23002 23003 23004 23005 23006 23007 23008 23009 23010 23011 23012 23013 23014 23015 23016 23017 23018 23019 23020 23021 23022 23023 23024 23025 23026 23027 23028 23029 23030 23031 23032 23033 23034 23035 23036 23037 23038 23039 23040 23041 23042 23043 23044 23045 23046 23047 23048 23049 23050 23051 23052 23053 23054 23055 23056 23057 23058 23059 23060 23061 23062 23063 23064 23065 23066 23067 23068 23069 23070 23071 23072 23073 23074 23075 23076 23077 23078 23079 23080 23081 23082 23083 23084 23085 23086 23087 23088 23089 23090 23091 23092 23093 23094 23095 23096 23097 23098 23099 23100 23101 23102 23103 23104 23105 23106 23107 23108 23109 23110 23111 23112 23113 23114 23115 23116 23117 23118 23119 23120 23121 23122 23123 23124 23125 23126 23127 23128 23129 23130 23131 23132 23133 23134 23135 23136 23137 23138 23139 23140 23141 23142 23143 23144 23145 23146 23147 23148 23149 23150 23151 23152 23153 23154 23155 23156 23157 23158 23159 23160 23161 23162 23163 23164 23165 23166 23167 23168 23169 23170 23171 23172 23173 23174 23175 23176 23177 23178 23179 23180 23181 23182 23183 23184 23185 23186 23187 23188 23189 23190 23191 23192 23193 23194 23195 23196 23197 23198 23199 23200 23201 23202 23203 23204 23205 23206 23207 23208 23209 23210 23211 23212 23213 23214 23215 23216 23217 23218 23219 23220 23221 23222 23223 23224 23225 23226 23227 23228 23229 23230 23231 23232 23233 23234 23235 23236 23237 23238 23239 23240 23241 23242 23243 23244 23245 23246 23247 23248 23249 23250 23251 23252 23253 23254 23255 23256 23257 23258 23259 23260 23261 23262 23263 23264 23265 23266 23267 23268 23269 23270 23271 23272 23273 23274 23275 23276 23277 23278 23279 23280 23281 23282 23283 23284 23285 23286 23287 23288 23289 23290 23291 23292 23293 23294 23295 23296 23297 23298 23299 23300 23301 23302 23303 23304 23305 23306 23307 23308 23309 23310 23311 23312 23313 23314 23315 23316 23317 23318 23319 23320 23321 23322 23323 23324 23325 23326 23327 23328 23329 23330 23331 23332 23333 23334 23335 23336 23337 23338 23339 23340 23341 23342 23343 23344 23345 23346 23347 23348 23349 23350 23351 23352 23353 23354 23355 23356 23357 23358 23359 23360 23361 23362 23363 23364 23365 23366 23367 23368 23369 23370 23371 23372 23373 23374 23375 23376 23377 23378 23379 23380 23381 23382 23383 23384 23385 23386 23387 23388 23389 23390 23391 23392 23393 23394 23395 23396 23397 23398 23399 23400 23401 23402 23403 23404 23405 23406 23407 23408 23409 23410 23411 23412 23413 23414 23415 23416 23417 23418 23419 23420 23421 23422 23423 23424 23425 23426 23427 23428 23429 23430 23431 23432 23433 23434 23435 23436 23437 23438 23439 23440 23441 23442 23443 23444 23445 23446 23447 23448 23449 23450 23451 23452 23453 23454 23455 23456 23457 23458 23459 23460 23461 23462 23463 23464 23465 23466 23467 23468 23469 23470 23471 23472 23473 23474 23475 23476 23477 23478 23479 23480 23481 23482 23483 23484 23485 23486 23487 23488 23489 23490 23491 23492 23493 23494 23495 23496 23497 23498 23499 23500 23501 23502 23503 23504 23505 23506 23507 23508 23509 23510 23511 23512 23513 23514 23515 23516 23517 23518 23519 23520 23521 23522 23523 23524 23525 23526 23527 23528 23529 23530 23531 23532 23533 23534 23535 23536 23537 23538 23539 23540 23541 23542 23543 23544 23545 23546 23547 23548 23549 23550 23551 23552 23553 23554 23555 23556 23557 23558 23559 23560 23561 23562 23563 23564 23565 23566 23567 23568 23569 23570 23571 23572 23573 23574 23575 23576 23577 23578 23579 23580 23581 23582 23583 23584 23585 23586 23587 23588 23589 23590 23591 23592 23593 23594 23595 23596 23597 23598 23599 23600 23601 23602 23603 23604 23605 23606 23607 23608 23609 23610 23611 23612 23613 23614 23615 23616 23617 23618 23619 23620 23621 23622 23623 23624 23625 23626 23627 23628 23629 23630 23631 23632 23633 23634 23635 23636 23637 23638 23639 23640 23641 23642 23643 23644 23645 23646 23647 23648 23649 23650 23651 23652 23653 23654 23655 23656 23657 23658 23659 23660 23661 23662 23663 23664 23665 23666 23667 23668 23669 23670 23671 23672 23673 23674 23675 23676 23677 23678 23679 23680 23681 23682 23683 23684 23685 23686 23687 23688 23689 23690 23691 23692 23693 23694 23695 23696 23697 23698 23699 23700 23701 23702 23703 23704 23705 23706 23707 23708 23709 23710 23711 23712 23713 23714 23715 23716 23717 23718 23719 23720 23721 23722 23723 23724 23725 23726 23727 23728 23729 23730 23731 23732 23733 23734 23735 23736 23737 23738 23739 23740 23741 23742 23743 23744 23745 23746 23747 23748 23749 23750 23751 23752 23753 23754 23755 23756 23757 23758 23759 23760 23761 23762 23763 23764 23765 23766 23767 23768 23769 23770 23771 23772 23773 23774 23775 23776 23777 23778 23779 23780 23781 23782 23783 23784 23785 23786 23787 23788 23789 23790 23791 23792 23793 23794 23795 23796 23797 23798 23799 23800 23801 23802 23803 23804 23805 23806 23807 23808 23809 23810 23811 23812 23813 23814 23815 23816 23817 23818 23819 23820 23821 23822 23823 23824 23825 23826 23827 23828 23829 23830 23831 23832 23833 23834 23835 23836 23837 23838 23839 23840 23841 23842 23843 23844 23845 23846 23847 23848 23849 23850 23851 23852 23853 23854 23855 23856 23857 23858 23859 23860 23861 23862 23863 23864 23865 23866 23867 23868 23869 23870 23871 23872 23873 23874 23875 23876 23877 23878 23879 23880 23881 23882 23883 23884 23885 23886 23887 23888 23889 23890 23891 23892 23893 23894 23895 23896 23897 23898 23899 23900 23901 23902 23903 23904 23905 23906 23907 23908 23909 23910 23911 23912 23913 23914 23915 23916 23917 23918 23919 23920 23921 23922 23923 23924 23925 23926 23927 23928 23929 23930 23931 23932 23933 23934 23935 23936 23937 23938 23939 23940 23941 23942 23943 23944 23945 23946 23947 23948 23949 23950 23951 23952 23953 23954 23955 23956 23957 23958 23959 23960 23961 23962 23963 23964 23965 23966 23967 23968 23969 23970 23971 23972 23973 23974 23975 23976 23977 23978 23979 23980 23981 23982 23983 23984 23985 23986 23987 23988 23989 23990 23991 23992 23993 23994 23995 23996 23997 23998 23999 24000 24001 24002 24003 24004 24005 24006 24007 24008 24009 24010 24011 24012 24013 24014 24015 24016 24017 24018 24019 24020 24021 24022 24023 24024 24025 24026 24027 24028 24029 24030 24031 24032 24033 24034 24035 24036 24037 24038 24039 24040 24041 24042 24043 24044 24045 24046 24047 24048 24049 24050 24051 24052 24053 24054 24055 24056 24057 24058 24059 24060 24061 24062 24063 24064 24065 24066 24067 24068 24069 24070 24071 24072 24073 24074 24075 24076 24077 24078 24079 24080 24081 24082 24083 24084 24085 24086 24087 24088 24089 24090 24091 24092 24093 24094 24095 24096 24097 24098 24099 24100 24101 24102 24103 24104 24105 24106 24107 24108 24109 24110 24111 24112 24113 24114 24115 24116 24117 24118 24119 24120 24121 24122 24123 24124 24125 24126 24127 24128 24129 24130 24131 24132 24133 24134 24135 24136 24137 24138 24139 24140 24141 24142 24143 24144 24145 24146 24147 24148 24149 24150 24151 24152 24153 24154 24155 24156 24157 24158 24159 24160 24161 24162 24163 24164 24165 24166 24167 24168 24169 24170 24171 24172 24173 24174 24175 24176 24177 24178 24179 24180 24181 24182 24183 24184 24185 24186 24187 24188 24189 24190 24191 24192 24193 24194 24195 24196 24197 24198 24199 24200 24201 24202 24203 24204 24205 24206 24207 24208 24209 24210 24211 24212 24213 24214 24215 24216 24217 24218 24219 24220 24221 24222 24223 24224 24225 24226 24227 24228 24229 24230 24231 24232 24233 24234 24235 24236 24237 24238 24239 24240 24241 24242 24243 24244 24245 24246 24247 24248 24249 24250 24251 24252 24253 24254 24255 24256 24257 24258 24259 24260 24261 24262 24263 24264 24265 24266 24267 24268 24269 24270 24271 24272 24273 24274 24275 24276 24277 24278 24279 24280 24281 24282 24283 24284 24285 24286 24287 24288 24289 24290 24291 24292 24293 24294 24295 24296 24297 24298 24299 24300 24301 24302 24303 24304 24305 24306 24307 24308 24309 24310 24311 24312 24313 24314 24315 24316 24317 24318 24319 24320 24321 24322 24323 24324 24325 24326 24327 24328 24329 24330 24331 24332 24333 24334 24335 24336 24337 24338 24339 24340 24341 24342 24343 24344 24345 24346 24347 24348 24349 24350 24351 24352 24353 24354 24355 24356 24357 24358 24359 24360 24361 24362 24363 24364 24365 24366 24367 24368 24369 24370 24371 24372 24373 24374 24375 24376 24377 24378 24379 24380 24381 24382 24383 24384 24385 24386 24387 24388 24389 24390 24391 24392 24393 24394 24395 24396 24397 24398 24399 24400 24401 24402 24403 24404 24405 24406 24407 24408 24409 24410 24411 24412 24413 24414 24415 24416 24417 24418 24419 24420 24421 24422 24423 24424 24425 24426 24427 24428 24429 24430 24431 24432 24433 24434 24435 24436 24437 24438 24439 24440 24441 24442 24443 24444 24445 24446 24447 24448 24449 24450 24451 24452 24453 24454 24455 24456 24457 24458 24459 24460 24461 24462 24463 24464 24465 24466 24467 24468 24469 24470 24471 24472 24473 24474 24475 24476 24477 24478 24479 24480 24481 24482 24483 24484 24485 24486 24487 24488 24489 24490 24491 24492 24493 24494 24495 24496 24497 24498 24499 24500 24501 24502 24503 24504 24505 24506 24507 24508 24509 24510 24511 24512 24513 24514 24515 24516 24517 24518 24519 24520 24521 24522 24523 24524 24525 24526 24527 24528 24529 24530 24531 24532 24533 24534 24535 24536 24537 24538 24539 24540 24541 24542 24543 24544 24545 24546 24547 24548 24549 24550 24551 24552 24553 24554 24555 24556 24557 24558 24559 24560 24561 24562 24563 24564 24565 24566 24567 24568 24569 24570 24571 24572 24573 24574 24575 24576 24577 24578 24579 24580 24581 24582 24583 24584 24585 24586 24587 24588 24589 24590 24591 24592 24593 24594 24595 24596 24597 24598 24599 24600 24601 24602 24603 24604 24605 24606 24607 24608 24609 24610 24611 24612 24613 24614 24615 24616 24617 24618 24619 24620 24621 24622 24623 24624 24625 24626 24627 24628 24629 24630 24631 24632 24633 24634 24635 24636 24637 24638 24639 24640 24641 24642 24643 24644 24645 24646 24647 24648 24649 24650 24651 24652 24653 24654 24655 24656 24657 24658 24659 24660 24661 24662 24663 24664 24665 24666 24667 24668 24669 24670 24671 24672 24673 24674 24675 24676 24677 24678 24679 24680 24681 24682 24683 24684 24685 24686 24687 24688 24689 24690 24691 24692 24693 24694 24695 24696 24697 24698 24699 24700 24701 24702 24703 24704 24705 24706 24707 24708 24709 24710 24711 24712 24713 24714 24715 24716 24717 24718 24719 24720 24721 24722 24723 24724 24725 24726 24727 24728 24729 24730 24731 24732 24733 24734 24735 24736 24737 24738 24739 24740 24741 24742 24743 24744 24745 24746 24747 24748 24749 24750 24751 24752 24753 24754 24755 24756 24757 24758 24759 24760 24761 24762 24763 24764 24765 24766 24767 24768 24769 24770 24771 24772 24773 24774 24775 24776 24777 24778 24779 24780 24781 24782 24783 24784 24785 24786 24787 24788 24789 24790 24791 24792 24793 24794 24795 24796 24797 24798 24799 24800 24801 24802 24803 24804 24805 24806 24807 24808 24809 24810 24811 24812 24813 24814 24815 24816 24817 24818 24819 24820 24821 24822 24823 24824 24825 24826 24827 24828 24829 24830 24831 24832 24833 24834 24835 24836 24837 24838 24839 24840 24841 24842 24843 24844 24845 24846 24847 24848 24849 24850 24851 24852 24853 24854 24855 24856 24857 24858 24859 24860 24861 24862 24863 24864 24865 24866 24867 24868 24869 24870 24871 24872 24873 24874 24875 24876 24877 24878 24879 24880 24881 24882 24883 24884 24885 24886 24887 24888 24889 24890 24891 24892 24893 24894 24895 24896 24897 24898 24899 24900 24901 24902 24903 24904 24905 24906 24907 24908 24909 24910 24911 24912 24913 24914 24915 24916 24917 24918 24919 24920 24921 24922 24923 24924 24925 24926 24927 24928 24929 24930 24931 24932 24933 24934 24935 24936 24937 24938 24939 24940 24941 24942 24943 24944 24945 24946 24947 24948 24949 24950 24951 24952 24953 24954 24955 24956 24957 24958 24959 24960 24961 24962 24963 24964 24965 24966 24967 24968 24969 24970 24971 24972 24973 24974 24975 24976 24977 24978 24979 24980 24981 24982 24983 24984 24985 24986 24987 24988 24989 24990 24991 24992 24993 24994 24995 24996 24997 24998 24999 25000 25001 25002 25003 25004 25005 25006 25007 25008 25009 25010 25011 25012 25013 25014 25015 25016 25017 25018 25019 25020 25021 25022 25023 25024 25025 25026 25027 25028 25029 25030 25031 25032 25033 25034 25035 25036 25037 25038 25039 25040 25041 25042 25043 25044 25045 25046 25047 25048 25049 25050 25051 25052 25053 25054 25055 25056 25057 25058 25059 25060 25061 25062 25063 25064 25065 25066 25067 25068 25069 25070 25071 25072 25073 25074 25075 25076 25077 25078 25079 25080 25081 25082 25083 25084 25085 25086 25087 25088 25089 25090 25091 25092 25093 25094 25095 25096 25097 25098 25099 25100 25101 25102 25103 25104 25105 25106 25107 25108 25109 25110 25111 25112 25113 25114 25115 25116 25117 25118 25119 25120 25121 25122 25123 25124 25125 25126 25127 25128 25129 25130 25131 25132 25133 25134 25135 25136 25137 25138 25139 25140 25141 25142 25143 25144 25145 25146 25147 25148 25149 25150 25151 25152 25153 25154 25155 25156 25157 25158 25159 25160 25161 25162 25163 25164 25165 25166 25167 25168 25169 25170 25171 25172 25173 25174 25175 25176 25177 25178 25179 25180 25181 25182 25183 25184 25185 25186 25187 25188 25189 25190 25191 25192 25193 25194 25195 25196 25197 25198 25199 25200 25201 25202 25203 25204 25205 25206 25207 25208 25209 25210 25211 25212 25213 25214 25215 25216 25217 25218 25219 25220 25221 25222 25223 25224 25225 25226 25227 25228 25229 25230 25231 25232 25233 25234 25235 25236 25237 25238 25239 25240 25241 25242 25243 25244 25245 25246 25247 25248 25249 25250 25251 25252 25253 25254 25255 25256 25257 25258 25259 25260 25261 25262 25263 25264 25265 25266 25267 25268 25269 25270 25271 25272 25273 25274 25275 25276 25277 25278 25279 25280 25281 25282 25283 25284 25285 25286 25287 25288 25289 25290 25291 25292 25293 25294 25295 25296 25297 25298 25299 25300 25301 25302 25303 25304 25305 25306 25307 25308 25309 25310 25311 25312 25313 25314 25315 25316 25317 25318 25319 25320 25321 25322 25323 25324 25325 25326 25327 25328 25329 25330 25331 25332 25333 25334 25335 25336 25337 25338 25339 25340 25341 25342 25343 25344 25345 25346 25347 25348 25349 25350 25351 25352 25353 25354 25355 25356 25357 25358 25359 25360 25361 25362 25363 25364 25365 25366 25367 25368 25369 25370 25371 25372 25373 25374 25375 25376 25377 25378 25379 25380 25381 25382 25383 25384 25385 25386 25387 25388 25389 25390 25391 25392 25393 25394 25395 25396 25397 25398 25399 25400 25401 25402 25403 25404 25405 25406 25407 25408 25409 25410 25411 25412 25413 25414 25415 25416 25417 25418 25419 25420 25421 25422 25423 25424 25425 25426 25427 25428 25429 25430 25431 25432 25433 25434 25435 25436 25437 25438 25439 25440 25441 25442 25443 25444 25445 25446 25447 25448 25449 25450 25451 25452 25453 25454 25455 25456 25457 25458 25459 25460 25461 25462 25463 25464 25465 25466 25467 25468 25469 25470 25471 25472 25473 25474 25475 25476 25477 25478 25479 25480 25481 25482 25483 25484 25485 25486 25487 25488 25489 25490 25491 25492 25493 25494 25495 25496 25497 25498 25499 25500 25501 25502 25503 25504 25505 25506 25507 25508 25509 25510 25511 25512 25513 25514 25515 25516 25517 25518 25519 25520 25521 25522 25523 25524 25525 25526 25527 25528 25529 25530 25531 25532 25533 25534 25535 25536 25537 25538 25539 25540 25541 25542 25543 25544 25545 25546 25547 25548 25549 25550 25551 25552 25553 25554 25555 25556 25557 25558 25559 25560 25561 25562 25563 25564 25565 25566 25567 25568 25569 25570 25571 25572 25573 25574 25575 25576 25577 25578 25579 25580 25581 25582 25583 25584 25585 25586 25587 25588 25589 25590 25591 25592 25593 25594 25595 25596 25597 25598 25599 25600 25601 25602 25603 25604 25605 25606 25607 25608 25609 25610 25611 25612 25613 25614 25615 25616 25617 25618 25619 25620 25621 25622 25623 25624 25625 25626 25627 25628 25629 25630 25631 25632 25633 25634 25635 25636 25637 25638 25639 25640 25641 25642 25643 25644 25645 25646 25647 25648 25649 25650 25651 25652 25653 25654 25655 25656 25657 25658 25659 25660 25661 25662 25663 25664 25665 25666 25667 25668 25669 25670 25671 25672 25673 25674 25675 25676 25677 25678 25679 25680 25681 25682 25683 25684 25685 25686 25687 25688 25689 25690 25691 25692 25693 25694 25695 25696 25697 25698 25699 25700 25701 25702 25703 25704 25705 25706 25707 25708 25709 25710 25711 25712 25713 25714 25715 25716 25717 25718 25719 25720 25721 25722 25723 25724 25725 25726 25727 25728 25729 25730 25731 25732 25733 25734 25735 25736 25737 25738 25739 25740 25741 25742 25743 25744 25745 25746 25747 25748 25749 25750 25751 25752 25753 25754 25755 25756 25757 25758 25759 25760 25761 25762 25763 25764 25765 25766 25767 25768 25769 25770 25771 25772 25773 25774 25775 25776 25777 25778 25779 25780 25781 25782 25783 25784 25785 25786 25787 25788 25789 25790 25791 25792 25793 25794 25795 25796 25797 25798 25799 25800 25801 25802 25803 25804 25805 25806 25807 25808 25809 25810 25811 25812 25813 25814 25815 25816 25817 25818 25819 25820 25821 25822 25823 25824 25825 25826 25827 25828 25829 25830 25831 25832 25833 25834 25835 25836 25837 25838 25839 25840 25841 25842 25843 25844 25845 25846 25847 25848 25849 25850 25851 25852 25853 25854 25855 25856 25857 25858 25859 25860 25861 25862 25863 25864 25865 25866 25867 25868 25869 25870 25871 25872 25873 25874 25875 25876 25877 25878 25879 25880 25881 25882 25883 25884 25885 25886 25887 25888 25889 25890 25891 25892 25893 25894 25895 25896 25897 25898 25899 25900 25901 25902 25903 25904 25905 25906 25907 25908 25909 25910 25911 25912 25913 25914 25915 25916 25917 25918 25919 25920 25921 25922 25923 25924 25925 25926 25927 25928 25929 25930 25931 25932 25933 25934 25935 25936 25937 25938 25939 25940 25941 25942 25943 25944 25945 25946 25947 25948 25949 25950 25951 25952 25953 25954 25955 25956 25957 25958 25959 25960 25961 25962 25963 25964 25965 25966 25967 25968 25969 25970 25971 25972 25973 25974 25975 25976 25977 25978 25979 25980 25981 25982 25983 25984 25985 25986 25987 25988 25989 25990 25991 25992 25993 25994 25995 25996 25997 25998 25999 26000 26001 26002 26003 26004 26005 26006 26007 26008 26009 26010 26011 26012 26013 26014 26015 26016 26017 26018 26019 26020 26021 26022 26023 26024 26025 26026 26027 26028 26029 26030 26031 26032 26033 26034 26035 26036 26037 26038 26039 26040 26041 26042 26043 26044 26045 26046 26047 26048 26049 26050 26051 26052 26053 26054 26055 26056 26057 26058 26059 26060 26061 26062 26063 26064 26065 26066 26067 26068 26069 26070 26071 26072 26073 26074 26075 26076 26077 26078 26079 26080 26081 26082 26083 26084 26085 26086 26087 26088 26089 26090 26091 26092 26093 26094 26095 26096 26097 26098 26099 26100 26101 26102 26103 26104 26105 26106 26107 26108 26109 26110 26111 26112 26113 26114 26115 26116 26117 26118 26119 26120 26121 26122 26123 26124 26125 26126 26127 26128 26129 26130 26131 26132 26133 26134 26135 26136 26137 26138 26139 26140 26141 26142 26143 26144 26145 26146 26147 26148 26149 26150 26151 26152 26153 26154 26155 26156 26157 26158 26159 26160 26161 26162 26163 26164 26165 26166 26167 26168 26169 26170 26171 26172 26173 26174 26175 26176 26177 26178 26179 26180 26181 26182 26183 26184 26185 26186 26187 26188 26189 26190 26191 26192 26193 26194 26195 26196 26197 26198 26199 26200 26201 26202 26203 26204 26205 26206 26207 26208 26209 26210 26211 26212 26213 26214 26215 26216 26217 26218 26219 26220 26221 26222 26223 26224 26225 26226 26227 26228 26229 26230 26231 26232 26233 26234 26235 26236 26237 26238 26239 26240 26241 26242 26243 26244 26245 26246 26247 26248 26249 26250 26251 26252 26253 26254 26255 26256 26257 26258 26259 26260 26261 26262 26263 26264 26265 26266 26267 26268 26269 26270 26271 26272 26273 26274 26275 26276 26277 26278 26279 26280 26281 26282 26283 26284 26285 26286 26287 26288 26289 26290 26291 26292 26293 26294 26295 26296 26297 26298 26299 26300 26301 26302 26303 26304 26305 26306 26307 26308 26309 26310 26311 26312 26313 26314 26315 26316 26317 26318 26319 26320 26321 26322 26323 26324 26325 26326 26327 26328 26329 26330 26331 26332 26333 26334 26335 26336 26337 26338 26339 26340 26341 26342 26343 26344 26345 26346 26347 26348 26349 26350 26351 26352 26353 26354 26355 26356 26357 26358 26359 26360 26361 26362 26363 26364 26365 26366 26367 26368 26369 26370 26371 26372 26373 26374 26375 26376 26377 26378 26379 26380 26381 26382 26383 26384 26385 26386 26387 26388 26389 26390 26391 26392 26393 26394 26395 26396 26397 26398 26399 26400 26401 26402 26403 26404 26405 26406 26407 26408 26409 26410 26411 26412 26413 26414 26415 26416 26417 26418 26419 26420 26421 26422 26423 26424 26425 26426 26427 26428 26429 26430 26431 26432 26433 26434 26435 26436 26437 26438 26439 26440 26441 26442 26443 26444 26445 26446 26447 26448 26449 26450 26451 26452 26453 26454 26455 26456 26457 26458 26459 26460 26461 26462 26463 26464 26465 26466 26467 26468 26469 26470 26471 26472 26473 26474 26475 26476 26477 26478 26479 26480 26481 26482 26483 26484 26485 26486 26487 26488 26489 26490 26491 26492 26493 26494 26495 26496 26497 26498 26499 26500 26501 26502 26503 26504 26505 26506 26507 26508 26509 26510 26511 26512 26513 26514 26515 26516 26517 26518 26519 26520 26521 26522 26523 26524 26525 26526 26527 26528 26529 26530 26531 26532 26533 26534 26535 26536 26537 26538 26539 26540 26541 26542 26543 26544 26545 26546 26547 26548 26549 26550 26551 26552 26553 26554 26555 26556 26557 26558 26559 26560 26561 26562 26563 26564 26565 26566 26567 26568 26569 26570 26571 26572 26573 26574 26575 26576 26577 26578 26579 26580 26581 26582 26583 26584 26585 26586 26587 26588 26589 26590 26591 26592 26593 26594 26595 26596 26597 26598 26599 26600 26601 26602 26603 26604 26605 26606 26607 26608 26609 26610 26611 26612 26613 26614 26615 26616 26617 26618 26619 26620 26621 26622 26623 26624 26625 26626 26627 26628 26629 26630 26631 26632 26633 26634 26635 26636 26637 26638 26639 26640 26641 26642 26643 26644 26645 26646 26647 26648 26649 26650 26651 26652 26653 26654 26655 26656 26657 26658 26659 26660 26661 26662 26663 26664 26665 26666 26667 26668 26669 26670 26671 26672 26673 26674 26675 26676 26677 26678 26679 26680 26681 26682 26683 26684 26685 26686 26687 26688 26689 26690 26691 26692 26693 26694 26695 26696 26697 26698 26699 26700 26701 26702 26703 26704 26705 26706 26707 26708 26709 26710 26711 26712 26713 26714 26715 26716 26717 26718 26719 26720 26721 26722 26723 26724 26725 26726 26727 26728 26729 26730 26731 26732 26733 26734 26735 26736 26737 26738 26739 26740 26741 26742 26743 26744 26745 26746 26747 26748 26749 26750 26751 26752 26753 26754 26755 26756 26757 26758 26759 26760 26761 26762 26763 26764 26765 26766 26767 26768 26769 26770 26771 26772 26773 26774 26775 26776 26777 26778 26779 26780 26781 26782 26783 26784 26785 26786 26787 26788 26789 26790 26791 26792 26793 26794 26795 26796 26797 26798 26799 26800 26801 26802 26803 26804 26805 26806 26807 26808 26809 26810 26811 26812 26813 26814 26815 26816 26817 26818 26819 26820 26821 26822 26823 26824 26825 26826 26827 26828 26829 26830 26831 26832 26833 26834 26835 26836 26837 26838 26839 26840 26841 26842 26843 26844 26845 26846 26847 26848 26849 26850 26851 26852 26853 26854 26855 26856 26857 26858 26859 26860 26861 26862 26863 26864 26865 26866 26867 26868 26869 26870 26871 26872 26873 26874 26875 26876 26877 26878 26879 26880 26881 26882 26883 26884 26885 26886 26887 26888 26889 26890 26891 26892 26893 26894 26895 26896 26897 26898 26899 26900 26901 26902 26903 26904 26905 26906 26907 26908 26909 26910 26911 26912 26913 26914 26915 26916 26917 26918 26919 26920 26921 26922 26923 26924 26925 26926 26927 26928 26929 26930 26931 26932 26933 26934 26935 26936 26937 26938 26939 26940 26941 26942 26943 26944 26945 26946 26947 26948 26949 26950 26951 26952 26953 26954 26955 26956 26957 26958 26959 26960 26961 26962 26963 26964 26965 26966 26967 26968 26969 26970 26971 26972 26973 26974 26975 26976 26977 26978 26979 26980 26981 26982 26983 26984 26985 26986 26987 26988 26989 26990 26991 26992 26993 26994 26995 26996 26997 26998 26999 27000 27001 27002 27003 27004 27005 27006 27007 27008 27009 27010 27011 27012 27013 27014 27015 27016 27017 27018 27019 27020 27021 27022 27023 27024 27025 27026 27027 27028 27029 27030 27031 27032 27033 27034 27035 27036 27037 27038 27039 27040 27041 27042 27043 27044 27045 27046 27047 27048 27049 27050 27051 27052 27053 27054 27055 27056 27057 27058 27059 27060 27061 27062 27063 27064 27065 27066 27067 27068 27069 27070 27071 27072 27073 27074 27075 27076 27077 27078 27079 27080 27081 27082 27083 27084 27085 27086 27087 27088 27089 27090 27091 27092 27093 27094 27095 27096 27097 27098 27099 27100 27101 27102 27103 27104 27105 27106 27107 27108 27109 27110 27111 27112 27113 27114 27115 27116 27117 27118 27119 27120 27121 27122 27123 27124 27125 27126 27127 27128 27129 27130 27131 27132 27133 27134 27135 27136 27137 27138 27139 27140 27141 27142 27143 27144 27145 27146 27147 27148 27149 27150 27151 27152 27153 27154 27155 27156 27157 27158 27159 27160 27161 27162 27163 27164 27165 27166 27167 27168 27169 27170 27171 27172 27173 27174 27175 27176 27177 27178 27179 27180 27181 27182 27183 27184 27185 27186 27187 27188 27189 27190 27191 27192 27193 27194 27195 27196 27197 27198 27199 27200 27201 27202 27203 27204 27205 27206 27207 27208 27209 27210 27211 27212 27213 27214 27215 27216 27217 27218 27219 27220 27221 27222 27223 27224 27225 27226 27227 27228 27229 27230 27231 27232 27233 27234 27235 27236 27237 27238 27239 27240 27241 27242 27243 27244 27245 27246 27247 27248 27249 27250 27251 27252 27253 27254 27255 27256 27257 27258 27259 27260 27261 27262 27263 27264 27265 27266 27267 27268 27269 27270 27271 27272 27273 27274 27275 27276 27277 27278 27279 27280 27281 27282 27283 27284 27285 27286 27287 27288 27289 27290 27291 27292 27293 27294 27295 27296 27297 27298 27299 27300 27301 27302 27303 27304 27305 27306 27307 27308 27309 27310 27311 27312 27313 27314 27315 27316 27317 27318 27319 27320 27321 27322 27323 27324 27325 27326 27327 27328 27329 27330 27331 27332 27333 27334 27335 27336 27337 27338 27339 27340 27341 27342 27343 27344 27345 27346 27347 27348 27349 27350 27351 27352 27353 27354 27355 27356 27357 27358 27359 27360 27361 27362 27363 27364 27365 27366 27367 27368 27369 27370 27371 27372 27373 27374 27375 27376 27377 27378 27379 27380 27381 27382 27383 27384 27385 27386 27387 27388 27389 27390 27391 27392 27393 27394 27395 27396 27397 27398 27399 27400 27401 27402 27403 27404 27405 27406 27407 27408 27409 27410 27411 27412 27413 27414 27415 27416 27417 27418 27419 27420 27421 27422 27423 27424 27425 27426 27427 27428 27429 27430 27431 27432 27433 27434 27435 27436 27437 27438 27439 27440 27441 27442 27443 27444 27445 27446 27447 27448 27449 27450 27451 27452 27453 27454 27455 27456 27457 27458 27459 27460 27461 27462 27463 27464 27465 27466 27467 27468 27469 27470 27471 27472 27473 27474 27475 27476 27477 27478 27479 27480 27481 27482 27483 27484 27485 27486 27487 27488 27489 27490 27491 27492 27493 27494 27495 27496 27497 27498 27499 27500 27501 27502 27503 27504 27505 27506 27507 27508 27509 27510 27511 27512 27513 27514 27515 27516 27517 27518 27519 27520 27521 27522 27523 27524 27525 27526 27527 27528 27529 27530 27531 27532 27533 27534 27535 27536 27537 27538 27539 27540 27541 27542 27543 27544 27545 27546 27547 27548 27549 27550 27551 27552 27553 27554 27555 27556 27557 27558 27559 27560 27561 27562 27563 27564 27565 27566 27567 27568 27569 27570 27571 27572 27573 27574 27575 27576 27577 27578 27579 27580 27581 27582 27583 27584 27585 27586 27587 27588 27589 27590 27591 27592 27593 27594 27595 27596 27597 27598 27599 27600 27601 27602 27603 27604 27605 27606 27607 27608 27609 27610 27611 27612 27613 27614 27615 27616 27617 27618 27619 27620 27621 27622 27623 27624 27625 27626 27627 27628 27629 27630 27631 27632 27633 27634 27635 27636 27637 27638 27639 27640 27641 27642 27643 27644 27645 27646 27647 27648 27649 27650 27651 27652 27653 27654 27655 27656 27657 27658 27659 27660 27661 27662 27663 27664 27665 27666 27667 27668 27669 27670 27671 27672 27673 27674 27675 27676 27677 27678 27679 27680 27681 27682 27683 27684 27685 27686 27687 27688 27689 27690 27691 27692 27693 27694 27695 27696 27697 27698 27699 27700 27701 27702 27703 27704 27705 27706 27707 27708 27709 27710 27711 27712 27713 27714 27715 27716 27717 27718 27719 27720 27721 27722 27723 27724 27725 27726 27727 27728 27729 27730 27731 27732 27733 27734 27735 27736 27737 27738 27739 27740 27741 27742 27743 27744 27745 27746 27747 27748 27749 27750 27751 27752 27753 27754 27755 27756 27757 27758 27759 27760 27761 27762 27763 27764 27765 27766 27767 27768 27769 27770 27771 27772 27773 27774 27775 27776 27777 27778 27779 27780 27781 27782 27783 27784 27785 27786 27787 27788 27789 27790 27791 27792 27793 27794 27795 27796 27797 27798 27799 27800 27801 27802 27803 27804 27805 27806 27807 27808 27809 27810 27811 27812 27813 27814 27815 27816 27817 27818 27819 27820 27821 27822 27823 27824 27825 27826 27827 27828 27829 27830 27831 27832 27833 27834 27835 27836 27837 27838 27839 27840 27841 27842 27843 27844 27845 27846 27847 27848 27849 27850 27851 27852 27853 27854 27855 27856 27857 27858 27859 27860 27861 27862 27863 27864 27865 27866 27867 27868 27869 27870 27871 27872 27873 27874 27875 27876 27877 27878 27879 27880 27881 27882 27883 27884 27885 27886 27887 27888 27889 27890 27891 27892 27893 27894 27895 27896 27897 27898 27899 27900 27901 27902 27903 27904 27905 27906 27907 27908 27909 27910 27911 27912 27913 27914 27915 27916 27917 27918 27919 27920 27921 27922 27923 27924 27925 27926 27927 27928 27929 27930 27931 27932 27933 27934 27935 27936 27937 27938 27939 27940 27941 27942 27943 27944 27945 27946 27947 27948 27949 27950 27951 27952 27953 27954 27955 27956 27957 27958 27959 27960 27961 27962 27963 27964 27965 27966 27967 27968 27969 27970 27971 27972 27973 27974 27975 27976 27977 27978 27979 27980 27981 27982 27983 27984 27985 27986 27987 27988 27989 27990 27991 27992 27993 27994 27995 27996 27997 27998 27999 28000 28001 28002 28003 28004 28005 28006 28007 28008 28009 28010 28011 28012 28013 28014 28015 28016 28017 28018 28019 28020 28021 28022 28023 28024 28025 28026 28027 28028 28029 28030 28031 28032 28033 28034 28035 28036 28037 28038 28039 28040 28041 28042 28043 28044 28045 28046 28047 28048 28049 28050 28051 28052 28053 28054 28055 28056 28057 28058 28059 28060 28061 28062 28063 28064 28065 28066 28067 28068 28069 28070 28071 28072 28073 28074 28075 28076 28077 28078 28079 28080 28081 28082 28083 28084 28085 28086 28087 28088 28089 28090 28091 28092 28093 28094 28095 28096 28097 28098 28099 28100 28101 28102 28103 28104 28105 28106 28107 28108 28109 28110 28111 28112 28113 28114 28115 28116 28117 28118 28119 28120 28121 28122 28123 28124 28125 28126 28127 28128 28129 28130 28131 28132 28133 28134 28135 28136 28137 28138 28139 28140 28141 28142 28143 28144 28145 28146 28147 28148 28149 28150 28151 28152 28153 28154 28155 28156 28157 28158 28159 28160 28161 28162 28163 28164 28165 28166 28167 28168 28169 28170 28171 28172 28173 28174 28175 28176 28177 28178 28179 28180 28181 28182 28183 28184 28185 28186 28187 28188 28189 28190 28191 28192 28193 28194 28195 28196 28197 28198 28199 28200 28201 28202 28203 28204 28205 28206 28207 28208 28209 28210 28211 28212 28213 28214 28215 28216 28217 28218 28219 28220 28221 28222 28223 28224 28225 28226 28227 28228 28229 28230 28231 28232 28233 28234 28235 28236 28237 28238 28239 28240 28241 28242 28243 28244 28245 28246 28247 28248 28249 28250 28251 28252 28253 28254 28255 28256 28257 28258 28259 28260 28261 28262 28263 28264 28265 28266 28267 28268 28269 28270 28271 28272 28273 28274 28275 28276 28277 28278 28279 28280 28281 28282 28283 28284 28285 28286 28287 28288 28289 28290 28291 28292 28293 28294 28295 28296 28297 28298 28299 28300 28301 28302 28303 28304 28305 28306 28307 28308 28309 28310 28311 28312 28313 28314 28315 28316 28317 28318 28319 28320 28321 28322 28323 28324 28325 28326 28327 28328 28329 28330 28331 28332 28333 28334 28335 28336 28337 28338 28339 28340 28341 28342 28343 28344 28345 28346 28347 28348 28349 28350 28351 28352 28353 28354 28355 28356 28357 28358 28359 28360 28361 28362 28363 28364 28365 28366 28367 28368 28369 28370 28371 28372 28373 28374 28375 28376 28377 28378 28379 28380 28381 28382 28383 28384 28385 28386 28387 28388 28389 28390 28391 28392 28393 28394 28395 28396 28397 28398 28399 28400 28401 28402 28403 28404 28405 28406 28407 28408 28409 28410 28411 28412 28413 28414 28415 28416 28417 28418 28419 28420 28421 28422 28423 28424 28425 28426 28427 28428 28429 28430 28431 28432 28433 28434 28435 28436 28437 28438 28439 28440 28441 28442 28443 28444 28445 28446 28447 28448 28449 28450 28451 28452 28453 28454 28455 28456 28457 28458 28459 28460 28461 28462 28463 28464 28465 28466 28467 28468 28469 28470 28471 28472 28473 28474 28475 28476 28477 28478 28479 28480 28481 28482 28483 28484 28485 28486 28487 28488 28489 28490 28491 28492 28493 28494 28495 28496 28497 28498 28499 28500 28501 28502 28503 28504 28505 28506 28507 28508 28509 28510 28511 28512 28513 28514 28515 28516 28517 28518 28519 28520 28521 28522 28523 28524 28525 28526 28527 28528 28529 28530 28531 28532 28533 28534 28535 28536 28537 28538 28539 28540 28541 28542 28543 28544 28545 28546 28547 28548 28549 28550 28551 28552 28553 28554 28555 28556 28557 28558 28559 28560 28561 28562 28563 28564 28565 28566 28567 28568 28569 28570 28571 28572 28573 28574 28575 28576 28577 28578 28579 28580 28581 28582 28583 28584 28585 28586 28587 28588 28589 28590 28591 28592 28593 28594 28595 28596 28597 28598 28599 28600 28601 28602 28603 28604 28605 28606 28607 28608 28609 28610 28611 28612 28613 28614 28615 28616 28617 28618 28619 28620 28621 28622 28623 28624 28625 28626 28627 28628 28629 28630 28631 28632 28633 28634 28635 28636 28637 28638 28639 28640 28641 28642 28643 28644 28645 28646 28647 28648 28649 28650 28651 28652 28653 28654 28655 28656 28657 28658 28659 28660 28661 28662 28663 28664 28665 28666 28667 28668 28669 28670 28671 28672 28673 28674 28675 28676 28677 28678 28679 28680 28681 28682 28683 28684 28685 28686 28687 28688 28689 28690 28691 28692 28693 28694 28695 28696 28697 28698 28699 28700 28701 28702 28703 28704 28705 28706 28707 28708 28709 28710 28711 28712 28713 28714 28715 28716 28717 28718 28719 28720 28721 28722 28723 28724 28725 28726 28727 28728 28729 28730 28731 28732 28733 28734 28735 28736 28737 28738 28739 28740 28741 28742 28743 28744 28745 28746 28747 28748 28749 28750 28751 28752 28753 28754 28755 28756 28757 28758 28759 28760 28761 28762 28763 28764 28765 28766 28767 28768 28769 28770 28771 28772 28773 28774 28775 28776 28777 28778 28779 28780 28781 28782 28783 28784 28785 28786 28787 28788 28789 28790 28791 28792 28793 28794 28795 28796 28797 28798 28799 28800 28801 28802 28803 28804 28805 28806 28807 28808 28809 28810 28811 28812 28813 28814 28815 28816 28817 28818 28819 28820 28821 28822 28823 28824 28825 28826 28827 28828 28829 28830 28831 28832 28833 28834 28835 28836 28837 28838 28839 28840 28841 28842 28843 28844 28845 28846 28847 28848 28849 28850 28851 28852 28853 28854 28855 28856 28857 28858 28859 28860 28861 28862 28863 28864 28865 28866 28867 28868 28869 28870 28871 28872 28873 28874 28875 28876 28877 28878 28879 28880 28881 28882 28883 28884 28885 28886 28887 28888 28889 28890 28891 28892 28893 28894 28895 28896 28897 28898 28899 28900 28901 28902 28903 28904 28905 28906 28907 28908 28909 28910 28911 28912 28913 28914 28915 28916 28917 28918 28919 28920 28921 28922 28923 28924 28925 28926 28927 28928 28929 28930 28931 28932 28933 28934 28935 28936 28937 28938 28939 28940 28941 28942 28943 28944 28945 28946 28947 28948 28949 28950 28951 28952 28953 28954 28955 28956 28957 28958 28959 28960 28961 28962 28963 28964 28965 28966 28967 28968 28969 28970 28971 28972 28973 28974 28975 28976 28977 28978 28979 28980 28981 28982 28983 28984 28985 28986 28987 28988 28989 28990 28991 28992 28993 28994 28995 28996 28997 28998 28999 29000 29001 29002 29003 29004 29005 29006 29007 29008 29009 29010 29011 29012 29013 29014 29015 29016 29017 29018 29019 29020 29021 29022 29023 29024 29025 29026 29027 29028 29029 29030 29031 29032 29033 29034 29035 29036 29037 29038 29039 29040 29041 29042 29043 29044 29045 29046 29047 29048 29049 29050 29051 29052 29053 29054 29055 29056 29057 29058 29059 29060 29061 29062 29063 29064 29065 29066 29067 29068 29069 29070 29071 29072 29073 29074 29075 29076 29077 29078 29079 29080 29081 29082 29083 29084 29085 29086 29087 29088 29089 29090 29091 29092 29093 29094 29095 29096 29097 29098 29099 29100 29101 29102 29103 29104 29105 29106 29107 29108 29109 29110 29111 29112 29113 29114 29115 29116 29117 29118 29119 29120 29121 29122 29123 29124 29125 29126 29127 29128 29129 29130 29131 29132 29133 29134 29135 29136 29137 29138 29139 29140 29141 29142 29143 29144 29145 29146 29147 29148 29149 29150 29151 29152 29153 29154 29155 29156 29157 29158 29159 29160 29161 29162 29163 29164 29165 29166 29167 29168 29169 29170 29171 29172 29173 29174 29175 29176 29177 29178 29179 29180 29181 29182 29183 29184 29185 29186 29187 29188 29189 29190 29191 29192 29193 29194 29195 29196 29197 29198 29199 29200 29201 29202 29203 29204 29205 29206 29207 29208 29209 29210 29211 29212 29213 29214 29215 29216 29217 29218 29219 29220 29221 29222 29223 29224 29225 29226 29227 29228 29229 29230 29231 29232 29233 29234 29235 29236 29237 29238 29239 29240 29241 29242 29243 29244 29245 29246 29247 29248 29249 29250 29251 29252 29253 29254 29255 29256 29257 29258 29259 29260 29261 29262 29263 29264 29265 29266 29267 29268 29269 29270 29271 29272 29273 29274 29275 29276 29277 29278 29279 29280 29281 29282 29283 29284 29285 29286 29287 29288 29289 29290 29291 29292 29293 29294 29295 29296 29297 29298 29299 29300 29301 29302 29303 29304 29305 29306 29307 29308 29309 29310 29311 29312 29313 29314 29315 29316 29317 29318 29319 29320 29321 29322 29323 29324 29325 29326 29327 29328 29329 29330 29331 29332 29333 29334 29335 29336 29337 29338 29339 29340 29341 29342 29343 29344 29345 29346 29347 29348 29349 29350 29351 29352 29353 29354 29355 29356 29357 29358 29359 29360 29361 29362 29363 29364 29365 29366 29367 29368 29369 29370 29371 29372 29373 29374 29375 29376 29377 29378 29379 29380 29381 29382 29383 29384 29385 29386 29387 29388 29389 29390 29391 29392 29393 29394 29395 29396 29397 29398 29399 29400 29401 29402 29403 29404 29405 29406 29407 29408 29409 29410 29411 29412 29413 29414 29415 29416 29417 29418 29419 29420 29421 29422 29423 29424 29425 29426 29427 29428 29429 29430 29431 29432 29433 29434 29435 29436 29437 29438 29439 29440 29441 29442 29443 29444 29445 29446 29447 29448 29449 29450 29451 29452 29453 29454 29455 29456 29457 29458 29459 29460 29461 29462 29463 29464 29465 29466 29467 29468 29469 29470 29471 29472 29473 29474 29475 29476 29477 29478 29479 29480 29481 29482 29483 29484 29485 29486 29487 29488 29489 29490 29491 29492 29493 29494 29495 29496 29497 29498 29499 29500 29501 29502 29503 29504 29505 29506 29507 29508 29509 29510 29511 29512 29513 29514 29515 29516 29517 29518 29519 29520 29521 29522 29523 29524 29525 29526 29527 29528 29529 29530 29531 29532 29533 29534 29535 29536 29537 29538 29539 29540 29541 29542 29543 29544 29545 29546 29547 29548 29549 29550 29551 29552 29553 29554 29555 29556 29557 29558 29559 29560 29561 29562 29563 29564 29565 29566 29567 29568 29569 29570 29571 29572 29573 29574 29575 29576 29577 29578 29579 29580 29581 29582 29583 29584 29585 29586 29587 29588 29589 29590 29591 29592 29593 29594 29595 29596 29597 29598 29599 29600 29601 29602 29603 29604 29605 29606 29607 29608 29609 29610 29611 29612 29613 29614 29615 29616 29617 29618 29619 29620 29621 29622 29623 29624 29625 29626 29627 29628 29629 29630 29631 29632 29633 29634 29635 29636 29637 29638 29639 29640 29641 29642 29643 29644 29645 29646 29647 29648 29649 29650 29651 29652 29653 29654 29655 29656 29657 29658 29659 29660 29661 29662 29663 29664 29665 29666 29667 29668 29669 29670 29671 29672 29673 29674 29675 29676 29677 29678 29679 29680 29681 29682 29683 29684 29685 29686 29687 29688 29689 29690 29691 29692 29693 29694 29695 29696 29697 29698 29699 29700 29701 29702 29703 29704 29705 29706 29707 29708 29709 29710 29711 29712 29713 29714 29715 29716 29717 29718 29719 29720 29721 29722 29723 29724 29725 29726 29727 29728 29729 29730 29731 29732 29733 29734 29735 29736 29737 29738 29739 29740 29741 29742 29743 29744 29745 29746 29747 29748 29749 29750 29751 29752 29753 29754 29755 29756 29757 29758 29759 29760 29761 29762 29763 29764 29765 29766 29767 29768 29769 29770 29771 29772 29773 29774 29775 29776 29777 29778 29779 29780 29781 29782 29783 29784 29785 29786 29787 29788 29789 29790 29791 29792 29793 29794 29795 29796 29797 29798 29799 29800 29801 29802 29803 29804 29805 29806 29807 29808 29809 29810 29811 29812 29813 29814 29815 29816 29817 29818 29819 29820 29821 29822 29823 29824 29825 29826 29827 29828 29829 29830 29831 29832 29833 29834 29835 29836 29837 29838 29839 29840 29841 29842 29843 29844 29845 29846 29847 29848 29849 29850 29851 29852 29853 29854 29855 29856 29857 29858 29859 29860 29861 29862 29863 29864 29865 29866 29867 29868 29869 29870 29871 29872 29873 29874 29875 29876 29877 29878 29879 29880 29881 29882 29883 29884 29885 29886 29887 29888 29889 29890 29891 29892 29893 29894 29895 29896 29897 29898 29899 29900 29901 29902 29903 29904 29905 29906 29907 29908 29909 29910 29911 29912 29913 29914 29915 29916 29917 29918 29919 29920 29921 29922 29923 29924 29925 29926 29927 29928 29929 29930 29931 29932 29933 
</DataArray>
<DataArray type="UInt32" Name="offsets" format="ascii">
3 6 9 12 15 17 20 22 25 28 31 33 36 39 42 45 48 51 54 57 60 63 66 69 71 74 77 79 82 85 88 91 94 97 99 102 105 108 111 114 117 120 123 126 129 132 135 138 141 144 147 149 152 154 157 160 163 166 169 172 175 178 181 184 187 190 193 196 198 201 204 207 210 213 216 219 222 225 227 230 233 236 239 242 244 247 250 253 256 259 262 264 267 269 272 275 278 281 284 286 289 292 295 298 301 303 306 309 312 315 318 321 324 327 330 333 336 338 340 343 346 348 351 353 355 358 361 364 367 370 372 374 376 379 382 385 388 391 394 397 400 403 406 408 411 414 417 419 422 425 428 431 434 437 440 443 446 449 452 455 457 460 463 466 469 471 474 477 480 482 485 488 490 493 496 499 502 505 508 511 514 517 519 522 524 527 530 533 535 538 541 543 545 548 551 554 557 560 563 566 569 571 574 576 579 581 584 587 590 593 596 599 601 604 607 610 613 616 619 622 624 626 629 631 633 636 638 641 644 647 649 652 655 658 661 664 667 670 673 675 678 681 684 687 690 692 695 698 701 704 707 710 713 716 719 722 725 728 731 734 737 740 743 746 749 752 755 758 761 764 767 770 773 776 779 782 785 788 791 794 797 800 803 806 809 812 815 818 821 823 826 828 831 834 836 839 841 844 847 850 852 855 858 860 862 865 868 871 873 875 878 881 884 887 890 893 895 898 901 904 906 909 912 915 918 921 924 926 929 932 934 937 940 942 944 946 948 951 953 955 958 961 964 967 970 972 975 978 981 984 987 990 993 995 998 1000 1003 1006 1009 1012 1015 1018 1021 1023 1026 1029 1032 1035 1038 1041 1044 1047 1049 1051 1054 1057 1059 1062 1064 1067 1069 1071 1074 1077 1080 1082 1085 1087 1089 1091 1093 1096 1099 1102 1105 1108 1111 1114 1116 1118 1121 1124 1127 1129 1132 1135 1137 1140 1143 1146 1149 1152 1155 1158 1160 1163 1166 1169 1172 1175 1178 1181 1184 1187 1189 1192 1195 1198 1200 1203 1205 1208 1211 1213 1216 1219 1222 1225 1228 1230 1233 1236 1239 1241 1244 1247 1250 1253 1256 1259 1262 1264 1267 1270 1273 1275 1278 1281 1284 1287 1290 1293 1296 1299 1302 1305 1308 1311 1314 1317 1320 1323 1326 1329 1332 1334 1337 1340 1343 1346 1349 1352 1355 1358 1361 1364 1367 1370 1373 1376 1379 1382 1385 1388 1390 1393 1396 1399 1402 1404 1407 1410 1413 1416 1419 1422 1425 1428 1430 1433 1436 1439 1441 1444 1447 1449 1452 1454 1457 1460 1463 1466 1468 1471 1474 1477 1479 1482 1484 1486 1488 1491 1494 1497 1500 1503 1506 1509 1512 1515 1518 1521 1524 1527 1529 1532 1535 1537 1540 1543 1545 1548 1551 1554 1557 1560 1563 1566 1568 1571 1573 1576 1579 1581 1584 1586 1589 1592 1595 1598 1601 1603 1606 1608 1611 1614 1616 1619 1621 1624 1627 1630 1632 1634 1637 1640 1642 1644 1646 1648 1651 1654 1657 1660 1663 1665 1667 1670 1673 1676 1679 1682 1684 1687 1690 1692 1695 1698 1701 1703 1706 1709 1711 1714 1717 1720 1723 1726 1729 1732 1735 1738 1741 1744 1747 1750 1752 1755 1758 1761 1764 1767 1769 1772 1775 1778 1781 1784 1786 1789 1792 1794 1796 1799 1802 1804 1807 1810 1813 1816 1819 1822 1825 1828 1831 1834 1836 1839 1842 1845 1848 1851 1853 1856 1859 1862 1865 1868 1871 1873 1876 1879 1882 1885 1888 1891 1894 1897 1899 1902 1905 1908 1911 1914 1916 1919 1922 1925 1928 1931 1934 1937 1939 1942 1945 1948 1951 1954 1956 1959 1962 1965 1968 1971 1973 1976 1979 1982 1985 1988 1991 1994 1996 1999 2002 2005 2008 2011 2014 2016 2019 2022 2024 2027 2030 2032 2035 2038 2040 2042 2045 2048 2051 2054 2057 2060 2063 2066 2069 2072 2074 2077 2080 2082 2085 2088 2091 2094 2097 2099 2102 2104 2107 2110 2113 2115 2118 2120 2122 2125 2128 2131 2134 2137 2140 2143 2145 2148 2151 2153 2156 2159 2162 2165 2168 2171 2174 2177 2180 2183 2186 2188 2191 2194 2197 2200 2203 2205 2207 2210 2213 2216 2219 2221 2224 2227 2230 2233 2236 2238 2241 2243 2246 2248 2250 2253 2256 2259 2262 2265 2268 2271 2274 2276 2278 2281 2284 2286 2289 2292 2295 2297 2300 2302 2305 2308 2310 2312 2314 2317 2320 2322 2325 2328 2331 2334 2336 2339 2342 2345 2348 2350 2353 2356 2358 2361 2364 2367 2370 2373 2376 2379 2382 2385 2388 2391 2393 2396 2399 2401 2404 2406 2409 2411 2414 2417 2420 2423 2426 2428 2431 2434 2437 2439 2442 2445 2447 2450 2453 2456 2459 2462 2465 2468 2471 2474 2477 2480 2483 2486 2489 2492 2495 2498 2501 2504 2507 2510 2513 2516 2519 2522 2525 2528 2531 2534 2537 2540 2543 2546 2549 2552 2555 2558 2561 2564 2567 2570 2572 2575 2578 2581 2584 2587 2590 2593 2596 2599 2602 2605 2608 2611 2614 2617 2620 2623 2626 2629 2632 2634 2637 2640 2643 2646 2649 2652 2655 2658 2661 2664 2666 2669 2672 2675 2678 2680 2683 2686 2689 2692 2695 2698 2701 2704 2706 2709 2712 2714 2717 2720 2723 2726 2729 2732 2735 2738 2741 2743 2746 2749 2752 2755 2758 2760 2763 2766 2769 2772 2775 2778 2781 2784 2787 2789 2791 2794 2797 2800 2803 2806 2809 2812 2815 2818 2821 2824 2827 2830 2833 2836 2839 2842 2845 2848 2851 2854 2857 2859 2862 2865 2868 2871 2873 2876 2879 2882 2885 2888 2890 2893 2896 2899 2902 2904 2907 2910 2913 2915 2918 2921 2924 2927 2930 2932 2935 2938 2941 2944 2947 2950 2953 2956 2959 2962 2964 2967 2969 2971 2974 2977 2980 2983 2986 2989 2991 2994 2997 3000 3003 3006 3009 3012 3015 3018 3021 3024 3027 3030 3033 3036 3039 3042 3045 3048 3051 3054 3056 3059 3062 3065 3068 3070 3073 3076 3079 3082 3085 3088 3091 3094 3097 3100 3103 3106 3109 3112 3115 3118 3121 3124 3127 3130 3133 3136 3139 3142 3145 3148 3151 3154 3157 3160 3163 3166 3169 3172 3175 3178 3181 3184 3187 3189 3192 3195 3198 3201 3204 3207 3210 3213 3216 3219 3222 3225 3228 3231 3233 3236 3239 3242 3245 3248 3251 3254 3257 3260 3262 3265 3268 3271 3273 3276 3278 3281 3283 3286 3289 3292 3295 3297 3300 3303 3306 3309 3312 3315 3318 3321 3324 3327 3330 3333 3335 3338 3341 3344 3347 3350 3353 3356 3359 3362 3365 3368 3371 3374 3377 3380 3382 3385 3388 3391 3394 3397 3400 3403 3406 3409 3412 3415 3418 3421 3424 3427 3430 3433 3436 3439 3442 3445 3448 3451 3454 3457 3460 3463 3466 3469 3472 3475 3478 3481 3484 3487 3490 3493 3495 3498 3501 3504 3507 3509 3512 3515 3518 3520 3523 3526 3529 3532 3534 3537 3540 3543 3545 3548 3551 3554 3557 3560 3563 3566 3569 3571 3574 3577 3580 3583 3586 3589 3592 3595 3598 3601 3604 3607 3610 3613 3616 3619 3622 3625 3628 3631 3634 3637 3640 3643 3646 3649 3652 3655 3658 3661 3664 3667 3670 3673 3676 3679 3682 3684 3687 3689 3692 3695 3697 3700 3703 3706 3709 3712 3715 3718 3721 3723 3726 3729 3732 3735 3738 3741 3744 3747 3750 3753 3756 3759 3762 3765 3767 3770 3773 3776 3779 3782 3785 3788 3791 3794 3797 3800 3803 3806 3808 3811 3814 3817 3819 3821 3824 3826 3829 3831 3834 3837 3840 3843 3845 3848 3850 3852 3855 3858 3861 3864 3867 3869 3871 3874 3877 3880 3882 3885 3888 3891 3894 3897 3899 3902 3905 3908 3911 3913 3916 3919 3922 3924 3927 3930 3933 3936 3939 3942 3945 3948 3951 3954 3957 3960 3963 3966 3968 3971 3974 3977 3980 3983 3986 3989 3992 3995 3998 4001 4004 4007 4010 4012 4015 4018 4020 4023 4026 4029 4032 4034 4036 4038 4041 4043 4046 4048 4051 4054 4057 4059 4062 4065 4067 4070 4073 4076 4079 4082 4084 4087 4090 4093 4096 4099 4102 4104 4107 4110 4113 4116 4119 4122 4125 4128 4131 4133 4136 4139 4141 4144 4146 4149 4152 4155 4158 4161 4164 4167 4170 4172 4175 4178 4180 4183 4186 4189 4192 4194 4197 4200 4203 4206 4209 4212 4215 4218 4220 4222 4225 4228 4231 4234 4237 4240 4243 4246 4249 4252 4254 4257 4259 4262 4264 4267 4270 4273 4276 4279 4281 4284 4287 4289 4292 4295 4298 4301 4304 4307 4310 4313 4315 4318 4321 4324 4327 4330 4333 4336 4338 4341 4344 4346 4349 4352 4354 4357 4359 4361 4364 4366 4369 4372 4374 4377 4380 4383 4386 4388 4390 4393 4395 4398 4400 4403 4406 4409 4412 4414 4416 4419 4422 4425 4428 4430 4433 4436 4439 4441 4444 4447 4450 4453 4455 4458 4461 4464 4466 4468 4471 4474 4477 4480 4482 4484 4487 4489 4492 4495 4498 4500 4502 4505 4508 4511 4514 4517 4520 4523 4526 4529 4532 4535 4538 4540 4543 4546 4549 4552 4555 4558 4561 4564 4567 4570 4573 4576 4579 4582 4585 4587 4590 4593 4596 4599 4602 4605 4608 4611 4613 4616 4619 4622 4625 4628 4631 4634 4637 4640 4643 4646 4649 4652 4654 4657 4660 4663 4665 4667 4670 4673 4676 4679 4682 4685 4688 4691 4694 4697 4700 4702 4705 4708 4711 4714 4717 4719 4722 4724 4727 4729 4732 4735 4738 4741 4744 4747 4750 4753 4756 4759 4762 4764 4767 4769 4772 4775 4777 4780 4783 4786 4789 4791 4794 4797 4799 4802 4805 4808 4811 4814 4817 4820 4823 4826 4829 4832 4834 4837 4840 4843 4846 4849 4852 4854 4856 4859 4862 4865 4868 4871 4874 4877 4880 4883 4886 4889 4892 4894 4897 4900 4903 4906 4909 4912 4914 4917 4920 4922 4925 4928 4930 4933 4936 4939 4942 4945 4947 4950 4953 4956 4959 4962 4965 4968 4971 4974 4976 4979 4982 4985 4988 4991 4994 4997 5000 5003 5006 5009 5012 5015 5018 5021 5024 5027 5030 5033 5036 5039 5042 5045 5048 5050 5052 5055 5058 5061 5064 5067 5069 5072 5075 5078 5081 5084 5087 5090 5093 5096 5098 5101 5104 5107 5109 5112 5115 5117 5120 5123 5126 5129 5132 5135 5138 5141 5144 5146 5148 5151 5154 5157 5160 5163 5166 5169 5172 5175 5178 5181 5184 5187 5190 5192 5195 5198 5201 5204 5207 5210 5212 5215 5218 5220 5223 5226 5228 5231 5234 5237 5239 5242 5245 5248 5251 5253 5256 5259 5262 5264 5267 5270 5273 5275 5278 5280 5283 5286 5289 5292 5295 5297 5300 5303 5306 5309 5312 5315 5318 5320 5323 5326 5329 5332 5335 5338 5341 5343 5346 5349 5352 5355 5358 5361 5364 5367 5369 5372 5375 5377 5380 5383 5386 5389 5392 5395 5398 5401 5403 5406 5409 5412 5415 5418 5421 5424 5427 5429 5432 5435 5438 5441 5443 5446 5449 5452 5455 5458 5461 5463 5466 5469 5472 5475 5477 5480 5483 5485 5488 5491 5493 5496 5499 5502 5505 5508 5511 5514 5517 5520 5523 5526 5529 5532 5535 5538 5540 5543 5545 5548 5551 5554 5557 5560 5562 5565 5568 5571 5574 5577 5580 5582 5585 5587 5590 5593 5596 5598 5600 5603 5605 5608 5611 5614 5617 5620 5623 5625 5628 5631 5633 5636 5639 5642 5645 5648 5651 5654 5656 5659 5662 5665 5668 5670 5673 5676 5678 5681 5683 5685 5687 5690 5693 5695 5698 5700 5703 5706 5708 5710 5712 5715 5718 5720 5723 5726 5729 5732 5735 5738 5741 5744 5747 5750 5753 5756 5759 5761 5764 5766 5769 5772 5775 5778 5781 5783 5785 5788 5791 5794 5796 5799 5802 5804 5806 5809 5812 5815 5818 5821 5824 5827 5830 5832 5835 5838 5841 5844 5847 5850 5853 5856 5858 5861 5864 5867 5870 5873 5876 5879 5882 5885 5888 5891 5893 5896 5899 5902 5904 5907 5910 5912 5915 5918 5921 5924 5926 5929 5932 5935 5938 5941 5944 5947 5950 5953 5956 5959 5962 5965 5968 5970 5973 5976 5979 5981 5984 5987 5990 5993 5996 5999 6002 6005 6008 6011 6014 6017 6020 6022 6025 6028 6031 6033 6036 6039 6041 6044 6046 6049 6052 6055 6058 6061 6064 6067 6070 6073 6075 6078 6081 6084 6087 6089 6092 6095 6098 6100 6103 6106 6109 6112 6114 6117 6120 6122 6125 6128 6131 6134 6136 6139 6142 6145 6148 6151 6154 6157 6159 6162 6165 6167 6170 6173 6175 6178 6181 6184 6187 6190 6192 6195 6197 6200 6203 6206 6209 6212 6215 6218 6221 6224 6227 6230 6233 6236 6239 6241 6244 6247 6250 6253 6256 6259 6262 6265 6268 6271 6274 6277 6280 6283 6286 6289 6292 6295 6298 6301 6304 6307 6310 6313 6315 6318 6321 6324 6327 6330 6333 6336 6339 6342 6345 6348 6351 6354 6357 6360 6362 6365 6368 6371 6374 6377 6380 6383 6386 6389 6392 6395 6398 6401 6404 6407 6410 6413 6416 6419 6422 6425 6428 6431 6434 6437 6440 6443 6446 6449 6452 6455 6458 6461 6464 6467 6470 6473 6476 6479 6482 6485 6488 6491 6494 6497 6500 6503 6506 6509 6512 6515 6518 6521 6524 6527 6530 6533 6536 6539 6542 6545 6548 6551 6554 6557 6560 6563 6566 6569 6572 6575 6578 6581 6584 6587 6590 6593 6596 6599 6602 6605 6608 6611 6614 6617 6620 6623 6626 6629 6632 6635 6638 6641 6644 6647 6650 6653 6656 6659 6662 6665 6668 6671 6674 6677 6680 6683 6686 6689 6692 6695 6698 6701 6704 6707 6710 6713 6716 6719 6722 6725 6728 6731 6734 6737 6740 6743 6746 6749 6752 6755 6758 6761 6764 6767 6770 6773 6776 6779 6782 6785 6788 6791 6794 6797 6800 6803 6806 6809 6812 6815 6818 6821 6824 6827 6830 6833 6836 6838 6841 6844 6847 6850 6853 6856 6859 6862 6865 6868 6870 6873 6876 6879 6882 6884 6887 6890 6893 6896 6898 6900 6903 6905 6908 6911 6914 6917 6920 6922 6924 6926 6928 6931 6934 6937 6940 6943 6946 6949 6951 6954 6957 6959 6962 6965 6967 6970 6973 6976 6978 6981 6983 6986 6989 6992 6995 6998 7001 7003 7005 7008 7011 7014 7017 7020 7023 7026 7029 7032 7035 7038 7041 7044 7047 7050 7053 7056 7059 7062 7065 7068 7071 7074 7077 7080 7083 7086 7089 7092 7095 7098 7101 7104 7107 7110 7113 7116 7119 7122 7125 7128 7131 7134 7137 7140 7143 7145 7148 7150 7153 7156 7159 7162 7165 7168 7171 7174 7176 7179 7182 7185 7188 7191 7194 7197 7200 7203 7206 7209 7212 7215 7218 7221 7224 7227 7229 7232 7234 7237 7240 7242 7245 7248 7250 7253 7255 7258 7261 7264 7267 7270 7273 7276 7279 7282 7285 7288 7291 7294 7297 7300 7303 7306 7309 7312 7315 7318 7321 7324 7327 7330 7333 7336 7339 7342 7345 7348 7351 7354 7357 7360 7363 7366 7368 7371 7374 7377 7380 7383 7386 7389 7392 7395 7398 7401 7404 7407 7410 7413 7416 7418 7421 7424 7427 7430 7433 7435 7438 7441 7444 7447 7450 7453 7456 7459 7462 7465 7468 7471 7474 7477 7480 7482 7485 7487 7490 7493 7496 7499 7502 7504 7506 7509 7512 7515 7518 7521 7524 7526 7528 7531 7534 7537 7540 7543 7546 7549 7552 7554 7557 7560 7563 7566 7569 7572 7574 7577 7580 7582 7585 7588 7591 7594 7597 7600 7603 7606 7609 7611 7613 7616 7619 7622 7625 7628 7631 7633 7636 7639 7642 7645 7648 7651 7654 7657 7660 7663 7666 7669 7672 7675 7678 7680 7682 7685 7688 7691 7693 7696 7699 7702 7705 7708 7711 7713 7716 7718 7720 7723 7725 7728 7731 7734 7737 7740 7743 7745 7748 7751 7754 7757 7760 7763 7766 7769 7771 7774 7777 7780 7783 7786 7789 7792 7795 7798 7801 7804 7807 7810 7813 7816 7818 7821 7823 7826 7829 7832 7835 7838 7841 7844 7847 7849 7852 7855 7858 7860 7862 7865 7868 7871 7874 7876 7879 7881 7883 7886 7889 7892 7895 7898 7901 7904 7907 7910 7912 7914 7916 7919 7922 7925 7927 7930 7933 7936 7938 7941 7944 7947 7950 7953 7956 7959 7962 7965 7968 7970 7973 7976 7979 7982 7984 7987 7990 7993 7996 7998 8001 8003 8006 8008 8011 8014 8017 8020 8022 8024 8027 8030 8032 8035 8038 8041 8043 8046 8049 8051 8054 8057 8059 8062 8065 8068 8071 8074 8077 8080 8082 8085 8088 8091 8094 8096 8099 8102 8105 8108 8110 8113 8115 8118 8121 8123 8126 8128 8131 8133 8136 8139 8142 8145 8147 8150 8153 8156 8159 8162 8164 8167 8169 8172 8174 8177 8180 8183 8186 8189 8192 8195 8198 8201 8203 8206 8209 8211 8214 8217 8220 8223 8226 8229 8232 8235 8238 8241 8244 8246 8248 8251 8254 8256 8259 8262 8265 8268 8271 8273 8276 8279 8282 8285 8288 8291 8294 8297 8300 8303 8306 8309 8311 8314 8317 8319 8321 8324 8327 8330 8333 8336 8339 8342 8345 8347 8350 8353 8355 8358 8361 8364 8367 8370 8373 8375 8378 8381 8384 8387 8390 8393 8396 8399 8402 8405 8408 8411 8413 8416 8419 8422 8424 8426 8429 8431 8434 8436 8439 8442 8445 8448 8451 8454 8456 8459 8462 8465 8468 8471 8474 8477 8480 8483 8486 8489 8492 8495 8498 8501 8504 8507 8510 8513 8516 8519 8521 8524 8527 8530 8532 8535 8537 8540 8543 8546 8549 8552 8555 8558 8561 8564 8567 8570 8572 8575 8577 8580 8583 8585 8588 8591 8594 8596 8599 8602 8605 8608 8611 8614 8617 8620 8623 8626 8629 8632 8635 8638 8641 8644 8647 8650 8653 8655 8658 8661 8664 8667 8669 8672 8675 8678 8681 8684 8687 8689 8692 8695 8698 8700 8703 8706 8709 8712 8715 8718 8721 8724 8727 8730 8732 8735 8738 8741 8743 8746 8749 8752 8755 8757 8760 8763 8766 8769 8772 8775 8778 8781 8784 8787 8790 8793 8795 8797 8800 8803 8806 8809 8812 8815 8818 8821 8823 8825 8828 8830 8833 8836 8839 8841 8844 8847 8850 8853 8856 8858 8861 8864 8867 8870 8873 8876 8879 8882 8885 8888 8891 8893 8896 8899 8902 8905 8907 8910 8913 8916 8918 8921 8924 8926 8929 8932 8935 8938 8941 8944 8947 8950 8953 8956 8959 8962 8965 8967 8970 8973 8976 8979 8982 8985 8988 8991 8994 8997 9000 9003 9006 9009 9012 9015 9018 9021 9024 9027 9030 9033 9036 9039 9042 9044 9047 9049 9052 9055 9058 9061 9063 9066 9069 9072 9075 9078 9081 9084 9087 9090 9093 9096 9099 9102 9105 9108 9111 9114 9117 9119 9122 9124 9127 9130 9133 9136 9139 9142 9145 9148 9150 9153 9156 9158 9161 9163 9166 9169 9172 9174 9177 9180 9183 9186 9189 9192 9195 9197 9200 9203 9206 9209 9211 9213 9216 9219 9222 9224 9227 9230 9233 9236 9239 9242 9245 9248 9251 9254 9257 9259 9262 9265 9268 9271 9274 9277 9279 9282 9285 9288 9291 9294 9297 9300 9303 9305 9308 9311 9313 9316 9319 9322 9325 9327 9330 9333 9336 9338 9341 9343 9346 9349 9352 9354 9357 9360 9363 9366 9369 9372 9374 9377 9380 9383 9386 9389 9392 9395 9398 9401 9404 9406 9409 9411 9414 9417 9420 9423 9426 9429 9432 9435 9438 9441 9444 9447 9450 9453 9455 9458 9461 9463 9466 9469 9472 9475 9478 9481 9484 9487 9490 9493 9496 9499 9502 9505 9508 9511 9514 9517 9519 9522 9525 9528 9531 9534 9537 9540 9543 9546 9548 9551 9554 9556 9559 9561 9564 9567 9570 9572 9575 9578 9581 9584 9587 9590 9593 9596 9599 9601 9604 9607 9610 9613 9616 9618 9621 9624 9626 9629 9632 9634 9637 9640 9643 9646 9648 9651 9654 9657 9659 9662 9665 9668 9671 9674 9677 9680 9683 9686 9689 9692 9695 9698 9701 9704 9707 9710 9713 9716 9719 9722 9725 9728 9730 9732 9735 9738 9740 9743 9746 9749 9751 9754 9757 9760 9763 9766 9769 9772 9775 9777 9780 9783 9786 9789 9792 9794 9797 9800 9802 9805 9808 9811 9813 9816 9819 9822 9825 9828 9831 9834 9837 9839 9842 9845 9848 9851 9853 9856 9859 9862 9865 9868 9871 9873 9876 9879 9882 9885 9888 9891 9894 9897 9900 9903 9905 9908 9911 9914 9917 9920 9923 9926 9929 9931 9933 9936 9938 9941 9944 9947 9950 9953 9956 9958 9961 9963 9966 9968 9971 9974 9977 9980 9983 9986 9988 9991 9993 9996 9998 10001 10003 10006 10009 10012 10014 10017 10019 10022 10024 10027 10030 10032 10035 10038 10041 10044 10046 10049 10051 10054 10057 10060 10062 10065 10068 10071 10074 10076 10079 10082 10085 10088 10090 10093 10096 10098 10101 10104 10107 10110 10112 10115 10118 10121 10124 10127 10130 10133 10136 10139 10142 10145 10148 10151 10154 10157 10159 10162 10165 10168 10171 10174 10177 10180 10183 10186 10189 10192 10195 10198 10201 10204 10207 10210 10212 10215 10218 10221 10224 10227 10230 10233 10236 10239 10242 10245 10248 10251 10254 10257 10260 10263 10266 10269 10272 10275 10278 10281 10284 10287 10290 10293 10296 10299 10302 10305 10308 10311 10314 10317 10320 10323 10326 10329 10332 10335 10338 10341 10344 10347 10350 10353 10356 10359 10362 10365 10368 10371 10374 10377 10380 10383 10386 10389 10392 10395 10398 10401 10404 10407 10410 10413 10416 10419 10422 10425 10428 10431 10434 10437 10440 10443 10446 10449 10452 10455 10458 10461 10464 10467 10470 10473 10476 10479 10482 10485 10488 10491 10494 10497 10500 10503 10506 10509 10512 10515 10517 10520 10523 10526 10529 10532 10535 10538 10541 10544 10547 10550 10553 10556 10559 10562 10565 10568 10571 10574 10576 10579 10582 10585 10588 10591 10594 10597 10600 10603 10606 10609 10612 10615 10618 10621 10624 10627 10630 10632 10635 10638 10641 10644 10647 10650 10653 10655 10657 10660 10663 10665 10668 10671 10674 10677 10680 10683 10686 10689 10692 10694 10697 10700 10703 10706 10709 10712 10715 10718 10721 10724 10726 10729 10732 10735 10738 10740 10743 10746 10748 10750 10753 10755 10758 10761 10763 10766 10769 10772 10775 10777 10779 10782 10785 10788 10791 10794 10797 10799 10802 10805 10807 10810 10813 10816 10819 10822 10824 10827 10829 10832 10834 10837 10839 10842 10844 10846 10849 10852 10855 10858 10860 10862 10865 10867 10870 10873 10875 10878 10881 10884 10887 10890 10892 10895 10897 10900 10902 10905 10908 10910 10912 10915 10918 10921 10923 10926 10929 10932 10935 10938 10940 10943 10945 10948 10951 10954 10957 10960 10963 10966 10969 10972 10975 10978 10981 10984 10987 10990 10992 10995 10998 11001 11004 11006 11008 11011 11014 11017 11019 11022 11025 11027 11029 11032 11035 11038 11040 11043 11046 11049 11052 11055 11057 11059 11062 11065 11068 11071 11074 11077 11080 11083 11086 11089 11092 11095 11097 11100 11103 11106 11108 11111 11114 11117 11120 11122 11125 11127 11130 11133 11136 11139 11142 11145 11148 11150 11152 11155 11157 11160 11163 11166 11168 11170 11173 11176 11178 11181 11184 11186 11189 11192 11194 11197 11199 11202 11205 11208 11211 11214 11217 11220 11223 11225 11228 11231 11234 11237 11239 11242 11245 11248 11251 11254 11257 11260 11263 11266 11269 11271 11274 11277 11280 11283 11286 11288 11291 11294 11297 11300 11303 11306 11309 11312 11315 11318 11321 11323 11326 11329 11332 11335 11337 11340 11343 11346 11349 11352 11355 11358 11361 11364 11367 11370 11373 11375 11378 11381 11384 11387 11390 11393 11395 11398 11401 11404 11406 11409 11412 11414 11417 11419 11422 11424 11427 11429 11432 11435 11438 11440 11443 11446 11449 11451 11453 11456 11459 11462 11464 11467 11470 11473 11476 11479 11481 11484 11487 11490 11493 11496 11499 11501 11504 11507 11509 11512 11515 11518 11521 11523 11526 11529 11532 11535 11538 11541 11544 11547 11550 11552 11555 11558 11561 11563 11566 11569 11571 11574 11577 11580 11583 11586 11589 11592 11595 11597 11599 11602 11605 11608 11610 11613 11616 11619 11622 11625 11628 11631 11633 11636 11639 11642 11645 11648 11651 11654 11656 11659 11662 11665 11668 11671 11674 11677 11679 11682 11685 11688 11691 11694 11697 11700 11703 11706 11709 11711 11714 11717 11720 11723 11726 11728 11731 11734 11737 11740 11742 11745 11748 11751 11754 11757 11760 11763 11766 11769 11772 11774 11777 11780 11783 11786 11789 11792 11795 11798 11800 11803 11806 11809 11811 11814 11817 11820 11823 11826 11828 11831 11834 11837 11840 11843 11846 11849 11851 11854 11857 11860 11863 11866 11869 11872 11875 11878 11880 11883 11886 11889 11892 11895 11898 11901 11904 11907 11910 11913 11916 11919 11922 11925 11928 11931 11934 11937 11940 11943 11946 11949 11952 11955 11958 11961 11964 11967 11969 11972 11975 11978 11980 11983 11986 11989 11992 11995 11998 12001 12004 12007 12010 12013 12016 12019 12022 12025 12027 12029 12032 12035 12038 12041 12044 12047 12050 12052 12055 12058 12061 12063 12065 12068 12071 12074 12077 12080 12083 12086 12089 12092 12095 12098 12101 12104 12107 12110 12113 12116 12119 12122 12125 12128 12130 12133 12136 12139 12141 12144 12147 12150 12153 12156 12159 12162 12165 12168 12171 12174 12177 12180 12183 12186 12189 12192 12195 12198 12201 12204 12207 12210 12213 12216 12219 12222 12225 12228 12230 12233 12236 12239 12242 12245 12248 12251 12254 12257 12260 12263 12266 12269 12272 12275 12278 12281 12284 12287 12290 12293 12295 12298 12301 12304 12307 12310 12313 12316 12319 12321 12324 12327 12330 12333 12336 12338 12341 12344 12347 12350 12353 12356 12359 12362 12365 12368 12371 12373 12375 12378 12381 12383 12386 12388 12391 12394 12397 12400 12403 12406 12409 12412 12415 12418 12421 12424 12427 12430 12433 12436 12439 12441 12444 12447 12450 12453 12456 12459 12462 12465 12468 12471 12474 12477 12479 12482 12485 12487 12490 12493 12496 12499 12502 12505 12507 12510 12513 12516 12518 12521 12524 12527 12530 12533 12535 12538 12540 12543 12546 12549 12552 12555 12558 12561 12564 12566 12569 12572 12575 12578 12580 12583 12586 12589 12592 12595 12598 12601 12604 12607 12609 12612 12614 12617 12620 12623 12626 12629 12632 12635 12638 12641 12643 12646 12649 12652 12655 12658 12661 12664 12667 12669 12672 12675 12678 12681 12684 12687 12690 12692 12695 12698 12701 12703 12706 12709 12712 12715 12717 12720 12723 12726 12729 12732 12734 12737 12740 12742 12745 12748 12751 12754 12757 12760 12763 12766 12769 12772 12775 12778 12781 12784 12787 12790 12793 12796 12799 12802 12805 12808 12811 12814 12816 12818 12821 12824 12827 12830 12833 12836 12839 12841 12844 12847 12850 12853 12856 12859 12862 12865 12868 12871 12874 12877 12880 12883 12886 12889 12892 12895 12898 12900 12903 12906 12909 12911 12913 12916 12919 12922 12925 12928 12931 12934 12937 12940 12943 12946 12949 12952 12955 12958 12961 12964 12967 12970 12973 12976 12979 12982 12985 12988 12991 12994 12996 12999 13002 13005 13007 13010 13013 13016 13019 13021 13024 13026 13029 13032 13035 13038 13041 13043 13046 13049 13051 13054 13057 13060 13063 13066 13069 13072 13075 13078 13081 13084 13087 13090 13093 13095 13098 13101 13104 13107 13110 13113 13116 13118 13120 13123 13126 13128 13131 13134 13137 13140 13143 13146 13149 13152 13155 13157 13159 13162 13165 13168 13171 13174 13177 13180 13183 13185 13188 13191 13194 13196 13199 13202 13205 13208 13211 13214 13216 13219 13222 13225 13227 13230 13233 13236 13239 13242 13245 13248 13250 13253 13256 13259 13262 13264 13267 13270 13272 13275 13278 13281 13283 13285 13288 13291 13294 13297 13299 13302 13305 13307 13310 13313 13316 13318 13321 13324 13327 13330 13332 13335 13337 13340 13343 13346 13349 13352 13355 13358 13361 13364 13367 13370 13373 13376 13378 13381 13383 13386 13389 13392 13395 13397 13400 13403 13406 13409 13412 13414 13417 13420 13423 13425 13428 13431 13434 13437 13440 13443 13446 13449 13452 13455 13458 13461 13464 13467 13470 13473 13476 13479 13482 13485 13488 13491 13494 13497 13500 13503 13506 13509 13512 13515 13518 13521 13524 13527 13529 13532 13535 13537 13540 13543 13546 13549 13552 13555 13557 13560 13562 13565 13568 13571 13574 13577 13580 13582 13585 13588 13591 13593 13596 13599 13602 13605 13608 13611 13614 13617 13619 13622 13624 13626 13629 13632 13635 13638 13641 13644 13647 13649 13652 13655 13658 13661 13664 13666 13669 13672 13675 13678 13681 13684 13687 13690 13693 13696 13699 13702 13705 13707 13710 13713 13716 13719 13722 13725 13728 13731 13734 13737 13740 13743 13746 13749 13752 13755 13758 13761 13764 13767 13770 13773 13776 13779 13782 13785 13788 13791 13794 13797 13800 13803 13806 13809 13812 13815 13818 13821 13824 13827 13830 13833 13836 13839 13842 13844 13847 13850 13853 13856 13859 13862 13865 13868 13871 13874 13877 13880 13883 13886 13888 13890 13893 13895 13898 13901 13903 13906 13909 13911 13913 13916 13919 13922 13925 13928 13931 13933 13936 13939 13942 13944 13947 13950 13953 13956 13959 13962 13965 13968 13971 13974 13977 13980 13983 13986 13989 13992 13995 13998 14001 14004 14007 14010 14013 14016 14019 14022 14025 14028 14031 14034 14037 14040 14042 14045 14048 14051 14053 14056 14059 14062 14065 14068 14071 14074 14076 14079 14082 14085 14087 14090 14093 14096 14099 14102 14105 14108 14111 14114 14117 14120 14123 14125 14128 14131 14134 14137 14140 14143 14146 14149 14152 14155 14158 14161 14164 14167 14170 14173 14176 14178 14181 14184 14187 14190 14193 14196 14198 14201 14204 14207 14210 14213 14216 14219 14222 14225 14228 14231 14234 14237 14240 14243 14246 14249 14252 14255 14258 14261 14264 14267 14270 14273 14276 14279 14282 14285 14288 14291 14294 14297 14300 14303 14306 14309 14312 14315 14318 14321 14324 14327 14330 14333 14336 14339 14342 14345 14348 14350 14353 14356 14359 14362 14365 14368 14371 14374 14377 14380 14383 14386 14389 14392 14395 14398 14401 14404 14407 14410 14412 14415 14418 14421 14424 14427 14430 14433 14436 14439 14442 14445 14448 14451 14454 14457 14460 14463 14466 14469 14472 14475 14477 14480 14483 14486 14489 14492 14495 14498 14501 14504 14507 14510 14513 14516 14519 14522 14525 14528 14531 14534 14537 14540 14543 14546 14549 14552 14554 14557 14560 14563 14566 14568 14571 14574 14577 14580 14583 14586 14589 14592 14595 14598 14601 14604 14607 14610 14612 14615 14618 14621 14623 14626 14629 14632 14635 14638 14641 14644 14647 14650 14653 14656 14659 14662 14664 14666 14669 14672 14675 14678 14681 14684 14687 14690 14692 14695 14698 14701 14703 14706 14709 14712 14715 14717 14720 14723 14726 14729 14731 14734 14736 14739 14742 14745 14748 14751 14754 14757 14759 14762 14765 14767 14770 14773 14776 14779 14781 14784 14787 14790 14793 14796 14799 14802 14805 14808 14811 14814 14816 14819 14821 14824 14827 14830 14832 14835 14838 14841 14844 14846 14849 14852 14855 14858 14861 14863 14866 14868 14871 14874 14877 14879 14882 14885 14888 14891 14893 14895 14898 14901 14904 14907 14910 14912 14915 14918 14921 14923 14926 14929 14932 14935 14937 14940 14943 14945 14948 14951 14954 14957 14960 14963 14966 14968 14971 14974 14977 14980 14983 14986 14989 14992 14995 14998 15001 15004 15007 15010 15013 15016 15019 15022 15025 15028 15031 15033 15036 15039 15042 15045 15048 15051 15054 15057 15060 15063 15066 15069 15072 15075 15078 15081 15084 15086 15089 15092 15095 15098 15100 15103 15105 15108 15111 15114 15117 15120 15123 15126 15129 15132 15134 15137 15140 15142 15144 15147 15150 15152 15155 15158 15161 15164 15167 15170 15173 15175 15177 15180 15183 15185 15187 15190 15193 15196 15199 15202 15205 15208 15210 15213 15216 15218 15221 15224 15227 15230 15233 15235 15238 15241 15244 15247 15250 15253 15256 15259 15262 15265 15268 15271 15274 15277 15280 15283 15286 15289 15292 15295 15298 15300 15302 15305 15308 15311 15314 15316 15319 15322 15324 15327 15330 15333 15336 15338 15341 15344 15347 15350 15353 15356 15359 15362 15365 15368 15371 15374 15377 15380 15383 15385 15388 15391 15394 15397 15399 15402 15405 15408 15411 15414 15417 15420 15423 15426 15429 15432 15435 15438 15441 15444 15447 15450 15453 15456 15459 15461 15463 15466 15469 15472 15475 15478 15481 15484 15487 15490 15492 15495 15498 15500 15503 15506 15508 15511 15514 15517 15520 15523 15526 15529 15532 15535 15538 15540 15543 15546 15548 15551 15554 15557 15560 15563 15566 15569 15572 15575 15578 15581 15584 15587 15590 15593 15596 15599 15602 15605 15608 15611 15614 15617 15620 15623 15626 15629 15632 15635 15637 15640 15643 15646 15648 15651 15654 15657 15660 15663 15666 15669 15672 15675 15677 15680 15683 15686 15689 15692 15695 15698 15700 15703 15706 15709 15712 15714 15717 15720 15723 15726 15729 15732 15735 15738 15741 15743 15746 15749 15751 15754 15757 15759 15762 15765 15768 15771 15773 15776 15779 15782 15785 15787 15790 15793 15796 15799 15802 15805 15808 15811 15814 15817 15819 15822 15825 15828 15831 15833 15836 15839 15842 15845 15847 15850 15853 15856 15859 15862 15865 15868 15870 15873 15876 15879 15881 15884 15887 15890 15893 15896 15898 15900 15903 15906 15909 15912 15914 15917 15919 15922 15925 15928 15931 15934 15937 15940 15943 15946 15949 15952 15955 15958 15961 15964 15967 15970 15973 15976 15979 15982 15985 15988 15991 15993 15996 15999 16002 16005 16008 16011 16014 16017 16020 16023 16025 16028 16030 16033 16036 16039 16042 16045 16048 16051 16054 16057 16059 16062 16065 16068 16071 16074 16077 16080 16083 16086 16089 16092 16095 16098 16101 16104 16107 16110 16113 16116 16119 16122 16125 16128 16131 16134 16137 16139 16141 16143 16146 16149 16152 16154 16157 16160 16163 16166 16169 16172 16175 16178 16181 16184 16186 16189 16192 16194 16197 16200 16203 16206 16209 16212 16215 16218 16221 16224 16227 16230 16233 16236 16239 16242 16245 16248 16251 16254 16257 16260 16263 16266 16269 16272 16275 16278 16281 16284 16287 16290 16293 16296 16299 16302 16305 16308 16311 16314 16317 16320 16323 16326 16329 16332 16334 16337 16340 16342 16345 16348 16350 16352 16355 16357 16360 16362 16365 16368 16371 16374 16377 16379 16382 16385 16388 16391 16393 16396 16399 16402 16405 16408 16410 16413 16416 16419 16421 16424 16427 16430 16433 16436 16439 16442 16445 16448 16451 16454 16456 16459 16462 16465 16467 16469 16471 16473 16475 16478 16481 16484 16487 16490 16492 16494 16497 16500 16503 16506 16508 16511 16514 16516 16518 16521 16524 16526 16529 16532 16535 16538 16541 16543 16546 16549 16551 16554 16557 16560 16562 16565 16568 16571 16574 16576 16579 16582 16585 16588 16591 16593 16595 16597 16600 16603 16606 16609 16612 16615 16618 16621 16624 16627 16629 16632 16635 16638 16641 16644 16647 16649 16652 16654 16657 16660 16663 16666 16669 16672 16675 16678 16681 16684 16687 16689 16692 16694 16697 16700 16703 16706 16709 16712 16715 16718 16720 16723 16726 16728 16731 16734 16737 16740 16742 16745 16748 16751 16754 16757 16760 16762 16764 16767 16770 16773 16776 16779 16782 16785 16788 16791 16794 16797 16800 16803 16806 16809 16812 16815 16818 16821 16824 16827 16830 16833 16835 16838 16841 16844 16847 16850 16853 16856 16859 16862 16865 16867 16870 16873 16876 16878 16881 16884 16887 16890 16893 16896 16899 16901 16904 16907 16910 16913 16916 16919 16921 16924 16927 16930 16933 16936 16939 16941 16944 16947 16950 16952 16955 16958 16961 16964 16966 16969 16972 16975 16978 16981 16983 16985 16988 16991 16994 16997 17000 17003 17006 17009 17012 17014 17017 17020 17023 17026 17029 17032 17034 17037 17040 17043 17046 17049 17052 17054 17057 17060 17063 17066 17069 17072 17075 17078 17081 17083 17086 17089 17091 17094 17097 17100 17103 17106 17109 17111 17114 17117 17120 17123 17126 17128 17131 17134 17137 17140 17143 17146 17149 17152 17155 17158 17161 17164 17167 17170 17173 17176 17178 17181 17184 17187 17190 17193 17195 17198 17201 17204 17207 17210 17213 17216 17219 17222 17225 17228 17231 17234 17236 17238 17241 17244 17246 17249 17252 17254 17257 17260 17263 17266 17269 17272 17274 17277 17279 17282 17285 17288 17291 17294 17297 17299 17302 17305 17308 17311 17314 17317 17320 17323 17326 17329 17332 17335 17338 17341 17343 17346 17349 17352 17354 17357 17360 17363 17366 17369 17372 17375 17378 17381 17384 17387 17390 17393 17396 17398 17401 17404 17407 17410 17413 17416 17419 17422 17425 17428 17431 17433 17436 17439 17442 17445 17447 17450 17453 17456 17458 17461 17464 17467 17470 17473 17476 17479 17482 17484 17487 17490 17493 17496 17499 17502 17505 17508 17511 17514 17516 17519 17521 17524 17527 17530 17533 17536 17539 17542 17545 17548 17551 17554 17557 17560 17563 17566 17569 17572 17575 17578 17581 17584 17587 17590 17593 17596 17599 17602 17605 17608 17611 17614 17617 17620 17623 17626 17629 17632 17635 17638 17640 17642 17645 17648 17651 17654 17657 17659 17662 17665 17667 17670 17673 17676 17679 17681 17684 17687 17689 17692 17695 17698 17701 17703 17705 17708 17711 17714 17717 17720 17722 17725 17728 17731 17734 17737 17740 17743 17746 17748 17751 17754 17757 17760 17763 17766 17769 17772 17774 17777 17780 17783 17786 17789 17792 17795 17798 17801 17804 17807 17810 17813 17816 17819 17822 17824 17827 17830 17833 17835 17838 17841 17844 17846 17848 17851 17854 17857 17860 17863 17866 17868 17870 17873 17876 17879 17882 17885 17888 17891 17894 17897 17900 17903 17906 17909 17912 17915 17918 17921 17923 17926 17929 17931 17934 17937 17940 17943 17945 17948 17951 17953 17956 17959 17962 17965 17968 17971 17973 17975 17978 17981 17984 17987 17990 17992 17995 17998 18001 18004 18007 18010 18013 18016 18018 18021 18024 18027 18029 18032 18035 18038 18041 18044 18046 18048 18051 18054 18056 18059 18061 18064 18067 18070 18072 18074 18077 18080 18083 18086 18089 18091 18094 18097 18100 18103 18106 18109 18112 18115 18118 18121 18124 18127 18130 18133 18136 18139 18142 18145 18147 18150 18152 18155 18158 18161 18164 18167 18170 18173 18176 18179 18182 18185 18188 18191 18193 18196 18199 18202 18205 18208 18211 18214 18217 18220 18223 18225 18228 18231 18234 18237 18239 18242 18245 18247 18250 18253 18256 18258 18261 18264 18267 18270 18273 18276 18278 18281 18283 18286 18289 18292 18294 18297 18299 18302 18305 18307 18310 18313 18316 18318 18321 18323 18325 18328 18331 18334 18336 18339 18342 18344 18347 18350 18352 18355 18358 18361 18364 18367 18370 18372 18375 18377 18379 18382 18384 18387 18390 18393 18396 18398 18401 18403 18406 18408 18411 18414 18416 18419 18422 18425 18428 18430 18433 18436 18439 18442 18445 18448 18451 18454 18457 18460 18463 18465 18467 18470 18473 18476 18479 18482 18485 18488 18491 18494 18497 18500 18503 18506 18509 18512 18515 18518 18521 18524 18526 18529 18532 18535 18538 18541 18544 18547 18550 18553 18556 18559 18562 18565 18568 18571 18574 18577 18579 18582 18585 18588 18591 18594 18596 18599 18602 18605 18608 18611 18613 18616 18619 18622 18625 18628 18630 18633 18636 18639 18641 18643 18646 18649 18652 18655 18658 18661 18663 18666 18668 18671 18674 18677 18680 18683 18686 18688 18691 18694 18697 18700 18703 18706 18709 18711 18713 18715 18718 18720 18723 18726 18729 18732 18734 18737 18739 18742 18744 18747 18750 18752 18755 18758 18760 18763 18766 18769 18771 18774 18776 18778 18781 18784 18787 18790 18793 18796 18798 18801 18804 18807 18810 18813 18816 18818 18821 18824 18827 18830 18833 18836 18839 18842 18845 18848 18851 18854 18857 18860 18862 18864 18867 18869 18872 18875 18878 18881 18884 18887 18890 18893 18895 18898 18900 18902 18905 18908 18911 18914 18916 18919 18922 18924 18927 18930 18933 18936 18938 18941 18943 18946 18949 18952 18955 18958 18961 18963 18965 18968 18971 18974 18977 18980 18982 18985 18988 18991 18994 18997 18999 19002 19005 19008 19011 19014 19017 19019 19022 19025 19027 19030 19033 19036 19039 19042 19045 19048 19051 19054 19057 19060 19063 19066 19069 19072 19074 19077 19080 19083 19085 19088 19090 19093 19096 19099 19102 19104 19107 19110 19112 19115 19118 19121 19124 19126 19129 19132 19135 19137 19139 19141 19144 19146 19149 19152 19155 19158 19161 19164 19167 19169 19172 19175 19178 19180 19183 19186 19189 19192 19195 19198 19201 19203 19206 19209 19212 19215 19218 19221 19224 19226 19229 19232 19234 19237 19240 19243 19245 19248 19251 19254 19257 19260 19263 19266 19269 19272 19275 19278 19281 19284 19287 19290 19293 19296 19299 19302 19305 19308 19311 19314 19317 19320 19323 19326 19329 19332 19335 19338 19341 19344 19347 19350 19353 19356 19359 19362 19365 19368 19371 19374 19377 19380 19383 19386 19389 19392 19395 19398 19401 19404 19407 19410 19413 19416 19419 19422 19425 19428 19431 19434 19437 19440 19443 19446 19449 19451 19454 19457 19459 19462 19465 19468 19471 19473 19476 19479 19482 19485 19488 19491 19494 19497 19500 19503 19506 19509 19511 19513 19516 19519 19522 19525 19528 19531 19534 19537 19540 19542 19545 19548 19551 19554 19557 19560 19563 19566 19569 19572 19575 19577 19579 19582 19584 19586 19589 19592 19594 19597 19600 19603 19606 19609 19612 19615 19617 19620 19623 19626 19629 19632 19634 19637 19640 19643 19645 19648 19651 19654 19657 19659 19662 19665 19668 19670 19673 19676 19679 19682 19685 19688 19691 19693 19696 19699 19702 19705 19708 19711 19714 19717 19720 19723 19726 19729 19732 19735 19738 19741 19744 19747 19750 19753 19756 19758 19761 19764 19767 19770 19772 19775 19778 19781 19784 19786 19789 19792 19795 19797 19799 19801 19804 19807 19810 19813 19816 19819 19821 19824 19827 19830 19833 19835 19837 19840 19843 19846 19848 19850 19853 19855 19858 19861 19864 19867 19869 19872 19875 19878 19880 19883 19886 19889 19891 19894 19897 19900 19903 19906 19909 19912 19915 19918 19921 19923 19926 19929 19932 19935 19938 19941 19944 19947 19950 19953 19956 19959 19961 19964 19967 19970 19973 19975 19977 19980 19983 19985 19988 19991 19994 19997 20000 20003 20006 20009 20012 20014 20016 20018 20021 20023 20026 20029 20032 20035 20038 20041 20044 20046 20049 20052 20055 20058 20060 20062 20065 20068 20071 20074 20077 20079 20082 20085 20088 20091 20094 20096 20099 20102 20105 20108 20110 20113 20116 20119 20122 20124 20126 20129 20131 20134 20137 20139 20141 20144 20147 20149 20152 20155 20158 20161 20164 20167 20170 20173 20175 20178 20180 20182 20184 20187 20190 20193 20196 20199 20202 20205 20208 20211 20214 20217 20220 20222 20225 20228 20231 20234 20237 20240 20243 20246 20249 20252 20255 20258 20261 20264 20267 20270 20273 20276 20279 20282 20285 20288 20291 20294 20296 20299 20301 20304 20306 20309 20312 20315 20318 20321 20324 20327 20330 20333 20336 20338 20341 20344 20346 20348 20351 20354 20357 20360 20362 20365 20368 20371 20374 20377 20380 20383 20385 20388 20391 20394 20397 20400 20403 20406 20408 20411 20414 20416 20419 20422 20425 20428 20431 20434 20437 20440 20442 20445 20447 20450 20453 20456 20459 20462 20465 20468 20471 20474 20477 20479 20482 20485 20488 20490 20493 20496 20499 20502 20504 20506 20509 20512 20515 20518 20520 20523 20526 20529 20531 20534 20537 20540 20543 20545 20548 20551 20554 20557 20560 20563 20566 20569 20572 20575 20578 20581 20584 20586 20589 20592 20595 20598 20601 20604 20606 20609 20612 20615 20618 20620 20623 20625 20628 20631 20634 20637 20640 20643 20646 20649 20652 20654 20657 20659 20662 20665 20668 20671 20674 20677 20680 20683 20686 20689 20692 20695 20698 20701 20704 20707 20710 20712 20714 20717 20720 20723 20726 20729 20731 20734 20736 20738 20740 20743 20746 20749 20752 20755 20758 20761 20764 20767 20770 20773 20776 20779 20782 20785 20788 20791 20794 20797 20800 20803 20806 20809 20812 20815 20818 20820 20823 20825 20827 20830 20833 20836 20839 20842 20845 20848 20851 20853 20856 20859 20862 20865 20868 20871 20873 20876 20879 20882 20885 20888 20891 20893 20896 20899 20902 20905 20908 20911 20914 20917 20920 20923 20925 20928 20931 20934 20937 20939 20942 20945 20948 20951 20953 20956 20959 20962 20965 20968 20971 20973 20976 20979 20982 20985 20988 20991 20994 20997 21000 21003 21006 21009 21012 21015 21018 21021 21024 21027 21030 21033 21036 21039 21042 21045 21048 21051 21054 21057 21060 21063 21066 21069 21072 21075 21078 21081 21083 21086 21089 21092 21095 21098 21101 21104 21107 21109 21112 21115 21118 21120 21123 21126 21129 21132 21135 21138 21141 21144 21147 21150 21153 21156 21159 21162 21165 21168 21171 21174 21177 21180 21183 21186 21188 21191 21194 21197 21200 21203 21206 21208 21211 21214 21216 21218 21221 21224 21227 21230 21233 21235 21238 21241 21244 21247 21250 21253 21256 21259 21262 21265 21267 21269 21272 21275 21278 21281 21283 21286 21289 21292 21295 21298 21300 21303 21305 21307 21310 21313 21316 21319 21322 21325 21328 21330 21333 21336 21339 21341 21343 21346 21349 21352 21355 21358 21361 21364 21367 21370 21373 21375 21378 21381 21384 21387 21390 21393 21396 21399 21402 21405 21408 21411 21414 21416 21418 21421 21424 21427 21429 21432 21435 21438 21441 21444 21447 21450 21453 21456 21459 21462 21465 21468 21471 21473 21476 21479 21482 21485 21487 21490 21493 21496 21499 21502 21505 21508 21511 21514 21517 21520 21522 21525 21528 21531 21534 21537 21540 21543 21546 21549 21552 21555 21557 21560 21563 21566 21569 21572 21575 21578 21581 21584 21587 21590 21593 21596 21598 21601 21604 21607 21610 21613 21616 21619 21622 21625 21628 21631 21634 21637 21639 21642 21645 21648 21650 21653 21656 21659 21662 21665 21668 21671 21674 21677 21680 21683 21686 21689 21692 21695 21697 21700 21703 21706 21709 21712 21715 21718 21721 21724 21727 21730 21733 21736 21739 21742 21745 21748 21751 21754 21757 21760 21763 21765 21768 21771 21774 21777 21780 21783 21785 21787 21790 21792 21795 21798 21801 21804 21807 21810 21813 21816 21819 21821 21824 21827 21830 21833 21836 21839 21842 21845 21847 21850 21853 21856 21859 21862 21864 21867 21870 21873 21876 21879 21881 21884 21887 21890 21892 21895 21898 21901 21904 21907 21910 21913 21916 21919 21922 21925 21928 21931 21934 21937 21940 21943 21946 21949 21952 21955 21958 21961 21964 21967 21969 21972 21975 21978 21981 21984 21987 21990 21993 21996 21999 22002 22005 22008 22011 22014 22017 22020 22022 22025 22028 22031 22033 22036 22039 22042 22045 22048 22051 22054 22057 22060 22063 22066 22069 22072 22075 22078 22081 22084 22087 22090 22093 22096 22099 22102 22105 22108 22111 22114 22117 22120 22123 22125 22128 22131 22133 22136 22139 22142 22145 22147 22150 22152 22155 22157 22160 22162 22165 22168 22171 22174 22177 22180 22183 22185 22188 22191 22193 22196 22199 22201 22204 22207 22210 22213 22216 22219 22221 22224 22227 22229 22232 22235 22238 22240 22243 22246 22248 22251 22253 22256 22259 22262 22265 22268 22271 22274 22277 22280 22283 22286 22289 22292 22295 22298 22301 22304 22307 22310 22313 22316 22319 22322 22325 22328 22331 22334 22337 22339 22341 22344 22347 22350 22353 22355 22358 22361 22364 22367 22370 22373 22376 22379 22381 22384 22387 22390 22393 22396 22399 22402 22405 22408 22411 22414 22417 22420 22422 22424 22427 22430 22433 22436 22439 22442 22445 22448 22451 22454 22457 22460 22463 22466 22469 22472 22475 22478 22481 22484 22487 22489 22492 22495 22498 22500 22503 22506 22509 22512 22514 22516 22518 22521 22523 22526 22528 22531 22534 22536 22538 22541 22544 22547 22549 22552 22555 22558 22560 22562 22565 22567 22570 22573 22575 22578 22581 22584 22586 22589 22592 22595 22598 22601 22604 22606 22609 22612 22615 22618 22621 22624 22627 22630 22633 22636 22638 22640 22643 22646 22648 22651 22654 22657 22659 22662 22665 22668 22671 22674 22677 22680 22683 22685 22687 22690 22693 22696 22698 22701 22703 22705 22707 22710 22713 22715 22717 22720 22723 22726 22728 22731 22734 22737 22740 22743 22746 22749 22752 22755 22758 22761 22764 22767 22770 22772 22775 22778 22781 22783 22786 22789 22791 22794 22797 22799 22802 22805 22808 22811 22814 22817 22820 22823 22826 22829 22832 22835 22838 22841 22844 22847 22849 22852 22854 22857 22860 22863 22866 22869 22872 22875 22878 22881 22884 22887 22890 22893 22896 22899 22902 22905 22908 22911 22914 22917 22920 22923 22926 22929 22932 22935 22938 22941 22944 22947 22950 22953 22956 22959 22962 22965 22968 22971 22974 22977 22980 22983 22986 22989 22992 22995 22998 23001 23004 23007 23010 23013 23016 23019 23022 23025 23028 23031 23034 23037 23040 23043 23046 23049 23052 23055 23058 23061 23064 23067 23070 23073 23076 23079 23082 23085 23088 23091 23094 23097 23100 23103 23106 23109 23112 23115 23118 23120 23123 23125 23128 23131 23133 23135 23137 23140 23143 23146 23148 23151 23154 23157 23160 23163 23165 23167 23170 23173 23176 23179 23182 23185 23188 23191 23194 23197 23200 23203 23205 23208 23211 23214 23217 23220 23223 23226 23229 23232 23235 23238 23241 23244 23247 23250 23253 23256 23259 23262 23264 23266 23269 23272 23275 23278 23281 23284 23287 23290 23293 23295 23298 23301 23304 23307 23310 23313 23316 23319 23322 23325 23328 23331 23334 23337 23340 23343 23346 23349 23352 23355 23358 23361 23364 23367 23370 23373 23375 23378 23381 23384 23387 23390 23393 23396 23399 23402 23405 23408 23411 23414 23417 23420 23423 23426 23429 23432 23435 23438 23441 23444 23447 23450 23453 23456 23459 23462 23465 23468 23471 23474 23477 23480 23483 23486 23489 23492 23495 23498 23501 23504 23507 23510 23513 23516 23519 23522 23525 23528 23531 23534 23537 23540 23543 23546 23549 23552 23555 23558 23561 23564 23567 23570 23573 23576 23579 23582 23585 23588 23591 23594 23597 23599 23602 23605 23608 23611 23614 23617 23620 23623 23626 23629 23632 23635 23638 23641 23644 23647 23650 23652 23655 23658 23661 23663 23666 23669 23672 23674 23677 23679 23682 23684 23686 23689 23692 23695 23698 23701 23704 23707 23710 23713 23716 23719 23722 23725 23728 23731 23734 23736 23738 23741 23744 23747 23750 23753 23756 23759 23762 23764 23767 23770 23773 23776 23779 23782 23785 23788 23791 23794 23797 23800 23803 23806 23809 23811 23814 23817 23820 23823 23826 23829 23832 23835 23838 23841 23844 23847 23849 23852 23855 23857 23859 23862 23865 23867 23870 23873 23876 23879 23882 23885 23888 23891 23894 23897 23900 23903 23906 23909 23912 23915 23918 23921 23924 23927 23930 23933 23936 23939 23942 23945 23948 23951 23954 23957 23960 23963 23966 23969 23972 23975 23978 23981 23984 23987 23990 23993 23995 23998 24001 24004 24007 24010 24013 24016 24019 24022 24025 24028 24031 24034 24037 24040 24043 24046 24049 24052 24054 24057 24060 24063 24066 24069 24072 24075 24078 24081 24084 24087 24090 24093 24096 24099 24102 24105 24107 24109 24112 24114 24117 24120 24123 24126 24129 24132 24134 24137 24140 24143 24146 24149 24152 24155 24158 24160 24163 24165 24168 24171 24174 24177 24179 24182 24185 24188 24191 24194 24197 24199 24202 24204 24206 24209 24212 24215 24218 24220 24223 24226 24229 24232 24235 24238 24241 24244 24247 24250 24253 24255 24258 24261 24264 24267 24270 24273 24276 24279 24282 24285 24287 24289 24292 24294 24297 24300 24302 24305 24308 24311 24313 24315 24317 24320 24323 24326 24329 24332 24335 24338 24341 24343 24346 24349 24351 24354 24357 24360 24363 24366 24369 24372 24375 24378 24381 24384 24387 24389 24392 24395 24398 24400 24403 24406 24409 24412 24415 24418 24421 24424 24427 24430 24432 24435 24438 24441 24444 24447 24450 24453 24456 24458 24461 24464 24467 24470 24472 24475 24478 24481 24483 24486 24489 24492 24495 24498 24501 24504 24507 24510 24513 24515 24518 24521 24524 24527 24530 24533 24536 24538 24541 24544 24547 24550 24552 24555 24558 24561 24564 24567 24570 24572 24575 24578 24581 24584 24586 24589 24592 24595 24597 24600 24603 24606 24609 24612 24615 24618 24621 24623 24626 24629 24632 24635 24638 24641 24644 24647 24650 24652 24655 24658 24661 24664 24667 24670 24673 24675 24678 24681 24684 24687 24690 24692 24695 24698 24701 24704 24707 24710 24713 24716 24719 24722 24725 24728 24731 24734 24737 24740 24743 24746 24749 24751 24754 24757 24760 24763 24766 24768 24771 24774 24777 24780 24783 24786 24789 24792 24795 24798 24801 24804 24807 24809 24812 24815 24818 24821 24824 24827 24830 24833 24836 24839 24841 24844 24847 24850 24853 24856 24859 24861 24864 24867 24869 24872 24875 24877 24880 24883 24886 24889 24892 24895 24898 24901 24904 24907 24910 24913 24915 24918 24921 24924 24927 24930 24933 24936 24938 24940 24943 24946 24949 24951 24953 24956 24958 24961 24964 24966 24968 24971 24974 24976 24979 24982 24985 24987 24990 24993 24996 24999 25002 25005 25007 25010 25013 25016 25018 25021 25024 25027 25029 25031 25034 25036 25038 25041 25044 25047 25050 25053 25056 25059 25061 25064 25067 25070 25073 25076 25079 25082 25085 25088 25091 25094 25097 25099 25102 25105 25108 25111 25114 25117 25119 25122 25125 25128 25131 25134 25137 25140 25143 25146 25149 25152 25155 25158 25161 25164 25167 25170 25172 25175 25178 25180 25183 25186 25189 25192 25194 25197 25199 25202 25205 25208 25211 25214 25217 25220 25222 25225 25228 25231 25233 25236 25239 25242 25245 25248 25251 25254 25257 25259 25262 25265 25267 25269 25272 25275 25278 25281 25284 25286 25289 25292 25295 25298 25300 25303 25306 25309 25312 25315 25318 25321 25324 25327 25329 25332 25335 25338 25341 25344 25347 25350 25353 25356 25358 25361 25364 25367 25370 25373 25376 25379 25382 25385 25387 25390 25393 25396 25398 25401 25404 25407 25410 25413 25416 25419 25421 25424 25427 25430 25432 25435 25438 25441 25444 25446 25449 25452 25455 25457 25460 25463 25466 25469 25472 25475 25478 25481 25483 25486 25489 25492 25495 25498 25501 25504 25507 25510 25513 25516 25519 25522 25525 25528 25531 25534 25537 25539 25542 25545 25547 25550 25553 25556 25559 25562 25565 25568 25571 25574 25577 25580 25583 25586 25589 25592 25595 25598 25601 25604 25607 25610 25613 25616 25619 25622 25625 25628 25631 25633 25636 25639 25642 25645 25648 25651 25653 25656 25658 25661 25664 25667 25670 25672 25675 25678 25681 25683 25686 25688 25691 25694 25697 25700 25703 25706 25709 25712 25715 25718 25721 25724 25727 25729 25732 25735 25738 25741 25744 25746 25749 25752 25755 25757 25759 25762 25765 25768 25771 25774 25776 25779 25781 25784 25787 25790 25792 25795 25798 25801 25804 25806 25809 25812 25815 25818 25821 25823 25826 25829 25832 25835 25837 25840 25843 25846 25849 25852 25855 25858 25861 25864 25867 25869 25872 25875 25878 25881 25883 25886 25889 25892 25895 25898 25901 25904 25907 25910 25913 25916 25919 25922 25925 25928 25931 25934 25937 25940 25943 25946 25949 25952 25955 25958 25961 25964 25967 25970 25972 25975 25978 25981 25984 25986 25989 25991 25994 25997 26000 26002 26005 26008 26011 26014 26017 26020 26023 26026 26029 26032 26035 26038 26041 26044 26047 26049 26052 26055 26058 26061 26064 26067 26070 26073 26076 26079 26082 26085 26088 26091 26094 26097 26100 26103 26106 26109 26112 26115 26118 26121 26124 26127 26130 26133 26136 26139 26142 26145 26148 26151 26154 26156 26159 26162 26165 26168 26171 26174 26177 26180 26183 26186 26188 26190 26193 26196 26199 26202 26205 26208 26211 26214 26216 26219 26222 26225 26227 26230 26233 26236 26239 26242 26244 26247 26250 26252 26255 26258 26261 26264 26266 26269 26271 26274 26277 26280 26283 26286 26288 26291 26294 26297 26300 26303 26306 26309 26312 26315 26318 26321 26324 26327 26330 26333 26336 26339 26342 26345 26348 26351 26354 26357 26360 26363 26365 26368 26371 26374 26377 26380 26383 26385 26388 26391 26394 26396 26399 26402 26404 26407 26410 26413 26416 26419 26422 26425 26428 26431 26434 26437 26440 26443 26446 26448 26451 26453 26456 26459 26461 26464 26467 26469 26472 26475 26478 26481 26484 26487 26490 26493 26495 26498 26501 26504 26507 26510 26513 26516 26518 26521 26523 26526 26529 26532 26535 26538 26541 26544 26547 26550 26553 26556 26559 26562 26565 26568 26571 26574 26577 26580 26583 26586 26589 26592 26595 26598 26601 26604 26607 26610 26613 26616 26619 26621 26624 26627 26630 26633 26636 26639 26642 26645 26648 26651 26654 26657 26659 26662 26664 26667 26670 26673 26676 26679 26682 26685 26687 26690 26692 26695 26698 26700 26703 26706 26709 26712 26714 26717 26719 26722 26725 26728 26731 26734 26737 26740 26742 26745 26748 26751 26753 26756 26759 26761 26764 26767 26769 26772 26775 26778 26781 26784 26787 26790 26793 26795 26798 26801 26804 26807 26810 26812 26815 26817 26820 26823 26825 26828 26831 26834 26837 26840 26843 26846 26849 26852 26855 26858 26860 26863 26865 26868 26871 26873 26876 26879 26881 26884 26887 26890 26892 26895 26898 26901 26904 26907 26910 26913 26916 26919 26922 26925 26927 26929 26932 26935 26938 26940 26942 26945 26948 26951 26954 26957 26960 26963 26966 26969 26972 26975 26978 26981 26984 26987 26990 26993 26995 26998 27001 27004 27007 27010 27013 27016 27019 27022 27025 27028 27031 27034 27037 27040 27043 27046 27049 27052 27055 27057 27060 27062 27065 27068 27070 27073 27076 27079 27082 27084 27087 27090 27093 27096 27099 27102 27105 27108 27111 27114 27117 27120 27122 27125 27128 27131 27133 27136 27139 27142 27145 27148 27150 27153 27156 27158 27160 27162 27164 27167 27170 27173 27176 27179 27182 27184 27187 27190 27192 27194 27196 27199 27201 27204 27207 27210 27213 27216 27219 27222 27225 27228 27230 27233 27236 27239 27242 27245 27248 27251 27254 27257 27260 27263 27266 27269 27272 27275 27277 27279 27282 27285 27287 27290 27293 27296 27298 27301 27303 27305 27308 27311 27314 27317 27320 27322 27325 27328 27330 27333 27336 27339 27341 27344 27347 27350 27353 27356 27358 27361 27364 27367 27370 27373 27376 27379 27382 27385 27388 27391 27394 27397 27400 27403 27406 27409 27412 27414 27417 27420 27423 27426 27429 27432 27435 27438 27441 27444 27447 27450 27453 27456 27459 27462 27465 27468 27471 27474 27477 27480 27483 27486 27488 27491 27494 27496 27499 27502 27505 27508 27511 27514 27517 27520 27523 27526 27529 27531 27534 27537 27540 27543 27546 27548 27550 27553 27556 27559 27562 27564 27567 27570 27573 27576 27579 27582 27585 27588 27590 27592 27595 27598 27600 27603 27606 27608 27611 27613 27615 27618 27620 27623 27626 27629 27632 27634 27637 27640 27643 27645 27648 27651 27654 27656 27659 27662 27664 27667 27670 27672 27675 27678 27681 27684 27687 27690 27693 27696 27699 27701 27703 27706 27709 27711 27714 27717 27720 27723 27725 27728 27731 27734 27736 27739 27742 27745 27748 27750 27753 27756 27759 27762 27765 27768 27771 27774 27777 27780 27783 27786 27789 27792 27795 27798 27801 27804 27807 27810 27813 27816 27819 27821 27824 27827 27830 27833 27836 27839 27842 27845 27848 27851 27854 27857 27860 27863 27866 27869 27872 27875 27878 27881 27884 27887 27890 27893 27896 27899 27901 27904 27907 27910 27913 27916 27919 27922 27925 27928 27931 27934 27937 27940 27943 27946 27949 27951 27954 27956 27959 27962 27965 27968 27971 27974 27977 27980 27983 27986 27989 27992 27995 27998 28001 28004 28007 28010 28013 28016 28018 28021 28024 28027 28030 28033 28036 28039 28041 28043 28046 28049 28052 28055 28058 28061 28064 28066 28069 28072 28075 28078 28080 28083 28086 28088 28091 28093 28096 28098 28101 28104 28107 28110 28113 28116 28119 28121 28124 28126 28129 28132 28134 28137 28140 28143 28146 28149 28152 28155 28158 28161 28164 28167 28170 28173 28176 28179 28182 28185 28188 28191 28194 28196 28199 28202 28205 28208 28211 28214 28216 28218 28221 28224 28226 28229 28232 28235 28237 28240 28243 28246 28249 28252 28255 28258 28260 28263 28266 28269 28272 28275 28278 28281 28284 28287 28290 28293 28296 28299 28302 28305 28308 28310 28313 28316 28319 28322 28325 28328 28331 28334 28337 28339 28342 28345 28348 28351 28354 28356 28359 28362 28365 28368 28371 28374 28377 28379 28382 28385 28388 28391 28394 28397 28400 28403 28406 28408 28411 28414 28416 28419 28421 28424 28426 28429 28431 28434 28437 28440 28443 28446 28448 28451 28454 28457 28460 28463 28465 28468 28471 28474 28477 28480 28483 28486 28489 28491 28493 28496 28499 28502 28505 28508 28511 28514 28517 28520 28523 28526 28529 28532 28534 28537 28540 28543 28546 28549 28552 28555 28558 28561 28563 28566 28569 28572 28575 28578 28581 28584 28587 28590 28592 28595 28598 28600 28602 28605 28608 28611 28613 28616 28619 28622 28625 28628 28630 28632 28635 28638 28641 28644 28647 28650 28653 28656 28658 28661 28663 28666 28669 28671 28674 28677 28680 28683 28686 28689 28692 28695 28698 28701 28704 28707 28710 28712 28715 28718 28721 28724 28726 28729 28732 28735 28738 28741 28744 28747 28750 28753 28756 28759 28762 28765 28768 28770 28773 28776 28778 28781 28784 28786 28789 28792 28795 28798 28801 28804 28807 28810 28813 28816 28819 28822 28824 28827 28830 28833 28836 28839 28841 28844 28847 28850 28853 28855 28858 28861 28864 28867 28870 28873 28875 28878 28881 28884 28886 28889 28892 28895 28897 28900 28903 28905 28908 28911 28914 28917 28920 28923 28926 28929 28932 28935 28938 28941 28944 28947 28950 28953 28956 28959 28962 28965 28968 28971 28974 28977 28979 28982 28985 28987 28989 28992 28995 28998 29001 29003 29006 29008 29010 29013 29015 29018 29021 29023 29025 29028 29031 29033 29036 29039 29042 29045 29048 29050 29052 29055 29057 29060 29062 29065 29068 29071 29074 29077 29080 29083 29086 29089 29092 29095 29098 29101 29104 29106 29109 29112 29115 29118 29120 29123 29126 29129 29132 29135 29138 29141 29144 29147 29150 29153 29156 29159 29161 29164 29167 29169 29171 29174 29177 29180 29183 29185 29188 29190 29193 29196 29199 29202 29205 29208 29211 29214 29217 29220 29223 29226 29229 29232 29235 29238 29241 29244 29247 29250 29253 29255 29257 29260 29263 29266 29269 29271 29274 29277 29280 29283 29286 29288 29291 29294 29297 29300 29302 29305 29308 29311 29314 29317 29320 29323 29325 29328 29331 29334 29337 29339 29342 29345 29348 29351 29354 29357 29360 29363 29366 29369 29372 29375 29378 29381 29384 29387 29390 29393 29396 29399 29402 29405 29408 29411 29414 29417 29420 29423 29426 29428 29431 29433 29435 29438 29441 29444 29447 29450 29453 29456 29459 29461 29464 29467 29470 29473 29475 29478 29481 29484 29487 29490 29493 29496 29499 29502 29505 29508 29511 29514 29517 29520 29523 29526 29529 29532 29535 29538 29541 29544 29547 29550 29553 29556 29558 29561 29564 29567 29569 29571 29574 29577 29580 29583 29586 29589 29591 29594 29597 29599 29602 29605 29608 29611 29614 29617 29619 29622 29625 29628 29631 29633 29636 29639 29641 29644 29647 29650 29653 29656 29659 29662 29665 29668 29671 29674 29677 29680 29683 29685 29688 29691 29694 29697 29700 29703 29706 29709 29712 29715 29718 29721 29724 29727 29730 29733 29736 29739 29742 29745 29748 29751 29754 29757 29760 29763 29766 29769 29772 29775 29778 29781 29784 29787 29790 29793 29796 29799 29802 29805 29808 29811 29814 29816 29819 29822 29825 29828 29830 29833 29836 29838 29841 29843 29846 29849 29852 29855 29857 29860 29863 29865 29868 29870 29873 29875 29878 29881 29884 29887 29890 29893 29896 29899 29902 29905 29908 29911 29913 29916 29919 29922 29925 29928 29931 29934 
</DataArray>
<DataArray type="UInt32" Name="types" format="ascii">
5 5 5 5 5 3 5 3 5 5 5 3 5 5 5 5 5 5 5 5 5 5 5 5 3 5 5 3 5 5 5 5 5 5 3 5 5 5 5 5 5 5 5 5 5 5 5 5 5 5 5 3 5 3 5 5 5 5 5 5 5 5 5 5 5 5 5 5 3 5 5 5 5 5 5 5 5 5 3 5 5 5 5 5 3 5 5 5 5 5 5 3 5 3 5 5 5 5 5 3 5 5 5 5 5 3 5 5 5 5 5 5 5 5 5 5 5 3 3 5 5 3 5 3 3 5 5 5 5 5 3 3 3 5 5 5 5 5 5 5 5 5 5 3 5 5 5 3 5 5 5 5 5 5 5 5 5 5 5 5 3 5 5 5 5 3 5 5 5 3 5 5 3 5 5 5 5 5 5 5 5 5 3 5 3 5 5 5 3 5 5 3 3 5 5 5 5 5 5 5 5 3 5 3 5 3 5 5 5 5 5 5 3 5 5 5 5 5 5 5 3 3 5 3 3 5 3 5 5 5 3 5 5 5 5 5 5 5 5 3 5 5 5 5 5 3 5 5 5 5 5 5 5 5 5 5 5 5 5 5 5 5 5 5 5 5 5 5 5 5 5 5 5 5 5 5 5 5 5 5 5 5 5 5 5 5 5 5 5 3 5 3 5 5 3 5 3 5 5 5 3 5 5 3 3 5 5 5 3 3 5 5 5 5 5 5 3 5 5 5 3 5 5 5 5 5 5 3 5 5 3 5 5 3 3 3 3 5 3 3 5 5 5 5 5 3 5 5 5 5 5 5 5 3 5 3 5 5 5 5 5 5 5 3 5 5 5 5 5 5 5 5 3 3 5 5 3 5 3 5 3 3 5 5 5 3 5 3 3 3 3 5 5 5 5 5 5 5 3 3 5 5 5 3 5 5 3 5 5 5 5 5 5 5 3 5 5 5 5 5 5 5 5 5 3 5 5 5 3 5 3 5 5 3 5 5 5 5 5 3 5 5 5 3 5 5 5 5 5 5 5 3 5 5 5 3 5 5 5 5 5 5 5 5 5 5 5 5 5 5 5 5 5 5 5 3 5 5 5 5 5 5 5 5 5 5 5 5 5 5 5 5 5 5 3 5 5 5 5 3 5 5 5 5 5 5 5 5 3 5 5 5 3 5 5 3 5 3 5 5 5 5 3 5 5 5 3 5 3 3 3 5 5 5 5 5 5 5 5 5 5 5 5 5 3 5 5 3 5 5 3 5 5 5 5 5 5 5 3 5 3 5 5 3 5 3 5 5 5 5 5 3 5 3 5 5 3 5 3 5 5 5 3 3 5 5 3 3 3 3 5 5 5 5 5 3 3 5 5 5 5 5 3 5 5 3 5 5 5 3 5 5 3 5 5 5 5 5 5 5 5 5 5 5 5 5 3 5 5 5 5 5 3 5 5 5 5 5 3 5 5 3 3 5 5 3 5 5 5 5 5 5 5 5 5 5 3 5 5 5 5 5 3 5 5 5 5 5 5 3 5 5 5 5 5 5 5 5 3 5 5 5 5 5 3 5 5 5 5 5 5 5 3 5 5 5 5 5 3 5 5 5 5 5 3 5 5 5 5 5 5 5 3 5 5 5 5 5 5 3 5 5 3 5 5 3 5 5 3 3 5 5 5 5 5 5 5 5 5 5 3 5 5 3 5 5 5 5 5 3 5 3 5 5 5 3 5 3 3 5 5 5 5 5 5 5 3 5 5 3 5 5 5 5 5 5 5 5 5 5 5 3 5 5 5 5 5 3 3 5 5 5 5 3 5 5 5 5 5 3 5 3 5 3 3 5 5 5 5 5 5 5 5 3 3 5 5 3 5 5 5 3 5 3 5 5 3 3 3 5 5 3 5 5 5 5 3 5 5 5 5 3 5 5 3 5 5 5 5 5 5 5 5 5 5 5 3 5 5 3 5 3 5 3 5 5 5 5 5 3 5 5 5 3 5 5 3 5 5 5 5 5 5 5 5 5 5 5 5 5 5 5 5 5 5 5 5 5 5 5 5 5 5 5 5 5 5 5 5 5 5 5 5 5 5 5 5 5 3 5 5 5 5 5 5 5 5 5 5 5 5 5 5 5 5 5 5 5 5 3 5 5 5 5 5 5 5 5 5 5 3 5 5 5 5 3 5 5 5 5 5 5 5 5 3 5 5 3 5 5 5 5 5 5 5 5 5 3 5 5 5 5 5 3 5 5 5 5 5 5 5 5 5 3 3 5 5 5 5 5 5 5 5 5 5 5 5 5 5 5 5 5 5 5 5 5 5 3 5 5 5 5 3 5 5 5 5 5 3 5 5 5 5 3 5 5 5 3 5 5 5 5 5 3 5 5 5 5 5 5 5 5 5 5 3 5 3 3 5 5 5 5 5 5 3 5 5 5 5 5 5 5 5 5 5 5 5 5 5 5 5 5 5 5 5 5 3 5 5 5 5 3 5 5 5 5 5 5 5 5 5 5 5 5 5 5 5 5 5 5 5 5 5 5 5 5 5 5 5 5 5 5 5 5 5 5 5 5 5 5 5 3 5 5 5 5 5 5 5 5 5 5 5 5 5 5 3 5 5 5 5 5 5 5 5 5 3 5 5 5 3 5 3 5 3 5 5 5 5 3 5 5 5 5 5 5 5 5 5 5 5 5 3 5 5 5 5 5 5 5 5 5 5 5 5 5 5 5 3 5 5 5 5 5 5 5 5 5 5 5 5 5 5 5 5 5 5 5 5 5 5 5 5 5 5 5 5 5 5 5 5 5 5 5 5 5 3 5 5 5 5 3 5 5 5 3 5 5 5 5 3 5 5 5 3 5 5 5 5 5 5 5 5 3 5 5 5 5 5 5 5 5 5 5 5 5 5 5 5 5 5 5 5 5 5 5 5 5 5 5 5 5 5 5 5 5 5 5 5 5 5 3 5 3 5 5 3 5 5 5 5 5 5 5 5 3 5 5 5 5 5 5 5 5 5 5 5 5 5 5 3 5 5 5 5 5 5 5 5 5 5 5 5 5 3 5 5 5 3 3 5 3 5 3 5 5 5 5 3 5 3 3 5 5 5 5 5 3 3 5 5 5 3 5 5 5 5 5 3 5 5 5 5 3 5 5 5 3 5 5 5 5 5 5 5 5 5 5 5 5 5 5 3 5 5 5 5 5 5 5 5 5 5 5 5 5 5 3 5 5 3 5 5 5 5 3 3 3 5 3 5 3 5 5 5 3 5 5 3 5 5 5 5 5 3 5 5 5 5 5 5 3 5 5 5 5 5 5 5 5 5 3 5 5 3 5 3 5 5 5 5 5 5 5 5 3 5 5 3 5 5 5 5 3 5 5 5 5 5 5 5 5 3 3 5 5 5 5 5 5 5 5 5 5 3 5 3 5 3 5 5 5 5 5 3 5 5 3 5 5 5 5 5 5 5 5 3 5 5 5 5 5 5 5 3 5 5 3 5 5 3 5 3 3 5 3 5 5 3 5 5 5 5 3 3 5 3 5 3 5 5 5 5 3 3 5 5 5 5 3 5 5 5 3 5 5 5 5 3 5 5 5 3 3 5 5 5 5 3 3 5 3 5 5 5 3 3 5 5 5 5 5 5 5 5 5 5 5 5 3 5 5 5 5 5 5 5 5 5 5 5 5 5 5 5 3 5 5 5 5 5 5 5 5 3 5 5 5 5 5 5 5 5 5 5 5 5 5 3 5 5 5 3 3 5 5 5 5 5 5 5 5 5 5 5 3 5 5 5 5 5 3 5 3 5 3 5 5 5 5 5 5 5 5 5 5 5 3 5 3 5 5 3 5 5 5 5 3 5 5 3 5 5 5 5 5 5 5 5 5 5 5 3 5 5 5 5 5 5 3 3 5 5 5 5 5 5 5 5 5 5 5 5 3 5 5 5 5 5 5 3 5 5 3 5 5 3 5 5 5 5 5 3 5 5 5 5 5 5 5 5 5 3 5 5 5 5 5 5 5 5 5 5 5 5 5 5 5 5 5 5 5 5 5 5 5 5 3 3 5 5 5 5 5 3 5 5 5 5 5 5 5 5 5 3 5 5 5 3 5 5 3 5 5 5 5 5 5 5 5 5 3 3 5 5 5 5 5 5 5 5 5 5 5 5 5 5 3 5 5 5 5 5 5 3 5 5 3 5 5 3 5 5 5 3 5 5 5 5 3 5 5 5 3 5 5 5 3 5 3 5 5 5 5 5 3 5 5 5 5 5 5 5 3 5 5 5 5 5 5 5 3 5 5 5 5 5 5 5 5 3 5 5 3 5 5 5 5 5 5 5 5 3 5 5 5 5 5 5 5 5 3 5 5 5 5 3 5 5 5 5 5 5 3 5 5 5 5 3 5 5 3 5 5 3 5 5 5 5 5 5 5 5 5 5 5 5 5 5 5 3 5 3 5 5 5 5 5 3 5 5 5 5 5 5 3 5 3 5 5 5 3 3 5 3 5 5 5 5 5 5 3 5 5 3 5 5 5 5 5 5 5 3 5 5 5 5 3 5 5 3 5 3 3 3 5 5 3 5 3 5 5 3 3 3 5 5 3 5 5 5 5 5 5 5 5 5 5 5 5 5 3 5 3 5 5 5 5 5 3 3 5 5 5 3 5 5 3 3 5 5 5 5 5 5 5 5 3 5 5 5 5 5 5 5 5 3 5 5 5 5 5 5 5 5 5 5 5 3 5 5 5 3 5 5 3 5 5 5 5 3 5 5 5 5 5 5 5 5 5 5 5 5 5 5 3 5 5 5 3 5 5 5 5 5 5 5 5 5 5 5 5 5 3 5 5 5 3 5 5 3 5 3 5 5 5 5 5 5 5 5 5 3 5 5 5 5 3 5 5 5 3 5 5 5 5 3 5 5 3 5 5 5 5 3 5 5 5 5 5 5 5 3 5 5 3 5 5 3 5 5 5 5 5 3 5 3 5 5 5 5 5 5 5 5 5 5 5 5 5 5 3 5 5 5 5 5 5 5 5 5 5 5 5 5 5 5 5 5 5 5 5 5 5 5 5 3 5 5 5 5 5 5 5 5 5 5 5 5 5 5 5 3 5 5 5 5 5 5 5 5 5 5 5 5 5 5 5 5 5 5 5 5 5 5 5 5 5 5 5 5 5 5 5 5 5 5 5 5 5 5 5 5 5 5 5 5 5 5 5 5 5 5 5 5 5 5 5 5 5 5 5 5 5 5 5 5 5 5 5 5 5 5 5 5 5 5 5 5 5 5 5 5 5 5 5 5 5 5 5 5 5 5 5 5 5 5 5 5 5 5 5 5 5 5 5 5 5 5 5 5 5 5 5 5 5 5 5 5 5 5 5 5 5 5 5 5 5 5 5 5 5 5 5 5 5 5 5 5 5 5 5 5 5 5 5 5 5 5 5 5 5 5 5 5 5 5 5 5 5 5 3 5 5 5 5 5 5 5 5 5 5 3 5 5 5 5 3 5 5 5 5 3 3 5 3 5 5 5 5 5 3 3 3 3 5 5 5 5 5 5 5 3 5 5 3 5 5 3 5 5 5 3 5 3 5 5 5 5 5 5 3 3 5 5 5 5 5 5 5 5 5 5 5 5 5 5 5 5 5 5 5 5 5 5 5 5 5 5 5 5 5 5 5 5 5 5 5 5 5 5 5 5 5 5 5 5 5 5 3 5 3 5 5 5 5 5 5 5 5 3 5 5 5 5 5 5 5 5 5 5 5 5 5 5 5 5 5 3 5 3 5 5 3 5 5 3 5 3 5 5 5 5 5 5 5 5 5 5 5 5 5 5 5 5 5 5 5 5 5 5 5 5 5 5 5 5 5 5 5 5 5 5 5 5 5 3 5 5 5 5 5 5 5 5 5 5 5 5 5 5 5 5 3 5 5 5 5 5 3 5 5 5 5 5 5 5 5 5 5 5 5 5 5 5 3 5 3 5 5 5 5 5 3 3 5 5 5 5 5 5 3 3 5 5 5 5 5 5 5 5 3 5 5 5 5 5 5 3 5 5 3 5 5 5 5 5 5 5 5 5 3 3 5 5 5 5 5 5 3 5 5 5 5 5 5 5 5 5 5 5 5 5 5 5 3 3 5 5 5 3 5 5 5 5 5 5 3 5 3 3 5 3 5 5 5 5 5 5 3 5 5 5 5 5 5 5 5 3 5 5 5 5 5 5 5 5 5 5 5 5 5 5 5 3 5 3 5 5 5 5 5 5 5 5 3 5 5 5 3 3 5 5 5 5 3 5 3 3 5 5 5 5 5 5 5 5 5 3 3 3 5 5 5 3 5 5 5 3 5 5 5 5 5 5 5 5 5 5 3 5 5 5 5 3 5 5 5 5 3 5 3 5 3 5 5 5 5 3 3 5 5 3 5 5 5 3 5 5 3 5 5 3 5 5 5 5 5 5 5 3 5 5 5 5 3 5 5 5 5 3 5 3 5 5 3 5 3 5 3 5 5 5 5 3 5 5 5 5 5 3 5 3 5 3 5 5 5 5 5 5 5 5 5 3 5 5 3 5 5 5 5 5 5 5 5 5 5 5 3 3 5 5 3 5 5 5 5 5 3 5 5 5 5 5 5 5 5 5 5 5 5 3 5 5 3 3 5 5 5 5 5 5 5 5 3 5 5 3 5 5 5 5 5 5 3 5 5 5 5 5 5 5 5 5 5 5 5 3 5 5 5 3 3 5 3 5 3 5 5 5 5 5 5 3 5 5 5 5 5 5 5 5 5 5 5 5 5 5 5 5 5 5 5 5 5 3 5 5 5 3 5 3 5 5 5 5 5 5 5 5 5 5 5 3 5 3 5 5 3 5 5 5 3 5 5 5 5 5 5 5 5 5 5 5 5 5 5 5 5 5 5 5 3 5 5 5 5 3 5 5 5 5 5 5 3 5 5 5 3 5 5 5 5 5 5 5 5 5 5 3 5 5 5 3 5 5 5 5 3 5 5 5 5 5 5 5 5 5 5 5 5 3 3 5 5 5 5 5 5 5 5 3 3 5 3 5 5 5 3 5 5 5 5 5 3 5 5 5 5 5 5 5 5 5 5 5 3 5 5 5 5 3 5 5 5 3 5 5 3 5 5 5 5 5 5 5 5 5 5 5 5 5 3 5 5 5 5 5 5 5 5 5 5 5 5 5 5 5 5 5 5 5 5 5 5 5 5 5 3 5 3 5 5 5 5 3 5 5 5 5 5 5 5 5 5 5 5 5 5 5 5 5 5 5 3 5 3 5 5 5 5 5 5 5 5 3 5 5 3 5 3 5 5 5 3 5 5 5 5 5 5 5 3 5 5 5 5 3 3 5 5 5 3 5 5 5 5 5 5 5 5 5 5 5 3 5 5 5 5 5 5 3 5 5 5 5 5 5 5 5 3 5 5 3 5 5 5 5 3 5 5 5 3 5 3 5 5 5 3 5 5 5 5 5 5 3 5 5 5 5 5 5 5 5 5 5 3 5 3 5 5 5 5 5 5 5 5 5 5 5 5 5 5 3 5 5 3 5 5 5 5 5 5 5 5 5 5 5 5 5 5 5 5 5 5 3 5 5 5 5 5 5 5 5 5 3 5 5 3 5 3 5 5 5 3 5 5 5 5 5 5 5 5 5 3 5 5 5 5 5 3 5 5 3 5 5 3 5 5 5 5 3 5 5 5 3 5 5 5 5 5 5 5 5 5 5 5 5 5 5 5 5 5 5 5 5 5 5 5 3 3 5 5 3 5 5 5 3 5 5 5 5 5 5 5 5 3 5 5 5 5 5 3 5 5 3 5 5 5 3 5 5 5 5 5 5 5 5 3 5 5 5 5 3 5 5 5 5 5 5 3 5 5 5 5 5 5 5 5 5 5 3 5 5 5 5 5 5 5 5 3 3 5 3 5 5 5 5 5 5 3 5 3 5 3 5 5 5 5 5 5 3 5 3 5 3 5 3 5 5 5 3 5 3 5 3 5 5 3 5 5 5 5 3 5 3 5 5 5 3 5 5 5 5 3 5 5 5 5 3 5 5 3 5 5 5 5 3 5 5 5 5 5 5 5 5 5 5 5 5 5 5 5 3 5 5 5 5 5 5 5 5 5 5 5 5 5 5 5 5 5 3 5 5 5 5 5 5 5 5 5 5 5 5 5 5 5 5 5 5 5 5 5 5 5 5 5 5 5 5 5 5 5 5 5 5 5 5 5 5 5 5 5 5 5 5 5 5 5 5 5 5 5 5 5 5 5 5 5 5 5 5 5 5 5 5 5 5 5 5 5 5 5 5 5 5 5 5 5 5 5 5 5 5 5 5 5 5 5 5 5 5 5 5 5 5 5 5 5 5 5 5 5 3 5 5 5 5 5 5 5 5 5 5 5 5 5 5 5 5 5 5 5 3 5 5 5 5 5 5 5 5 5 5 5 5 5 5 5 5 5 5 3 5 5 5 5 5 5 5 3 3 5 5 3 5 5 5 5 5 5 5 5 5 3 5 5 5 5 5 5 5 5 5 5 3 5 5 5 5 3 5 5 3 3 5 3 5 5 3 5 5 5 5 3 3 5 5 5 5 5 5 3 5 5 3 5 5 5 5 5 3 5 3 5 3 5 3 5 3 3 5 5 5 5 3 3 5 3 5 5 3 5 5 5 5 5 3 5 3 5 3 5 5 3 3 5 5 5 3 5 5 5 5 5 3 5 3 5 5 5 5 5 5 5 5 5 5 5 5 5 5 5 3 5 5 5 5 3 3 5 5 5 3 5 5 3 3 5 5 5 3 5 5 5 5 5 3 3 5 5 5 5 5 5 5 5 5 5 5 5 3 5 5 5 3 5 5 5 5 3 5 3 5 5 5 5 5 5 5 3 3 5 3 5 5 5 3 3 5 5 3 5 5 3 5 5 3 5 3 5 5 5 5 5 5 5 5 3 5 5 5 5 3 5 5 5 5 5 5 5 5 5 5 3 5 5 5 5 5 3 5 5 5 5 5 5 5 5 5 5 5 3 5 5 5 5 3 5 5 5 5 5 5 5 5 5 5 5 5 3 5 5 5 5 5 5 3 5 5 5 3 5 5 3 5 3 5 3 5 3 5 5 5 3 5 5 5 3 3 5 5 5 3 5 5 5 5 5 3 5 5 5 5 5 5 3 5 5 3 5 5 5 5 3 5 5 5 5 5 5 5 5 5 3 5 5 5 3 5 5 3 5 5 5 5 5 5 5 5 3 3 5 5 5 3 5 5 5 5 5 5 5 3 5 5 5 5 5 5 5 3 5 5 5 5 5 5 5 3 5 5 5 5 5 5 5 5 5 5 3 5 5 5 5 5 3 5 5 5 5 3 5 5 5 5 5 5 5 5 5 5 3 5 5 5 5 5 5 5 5 3 5 5 5 3 5 5 5 5 5 3 5 5 5 5 5 5 5 3 5 5 5 5 5 5 5 5 5 3 5 5 5 5 5 5 5 5 5 5 5 5 5 5 5 5 5 5 5 5 5 5 5 5 5 5 5 5 5 3 5 5 5 3 5 5 5 5 5 5 5 5 5 5 5 5 5 5 5 3 3 5 5 5 5 5 5 5 3 5 5 5 3 3 5 5 5 5 5 5 5 5 5 5 5 5 5 5 5 5 5 5 5 5 5 3 5 5 5 3 5 5 5 5 5 5 5 5 5 5 5 5 5 5 5 5 5 5 5 5 5 5 5 5 5 5 5 5 5 3 5 5 5 5 5 5 5 5 5 5 5 5 5 5 5 5 5 5 5 5 5 3 5 5 5 5 5 5 5 5 3 5 5 5 5 5 3 5 5 5 5 5 5 5 5 5 5 5 3 3 5 5 3 5 3 5 5 5 5 5 5 5 5 5 5 5 5 5 5 5 5 5 3 5 5 5 5 5 5 5 5 5 5 5 5 3 5 5 3 5 5 5 5 5 5 3 5 5 5 3 5 5 5 5 5 3 5 3 5 5 5 5 5 5 5 5 3 5 5 5 5 3 5 5 5 5 5 5 5 5 5 3 5 3 5 5 5 5 5 5 5 5 5 3 5 5 5 5 5 5 5 5 3 5 5 5 5 5 5 5 3 5 5 5 3 5 5 5 5 3 5 5 5 5 5 3 5 5 3 5 5 5 5 5 5 5 5 5 5 5 5 5 5 5 5 5 5 5 5 5 5 5 5 3 3 5 5 5 5 5 5 5 3 5 5 5 5 5 5 5 5 5 5 5 5 5 5 5 5 5 5 5 3 5 5 5 3 3 5 5 5 5 5 5 5 5 5 5 5 5 5 5 5 5 5 5 5 5 5 5 5 5 5 5 5 3 5 5 5 3 5 5 5 5 3 5 3 5 5 5 5 5 3 5 5 3 5 5 5 5 5 5 5 5 5 5 5 5 5 5 3 5 5 5 5 5 5 5 3 3 5 5 3 5 5 5 5 5 5 5 5 5 3 3 5 5 5 5 5 5 5 5 3 5 5 5 3 5 5 5 5 5 5 3 5 5 5 3 5 5 5 5 5 5 5 3 5 5 5 5 3 5 5 3 5 5 5 3 3 5 5 5 5 3 5 5 3 5 5 5 3 5 5 5 5 3 5 3 5 5 5 5 5 5 5 5 5 5 5 5 5 3 5 3 5 5 5 5 3 5 5 5 5 5 3 5 5 5 3 5 5 5 5 5 5 5 5 5 5 5 5 5 5 5 5 5 5 5 5 5 5 5 5 5 5 5 5 5 5 5 5 5 5 3 5 5 3 5 5 5 5 5 5 3 5 3 5 5 5 5 5 5 3 5 5 5 3 5 5 5 5 5 5 5 5 3 5 3 3 5 5 5 5 5 5 5 3 5 5 5 5 5 3 5 5 5 5 5 5 5 5 5 5 5 5 5 3 5 5 5 5 5 5 5 5 5 5 5 5 5 5 5 5 5 5 5 5 5 5 5 5 5 5 5 5 5 5 5 5 5 5 5 5 5 5 5 5 5 5 5 5 5 3 5 5 5 5 5 5 5 5 5 5 5 5 5 5 3 3 5 3 5 5 3 5 5 3 3 5 5 5 5 5 5 3 5 5 5 3 5 5 5 5 5 5 5 5 5 5 5 5 5 5 5 5 5 5 5 5 5 5 5 5 5 5 5 5 5 5 5 5 3 5 5 5 3 5 5 5 5 5 5 5 3 5 5 5 3 5 5 5 5 5 5 5 5 5 5 5 5 3 5 5 5 5 5 5 5 5 5 5 5 5 5 5 5 5 5 3 5 5 5 5 5 5 3 5 5 5 5 5 5 5 5 5 5 5 5 5 5 5 5 5 5 5 5 5 5 5 5 5 5 5 5 5 5 5 5 5 5 5 5 5 5 5 5 5 5 5 5 5 5 5 5 5 5 3 5 5 5 5 5 5 5 5 5 5 5 5 5 5 5 5 5 5 5 5 3 5 5 5 5 5 5 5 5 5 5 5 5 5 5 5 5 5 5 5 5 5 3 5 5 5 5 5 5 5 5 5 5 5 5 5 5 5 5 5 5 5 5 5 5 5 5 5 3 5 5 5 5 3 5 5 5 5 5 5 5 5 5 5 5 5 5 5 3 5 5 5 3 5 5 5 5 5 5 5 5 5 5 5 5 5 3 3 5 5 5 5 5 5 5 5 3 5 5 5 3 5 5 5 5 3 5 5 5 5 3 5 3 5 5 5 5 5 5 5 3 5 5 3 5 5 5 5 3 5 5 5 5 5 5 5 5 5 5 5 3 5 3 5 5 5 3 5 5 5 5 3 5 5 5 5 5 3 5 3 5 5 5 3 5 5 5 5 3 3 5 5 5 5 5 3 5 5 5 3 5 5 5 5 3 5 5 3 5 5 5 5 5 5 5 3 5 5 5 5 5 5 5 5 5 5 5 5 5 5 5 5 5 5 5 5 5 3 5 5 5 5 5 5 5 5 5 5 5 5 5 5 5 5 5 3 5 5 5 5 3 5 3 5 5 5 5 5 5 5 5 5 3 5 5 3 3 5 5 3 5 5 5 5 5 5 5 3 3 5 5 3 3 5 5 5 5 5 5 5 3 5 5 3 5 5 5 5 5 3 5 5 5 5 5 5 5 5 5 5 5 5 5 5 5 5 5 5 5 5 5 3 3 5 5 5 5 3 5 5 3 5 5 5 5 3 5 5 5 5 5 5 5 5 5 5 5 5 5 5 5 3 5 5 5 5 3 5 5 5 5 5 5 5 5 5 5 5 5 5 5 5 5 5 5 5 5 3 3 5 5 5 5 5 5 5 5 5 3 5 5 3 5 5 3 5 5 5 5 5 5 5 5 5 5 3 5 5 3 5 5 5 5 5 5 5 5 5 5 5 5 5 5 5 5 5 5 5 5 5 5 5 5 5 5 5 5 5 3 5 5 5 3 5 5 5 5 5 5 5 5 5 3 5 5 5 5 5 5 5 3 5 5 5 5 3 5 5 5 5 5 5 5 5 5 3 5 5 3 5 5 3 5 5 5 5 3 5 5 5 5 3 5 5 5 5 5 5 5 5 5 5 3 5 5 5 5 3 5 5 5 5 3 5 5 5 5 5 5 5 3 5 5 5 3 5 5 5 5 5 3 3 5 5 5 5 3 5 3 5 5 5 5 5 5 5 5 5 5 5 5 5 5 5 5 5 5 5 5 5 5 5 5 3 5 5 5 5 5 5 5 5 5 5 3 5 3 5 5 5 5 5 5 5 5 5 3 5 5 5 5 5 5 5 5 5 5 5 5 5 5 5 5 5 5 5 5 5 5 5 5 5 5 3 3 3 5 5 5 3 5 5 5 5 5 5 5 5 5 5 3 5 5 3 5 5 5 5 5 5 5 5 5 5 5 5 5 5 5 5 5 5 5 5 5 5 5 5 5 5 5 5 5 5 5 5 5 5 5 5 5 5 5 5 5 5 5 5 5 5 3 5 5 3 5 5 3 3 5 3 5 3 5 5 5 5 5 3 5 5 5 5 3 5 5 5 5 5 3 5 5 5 3 5 5 5 5 5 5 5 5 5 5 5 3 5 5 5 3 3 3 3 3 5 5 5 5 5 3 3 5 5 5 5 3 5 5 3 3 5 5 3 5 5 5 5 5 3 5 5 3 5 5 5 3 5 5 5 5 3 5 5 5 5 5 3 3 3 5 5 5 5 5 5 5 5 5 5 3 5 5 5 5 5 5 3 5 3 5 5 5 5 5 5 5 5 5 5 5 3 5 3 5 5 5 5 5 5 5 5 3 5 5 3 5 5 5 5 3 5 5 5 5 5 5 3 3 5 5 5 5 5 5 5 5 5 5 5 5 5 5 5 5 5 5 5 5 5 5 5 3 5 5 5 5 5 5 5 5 5 5 3 5 5 5 3 5 5 5 5 5 5 5 3 5 5 5 5 5 5 3 5 5 5 5 5 5 3 5 5 5 3 5 5 5 5 3 5 5 5 5 5 3 3 5 5 5 5 5 5 5 5 5 3 5 5 5 5 5 5 3 5 5 5 5 5 5 3 5 5 5 5 5 5 5 5 5 3 5 5 3 5 5 5 5 5 5 3 5 5 5 5 5 3 5 5 5 5 5 5 5 5 5 5 5 5 5 5 5 5 3 5 5 5 5 5 3 5 5 5 5 5 5 5 5 5 5 5 5 5 3 3 5 5 3 5 5 3 5 5 5 5 5 5 3 5 3 5 5 5 5 5 5 3 5 5 5 5 5 5 5 5 5 5 5 5 5 5 3 5 5 5 3 5 5 5 5 5 5 5 5 5 5 5 5 5 5 3 5 5 5 5 5 5 5 5 5 5 5 3 5 5 5 5 3 5 5 5 3 5 5 5 5 5 5 5 5 3 5 5 5 5 5 5 5 5 5 5 3 5 3 5 5 5 5 5 5 5 5 5 5 5 5 5 5 5 5 5 5 5 5 5 5 5 5 5 5 5 5 5 5 5 5 5 5 5 5 5 5 5 3 3 5 5 5 5 5 3 5 5 3 5 5 5 5 3 5 5 3 5 5 5 5 3 3 5 5 5 5 5 3 5 5 5 5 5 5 5 5 3 5 5 5 5 5 5 5 5 3 5 5 5 5 5 5 5 5 5 5 5 5 5 5 5 5 3 5 5 5 3 5 5 5 3 3 5 5 5 5 5 5 3 3 5 5 5 5 5 5 5 5 5 5 5 5 5 5 5 5 5 3 5 5 3 5 5 5 5 3 5 5 3 5 5 5 5 5 5 3 3 5 5 5 5 5 3 5 5 5 5 5 5 5 5 3 5 5 5 3 5 5 5 5 5 3 3 5 5 3 5 3 5 5 5 3 3 5 5 5 5 5 3 5 5 5 5 5 5 5 5 5 5 5 5 5 5 5 5 5 5 3 5 3 5 5 5 5 5 5 5 5 5 5 5 5 5 3 5 5 5 5 5 5 5 5 5 5 3 5 5 5 5 3 5 5 3 5 5 5 3 5 5 5 5 5 5 3 5 3 5 5 5 3 5 3 5 5 3 5 5 5 3 5 3 3 5 5 5 3 5 5 3 5 5 3 5 5 5 5 5 5 3 5 3 3 5 3 5 5 5 5 3 5 3 5 3 5 5 3 5 5 5 5 3 5 5 5 5 5 5 5 5 5 5 5 3 3 5 5 5 5 5 5 5 5 5 5 5 5 5 5 5 5 5 5 5 3 5 5 5 5 5 5 5 5 5 5 5 5 5 5 5 5 5 3 5 5 5 5 5 3 5 5 5 5 5 3 5 5 5 5 5 3 5 5 5 3 3 5 5 5 5 5 5 3 5 3 5 5 5 5 5 5 3 5 5 5 5 5 5 5 3 3 3 5 3 5 5 5 5 3 5 3 5 3 5 5 3 5 5 3 5 5 5 3 5 3 3 5 5 5 5 5 5 3 5 5 5 5 5 5 3 5 5 5 5 5 5 5 5 5 5 5 5 5 5 3 3 5 3 5 5 5 5 5 5 5 5 3 5 3 3 5 5 5 5 3 5 5 3 5 5 5 5 3 5 3 5 5 5 5 5 5 3 3 5 5 5 5 5 3 5 5 5 5 5 3 5 5 5 5 5 5 3 5 5 3 5 5 5 5 5 5 5 5 5 5 5 5 5 5 5 3 5 5 5 3 5 3 5 5 5 5 3 5 5 3 5 5 5 5 3 5 5 5 3 3 3 5 3 5 5 5 5 5 5 5 3 5 5 5 3 5 5 5 5 5 5 5 3 5 5 5 5 5 5 5 3 5 5 3 5 5 5 3 5 5 5 5 5 5 5 5 5 5 5 5 5 5 5 5 5 5 5 5 5 5 5 5 5 5 5 5 5 5 5 5 5 5 5 5 5 5 5 5 5 5 5 5 5 5 5 5 5 5 5 5 5 5 5 5 5 5 5 5 5 5 5 5 5 5 5 5 3 5 5 3 5 5 5 5 3 5 5 5 5 5 5 5 5 5 5 5 5 3 3 5 5 5 5 5 5 5 5 5 3 5 5 5 5 5 5 5 5 5 5 5 3 3 5 3 3 5 5 3 5 5 5 5 5 5 5 3 5 5 5 5 5 3 5 5 5 3 5 5 5 5 3 5 5 5 3 5 5 5 5 5 5 5 3 5 5 5 5 5 5 5 5 5 5 5 5 5 5 5 5 5 5 5 5 5 3 5 5 5 5 3 5 5 5 5 3 5 5 5 3 3 3 5 5 5 5 5 5 3 5 5 5 5 3 3 5 5 5 3 3 5 3 5 5 5 5 3 5 5 5 3 5 5 5 3 5 5 5 5 5 5 5 5 5 5 3 5 5 5 5 5 5 5 5 5 5 5 5 3 5 5 5 5 3 3 5 5 3 5 5 5 5 5 5 5 5 5 3 3 3 5 3 5 5 5 5 5 5 5 3 5 5 5 5 3 3 5 5 5 5 5 3 5 5 5 5 5 3 5 5 5 5 3 5 5 5 5 3 3 5 3 5 5 3 3 5 5 3 5 5 5 5 5 5 5 5 3 5 3 3 3 5 5 5 5 5 5 5 5 5 5 5 5 3 5 5 5 5 5 5 5 5 5 5 5 5 5 5 5 5 5 5 5 5 5 5 5 5 3 5 3 5 3 5 5 5 5 5 5 5 5 5 5 3 5 5 3 3 5 5 5 5 3 5 5 5 5 5 5 5 3 5 5 5 5 5 5 5 3 5 5 3 5 5 5 5 5 5 5 5 3 5 3 5 5 5 5 5 5 5 5 5 5 3 5 5 5 3 5 5 5 5 3 3 5 5 5 5 3 5 5 5 3 5 5 5 5 3 5 5 5 5 5 5 5 5 5 5 5 5 5 3 5 5 5 5 5 5 3 5 5 5 5 3 5 3 5 5 5 5 5 5 5 5 5 3 5 3 5 5 5 5 5 5 5 5 5 5 5 5 5 5 5 5 5 3 3 5 5 5 5 5 3 5 3 3 3 5 5 5 5 5 5 5 5 5 5 5 5 5 5 5 5 5 5 5 5 5 5 5 5 5 5 3 5 3 3 5 5 5 5 5 5 5 5 3 5 5 5 5 5 5 3 5 5 5 5 5 5 3 5 5 5 5 5 5 5 5 5 5 3 5 5 5 5 3 5 5 5 5 3 5 5 5 5 5 5 3 5 5 5 5 5 5 5 5 5 5 5 5 5 5 5 5 5 5 5 5 5 5 5 5 5 5 5 5 5 5 5 5 5 5 5 5 3 5 5 5 5 5 5 5 5 3 5 5 5 3 5 5 5 5 5 5 5 5 5 5 5 5 5 5 5 5 5 5 5 5 5 5 3 5 5 5 5 5 5 3 5 5 3 3 5 5 5 5 5 3 5 5 5 5 5 5 5 5 5 5 3 3 5 5 5 5 3 5 5 5 5 5 3 5 3 3 5 5 5 5 5 5 5 3 5 5 5 3 3 5 5 5 5 5 5 5 5 5 5 3 5 5 5 5 5 5 5 5 5 5 5 5 5 3 3 5 5 5 3 5 5 5 5 5 5 5 5 5 5 5 5 5 5 3 5 5 5 5 3 5 5 5 5 5 5 5 5 5 5 5 3 5 5 5 5 5 5 5 5 5 5 5 3 5 5 5 5 5 5 5 5 5 5 5 5 5 3 5 5 5 5 5 5 5 5 5 5 5 5 5 3 5 5 5 3 5 5 5 5 5 5 5 5 5 5 5 5 5 5 5 3 5 5 5 5 5 5 5 5 5 5 5 5 5 5 5 5 5 5 5 5 5 5 3 5 5 5 5 5 5 3 3 5 3 5 5 5 5 5 5 5 5 5 3 5 5 5 5 5 5 5 5 3 5 5 5 5 5 3 5 5 5 5 5 3 5 5 5 3 5 5 5 5 5 5 5 5 5 5 5 5 5 5 5 5 5 5 5 5 5 5 5 5 5 3 5 5 5 5 5 5 5 5 5 5 5 5 5 5 5 5 5 3 5 5 5 3 5 5 5 5 5 5 5 5 5 5 5 5 5 5 5 5 5 5 5 5 5 5 5 5 5 5 5 5 5 5 3 5 5 3 5 5 5 5 3 5 3 5 3 5 3 5 5 5 5 5 5 5 3 5 5 3 5 5 3 5 5 5 5 5 5 3 5 5 3 5 5 5 3 5 5 3 5 3 5 5 5 5 5 5 5 5 5 5 5 5 5 5 5 5 5 5 5 5 5 5 5 5 5 5 5 5 3 3 5 5 5 5 3 5 5 5 5 5 5 5 5 3 5 5 5 5 5 5 5 5 5 5 5 5 5 3 3 5 5 5 5 5 5 5 5 5 5 5 5 5 5 5 5 5 5 5 5 5 3 5 5 5 3 5 5 5 5 3 3 3 5 3 5 3 5 5 3 3 5 5 5 3 5 5 5 3 3 5 3 5 5 3 5 5 5 3 5 5 5 5 5 5 3 5 5 5 5 5 5 5 5 5 5 3 3 5 5 3 5 5 5 3 5 5 5 5 5 5 5 5 3 3 5 5 5 3 5 3 3 3 5 5 3 3 5 5 5 3 5 5 5 5 5 5 5 5 5 5 5 5 5 5 3 5 5 5 3 5 5 3 5 5 3 5 5 5 5 5 5 5 5 5 5 5 5 5 5 5 5 3 5 3 5 5 5 5 5 5 5 5 5 5 5 5 5 5 5 5 5 5 5 5 5 5 5 5 5 5 5 5 5 5 5 5 5 5 5 5 5 5 5 5 5 5 5 5 5 5 5 5 5 5 5 5 5 5 5 5 5 5 5 5 5 5 5 5 5 5 5 5 5 5 5 5 5 5 5 5 5 5 5 5 5 5 5 5 5 5 5 5 3 5 3 5 5 3 3 3 5 5 5 3 5 5 5 5 5 3 3 5 5 5 5 5 5 5 5 5 5 5 5 3 5 5 5 5 5 5 5 5 5 5 5 5 5 5 5 5 5 5 5 3 3 5 5 5 5 5 5 5 5 5 3 5 5 5 5 5 5 5 5 5 5 5 5 5 5 5 5 5 5 5 5 5 5 5 5 5 5 3 5 5 5 5 5 5 5 5 5 5 5 5 5 5 5 5 5 5 5 5 5 5 5 5 5 5 5 5 5 5 5 5 5 5 5 5 5 5 5 5 5 5 5 5 5 5 5 5 5 5 5 5 5 5 5 5 5 5 5 5 5 5 5 5 5 5 5 5 5 5 5 5 5 5 3 5 5 5 5 5 5 5 5 5 5 5 5 5 5 5 5 5 3 5 5 5 3 5 5 5 3 5 3 5 3 3 5 5 5 5 5 5 5 5 5 5 5 5 5 5 5 5 3 3 5 5 5 5 5 5 5 5 3 5 5 5 5 5 5 5 5 5 5 5 5 5 5 5 3 5 5 5 5 5 5 5 5 5 5 5 5 3 5 5 3 3 5 5 3 5 5 5 5 5 5 5 5 5 5 5 5 5 5 5 5 5 5 5 5 5 5 5 5 5 5 5 5 5 5 5 5 5 5 5 5 5 5 5 5 5 5 3 5 5 5 5 5 5 5 5 5 5 5 5 5 5 5 5 5 5 5 3 5 5 5 5 5 5 5 5 5 5 5 5 5 5 5 5 5 3 3 5 3 5 5 5 5 5 5 3 5 5 5 5 5 5 5 5 3 5 3 5 5 5 5 3 5 5 5 5 5 5 3 5 3 3 5 5 5 5 3 5 5 5 5 5 5 5 5 5 5 5 3 5 5 5 5 5 5 5 5 5 5 3 3 5 3 5 5 3 5 5 5 3 3 3 5 5 5 5 5 5 5 5 3 5 5 3 5 5 5 5 5 5 5 5 5 5 5 5 3 5 5 5 3 5 5 5 5 5 5 5 5 5 5 3 5 5 5 5 5 5 5 5 3 5 5 5 5 3 5 5 5 3 5 5 5 5 5 5 5 5 5 5 3 5 5 5 5 5 5 5 3 5 5 5 5 3 5 5 5 5 5 5 3 5 5 5 5 3 5 5 5 3 5 5 5 5 5 5 5 5 3 5 5 5 5 5 5 5 5 5 3 5 5 5 5 5 5 5 3 5 5 5 5 5 3 5 5 5 5 5 5 5 5 5 5 5 5 5 5 5 5 5 5 5 3 5 5 5 5 5 3 5 5 5 5 5 5 5 5 5 5 5 5 5 3 5 5 5 5 5 5 5 5 5 5 3 5 5 5 5 5 5 3 5 5 3 5 5 3 5 5 5 5 5 5 5 5 5 5 5 5 3 5 5 5 5 5 5 5 3 3 5 5 5 3 3 5 3 5 5 3 3 5 5 3 5 5 5 3 5 5 5 5 5 5 3 5 5 5 3 5 5 5 3 3 5 3 3 5 5 5 5 5 5 5 3 5 5 5 5 5 5 5 5 5 5 5 5 3 5 5 5 5 5 5 3 5 5 5 5 5 5 5 5 5 5 5 5 5 5 5 5 5 3 5 5 3 5 5 5 5 3 5 3 5 5 5 5 5 5 5 3 5 5 5 3 5 5 5 5 5 5 5 5 3 5 5 3 3 5 5 5 5 5 3 5 5 5 5 3 5 5 5 5 5 5 5 5 5 3 5 5 5 5 5 5 5 5 5 3 5 5 5 5 5 5 5 5 5 3 5 5 5 3 5 5 5 5 5 5 5 3 5 5 5 3 5 5 5 5 3 5 5 5 3 5 5 5 5 5 5 5 5 3 5 5 5 5 5 5 5 5 5 5 5 5 5 5 5 5 5 5 3 5 5 3 5 5 5 5 5 5 5 5 5 5 5 5 5 5 5 5 5 5 5 5 5 5 5 5 5 5 5 5 3 5 5 5 5 5 5 3 5 3 5 5 5 5 3 5 5 5 3 5 3 5 5 5 5 5 5 5 5 5 5 5 5 5 3 5 5 5 5 5 3 5 5 5 3 3 5 5 5 5 5 3 5 3 5 5 5 3 5 5 5 5 3 5 5 5 5 5 3 5 5 5 5 3 5 5 5 5 5 5 5 5 5 5 3 5 5 5 5 3 5 5 5 5 5 5 5 5 5 5 5 5 5 5 5 5 5 5 5 5 5 5 5 5 5 5 5 5 5 3 5 5 5 5 3 5 3 5 5 5 3 5 5 5 5 5 5 5 5 5 5 5 5 5 5 5 3 5 5 5 5 5 5 5 5 5 5 5 5 5 5 5 5 5 5 5 5 5 5 5 5 5 5 5 5 5 5 5 5 5 5 5 3 5 5 5 5 5 5 5 5 5 5 3 3 5 5 5 5 5 5 5 5 3 5 5 5 3 5 5 5 5 5 3 5 5 3 5 5 5 5 3 5 3 5 5 5 5 5 3 5 5 5 5 5 5 5 5 5 5 5 5 5 5 5 5 5 5 5 5 5 5 5 5 5 3 5 5 5 5 5 5 3 5 5 5 3 5 5 3 5 5 5 5 5 5 5 5 5 5 5 5 5 5 3 5 3 5 5 3 5 5 3 5 5 5 5 5 5 5 5 3 5 5 5 5 5 5 5 3 5 3 5 5 5 5 5 5 5 5 5 5 5 5 5 5 5 5 5 5 5 5 5 5 5 5 5 5 5 5 5 5 5 5 3 5 5 5 5 5 5 5 5 5 5 5 5 3 5 3 5 5 5 5 5 5 5 3 5 3 5 5 3 5 5 5 5 3 5 3 5 5 5 5 5 5 5 3 5 5 5 3 5 5 3 5 5 3 5 5 5 5 5 5 5 5 3 5 5 5 5 5 3 5 3 5 5 3 5 5 5 5 5 5 5 5 5 5 5 3 5 3 5 5 3 5 5 3 5 5 5 3 5 5 5 5 5 5 5 5 5 5 5 3 3 5 5 5 3 3 5 5 5 5 5 5 5 5 5 5 5 5 5 5 5 5 5 3 5 5 5 5 5 5 5 5 5 5 5 5 5 5 5 5 5 5 5 5 3 5 3 5 5 3 5 5 5 5 3 5 5 5 5 5 5 5 5 5 5 5 5 3 5 5 5 3 5 5 5 5 5 3 5 5 3 3 3 3 5 5 5 5 5 5 3 5 5 3 3 3 5 3 5 5 5 5 5 5 5 5 5 3 5 5 5 5 5 5 5 5 5 5 5 5 5 5 5 3 3 5 5 3 5 5 5 3 5 3 3 5 5 5 5 5 3 5 5 3 5 5 5 3 5 5 5 5 5 3 5 5 5 5 5 5 5 5 5 5 5 5 5 5 5 5 5 5 3 5 5 5 5 5 5 5 5 5 5 5 5 5 5 5 5 5 5 5 5 5 5 5 5 3 5 5 3 5 5 5 5 5 5 5 5 5 5 5 3 5 5 5 5 5 3 3 5 5 5 5 3 5 5 5 5 5 5 5 5 3 3 5 5 3 5 5 3 5 3 3 5 3 5 5 5 5 3 5 5 5 3 5 5 5 3 5 5 3 5 5 3 5 5 5 5 5 5 5 5 5 3 3 5 5 3 5 5 5 5 3 5 5 5 3 5 5 5 5 3 5 5 5 5 5 5 5 5 5 5 5 5 5 5 5 5 5 5 5 5 5 5 5 3 5 5 5 5 5 5 5 5 5 5 5 5 5 5 5 5 5 5 5 5 5 5 5 5 5 5 3 5 5 5 5 5 5 5 5 5 5 5 5 5 5 5 5 3 5 3 5 5 5 5 5 5 5 5 5 5 5 5 5 5 5 5 5 5 5 5 3 5 5 5 5 5 5 5 3 3 5 5 5 5 5 5 5 3 5 5 5 5 3 5 5 3 5 3 5 3 5 5 5 5 5 5 5 3 5 3 5 5 3 5 5 5 5 5 5 5 5 5 5 5 5 5 5 5 5 5 5 5 5 3 5 5 5 5 5 5 3 3 5 5 3 5 5 5 3 5 5 5 5 5 5 5 3 5 5 5 5 5 5 5 5 5 5 5 5 5 5 5 5 3 5 5 5 5 5 5 5 5 5 3 5 5 5 5 5 3 5 5 5 5 5 5 5 3 5 5 5 5 5 5 5 5 5 3 5 5 3 5 3 5 3 5 3 5 5 5 5 5 3 5 5 5 5 5 3 5 5 5 5 5 5 5 5 3 3 5 5 5 5 5 5 5 5 5 5 5 5 5 3 5 5 5 5 5 5 5 5 5 3 5 5 5 5 5 5 5 5 5 3 5 5 3 3 5 5 5 3 5 5 5 5 5 3 3 5 5 5 5 5 5 5 5 3 5 3 5 5 3 5 5 5 5 5 5 5 5 5 5 5 5 5 3 5 5 5 5 3 5 5 5 5 5 5 5 5 5 5 5 5 5 5 3 5 5 3 5 5 3 5 5 5 5 5 5 5 5 5 5 5 5 3 5 5 5 5 5 3 5 5 5 5 3 5 5 5 5 5 5 3 5 5 5 3 5 5 5 3 5 5 3 5 5 5 5 5 5 5 5 5 5 5 5 5 5 5 5 5 5 5 5 5 5 5 5 3 5 5 3 3 5 5 5 5 3 5 3 3 5 3 5 5 3 3 5 5 3 5 5 5 5 5 3 3 5 3 5 3 5 5 5 5 5 5 5 5 5 5 5 5 5 5 3 5 5 5 5 3 5 5 5 5 5 5 5 5 5 5 5 5 5 3 5 5 3 3 5 5 5 5 3 5 3 5 5 5 5 5 5 5 5 5 5 5 5 5 5 5 5 5 5 5 5 5 3 3 5 5 5 5 3 5 5 5 5 5 3 5 5 5 5 3 5 5 5 5 5 5 5 3 5 5 5 5 3 5 5 5 5 5 5 5 5 5 5 5 5 5 5 5 5 5 5 5 5 5 5 5 5 5 5 5 5 5 3 5 3 3 5 5 5 5 5 5 5 5 3 5 5 5 5 3 5 5 5 5 5 5 5 5 5 5 5 5 5 5 5 5 5 5 5 5 5 5 5 5 5 5 5 3 5 5 5 3 3 5 5 5 5 5 5 3 5 5 3 5 5 5 5 5 5 3 5 5 5 5 3 5 5 3 5 5 5 5 5 5 5 5 5 5 5 5 5 5 3 5 5 5 5 5 5 5 5 5 5 5 5 5 5 5 5 5 5 5 5 5 5 5 5 5 5 5 5 5 5 5 5 5 5 5 5 5 5 5 5 5 5 5 3 5 5 5 5 3 5 5 3 5 3 5 5 5 5 3 5 5 3 5 3 5 3 5 5 5 5 5 5 5 5 5 5 5 5 3 5 5 5 5 5 5 5 
</DataArray>
</Cells>
<PointData Scalars="" Vectors="displacement," Tensors="">
<DataArray type="Float64" Name="displacement" NumberOfComponents="3" format="ascii">
-1.529561893797201e-06 -0.044995280188540064 0 -0.00018860422170313397 -0.044196703805083379 0 1.5072475380420524e-07 -0.045000503974949556 0 -1.529561893797201e-06 -0.044995280188540064 0 -0.00018860422170313397 -0.044196703805083379 0 2.8792688751764407e-06 -0.040352870650044767 0 -0.00018860422170313397 -0.044196703805083379 0 6.81747593010033e-05 -0.044837093721471315 0 1.5072475380420524e-07 -0.045000503974949556 0 -0.00018860422170313397 -0.044196703805083379 0 6.81747593010033e-05 -0.044837093721471315 0 0.00040357497484686585 -0.044418038706087772 0 6.81747593010033e-05 -0.044837093721471315 0 0.00094049470011673124 -0.044919202786855246 0 0.00040357497484686585 -0.044418038706087772 0 -4.5041869587319983e-05 -0.04550023720741371 0 -0.00031818048850171379 -0.041436965496335666 0 -0.00018860422170313397 -0.044196703805083379 0 0.00040357497484686585 -0.044418038706087772 0 0.0010304684855934631 -0.043558978179638386 0 -0.00031818048850171379 -0.041436965496335666 0 0.00097327832321428785 -0.04000872479276104 0 0.00094049470011673124 -0.044919202786855246 0 0.00040357497484686585 -0.044418038706087772 0 0.0010304684855934631 -0.043558978179638386 0 0.00056079253822604268 -0.035822935899001186 0 0.0007656569748713775 -0.036908106142128444 0 6.6797748451649566e-05 -0.036327714950226998 0 -0.00018860422170313397 -0.044196703805083379 0 0.0010304684855934631 -0.043558978179638386 0 2.8792688751764407e-06 -0.040352870650044767 0 0.00097327832321428785 -0.04000872479276104 0 2.6564990798639965e-07 -0.040344444676594496 0 0.0007656569748713775 -0.036908106142128444 0 2.6766059080480532e-06 -0.040339874148535321 0 -2.1359725755605901e-05 -0.038172304960837788 0 -9.854009042104227e-07 -0.038228697947601274 0 -2.1359725755605901e-05 -0.038172304960837788 0 -0.00036341980980954101 -0.036834235389301619 0 2.6766059080480532e-06 -0.040339874148535321 0 -9.854009042104227e-07 -0.038228697947601274 0 -2.1359725755605901e-05 -0.038172304960837788 0 -9.854009042104227e-07 -0.038228697947601274 0 -0.00036341980980954101 -0.036834235389301619 0 -7.1592508214608442e-07 -0.036113644405758066 0 0.0007656569748713775 -0.036908106142128444 0 -2.1359725755605901e-05 -0.038172304960837788 0 -0.00036341980980954101 -0.036834235389301619 0 -2.1770229921393413e-07 -0.033997283704077404 0 -7.1592508214608442e-07 -0.036113644405758066 0 -0.00019446615781759077 -0.034576965705877045 0 -7.1592508214608442e-07 -0.036113644405758066 0 -0.0003396719933106444 -0.03564506334774082 0 -0.00019446615781759077 -0.034576965705877045 0 -0.00036341980980954101 -0.036834235389301619 0 -7.1592508214608442e-07 -0.036113644405758066 0 -0.0003396719933106444 -0.03564506334774082 0 -0.00036341980980954101 -0.036834235389301619 0 -0.0003396719933106444 -0.03564506334774082 0 -0.00046372543331199117 -0.036122332971417023 0 -0.0003396719933106444 -0.03564506334774082 0 -0.00019446615781759077 -0.034576965705877045 0 -0.00016030179233480371 -0.035717762367953279 0 -0.0003396719933106444 -0.03564506334774082 0 -0.00016030179233480371 -0.035717762367953279 0 -0.00046372543331199117 -0.036122332971417023 0 -0.00016030179233480371 -0.035717762367953279 0 -0.00046372543331199117 -0.036122332971417023 0 -0.00036048864585920521 -0.036162557352906508 0 0.00041192770178704246 -0.038928927840929911 0 -0.0001609710381661446 -0.037313552089392549 0 0.0012491600835741173 -0.039793654005624027 0 -8.8955023320415604e-05 -0.039799427087791411 0 0.00057589052597893685 -0.040263666569069878 0 -0.00046372543331199117 -0.036122332971417023 0 -0.00036048864585920521 -0.036162557352906508 0 -0.00027802354696867268 -0.03597471251504402 0 0.00041192770178704246 -0.038928927840929911 0 0.0010706545157018693 -0.031097337342485702 0 -0.00016030179233480371 -0.035717762367953279 0 -0.00036048864585920521 -0.036162557352906508 0 0.00054356059646924987 -0.036161127012677527 0 0.0012491600835741173 -0.039793654005624027 0 0.0014353320925167955 -0.040001947649341736 0 0.0017512952604957603 -0.039771893167835928 0 0.0007656569748713775 -0.036908106142128444 0 -0.00036341980980954101 -0.036834235389301619 0 6.6797748451649566e-05 -0.036327714950226998 0 -0.00036341980980954101 -0.036834235389301619 0 -0.00046372543331199117 -0.036122332971417023 0 6.6797748451649566e-05 -0.036327714950226998 0 -0.00046372543331199117 -0.036122332971417023 0 6.6797748451649566e-05 -0.036327714950226998 0 -0.00027802354696867268 -0.03597471251504402 0 0.00056079253822604268 -0.035822935899001186 0 6.6797748451649566e-05 -0.036327714950226998 0 -0.00027802354696867268 -0.03597471251504402 0 -0.00031818048850171379 -0.041436965496335666 0 -0.0001609710381661446 -0.037313552089392549 0 -0.0014709278046584374 -0.039927646242076391 0 -8.8955023320415604e-05 -0.039799427087791411 0 -0.00065797032506273348 -0.040556127256897972 0 -8.8955023320415604e-05 -0.039799427087791411 0 -0.00065797032506273348 -0.040556127256897972 0 9.9094381371457296e-06 -0.040554670925488437 0 -8.8955023320415604e-05 -0.039799427087791411 0 9.9094381371457296e-06 -0.040554670925488437 0 0.00057589052597893685 -0.040263666569069878 0 9.9094381371457296e-06 -0.040554670925488437 0 0.00057589052597893685 -0.040263666569069878 0 0.00052082328367438618 -0.04088396523348916 0 -0.00031381086900596705 -0.041387224883530381 0 0.00052082328367438618 -0.04088396523348916 0 0.00060667170065612983 -0.041567139466773373 0 9.9094381371457296e-06 -0.040554670925488437 0 -0.00031381086900596705 -0.041387224883530381 0 0.00052082328367438618 -0.04088396523348916 0 -0.00031381086900596705 -0.041387224883530381 0 -0.0013516607288165991 -0.042141621156178616 0 -0.0014263352498384021 -0.041004582318691182 0 -0.00065797032506273348 -0.040556127256897972 0 9.9094381371457296e-06 -0.040554670925488437 0 -0.00031381086900596705 -0.041387224883530381 0 -0.00065797032506273348 -0.040556127256897972 0 -0.00031381086900596705 -0.041387224883530381 0 -0.0014263352498384021 -0.041004582318691182 0 0.0015242072601267332 -0.040158616956265367 0 0.001102203313189986 -0.040323423035274857 0 0.0010853877609634354 -0.041072852418504974 0 0.0014353320925167955 -0.040001947649341736 0 0.0015242072601267332 -0.040158616956265367 0 0.001102203313189986 -0.040323423035274857 0 0.0012491600835741173 -0.039793654005624027 0 0.0014353320925167955 -0.040001947649341736 0 0.001102203313189986 -0.040323423035274857 0 0.0012491600835741173 -0.039793654005624027 0 0.001102203313189986 -0.040323423035274857 0 0.00057589052597893685 -0.040263666569069878 0 0.001102203313189986 -0.040323423035274857 0 0.00057589052597893685 -0.040263666569069878 0 0.00052082328367438618 -0.04088396523348916 0 0.001102203313189986 -0.040323423035274857 0 0.00052082328367438618 -0.04088396523348916 0 0.0010853877609634354 -0.041072852418504974 0 0.00052082328367438618 -0.04088396523348916 0 0.0010853877609634354 -0.041072852418504974 0 0.00060667170065612983 -0.041567139466773373 0 0.0015874999481464622 -0.040252261273079848 0 0.0017307541710210102 -0.040570260978136714 0 0.0015242072601267332 -0.040158616956265367 0 0.0010853877609634354 -0.041072852418504974 0 0.0017554648996995915 -0.041541830301981872 0 0.0017307541710210102 -0.040570260978136714 0 0.0019143343813898875 -0.041349003498693804 0 0.0017554648996995915 -0.041541830301981872 0 0.0010247429153894998 -0.042082952524833572 0 0.0016917559991392512 -0.042702185885157902 0 0.0010853877609634354 -0.041072852418504974 0 0.0017554648996995915 -0.041541830301981872 0 0.0010247429153894998 -0.042082952524833572 0 0.0010247429153894998 -0.042082952524833572 0 0.00060667170065612983 -0.041567139466773373 0 0.0002184461007429749 -0.04226917240830589 0 0.0010853877609634354 -0.041072852418504974 0 0.0010247429153894998 -0.042082952524833572 0 0.00060667170065612983 -0.041567139466773373 0 0.0010247429153894998 -0.042082952524833572 0 0.00071273214286604429 -0.043015072246749428 0 0.0002184461007429749 -0.04226917240830589 0 0.0010247429153894998 -0.042082952524833572 0 0.00071273214286604429 -0.043015072246749428 0 0.0016917559991392512 -0.042702185885157902 0 0.00071273214286604429 -0.043015072246749428 0 0.0016917559991392512 -0.042702185885157902 0 0.0011815717270758658 -0.043351536232167309 0 -0.00031381086900596705 -0.041387224883530381 0 -0.00053026311231405996 -0.042509049566223381 0 -0.0013516607288165991 -0.042141621156178616 0 -0.00031381086900596705 -0.041387224883530381 0 0.00060667170065612983 -0.041567139466773373 0 0.0002184461007429749 -0.04226917240830589 0 -0.00031381086900596705 -0.041387224883530381 0 0.0002184461007429749 -0.04226917240830589 0 -0.00053026311231405996 -0.042509049566223381 0 0.0002184461007429749 -0.04226917240830589 0 -0.00053026311231405996 -0.042509049566223381 0 -0.0002475710930306545 -0.043195817870208569 0 0.00071273214286604429 -0.043015072246749428 0 0.0002184461007429749 -0.04226917240830589 0 -0.0002475710930306545 -0.043195817870208569 0 -0.00053026311231405996 -0.042509049566223381 0 -0.0010514922504526278 -0.043483320019430546 0 -0.0013516607288165991 -0.042141621156178616 0 -0.00053026311231405996 -0.042509049566223381 0 -0.0010514922504526278 -0.043483320019430546 0 -0.0002475710930306545 -0.043195817870208569 0 -0.0010869609892324111 -0.043477272998531789 0 -0.0011620720719799438 -0.043237799813136427 0 -0.0010514922504526278 -0.043483320019430546 0 -0.0010238012206327677 -0.04445862382108156 0 -0.00053465186515611171 -0.044311138935992755 0 -0.0010238012206327677 -0.04445862382108156 0 -0.00064236808282313175 -0.044695734186073199 0 -0.00053465186515611171 -0.044311138935992755 0 -0.00064236808282313175 -0.044695734186073199 0 -0.00053465186515611171 -0.044311138935992755 0 -0.00030290995637452219 -0.044901311460900657 0 -0.0010514922504526278 -0.043483320019430546 0 -0.00053465186515611171 -0.044311138935992755 0 -0.00076453006534141135 -0.043711648310757134 0 -0.00053465186515611171 -0.044311138935992755 0 -0.00044001355590334387 -0.043859716016637039 0 -0.00076453006534141135 -0.043711648310757134 0 -0.00053465186515611171 -0.044311138935992755 0 -0.00016195263156730516 -0.044134300641617781 0 -3.2861106851692753e-05 -0.044686861624891216 0 -0.00053465186515611171 -0.044311138935992755 0 -0.00016195263156730516 -0.044134300641617781 0 -0.00044001355590334387 -0.043859716016637039 0 -0.00016195263156730516 -0.044134300641617781 0 -3.2861106851692753e-05 -0.044686861624891216 0 0.00022750578367380345 -0.043853538550900233 0 -1.1196382323874369e-07 -0.04499972581867677 0 -3.2861106851692753e-05 -0.044686861624891216 0 2.1586781070381824e-05 -0.044989235623548403 0 -1.6029165439745733e-05 -0.044704640556483613 0 0.00013721948209283253 -0.044350363956968203 0 -1.1196382323874369e-07 -0.04499972581867677 0 -3.2861106851692753e-05 -0.044686861624891216 0 5.529178427003865e-08 -0.044999596075404651 0 -0.00053465186515611171 -0.044311138935992755 0 -3.2861106851692753e-05 -0.044686861624891216 0 -0.00030290995637452219 -0.044901311460900657 0 -3.2861106851692753e-05 -0.044686861624891216 0 -0.00030290995637452219 -0.044901311460900657 0 -7.8999210125133405e-05 -0.045012831623317824 0 -3.2861106851692753e-05 -0.044686861624891216 0 -7.8999210125133405e-05 -0.045012831623317824 0 5.529178427003865e-08 -0.044999596075404651 0 -7.8999210125133405e-05 -0.045012831623317824 0 5.529178427003865e-08 -0.044999596075404651 0 -5.9282691602192879e-08 -0.045000505114718495 0 -4.5041869587319983e-05 -0.04550023720741371 0 -1.6281390365951397e-07 -0.044999761536199626 0 -0.00027280138627994415 -0.045227460405817661 0 -7.8999210125133405e-05 -0.045012831623317824 0 -5.9282691602192879e-08 -0.045000505114718495 0 -0.00027280138627994415 -0.045227460405817661 0 -0.00030290995637452219 -0.044901311460900657 0 -7.8999210125133405e-05 -0.045012831623317824 0 -0.00027280138627994415 -0.045227460405817661 0 -0.00079645012656071404 -0.045305154591049716 0 -0.00056052503482791787 -0.045070257809188947 0 -0.00027280138627994415 -0.045227460405817661 0 -0.00030290995637452219 -0.044901311460900657 0 -0.00056052503482791787 -0.045070257809188947 0 -0.00079645012656071404 -0.045305154591049716 0 -0.00056052503482791787 -0.045070257809188947 0 -0.00087004641820665439 -0.044933741675173694 0 -0.0014709278046584374 -0.039927646242076391 0 -0.00065797032506273348 -0.040556127256897972 0 -0.0014263352498384021 -0.041004582318691182 0 -0.00031818048850171379 -0.041436965496335666 0 -0.0011972542219743753 -0.043194179622048225 0 -0.00064236808282313175 -0.044695734186073199 0 -0.00056052503482791787 -0.045070257809188947 0 -0.00087004641820665439 -0.044933741675173694 0 -0.0011620720719799438 -0.043237799813136427 0 -0.0011972542219743753 -0.043194179622048225 0 -0.0010238012206327677 -0.04445862382108156 0 -0.00064236808282313175 -0.044695734186073199 0 -0.00087004641820665439 -0.044933741675173694 0 -0.00064236808282313175 -0.044695734186073199 0 -0.00030290995637452219 -0.044901311460900657 0 -0.00056052503482791787 -0.045070257809188947 0 0.0016588724488972835 -0.020049080358899761 0 0.0016087395470744245 -0.020194099538601861 0 0.0017353359183233782 -0.020065871729002715 0 0.0015057937792753106 -0.020224000302312951 0 0.0016588724488972835 -0.020049080358899761 0 0.0016087395470744245 -0.020194099538601861 0 0.0015057937792753106 -0.020224000302312951 0 0.0015051544210767538 -0.020304915608325268 0 0.0016087395470744245 -0.020194099538601861 0 0.00040931030977968294 -0.02397535762025715 0 0.001708958232522827 -0.023919398529775877 0 -0.00057111405030232042 -0.02778083897359504 0 0.00048695165413008268 -0.02649381499939029 0 -0.00033347589809201559 -0.026258681537717474 0 -0.00057111405030232042 -0.02778083897359504 0 0.0013156145774742716 -0.027477643270339008 0 0.00048695165413008268 -0.02649381499939029 0 0.0013156145774742716 -0.027477643270339008 0 0.00048695165413008268 -0.02649381499939029 0 0.0019298798835931546 -0.025765981333454126 0 0.00048695165413008268 -0.02649381499939029 0 0.0001311724268766689 -0.025377793509962571 0 0.0019298798835931546 -0.025765981333454126 0 2.422342619253892e-06 -0.023786818911744077 0 0.0001311724268766689 -0.025377793509962571 0 0.0019298798835931546 -0.025765981333454126 0 -1.4668781466099347e-07 -0.023781989592464799 0 0.00097755287246164809 -0.023612566255516918 0 2.422342619253892e-06 -0.023786818911744077 0 -0.00017994791768463704 -0.024822720281071107 0 0.0001311724268766689 -0.025377793509962571 0 2.422342619253892e-06 -0.023786818911744077 0 -0.00017994791768463704 -0.024822720281071107 0 -2.3714801141585876e-06 -0.025396046331105815 0 -0.00017994791768463704 -0.024822720281071107 0 -2.3714801141585876e-06 -0.025396046331105815 0 -0.00017183414502624741 -0.02510286339125949 0 -0.00017994791768463704 -0.024822720281071107 0 -0.00041573076170693256 -0.025282066260854951 0 -0.00017183414502624741 -0.02510286339125949 0 -0.00017994791768463704 -0.024822720281071107 0 -0.00041573076170693256 -0.025282066260854951 0 0.0001311724268766689 -0.025377793509962571 0 -0.00041573076170693256 -0.025282066260854951 0 0.0001311724268766689 -0.025377793509962571 0 -0.00033347589809201559 -0.026258681537717474 0 0.00048695165413008268 -0.02649381499939029 0 0.0001311724268766689 -0.025377793509962571 0 -0.00033347589809201559 -0.026258681537717474 0 -0.00041573076170693256 -0.025282066260854951 0 -0.00033347589809201559 -0.026258681537717474 0 -0.0012051918356381268 -0.026565378234941067 0 -0.00041573076170693256 -0.025282066260854951 0 -0.0012051918356381268 -0.026565378234941067 0 -0.001441321574693951 -0.025185078598312989 0 -0.00041573076170693256 -0.025282066260854951 0 -0.00024187187496990548 -0.025177996173188111 0 -0.0002026471062017229 -0.025146926641565676 0 -0.0011107252406599025 -0.028390041588307713 0 0.00015392739331413267 -0.026744076525410842 0 -0.0024529094742283906 -0.028128194068906917 0 -0.00052901184901196503 -0.025915809105977145 0 -0.0016555066861130814 -0.027827518766604099 0 6.3058341411381864e-05 -0.025693034790466727 0 -0.0020651764844945544 -0.029602160716166618 0 -0.00041573076170693256 -0.025282066260854951 0 -0.00024187187496990548 -0.025177996173188111 0 -0.00017183414502624741 -0.02510286339125949 0 3.0276981164885086e-07 -0.025556832353098646 0 4.9908288961387926e-06 -0.025784870679826051 0 -2.1703253752644286e-07 -0.027664370226769357 0 -0.0016555066861130814 -0.027827518766604099 0 6.3058341411381864e-05 -0.025693034790466727 0 -0.00024187187496990548 -0.025177996173188111 0 -0.0002026471062017229 -0.025146926641565676 0 -9.355051013027927e-05 -0.025282008647022548 0 4.1675171105513336e-07 -0.025555849019543699 0 6.3058341411381864e-05 -0.025693034790466727 0 6.3058341411381864e-05 -0.025693034790466727 0 2.0256032939467692e-07 -0.025400139905210183 0 5.1144833013464115e-10 -0.025554851172234674 0 7.1664453235885654e-08 -0.025660549733250118 0 -3.8225950219624629e-10 -0.025399697502429822 0 -9.355051013027927e-05 -0.025282008647022548 0 -2.3714801141585876e-06 -0.025396046331105815 0 -0.00017183414502624741 -0.02510286339125949 0 -0.00024187187496990548 -0.025177996173188111 0 -9.355051013027927e-05 -0.025282008647022548 0 -0.00017183414502624741 -0.02510286339125949 0 4.9908288961387926e-06 -0.025784870679826051 0 -2.1703253752644286e-07 -0.027664370226769357 0 -1.1048408570302406e-06 -0.02737636598337571 0 -0.0045690836705604169 -0.031904716204665 0 -0.0039009866896655416 -0.032043640119113238 0 -0.0036226792634440289 -0.031421061225494658 0 -0.0016555066861130814 -0.027827518766604099 0 -0.0020651764844945544 -0.029602160716166618 0 -0.0020651764844945544 -0.029602160716166618 0 -0.0026724496416416989 -0.031626336783658462 0 -0.0016555066861130814 -0.027827518766604099 0 -0.0030900068226768261 -0.028881891249618988 0 -0.0045690836705604169 -0.031904716204665 0 -0.0036226792634440289 -0.031421061225494658 0 -0.0035361634161977526 -0.030445328382173686 0 -0.0039009866896655416 -0.032043640119113238 0 -0.0036226792634440289 -0.031421061225494658 0 -0.0026176909276163208 -0.03145887739813321 0 -0.0012051918356381268 -0.026565378234941067 0 -0.001441321574693951 -0.025185078598312989 0 -0.0024038924096061189 -0.026957248390009899 0 -0.0036226792634440289 -0.031421061225494658 0 -0.0035361634161977526 -0.030445328382173686 0 -0.0026176909276163208 -0.03145887739813321 0 -0.0012051918356381268 -0.026565378234941067 0 -0.0024038924096061189 -0.026957248390009899 0 -0.0016455826706482809 -0.027373527612565878 0 -0.0024038924096061189 -0.026957248390009899 0 -0.0016455826706482809 -0.027373527612565878 0 -0.0023709046166902523 -0.028171281025062292 0 -0.0024038924096061189 -0.026957248390009899 0 -0.0023709046166902523 -0.028171281025062292 0 -0.0020658521856343113 -0.028545392683489164 0 -0.00057111405030232042 -0.02778083897359504 0 -0.0016455826706482809 -0.027373527612565878 0 -0.0023709046166902523 -0.028171281025062292 0 -0.00057111405030232042 -0.02778083897359504 0 -0.0012051918356381268 -0.026565378234941067 0 -0.0016455826706482809 -0.027373527612565878 0 -0.00057111405030232042 -0.02778083897359504 0 -0.00033347589809201559 -0.026258681537717474 0 -0.0012051918356381268 -0.026565378234941067 0 0.00040931030977968294 -0.02397535762025715 0 -0.00038821984058592869 -0.024406504453904257 0 0.0015057937792753106 -0.020224000302312951 0 0.0014570509396340575 -0.020374378360948027 0 0.0015051544210767538 -0.020304915608325268 0 0.0015057937792753106 -0.020224000302312951 0 0.0014697397788304973 -0.020408262100395161 0 0.0014570509396340575 -0.020374378360948027 0 0.0014697397788304973 -0.020408262100395161 0 0.0013981963449069192 -0.020474833502904542 0 0.0014570509396340575 -0.020374378360948027 0 -0.00038821984058592869 -0.024406504453904257 0 -0.00041387175868931749 -0.023834902377589277 0 -0.0023709046166902523 -0.028171281025062292 0 -0.0020658521856343113 -0.028545392683489164 0 -0.0015135787173431474 -0.028720099402671569 0 0.0014697397788304973 -0.020408262100395161 0 0.0013981963449069192 -0.020474833502904542 0 0.0013090227290000439 -0.020619933371458267 0 0.0014697397788304973 -0.020408262100395161 0 0.0013090227290000439 -0.020619933371458267 0 0.0011004505720882119 -0.020594963922917577 0 0.0013981963449069192 -0.020474833502904542 0 0.0013090227290000439 -0.020619933371458267 0 0.0013582348187933227 -0.020495832434096698 0 0.0011004505720882119 -0.020594963922917577 0 -0.00015281845545407456 -0.021740959898243293 0 0.0004949887704128826 -0.021810078806825867 0 0.0013090227290000439 -0.020619933371458267 0 0.0011004505720882119 -0.020594963922917577 0 0.00096302829152606771 -0.021322087629305708 0 0.0011004505720882119 -0.020594963922917577 0 0.0004949887704128826 -0.021810078806825867 0 0.00096302829152606771 -0.021322087629305708 0 -0.0020658521856343113 -0.028545392683489164 0 -0.0015135787173431474 -0.028720099402671569 0 -0.0014992306073685711 -0.029615057292856004 0 -0.0015135787173431474 -0.028720099402671569 0 -0.0014992306073685711 -0.029615057292856004 0 -0.00046916842062518443 -0.029958841268530153 0 -0.0014992306073685711 -0.029615057292856004 0 -0.0012612409946729929 -0.030911112119446429 0 -0.00046916842062518443 -0.029958841268530153 0 -0.0014992306073685711 -0.029615057292856004 0 -0.002196053541753366 -0.030188588969625008 0 -0.0012612409946729929 -0.030911112119446429 0 -0.0035361634161977526 -0.030445328382173686 0 -0.0020658521856343113 -0.028545392683489164 0 -0.002196053541753366 -0.030188588969625008 0 -0.0030900068226768261 -0.028881891249618988 0 -0.0020947265834961085 -0.028351606203947225 0 -0.0020658521856343113 -0.028545392683489164 0 -0.0014992306073685711 -0.029615057292856004 0 -0.002196053541753366 -0.030188588969625008 0 -0.0035361634161977526 -0.030445328382173686 0 -0.002196053541753366 -0.030188588969625008 0 -0.0026176909276163208 -0.03145887739813321 0 -0.0020381452509713334 -0.031434407404408761 0 -0.0013043401316725641 -0.032304191471401816 0 -0.0012612409946729929 -0.030911112119446429 0 -0.002196053541753366 -0.030188588969625008 0 -0.0026176909276163208 -0.03145887739813321 0 -0.0012612409946729929 -0.030911112119446429 0 -0.0026724496416416989 -0.031626336783658462 0 -0.0012441067860114086 -0.030894222068836193 0 -0.0030456330325679061 -0.031944987186766388 0 -0.0020381452509713334 -0.031434407404408761 0 -0.0013043401316725641 -0.032304191471401816 0 -2.1703253752644286e-07 -0.027664370226769357 0 -1.1048408570302406e-06 -0.02737636598337571 0 -8.2986263292320283e-06 -0.029350701278672408 0 -2.1703253752644286e-07 -0.027664370226769357 0 -8.2986263292320283e-06 -0.029350701278672408 0 -4.182989775021574e-08 -0.029773105698204919 0 -0.0020651764844945544 -0.029602160716166618 0 -0.00071286453928313238 -0.030804621717050489 0 -0.0013043401316725641 -0.032304191471401816 0 -0.0012612409946729929 -0.030911112119446429 0 -0.00040616089781981971 -0.031941605505670413 0 -0.0013043401316725641 -0.032304191471401816 0 -0.00040616089781981971 -0.031941605505670413 0 1.2174833782704801e-06 -0.031887545849166005 0 -0.00071286453928313238 -0.030804621717050489 0 -7.6535172798582186e-07 -0.031882304841578037 0 -8.2986263292320283e-06 -0.029350701278672408 0 -4.182989775021574e-08 -0.029773105698204919 0 1.624078903614471e-07 -0.031882422017986578 0 -0.0012612409946729929 -0.030911112119446429 0 -0.0001485869398196104 -0.031199814089226816 0 -0.00046916842062518443 -0.029958841268530153 0 -0.0012612409946729929 -0.030911112119446429 0 -0.0001485869398196104 -0.031199814089226816 0 -0.00040616089781981971 -0.031941605505670413 0 -0.0001485869398196104 -0.031199814089226816 0 0.00037261627385473531 -0.033028390638736166 0 0.00097351046775835768 -0.030534866078440078 0 -0.0001485869398196104 -0.031199814089226816 0 -0.00040616089781981971 -0.031941605505670413 0 0.00037261627385473531 -0.033028390638736166 0 -0.00040616089781981971 -0.031941605505670413 0 1.2174833782704801e-06 -0.031887545849166005 0 0.00037261627385473531 -0.033028390638736166 0 -2.1770229921393413e-07 -0.033997283704077404 0 1.2174833782704801e-06 -0.031887545849166005 0 0.00037261627385473531 -0.033028390638736166 0 -2.1770229921393413e-07 -0.033997283704077404 0 -0.00019446615781759077 -0.034576965705877045 0 0.00037261627385473531 -0.033028390638736166 0 -0.00019446615781759077 -0.034576965705877045 0 0.00037261627385473531 -0.033028390638736166 0 0.0006391270863702834 -0.035323101278185852 0 0.00049192450339012703 -0.032903132794121964 0 0.00072277545926055671 -0.033158587598215675 0 -0.00019446615781759077 -0.034576965705877045 0 -0.00016030179233480371 -0.035717762367953279 0 0.0006391270863702834 -0.035323101278185852 0 0.00072277545926055671 -0.033158587598215675 0 0.0010706545157018693 -0.031097337342485702 0 -0.00016030179233480371 -0.035717762367953279 0 0.0006391270863702834 -0.035323101278185852 0 0.00054356059646924987 -0.036161127012677527 0 -0.0001485869398196104 -0.031199814089226816 0 0.00097351046775835768 -0.030534866078440078 0 -0.00046916842062518443 -0.029958841268530153 0 0.00097351046775835768 -0.030534866078440078 0 -0.00046916842062518443 -0.029958841268530153 0 0.00099965168682163955 -0.028578189225069342 0 -0.00041387175868931749 -0.023834902377589277 0 0.0010706545157018693 -0.031097337342485702 0 0.0011004505720882119 -0.020594963922917577 0 -0.00095566401329696201 -0.020838553669388547 0 -0.00015281845545407456 -0.021740959898243293 0 -0.0015135787173431474 -0.028720099402671569 0 -0.00046916842062518443 -0.029958841268530153 0 0.00099965168682163955 -0.028578189225069342 0 0.0023152080376294148 -0.04245668135035776 0 0.00065809898878311992 -0.033356066786371277 0 0.0010706545157018693 -0.031097337342485702 0 0.00065809898878311992 -0.033356066786371277 0 0.0014353320925167955 -0.040001947649341736 0 0.0015242072601267332 -0.040158616956265367 0 0.0015296791417544673 -0.040168583476528484 0 0.0014353320925167955 -0.040001947649341736 0 0.0017512952604957603 -0.039771893167835928 0 0.001690589784955226 -0.040031037376909898 0 -0.00095566401329696201 -0.020838553669388547 0 -0.00015281845545407456 -0.021740959898243293 0 -0.0009869381343318869 -0.023044817553373075 0 -0.00015281845545407456 -0.021740959898243293 0 4.795180910969787e-05 -0.02297203292558847 0 -0.0009869381343318869 -0.023044817553373075 0 -0.00015281845545407456 -0.021740959898243293 0 4.795180910969787e-05 -0.02297203292558847 0 0.0004949887704128826 -0.021810078806825867 0 0.00020033761771723823 -0.031283764317010493 0 0.0001913700577477535 -0.031744715465837646 0 0.00060453348048402841 -0.031645448249516366 0 4.795180910969787e-05 -0.02297203292558847 0 8.8285100218413781e-05 -0.024075004830553606 0 0.00096235621206855221 -0.022375508232889505 0 4.795180910969787e-05 -0.02297203292558847 0 -0.0009869381343318869 -0.023044817553373075 0 8.8285100218413781e-05 -0.024075004830553606 0 0.00065809898878311992 -0.033356066786371277 0 3.2418491101231127e-05 -0.025419276175582931 0 0.0015242072601267332 -0.040158616956265367 0 0.0017874918589048311 -0.039877790281283049 0 0.0015296791417544673 -0.040168583476528484 0 0.00065809898878311992 -0.033356066786371277 0 0.00075460225406550545 -0.036222431592978874 0 0.0017874918589048311 -0.039877790281283049 0 0.0015296791417544673 -0.040168583476528484 0 0.0013428119215360232 -0.039729781151087898 0 0.00075460225406550545 -0.036222431592978874 0 0.00021647276898060995 -0.034837702947294998 0 0.0017874918589048311 -0.039877790281283049 0 0.0018820177227479732 -0.03896988556341946 0 0.0012606762963640892 -0.039145311415216329 0 0.0017874918589048311 -0.039877790281283049 0 0.0013428119215360232 -0.039729781151087898 0 0.0012606762963640892 -0.039145311415216329 0 0.0001913700577477535 -0.031744715465837646 0 0.00016124865373338433 -0.032347591217423935 0 0.00037584444368503193 -0.031833022416111877 0 0.0018820177227479732 -0.03896988556341946 0 0.0012606762963640892 -0.039145311415216329 0 0.0016516440404459396 -0.038018142144905932 0 -8.2207128632705162e-05 -0.033028217241243232 0 -9.1055821252608333e-05 -0.033130379506602567 0 -0.00035129735715675326 -0.033501393108221623 0 0.00020217949682759491 -0.032197231528529539 0 0.00019806024814076812 -0.03235503617855244 0 0.00037584444368503193 -0.031833022416111877 0 0.00021647276898060995 -0.034837702947294998 0 -0.00026296738621663053 -0.030919647603923961 0 -0.00123763850583416 -0.027181173194242219 0 -0.00010347674499697546 -0.026955317688964465 0 -0.00010163494851636243 -0.025086878204074247 0 -0.00010347674499697546 -0.026955317688964465 0 0.00085254090570887253 -0.027703604960516166 0 -0.0003906933566698279 -0.028123468169462845 0 -0.00123763850583416 -0.027181173194242219 0 -0.00076812017231985713 -0.02750202621287012 0 -0.0011409663490347163 -0.028110081494714126 0 -0.00123763850583416 -0.027181173194242219 0 -0.00076812017231985713 -0.02750202621287012 0 -0.00010347674499697546 -0.026955317688964465 0 -0.00076812017231985713 -0.02750202621287012 0 -0.00010347674499697546 -0.026955317688964465 0 -0.0003906933566698279 -0.028123468169462845 0 0.00019806024814076812 -0.03235503617855244 0 0.00037584444368503193 -0.031833022416111877 0 0.00060453348048402841 -0.031645448249516366 0 -0.00010347674499697546 -0.026955317688964465 0 -0.00010163494851636243 -0.025086878204074247 0 0.0010217072890186963 -0.026127816524042797 0 -0.00026296738621663053 -0.030919647603923961 0 3.2418491101231127e-05 -0.025419276175582931 0 0.00021647276898060995 -0.034837702947294998 0 0.00073280486244156422 -0.031418502110134014 0 0.0001913700577477535 -0.031744715465837646 0 0.00037584444368503193 -0.031833022416111877 0 0.00060453348048402841 -0.031645448249516366 0 0.0013095767596180471 -0.022089562431159709 0 0.0014187130080845463 -0.020039550549468023 0 3.2418491101231127e-05 -0.025419276175582931 0 0.0013095767596180471 -0.022089562431159709 0 0.00098219227767543517 -0.020942580539085372 0 0.0013418746946088672 -0.021293645284692225 0 0.0013905145422284783 -0.020526332408565991 0 0.0013095767596180471 -0.022089562431159709 0 0.0010474358280958579 -0.02440484719657094 0 -0.00010347674499697546 -0.026955317688964465 0 0.0010217072890186963 -0.026127816524042797 0 0.00085254090570887253 -0.027703604960516166 0 0.0012501183383982922 -0.020500423708858868 0 0.0013406231070247027 -0.02054555169121856 0 0.0012277772467970203 -0.020602827590670454 0 0.0013513369426333664 -0.020490308511738796 0 0.0013406231070247027 -0.02054555169121856 0 0.0013640309440970221 -0.020493247493382327 0 0.0013095767596180471 -0.022089562431159709 0 0.0011088694618979359 -0.020211169016596094 0 0.0013406231070247027 -0.02054555169121856 0 0.0013640309440970221 -0.020493247493382327 0 0.00140299167975605 -0.020473874297162502 0 0.0013513369426333664 -0.020490308511738796 0 0.0013640309440970221 -0.020493247493382327 0 0.0013779731036014256 -0.020473524313388163 0 0.0013513369426333664 -0.020490308511738796 0 0.0013779731036014256 -0.020473524313388163 0 0.0013727051347022189 -0.020494092604469667 0 0.0013640309440970221 -0.020493247493382327 0 0.0013779731036014256 -0.020473524313388163 0 0.00140299167975605 -0.020473874297162502 0 0.0013779731036014256 -0.020473524313388163 0 0.0013745963389802307 -0.020483732003702924 0 0.001403597504425529 -0.020443663315127342 0 0.0013745963389802307 -0.020483732003702924 0 0.0013979192714832327 -0.020451292431198156 0 0.001403597504425529 -0.020443663315127342 0 0.0013745963389802307 -0.020483732003702924 0 0.0013727051347022189 -0.020494092604469667 0 0.0013905145422284783 -0.020526332408565991 0 0.0013779731036014256 -0.020473524313388163 0 0.0013745963389802307 -0.020483732003702924 0 0.0013727051347022189 -0.020494092604469667 0 3.2418491101231127e-05 -0.025419276175582931 0 0.0013256024545172942 -0.020856090973377057 0 0.00098219227767543517 -0.020942580539085372 0 0.0013905145422284783 -0.020526332408565991 0 0.0013275917371658888 -0.02045419002708421 0 0.0013513369426333664 -0.020490308511738796 0 0.0013727051347022189 -0.020494092604469667 0 0.0013905145422284783 -0.020526332408565991 0 0.0013905145422284783 -0.020526332408565991 0 0.0013275917371658888 -0.02045419002708421 0 0.0013544908266255927 -0.02049278262710607 0 0.0013090227290000439 -0.020619933371458267 0 0.00096235621206855221 -0.022375508232889505 0 0.00096302829152606771 -0.021322087629305708 0 0.0013090227290000439 -0.020619933371458267 0 0.0013275917371658888 -0.02045419002708421 0 0.0013544908266255927 -0.02049278262710607 0 0.0012135992770292725 -0.020942845938830671 0 0.0013256024545172942 -0.020856090973377057 0 4.795180910969787e-05 -0.02297203292558847 0 0.00096235621206855221 -0.022375508232889505 0 0.0004949887704128826 -0.021810078806825867 0 0.00096235621206855221 -0.022375508232889505 0 0.0004949887704128826 -0.021810078806825867 0 0.00096302829152606771 -0.021322087629305708 0 0.0013090227290000439 -0.020619933371458267 0 0.0013582348187933227 -0.020495832434096698 0 0.0013544908266255927 -0.02049278262710607 0 0.0013981963449069192 -0.020474833502904542 0 0.0013582348187933227 -0.020495832434096698 0 0.0013979192714832327 -0.020451292431198156 0 0.0013745963389802307 -0.020483732003702924 0 0.0013582348187933227 -0.020495832434096698 0 0.0013979192714832327 -0.020451292431198156 0 0.0013745963389802307 -0.020483732003702924 0 0.0013582348187933227 -0.020495832434096698 0 0.0013544908266255927 -0.02049278262710607 0 0.0013745963389802307 -0.020483732003702924 0 0.0013905145422284783 -0.020526332408565991 0 0.0013544908266255927 -0.02049278262710607 0 0.0014464135313077082 -0.020392707272785252 0 0.0013979192714832327 -0.020451292431198156 0 0.0014570509396340575 -0.020374378360948027 0 0.0014464135313077082 -0.020392707272785252 0 0.0013979192714832327 -0.020451292431198156 0 0.001403597504425529 -0.020443663315127342 0 0.0013981963449069192 -0.020474833502904542 0 0.0013979192714832327 -0.020451292431198156 0 0.0014570509396340575 -0.020374378360948027 0 0.0014464135313077082 -0.020392707272785252 0 0.0014570509396340575 -0.020374378360948027 0 0.0015051544210767538 -0.020304915608325268 0 0.0014464135313077082 -0.020392707272785252 0 0.0015051544210767538 -0.020304915608325268 0 0.0014903397330358124 -0.02036014955509485 0 0.0014903397330358124 -0.02036014955509485 0 0.0014360986007477484 -0.020425107992337332 0 0.001518477219295358 -0.020385072077470343 0 0.0014464135313077082 -0.020392707272785252 0 0.0014903397330358124 -0.02036014955509485 0 0.0014360986007477484 -0.020425107992337332 0 0.0014464135313077082 -0.020392707272785252 0 0.0014360986007477484 -0.020425107992337332 0 0.001403597504425529 -0.020443663315127342 0 0.0013779731036014256 -0.020473524313388163 0 0.0014360986007477484 -0.020425107992337332 0 0.001403597504425529 -0.020443663315127342 0 0.0013779731036014256 -0.020473524313388163 0 0.0014360986007477484 -0.020425107992337332 0 0.00140299167975605 -0.020473874297162502 0 0.0014360986007477484 -0.020425107992337332 0 0.00140299167975605 -0.020473874297162502 0 0.0014608812233394828 -0.0204410173921208 0 0.00140299167975605 -0.020473874297162502 0 0.0014455028975330453 -0.020498198723474605 0 0.0014608812233394828 -0.0204410173921208 0 0.0013406231070247027 -0.02054555169121856 0 0.00140299167975605 -0.020473874297162502 0 0.0014455028975330453 -0.020498198723474605 0 0.0013406231070247027 -0.02054555169121856 0 0.0014455028975330453 -0.020498198723474605 0 0.0013961490010117961 -0.020585699195211554 0 0.0014455028975330453 -0.020498198723474605 0 0.0014608812233394828 -0.0204410173921208 0 0.001531931164988862 -0.020447499762118619 0 0.0014455028975330453 -0.020498198723474605 0 0.001531931164988862 -0.020447499762118619 0 0.001535596712378941 -0.020531440745202745 0 0.0014608812233394828 -0.0204410173921208 0 0.001518477219295358 -0.020385072077470343 0 0.001531931164988862 -0.020447499762118619 0 0.0014360986007477484 -0.020425107992337332 0 0.0014608812233394828 -0.0204410173921208 0 0.001518477219295358 -0.020385072077470343 0 0.001518477219295358 -0.020385072077470343 0 0.001531931164988862 -0.020447499762118619 0 0.0016194461001665468 -0.020362751408086431 0 0.001518477219295358 -0.020385072077470343 0 0.0016194461001665468 -0.020362751408086431 0 0.0016090491658370674 -0.020291681383836326 0 0.001531931164988862 -0.020447499762118619 0 0.0016501180816073299 -0.020458548548622647 0 0.001535596712378941 -0.020531440745202745 0 0.001531931164988862 -0.020447499762118619 0 0.0016501180816073299 -0.020458548548622647 0 0.0016194461001665468 -0.020362751408086431 0 0.0016501180816073299 -0.020458548548622647 0 0.0016194461001665468 -0.020362751408086431 0 0.0017166713800812793 -0.020324806315771955 0 0.0016194461001665468 -0.020362751408086431 0 0.0016090491658370674 -0.020291681383836326 0 0.0017122905932312206 -0.020240838243872367 0 0.0016194461001665468 -0.020362751408086431 0 0.0017122905932312206 -0.020240838243872367 0 0.0017166713800812793 -0.020324806315771955 0 0.0016090491658370674 -0.020291681383836326 0 0.0016990582392025174 -0.020172526257383829 0 0.0017122905932312206 -0.020240838243872367 0 0.0016090491658370674 -0.020291681383836326 0 0.0016087395470744245 -0.020194099538601861 0 0.0016990582392025174 -0.020172526257383829 0 0.001518477219295358 -0.020385072077470343 0 0.0016090491658370674 -0.020291681383836326 0 0.001556979828221551 -0.020285252888083121 0 0.0016090491658370674 -0.020291681383836326 0 0.001556979828221551 -0.020285252888083121 0 0.0016087395470744245 -0.020194099538601861 0 0.0014903397330358124 -0.02036014955509485 0 0.001518477219295358 -0.020385072077470343 0 0.001556979828221551 -0.020285252888083121 0 0.0015051544210767538 -0.020304915608325268 0 0.001556979828221551 -0.020285252888083121 0 0.0016087395470744245 -0.020194099538601861 0 0.0015051544210767538 -0.020304915608325268 0 0.0014903397330358124 -0.02036014955509485 0 0.001556979828221551 -0.020285252888083121 0 0.0016087395470744245 -0.020194099538601861 0 0.0017353359183233782 -0.020065871729002715 0 0.0016990582392025174 -0.020172526257383829 0 0.0020528747604147859 -0.018689917897577277 0 0.0025570916459871315 -0.019616723976338742 0 0.0031826347217173067 -0.018311086493302622 0 0.0020528747604147859 -0.018689917897577277 0 0.0025570916459871315 -0.019616723976338742 0 0.001575552309138812 -0.019405857058070325 0 0.001575552309138812 -0.019405857058070325 0 0.0010746311962913624 -0.018597127650745282 0 0.00031204201686773681 -0.019707209175204052 0 0.0011434792126756752 -0.018666087189634851 0 0.00039747285447693691 -0.019564515751168694 0 0.0020528747604147859 -0.018689917897577277 0 0.001575552309138812 -0.019405857058070325 0 0.0010746311962913624 -0.018597127650745282 0 0.0011434792126756752 -0.018666087189634851 0 0.0018663232150999518 -0.018377562907002237 0 0.0010997722581983658 -0.018805951802443991 0 0.0018813040016329515 -0.017934127614853291 0 9.1272391864812913e-05 -0.018629066652448043 0 0.0020528747604147859 -0.018689917897577277 0 0.0010746311962913624 -0.018597127650745282 0 0.0018717620907848596 -0.017519483583558967 0 0.0018663232150999518 -0.018377562907002237 0 0.00034725657549625259 -0.020052689127500398 0 0.0012856608639342381 -0.020270148903667257 0 0.0022430569925122692 -0.020574224629568066 0 0.0006203943405779039 -0.021248117945120319 0 0.0018663232150999518 -0.018377562907002237 0 0.0031960119661470126 -0.016769145455258573 0 0.0020528747604147859 -0.018689917897577277 0 0.0018717620907848596 -0.017519483583558967 0 0.0031826347217173067 -0.018311086493302622 0 0.0018717620907848596 -0.017519483583558967 0 0.0032640689326824939 -0.016774390274261947 0 0.0031826347217173067 -0.018311086493302622 0 0.0024886862652498585 -0.019086527881990362 0 0.0018923922725088442 -0.019309106471645032 0 0.0027208016588645099 -0.01928231921553759 0 0.0018663232150999518 -0.018377562907002237 0 0.003152159610050569 -0.017604359125068931 0 0.0022430569925122692 -0.020574224629568066 0 0.0019865657379831863 -0.019315703849255753 0 0.0033751798533977156 -0.019275223321503065 0 0.0016196468457472166 -0.017452162535607392 0 0.0031326649172982953 -0.015691653951929924 0 0.0032640689326824939 -0.016774390274261947 0 0.0019657825434953751 -0.020356357439528329 0 0.003152159610050569 -0.017604359125068931 0 0.0019823286903429241 -0.019840481931078124 0 0.0019657825434953751 -0.020356357439528329 0 0.0016501180816073299 -0.020458548548622647 0 0.0016936613846090952 -0.020546062788887202 0 0.0016003525010773109 -0.020595573100418419 0 0.001535596712378941 -0.020531440745202745 0 0.0016003525010773109 -0.020595573100418419 0 0.0014756802424880102 -0.020626991886148759 0 0.0016501180816073299 -0.020458548548622647 0 0.001535596712378941 -0.020531440745202745 0 0.0016003525010773109 -0.020595573100418419 0 0.0019657825434953751 -0.020356357439528329 0 0.00126428473523797 -0.021359012241603727 0 0.0019657825434953751 -0.020356357439528329 0 0.00068588594487808312 -0.021186389635902251 0 0.0012856608639342381 -0.020270148903667257 0 0.0022430569925122692 -0.020574224629568066 0 0.0019865657379831863 -0.019315703849255753 0 0.0012856608639342381 -0.020270148903667257 0 0.0019865657379831863 -0.019315703849255753 0 0.00029203849727037039 -0.019943894827478791 0 0.0023404357884230691 -0.021807881095674896 0 0.001093080536412586 -0.021866884143299275 0 0.0010464836508560095 -0.022318613554995446 0 0.0014455028975330453 -0.020498198723474605 0 0.001535596712378941 -0.020531440745202745 0 0.0014756802424880102 -0.020626991886148759 0 0.0014455028975330453 -0.020498198723474605 0 0.0014756802424880102 -0.020626991886148759 0 0.0013961490010117961 -0.020585699195211554 0 0.0014756802424880102 -0.020626991886148759 0 0.0013961490010117961 -0.020585699195211554 0 0.0013589526826871228 -0.02067881130312027 0 0.00126428473523797 -0.021359012241603727 0 0.00068126708161100977 -0.020971552393570438 0 0.001093080536412586 -0.021866884143299275 0 0.0010464836508560095 -0.022318613554995446 0 -0.00017676577103262875 -0.021916813799285922 0 0.0010464836508560095 -0.022318613554995446 0 -0.00027484336690761864 -0.022831741545750468 0 -0.00017676577103262875 -0.021916813799285922 0 0.00029203849727037039 -0.019943894827478791 0 -0.00037469236066838728 -0.020922501941001193 0 -0.0014048921541765743 -0.020576734830983219 0 0.00068588594487808312 -0.021186389635902251 0 -0.00080206877746355802 -0.021445211049599695 0 -0.00037469236066838728 -0.020922501941001193 0 -0.0010055156105209695 -0.021921274779353808 0 -0.0014048921541765743 -0.020576734830983219 0 0.00029203849727037039 -0.019943894827478791 0 -0.00037469236066838728 -0.020922501941001193 0 0.0006203943405779039 -0.021248117945120319 0 0.0012856608639342381 -0.020270148903667257 0 0.00029203849727037039 -0.019943894827478791 0 0.0006203943405779039 -0.021248117945120319 0 9.1272391864812913e-05 -0.018629066652448043 0 0.00031204201686773681 -0.019707209175204052 0 -0.00057606503847934607 -0.020179067677880736 0 0.0010997722581983658 -0.018805951802443991 0 9.1272391864812913e-05 -0.018629066652448043 0 0.00031204201686773681 -0.019707209175204052 0 -0.00037469236066838728 -0.020922501941001193 0 0.0006203943405779039 -0.021248117945120319 0 -0.0010055156105209695 -0.021921274779353808 0 0.00034725657549625259 -0.020052689127500398 0 -0.001358025066511657 -0.020593893066509744 0 9.1272391864812913e-05 -0.018629066652448043 0 -0.0018239649008225344 -0.019389366392628928 0 -0.00057606503847934607 -0.020179067677880736 0 -0.0010055156105209695 -0.021921274779353808 0 -0.0021623130392059886 -0.021651030518313442 0 -0.0026261039529726477 -0.022584145481693844 0 -0.001358025066511657 -0.020593893066509744 0 -0.0034642001925524828 -0.02172130494773155 0 -0.0010055156105209695 -0.021921274779353808 0 -0.0021623130392059886 -0.021651030518313442 0 -0.0014048921541765743 -0.020576734830983219 0 -0.0021623130392059886 -0.021651030518313442 0 -0.0031859441611932961 -0.021897136067770478 0 -0.0026261039529726477 -0.022584145481693844 0 -0.0035105658178944117 -0.024458003733863361 0 -0.0034519955488654473 -0.023276601272923015 0 -0.0035105658178944117 -0.024458003733863361 0 -0.0034642001925524828 -0.02172130494773155 0 -0.0035105658178944117 -0.024458003733863361 0 -0.0040042849531718421 -0.023852644901543991 0 -0.0035105658178944117 -0.024458003733863361 0 -0.0022573339230720886 -0.024266751881157601 0 -0.0021623130392059886 -0.021651030518313442 0 -0.0031859441611932961 -0.021897136067770478 0 -0.0030935152355003625 -0.021211905503200117 0 -0.0022573339230720886 -0.024266751881157601 0 -0.00080206877746355802 -0.021445211049599695 0 -0.0022573339230720886 -0.024266751881157601 0 -0.0012907459823296393 -0.024961379680393254 0 -0.002095381576687112 -0.026576819124575185 0 -0.0021583968356746522 -0.027298438281462788 0 -0.0018289410112076981 -0.027016247525748348 0 -0.0016162058455879401 -0.023337806021844636 0 -0.0011874248385591111 -0.022808362146194205 0 -0.00027484336690761864 -0.022831741545750468 0 -0.0021623130392059886 -0.021651030518313442 0 -0.0030935152355003625 -0.021211905503200117 0 -0.0014048921541765743 -0.020576734830983219 0 -0.0016162058455879401 -0.023337806021844636 0 -0.0011874248385591111 -0.022808362146194205 0 -0.0014929117338426839 -0.022247237093760867 0 -0.0011874248385591111 -0.022808362146194205 0 -0.00027484336690761864 -0.022831741545750468 0 -0.00076330955367796241 -0.022329534938883337 0 0.00068126708161100977 -0.020971552393570438 0 -0.00053597116143417885 -0.024670693363461962 0 -0.00027484336690761864 -0.022831741545750468 0 -0.00017676577103262875 -0.021916813799285922 0 -0.00076330955367796241 -0.022329534938883337 0 -0.00017676577103262875 -0.021916813799285922 0 -0.00076330955367796241 -0.022329534938883337 0 -0.0014612868008815473 -0.021968070184591071 0 0.0013406231070247027 -0.02054555169121856 0 0.0013961490010117961 -0.020585699195211554 0 0.0013094993913777796 -0.020628764869203908 0 0.0013589526826871228 -0.02067881130312027 0 0.0013094993913777796 -0.020628764869203908 0 0.0011994333916456857 -0.020737705815950257 0 0.0013406231070247027 -0.02054555169121856 0 0.0013094993913777796 -0.020628764869203908 0 0.0012277772467970203 -0.020602827590670454 0 0.0013961490010117961 -0.020585699195211554 0 0.0013589526826871228 -0.02067881130312027 0 0.0013094993913777796 -0.020628764869203908 0 0.0013094993913777796 -0.020628764869203908 0 0.0012277772467970203 -0.020602827590670454 0 0.0011994333916456857 -0.020737705815950257 0 0.0010474358280958579 -0.02440484719657094 0 -0.00053597116143417885 -0.024670693363461962 0 0.00085254090570887253 -0.027703604960516166 0 0.00067843223535055065 -0.029256818613354125 0 -0.00018266812450582945 -0.028797757428718641 0 -0.00053597116143417885 -0.024670693363461962 0 -0.0012907459823296393 -0.024961379680393254 0 -0.0011874248385591111 -0.022808362146194205 0 -0.00076330955367796241 -0.022329534938883337 0 -0.001177442838296499 -0.022382776746728353 0 -0.0011874248385591111 -0.022808362146194205 0 -0.001177442838296499 -0.022382776746728353 0 -0.0014929117338426839 -0.022247237093760867 0 -0.00076330955367796241 -0.022329534938883337 0 -0.0014612868008815473 -0.021968070184591071 0 -0.001177442838296499 -0.022382776746728353 0 -0.0014612868008815473 -0.021968070184591071 0 -0.001177442838296499 -0.022382776746728353 0 -0.0014929117338426839 -0.022247237093760867 0 -0.0021757853024234079 -0.027484157106074172 0 -0.0021583968356746522 -0.027298438281462788 0 -0.0018289410112076981 -0.027016247525748348 0 -0.0021757853024234079 -0.027484157106074172 0 -0.0016058777981454069 -0.027499475332904196 0 -0.0018289410112076981 -0.027016247525748348 0 0.00067843223535055065 -0.029256818613354125 0 -0.00068501169494695048 -0.029312084722715882 0 -0.00018266812450582945 -0.028797757428718641 0 -0.00053597116143417885 -0.024670693363461962 0 -0.0011283939212564629 -0.028381678417715779 0 -0.0016058777981454069 -0.027499475332904196 0 -0.001427441600128041 -0.026996363065090557 0 -0.0018289410112076981 -0.027016247525748348 0 -0.00068501169494695048 -0.029312084722715882 0 -0.00018266812450582945 -0.028797757428718641 0 -0.00077191592689319194 -0.028617814374049606 0 -0.00068501169494695048 -0.029312084722715882 0 -0.00077191592689319194 -0.028617814374049606 0 -0.0014615711197280149 -0.028739315892419251 0 -0.00018266812450582945 -0.028797757428718641 0 -0.00077191592689319194 -0.028617814374049606 0 -0.0003906933566698279 -0.028123468169462845 0 -0.00076812017231985713 -0.02750202621287012 0 -0.0003906933566698279 -0.028123468169462845 0 -0.0011409663490347163 -0.028110081494714126 0 -0.00077191592689319194 -0.028617814374049606 0 -0.0003906933566698279 -0.028123468169462845 0 -0.0011409663490347163 -0.028110081494714126 0 0.00085254090570887253 -0.027703604960516166 0 -0.00018266812450582945 -0.028797757428718641 0 -0.0003906933566698279 -0.028123468169462845 0 -0.00123763850583416 -0.027181173194242219 0 -0.0011409663490347163 -0.028110081494714126 0 -0.0021876801952822903 -0.028932920338591767 0 -0.00026296738621663053 -0.030919647603923961 0 -0.00060968689800799025 -0.033639554592629767 0 0.00021647276898060995 -0.034837702947294998 0 -0.00060968689800799025 -0.033639554592629767 0 -0.0011409663490347163 -0.028110081494714126 0 -0.0014615711197280149 -0.028739315892419251 0 -0.0021876801952822903 -0.028932920338591767 0 -0.00077191592689319194 -0.028617814374049606 0 -0.0011409663490347163 -0.028110081494714126 0 -0.0014615711197280149 -0.028739315892419251 0 -0.0011437080325734025 -0.031159749067994864 0 -0.00060968689800799025 -0.033639554592629767 0 -0.00042545675037958789 -0.033981112557964793 0 -0.0010954607459193937 -0.035491513427313243 0 -0.0020128143620549636 -0.034357558172400264 0 -0.00060968689800799025 -0.033639554592629767 0 8.8057773810121706e-05 -0.035386281867611037 0 -0.0009643739748645936 -0.032417928419615327 0 -0.00087101660565635836 -0.03253234622272453 0 -0.0010318953147240796 -0.032538680270250211 0 -0.00088740811851980661 -0.033416185931223814 0 8.8057773810121706e-05 -0.035386281867611037 0 -0.00060968689800799025 -0.033639554592629767 0 -0.00088740811851980661 -0.033416185931223814 0 -0.0016058777981454069 -0.027499475332904196 0 -0.0010262393396180615 -0.027518257029028 0 -0.001427441600128041 -0.026996363065090557 0 -0.0014615711197280149 -0.028739315892419251 0 -0.0021712452489832442 -0.028927548826670174 0 -0.0020392801029143746 -0.029370977597848204 0 -0.0021712452489832442 -0.028927548826670174 0 -0.0022519524484399403 -0.02911127854131729 0 -0.0020392801029143746 -0.029370977597848204 0 -0.0011283939212564629 -0.028381678417715779 0 -0.0018768859752190923 -0.031016136318176506 0 -0.00068501169494695048 -0.029312084722715882 0 -0.0014615711197280149 -0.028739315892419251 0 -0.0020392801029143746 -0.029370977597848204 0 -0.00088740811851980661 -0.033416185931223814 0 -0.0015410071586033781 -0.033819935533618409 0 -0.00088740811851980661 -0.033416185931223814 0 -0.0018768859752190923 -0.031016136318176506 0 -0.0018768859752190923 -0.031016136318176506 0 -0.0015410071586033781 -0.033819935533618409 0 -0.0018768859752190923 -0.031016136318176506 0 -0.0024487293514828239 -0.02888107788203825 0 -0.0029792658613524356 -0.031405891043927069 0 -0.0029725452409485485 -0.030913884154202015 0 -0.0034349968592021292 -0.030829619495710003 0 -0.0029792658613524356 -0.031405891043927069 0 -0.0029725452409485485 -0.030913884154202015 0 -0.0026941315920531038 -0.031114705965575647 0 -0.0030661729270721142 -0.030504567464676079 0 -0.0034349968592021292 -0.030829619495710003 0 -0.0038830325848684924 -0.030254465420402821 0 -0.0029725452409485485 -0.030913884154202015 0 -0.0030661729270721142 -0.030504567464676079 0 -0.0026923315935902838 -0.03071870911701766 0 -0.0029725452409485485 -0.030913884154202015 0 -0.0030661729270721142 -0.030504567464676079 0 -0.0034349968592021292 -0.030829619495710003 0 -0.001427441600128041 -0.026996363065090557 0 -0.0018289410112076981 -0.027016247525748348 0 -0.0018328520973987382 -0.026486479133570145 0 -0.002095381576687112 -0.026576819124575185 0 -0.0018289410112076981 -0.027016247525748348 0 -0.0018328520973987382 -0.026486479133570145 0 -0.0022573339230720886 -0.024266751881157601 0 -0.0034270100859844321 -0.027447108814860729 0 -0.0024487293514828239 -0.02888107788203825 0 -0.0034270100859844321 -0.027447108814860729 0 -0.0044395492243352978 -0.027056202603122116 0 -0.0043195707696050282 -0.026860229200229842 0 -0.0040344697858943259 -0.026936958854038861 0 -0.0032381362471312807 -0.025354215043830626 0 -0.0032791850010007837 -0.025697085187102005 0 -0.0030319700283876483 -0.025612468521709956 0 -0.0045493882702797202 -0.026916685992541267 0 -0.0044395492243352978 -0.027056202603122116 0 -0.0043195707696050282 -0.026860229200229842 0 -0.0035105658178944117 -0.024458003733863361 0 -0.0034270100859844321 -0.027447108814860729 0 -0.0045493882702797202 -0.026916685992541267 0 -0.0043195707696050282 -0.026860229200229842 0 -0.0043808056627911611 -0.026687366051824916 0 -0.0043195707696050282 -0.026860229200229842 0 -0.0040344697858943259 -0.026936958854038861 0 -0.0041912809615925022 -0.026702166464160324 0 -0.0034270100859844321 -0.027447108814860729 0 -0.0036533466788828814 -0.028418429687623745 0 -0.0030661729270721142 -0.030504567464676079 0 -0.0038830325848684924 -0.030254465420402821 0 -0.0029698670109673309 -0.029952570203908381 0 -0.0040344697858943259 -0.026936958854038861 0 -0.0041912809615925022 -0.026702166464160324 0 -0.0039672751558700453 -0.026650371152919072 0 -0.0041912809615925022 -0.026702166464160324 0 -0.0042863819698245086 -0.026490698776949487 0 -0.0041010810755902774 -0.026441587018088179 0 -0.0041912809615925022 -0.026702166464160324 0 -0.0041010810755902774 -0.026441587018088179 0 -0.0039672751558700453 -0.026650371152919072 0 -0.0043195707696050282 -0.026860229200229842 0 -0.0041912809615925022 -0.026702166464160324 0 -0.0043808056627911611 -0.026687366051824916 0 -0.0045493882702797202 -0.026916685992541267 0 -0.0043808056627911611 -0.026687366051824916 0 -0.0045244434553580659 -0.026657543403622221 0 -0.0035043219754169502 -0.024047305111552633 0 -0.0034119599250162164 -0.023134309767627141 0 -0.0034623044869177694 -0.023231421197696344 0 -0.0040042849531718421 -0.023852644901543991 0 -0.0047807045743623868 -0.024066236869141881 0 -0.0043808056627911611 -0.026687366051824916 0 -0.0045244434553580659 -0.026657543403622221 0 -0.0045025028740485968 -0.026412719731550724 0 -0.0043808056627911611 -0.026687366051824916 0 -0.0042863819698245086 -0.026490698776949487 0 -0.0045025028740485968 -0.026412719731550724 0 -0.0041912809615925022 -0.026702166464160324 0 -0.0043808056627911611 -0.026687366051824916 0 -0.0042863819698245086 -0.026490698776949487 0 -0.0042863819698245086 -0.026490698776949487 0 -0.0045025028740485968 -0.026412719731550724 0 -0.004255306640978459 -0.026205959344795915 0 -0.0042863819698245086 -0.026490698776949487 0 -0.0041010810755902774 -0.026441587018088179 0 -0.004255306640978459 -0.026205959344795915 0 -0.0041010810755902774 -0.026441587018088179 0 -0.0040186828631585724 -0.026218842797713238 0 -0.0038423406403686705 -0.026368168325859448 0 -0.0041010810755902774 -0.026441587018088179 0 -0.0040186828631585724 -0.026218842797713238 0 -0.004255306640978459 -0.026205959344795915 0 -0.004255306640978459 -0.026205959344795915 0 -0.004021877156082705 -0.025967831247134879 0 -0.0044414454380007516 -0.025904715682640897 0 -0.0040186828631585724 -0.026218842797713238 0 -0.004255306640978459 -0.026205959344795915 0 -0.004021877156082705 -0.025967831247134879 0 -0.0038159771614922214 -0.025897842044466008 0 -0.0043102192616242992 -0.025140618128902181 0 -0.0038429329171134597 -0.025718756634508622 0 -0.0038387286825849365 -0.025671857182692416 0 -0.0035081527191894468 -0.025468098577882937 0 -0.0039689280525175702 -0.02633597775548447 0 -0.0044453456575850566 -0.026527056042462634 0 -0.0041709362582378808 -0.026737512623544193 0 -0.0038387286825849365 -0.025671857182692416 0 -0.0034721101291247357 -0.025563933798966373 0 -0.0029244239390367739 -0.026196592181098616 0 -0.0037621374790468738 -0.026144916989621635 0 -0.0029997932307494037 -0.026169961916431245 0 -0.0038387286825849365 -0.025671857182692416 0 -0.0035081527191894468 -0.025468098577882937 0 -0.0034721101291247357 -0.025563933798966373 0 -0.0043102192616242992 -0.025140618128902181 0 -0.0041490422611353914 -0.025320488696343717 0 -0.0034679976471602837 -0.025350038415937939 0 -0.0034721101291247357 -0.025563933798966373 0 -0.0030661994941834059 -0.025579252772101123 0 -0.0049965541402892414 -0.021745850556137609 0 -0.0053390534655997574 -0.024245788092685149 0 -0.0041067811488321197 -0.022979583075837196 0 -0.0047807045743623868 -0.024066236869141881 0 -0.0043102192616242992 -0.025140618128902181 0 -0.0045025028740485968 -0.026412719731550724 0 -0.004255306640978459 -0.026205959344795915 0 -0.0044414454380007516 -0.025904715682640897 0 -0.0041067811488321197 -0.022979583075837196 0 -0.0034100521356024973 -0.024516166037999346 0 -0.0028641393394405724 -0.023271435331111683 0 -0.0053390534655997574 -0.024245788092685149 0 -0.0041067811488321197 -0.022979583075837196 0 -0.0034100521356024973 -0.024516166037999346 0 -0.0034679976471602837 -0.025350038415937939 0 -0.0024924185035071086 -0.025197065664960279 0 -0.0030661994941834059 -0.025579252772101123 0 -0.0024924185035071086 -0.025197065664960279 0 -0.0030661994941834059 -0.025579252772101123 0 -0.0029244239390367739 -0.026196592181098616 0 -0.0043102192616242992 -0.025140618128902181 0 -0.0029162886419877155 -0.02482112249652595 0 -0.0034721101291247357 -0.025563933798966373 0 -0.0030661994941834059 -0.025579252772101123 0 -0.0029244239390367739 -0.026196592181098616 0 -0.0024924185035071086 -0.025197065664960279 0 -0.0013312693561776505 -0.02482781855643925 0 -0.0018717733604554109 -0.026009429196611467 0 -0.0024924185035071086 -0.025197065664960279 0 -0.0029244239390367739 -0.026196592181098616 0 -0.0018717733604554109 -0.026009429196611467 0 -0.0029162886419877155 -0.02482112249652595 0 -0.0014247164175624652 -0.024879441967407261 0 -0.0034100521356024973 -0.024516166037999346 0 -0.0028641393394405724 -0.023271435331111683 0 -0.0013312693561776505 -0.02482781855643925 0 -0.0028641393394405724 -0.023271435331111683 0 -0.0016977410450867265 -0.022566877236367276 0 -0.0013312693561776505 -0.02482781855643925 0 -0.0028641393394405724 -0.023271435331111683 0 -0.0028311934002880836 -0.021504080534487716 0 -0.0016977410450867265 -0.022566877236367276 0 -0.0028311934002880836 -0.021504080534487716 0 -0.0017877477058365729 -0.020748603645303561 0 -0.0016977410450867265 -0.022566877236367276 0 -0.0041067811488321197 -0.022979583075837196 0 -0.0028641393394405724 -0.023271435331111683 0 -0.0028311934002880836 -0.021504080534487716 0 -0.0041067811488321197 -0.022979583075837196 0 -0.0028311934002880836 -0.021504080534487716 0 -0.0040123769320697302 -0.021266758882303526 0 -0.0049965541402892414 -0.021745850556137609 0 -0.0041067811488321197 -0.022979583075837196 0 -0.0040123769320697302 -0.021266758882303526 0 -0.0032231528803766726 -0.020953172805736085 0 -0.0034642001925524828 -0.02172130494773155 0 -0.0028311934002880836 -0.021504080534487716 0 -0.0040123769320697302 -0.021266758882303526 0 -0.003927711044382237 -0.020209513085040761 0 -0.0048264118347413594 -0.020566308430916884 0 -0.0040123769320697302 -0.021266758882303526 0 -0.003927711044382237 -0.020209513085040761 0 -0.0048264118347413594 -0.020566308430916884 0 -0.0049965541402892414 -0.021745850556137609 0 -0.0040123769320697302 -0.021266758882303526 0 -0.0040042849531718421 -0.023852644901543991 0 -0.0034642001925524828 -0.02172130494773155 0 -0.0035215980393104225 -0.023976321373925188 0 -0.0034623044869177694 -0.023231421197696344 0 -0.0040103445117264528 -0.023372926760468676 0 -0.0034119599250162164 -0.023134309767627141 0 -0.0034623044869177694 -0.023231421197696344 0 -0.0040103445117264528 -0.023372926760468676 0 -0.0028311934002880836 -0.021504080534487716 0 -0.0038640638267999315 -0.020206470000304184 0 -0.0017877477058365729 -0.020748603645303561 0 -0.0018239649008225344 -0.019389366392628928 0 -0.0038640638267999315 -0.020206470000304184 0 -0.0017877477058365729 -0.020748603645303561 0 -0.0017877477058365729 -0.020748603645303561 0 -0.00057606503847934607 -0.020179067677880736 0 -0.00067307680488706118 -0.021730794486121714 0 -0.0018239649008225344 -0.019389366392628928 0 -0.0017877477058365729 -0.020748603645303561 0 -0.00057606503847934607 -0.020179067677880736 0 0.00035134830840017782 -0.021074862933700967 0 -0.00057606503847934607 -0.020179067677880736 0 -0.00067307680488706118 -0.021730794486121714 0 0.00031204201686773681 -0.019707209175204052 0 0.00035134830840017782 -0.021074862933700967 0 -0.00057606503847934607 -0.020179067677880736 0 0.00035134830840017782 -0.021074862933700967 0 -0.00067307680488706118 -0.021730794486121714 0 0.00030666831446432428 -0.022580490915778375 0 -0.0017877477058365729 -0.020748603645303561 0 -0.0016977410450867265 -0.022566877236367276 0 -0.00067307680488706118 -0.021730794486121714 0 -0.0016977410450867265 -0.022566877236367276 0 -0.00067307680488706118 -0.021730794486121714 0 -0.00060193110007836974 -0.023636587903845638 0 -0.0016977410450867265 -0.022566877236367276 0 -0.00060193110007836974 -0.023636587903845638 0 -0.0013312693561776505 -0.02482781855643925 0 -0.00060193110007836974 -0.023636587903845638 0 -0.0013312693561776505 -0.02482781855643925 0 -0.00011497685386135157 -0.025722963828161846 0 -0.00060193110007836974 -0.023636587903845638 0 0.00055183776166229368 -0.023962198391795184 0 -0.00011497685386135157 -0.025722963828161846 0 0.00055183776166229368 -0.023962198391795184 0 0.0016655490387096669 -0.025487796156733963 0 -0.00011497685386135157 -0.025722963828161846 0 -0.00060193110007836974 -0.023636587903845638 0 0.00055183776166229368 -0.023962198391795184 0 0.00030666831446432428 -0.022580490915778375 0 -0.00067307680488706118 -0.021730794486121714 0 -0.00060193110007836974 -0.023636587903845638 0 0.00030666831446432428 -0.022580490915778375 0 0.00030666831446432428 -0.022580490915778375 0 0.0019108984858940291 -0.023226651286927556 0 0.0013235068787964619 -0.021728089661293006 0 0.00055183776166229368 -0.023962198391795184 0 0.00030666831446432428 -0.022580490915778375 0 0.0019108984858940291 -0.023226651286927556 0 0.00063251913608320428 -0.024048352723815988 0 0.0016311992203999382 -0.025181593805313228 0 0.00055183776166229368 -0.023962198391795184 0 0.0019108984858940291 -0.023226651286927556 0 0.0016657299689265812 -0.024963973595079059 0 0.002632306042099511 -0.024290383159016282 0 0.0016657299689265812 -0.024963973595079059 0 0.0031369885220719923 -0.02523507204482078 0 0.002632306042099511 -0.024290383159016282 0 0.0019108984858940291 -0.023226651286927556 0 0.0016657299689265812 -0.024963973595079059 0 0.002632306042099511 -0.024290383159016282 0 0.0019108984858940291 -0.023226651286927556 0 0.0033647278642504131 -0.023424612998443534 0 0.0019108984858940291 -0.023226651286927556 0 0.0030935198689972057 -0.022487667317447658 0 0.0033647278642504131 -0.023424612998443534 0 0.0019108984858940291 -0.023226651286927556 0 0.0023528533071510145 -0.022096253641519823 0 0.0030935198689972057 -0.022487667317447658 0 0.0023528533071510145 -0.022096253641519823 0 0.0035161719496074307 -0.02145248152185843 0 0.0030935198689972057 -0.022487667317447658 0 0.0019108984858940291 -0.023226651286927556 0 0.0023528533071510145 -0.022096253641519823 0 0.0013235068787964619 -0.021728089661293006 0 0.0023528533071510145 -0.022096253641519823 0 0.002481806519898949 -0.020908645501621862 0 0.0035161719496074307 -0.02145248152185843 0 0.0023528533071510145 -0.022096253641519823 0 0.0013235068787964619 -0.021728089661293006 0 0.002481806519898949 -0.020908645501621862 0 0.00035134830840017782 -0.021074862933700967 0 0.00030666831446432428 -0.022580490915778375 0 0.0013235068787964619 -0.021728089661293006 0 0.0013235068787964619 -0.021728089661293006 0 0.0014292471994885409 -0.020371717213542116 0 0.002481806519898949 -0.020908645501621862 0 0.00031204201686773681 -0.019707209175204052 0 0.00035134830840017782 -0.021074862933700967 0 0.0014292471994885409 -0.020371717213542116 0 0.00035134830840017782 -0.021074862933700967 0 0.0013235068787964619 -0.021728089661293006 0 0.0014292471994885409 -0.020371717213542116 0 0.001575552309138812 -0.019405857058070325 0 0.00031204201686773681 -0.019707209175204052 0 0.0014292471994885409 -0.020371717213542116 0 0.0025570916459871315 -0.019616723976338742 0 0.001575552309138812 -0.019405857058070325 0 0.0014292471994885409 -0.020371717213542116 0 0.0025570916459871315 -0.019616723976338742 0 0.0014292471994885409 -0.020371717213542116 0 0.002481806519898949 -0.020908645501621862 0 0.0025570916459871315 -0.019616723976338742 0 0.002481806519898949 -0.020908645501621862 0 0.0037351554592904603 -0.020160464488123808 0 -0.00027464623805137996 -0.039348120419982514 0 -0.00051653397607768266 -0.04180174666921091 0 -0.00016564717611283617 -0.041647782624904678 0 0.00014391494266091662 -0.042037461252755037 0 -0.00045998806293385912 -0.04246873114440744 0 -0.00057256866420511026 -0.038033550472037977 0 -0.00065255729018422626 -0.038202668711113302 0 -0.00071119770765809868 -0.038516659713692433 0 -0.00077338626597920897 -0.038038305651535667 0 -0.00057256866420511026 -0.038033550472037977 0 -0.00065255729018422626 -0.038202668711113302 0 -0.00077338626597920897 -0.038038305651535667 0 -0.00057256866420511026 -0.038033550472037977 0 -0.00070867396146691449 -0.037812812109666458 0 -0.00067895353387331648 -0.03820564711000151 0 -0.00097804976189492577 -0.03827862145176756 0 -0.00077338626597920897 -0.038038305651535667 0 -0.00087921021830474847 -0.037936130634958293 0 -0.0010228682967344069 -0.038177861950124237 0 -0.00087921021830474847 -0.037936130634958293 0 -0.0010228682967344069 -0.038177861950124237 0 -0.0010610060707605721 -0.037931473704810759 0 -0.00077338626597920897 -0.038038305651535667 0 -0.00065255729018422626 -0.038202668711113302 0 -0.0010228682967344069 -0.038177861950124237 0 -0.00077338626597920897 -0.038038305651535667 0 -0.00087921021830474847 -0.037936130634958293 0 -0.00070867396146691449 -0.037812812109666458 0 -0.00087921021830474847 -0.037936130634958293 0 -0.00089947483125878505 -0.037701271289266494 0 -0.00070867396146691449 -0.037812812109666458 0 -0.00087921021830474847 -0.037936130634958293 0 -0.00089947483125878505 -0.037701271289266494 0 -0.0010610060707605721 -0.037931473704810759 0 -0.00089947483125878505 -0.037701271289266494 0 -0.0010610060707605721 -0.037931473704810759 0 -0.0011125591585458298 -0.037708871624949944 0 -0.00089947483125878505 -0.037701271289266494 0 -0.00070867396146691449 -0.037812812109666458 0 -0.00072719012639570104 -0.037522563944580194 0 -0.00027464623805137996 -0.039348120419982514 0 -0.00014555873232564796 -0.040635107213088377 0 -0.00057256866420511026 -0.038033550472037977 0 -0.00070867396146691449 -0.037812812109666458 0 -0.00045500108987211893 -0.037655473034843477 0 -0.00016564717611283617 -0.041647782624904678 0 0.00044340769729325319 -0.041648141080745389 0 0.00012622659510392833 -0.040823725662508685 0 8.3970577939124571e-06 -0.044983203899904595 0 1.9781261521387759e-05 -0.044973938676491139 0 1.1398046604813973e-05 -0.044959976022292798 0 0.0003493506085297785 -0.043775504446260848 0 -0.00014555873232564796 -0.040635107213088377 0 8.3970577939124571e-06 -0.044983203899904595 0 -1.9256653126740948e-08 -0.044999892799130484 0 1.9781261521387759e-05 -0.044973938676491139 0 8.3970577939124571e-06 -0.044983203899904595 0 -1.9256653126740948e-08 -0.044999892799130484 0 1.5247799800340088e-08 -0.044999986451395933 0 -1.2477278488615283e-07 -0.045000653285731079 0 -2.6235818542368081e-05 -0.044459909124244128 0 -1.9256653126740948e-08 -0.044999892799130484 0 1.9781261521387759e-05 -0.044973938676491139 0 3.487829387864009e-06 -0.044934149619664174 0 0.0003493506085297785 -0.043775504446260848 0 0.00040994301315211391 -0.043444994573957306 0 0.00014391494266091662 -0.042037461252755037 0 0.00044340769729325319 -0.041648141080745389 0 0.0007531204466271783 -0.04246703517948517 0 -0.00016564717611283617 -0.041647782624904678 0 0.00014391494266091662 -0.042037461252755037 0 0.00044340769729325319 -0.041648141080745389 0 -0.00032583635129556407 -0.043234883923383365 0 0.00020243996623517022 -0.043215504951985624 0 3.6573592401497659e-05 -0.043484153704884627 0 0.00014391494266091662 -0.042037461252755037 0 0.00014517967398050281 -0.042467127278318216 0 0.0007531204466271783 -0.04246703517948517 0 -9.7198025148486578e-05 -0.042837678923681753 0 0.00040994301315211391 -0.043444994573957306 0 -4.3002822922516972e-10 -0.045000000552639717 0 -8.8065377896562199e-08 -0.044998826079051181 0 -4.6538935524199929e-11 -0.044999993408520372 0 1.9781261521387759e-05 -0.044973938676491139 0 1.3532363080484806e-05 -0.044931521405374063 0 3.487829387864009e-06 -0.044934149619664174 0 0.00020243996623517022 -0.043215504951985624 0 0.00029766027345762844 -0.04346178676924918 0 3.6573592401497659e-05 -0.043484153704884627 0 0.00040994301315211391 -0.043444994573957306 0 0.0003278133173043211 -0.043366125514963792 0 0.00020385580315607584 -0.043229076873087038 0 0.00038504848600181147 -0.043224663538190863 0 0.00029766027345762844 -0.04346178676924918 0 0.00040994301315211391 -0.043444994573957306 0 -2.6235818542368081e-05 -0.044459909124244128 0 -2.6235818542368081e-05 -0.044459909124244128 0 -1.3631317219037132e-08 -0.044999329993180293 0 -2.6235818542368081e-05 -0.044459909124244128 0 0.00013721948209283253 -0.044350363956968203 0 7.4585848100670594e-06 -0.044999584353334725 0 7.0821784885741858e-08 -0.04500013822810122 0 2.1586781070381824e-05 -0.044989235623548403 0 0.00038504848600181147 -0.043224663538190863 0 0.00029766027345762844 -0.04346178676924918 0 0.00022750578367380345 -0.043853538550900233 0 -1.1196382323874369e-07 -0.04499972581867677 0 7.0821784885741858e-08 -0.04500013822810122 0 2.1586781070381824e-05 -0.044989235623548403 0 0.00029766027345762844 -0.04346178676924918 0 0.00022750578367380345 -0.043853538550900233 0 3.6573592401497659e-05 -0.043484153704884627 0 -0.00032583635129556407 -0.043234883923383365 0 -0.00020610187323774054 -0.043662905262040995 0 3.6573592401497659e-05 -0.043484153704884627 0 -0.00032583635129556407 -0.043234883923383365 0 -0.00020610187323774054 -0.043662905262040995 0 -0.00056435875489276304 -0.043518288881199352 0 0.00022750578367380345 -0.043853538550900233 0 -0.00020610187323774054 -0.043662905262040995 0 3.6573592401497659e-05 -0.043484153704884627 0 -0.00016195263156730516 -0.044134300641617781 0 0.00022750578367380345 -0.043853538550900233 0 -0.00020610187323774054 -0.043662905262040995 0 -0.00020610187323774054 -0.043662905262040995 0 -0.00044001355590334387 -0.043859716016637039 0 -0.00056435875489276304 -0.043518288881199352 0 -0.00016195263156730516 -0.044134300641617781 0 -0.00020610187323774054 -0.043662905262040995 0 -0.00044001355590334387 -0.043859716016637039 0 -0.00044001355590334387 -0.043859716016637039 0 -0.00076453006534141135 -0.043711648310757134 0 -0.00056435875489276304 -0.043518288881199352 0 -0.00076453006534141135 -0.043711648310757134 0 -0.00091986828112059849 -0.043542112348376946 0 -0.00056435875489276304 -0.043518288881199352 0 -0.00032583635129556407 -0.043234883923383365 0 -0.00056435875489276304 -0.043518288881199352 0 -0.00083663676524371418 -0.043280728914382227 0 -9.7198025148486578e-05 -0.042837678923681753 0 -0.00051653397607768266 -0.04180174666921091 0 0.00014391494266091662 -0.042037461252755037 0 0.00014517967398050281 -0.042467127278318216 0 -0.00045998806293385912 -0.04246873114440744 0 -0.00091986828112059849 -0.043542112348376946 0 -0.00056435875489276304 -0.043518288881199352 0 -0.00083663676524371418 -0.043280728914382227 0 -0.00095526474649215113 -0.043255017753863506 0 -0.00051653397607768266 -0.04180174666921091 0 -0.00091986828112059849 -0.043542112348376946 0 -0.00095321706553475613 -0.043628264820165075 0 -0.00057020175117078269 -0.043847072156745714 0 -0.00065255729018422626 -0.038202668711113302 0 -0.00071119770765809868 -0.038516659713692433 0 -0.0010090043587585784 -0.038381175919513323 0 -0.00051653397607768266 -0.04180174666921091 0 -0.00086028835598542914 -0.041293198460949802 0 -0.00071119770765809868 -0.038516659713692433 0 -0.0010090043587585784 -0.038381175919513323 0 -0.0011949931546617837 -0.038563291104530037 0 -0.0010514922504526278 -0.043483320019430546 0 -0.00091986828112059849 -0.043542112348376946 0 -0.00057020175117078269 -0.043847072156745714 0 -0.0010514922504526278 -0.043483320019430546 0 -0.00076453006534141135 -0.043711648310757134 0 -0.00091986828112059849 -0.043542112348376946 0 -0.0010514922504526278 -0.043483320019430546 0 -0.0002475710930306545 -0.043195817870208569 0 -0.00057020175117078269 -0.043847072156745714 0 -0.0002475710930306545 -0.043195817870208569 0 0.00013233655526890926 -0.043510626772656547 0 -0.00057020175117078269 -0.043847072156745714 0 0.00071273214286604429 -0.043015072246749428 0 -0.0002475710930306545 -0.043195817870208569 0 0.00013233655526890926 -0.043510626772656547 0 -0.0013087474572660639 -0.038517911591446873 0 -0.0011949931546617837 -0.038563291104530037 0 -0.0015671997846930809 -0.038623761997380761 0 -0.00086028835598542914 -0.041293198460949802 0 -0.00076498877967703949 -0.039893743084491742 0 -0.0013206164548572815 -0.038184180716392888 0 -0.0015869447309861137 -0.038211119835230921 0 -0.0014717505582991673 -0.038009684127316236 0 -0.0014200880621796606 -0.038270922111872614 0 -0.00076498877967703949 -0.039893743084491742 0 0.00013233655526890926 -0.043510626772656547 0 -0.00057020175117078269 -0.043847072156745714 0 0.00071318284138214606 -0.043946954395060862 0 -0.0010228682967344069 -0.038177861950124237 0 -0.0013206164548572815 -0.038184180716392888 0 -0.0012024284416650639 -0.038044611119036231 0 -0.00097804976189492577 -0.03827862145176756 0 -0.0014200880621796606 -0.038270922111872614 0 -0.0010090043587585784 -0.038381175919513323 0 -0.0013087474572660639 -0.038517911591446873 0 -0.0011949931546617837 -0.038563291104530037 0 0.0019143343813898875 -0.041349003498693804 0 7.2635630882996436e-05 -0.038342894423770681 0 0.0016917559991392512 -0.042702185885157902 0 0.0011815717270758658 -0.043351536232167309 0 0.0016199968654790702 -0.043729039580080481 0 0.0011815717270758658 -0.043351536232167309 0 0.00071318284138214606 -0.043946954395060862 0 0.0016199968654790702 -0.043729039580080481 0 0.0018820177227479732 -0.03896988556341946 0 0.0016516440404459396 -0.038018142144905932 0 0.0018497759229531043 -0.038117077508962913 0 0.0018820177227479732 -0.03896988556341946 0 0.0018497759229531043 -0.038117077508962913 0 0.0018777864956888042 -0.037962968434362421 0 0.0016516440404459396 -0.038018142144905932 0 0.0018497759229531043 -0.038117077508962913 0 0.0017510115263301173 -0.037993504141693758 0 0.00081730435590704053 -0.036352983972887463 0 8.8057773810121706e-05 -0.035386281867611037 0 0.0018497759229531043 -0.038117077508962913 0 0.0017423774406745464 -0.037989349246444128 0 0.0018777864956888042 -0.037962968434362421 0 8.8057773810121706e-05 -0.035386281867611037 0 7.2635630882996436e-05 -0.038342894423770681 0 0.00071273214286604429 -0.043015072246749428 0 0.00013233655526890926 -0.043510626772656547 0 0.00071318284138214606 -0.043946954395060862 0 0.00071273214286604429 -0.043015072246749428 0 0.0011815717270758658 -0.043351536232167309 0 0.00071318284138214606 -0.043946954395060862 0 -0.00076498877967703949 -0.039893743084491742 0 7.2635630882996436e-05 -0.038342894423770681 0 -0.0010452295301632416 -0.038471221807967887 0 2.3898533939036275e-06 -0.038429444481474201 0 7.8165267839270749e-06 -0.038198126308854691 0 -0.00076498877967703949 -0.039893743084491742 0 -0.0010878919308868638 -0.035739285999478926 0 -0.0015869447309861137 -0.038211119835230921 0 -0.0018208141837402162 -0.038128223991411393 0 -0.0018200301203104166 -0.038185678309594594 0 -0.0015869447309861137 -0.038211119835230921 0 -0.0018208141837402162 -0.038128223991411393 0 -0.0016942248777538516 -0.037879299786233112 0 -0.0019702070525608687 -0.034058371078751939 0 -0.0019635453996149758 -0.033986452443029509 0 -0.0018602483790445276 -0.033829222628193371 0 -0.0021127845077959346 -0.032988440509134791 0 -0.0015410071586033781 -0.033819935533618409 0 -0.0021127845077959346 -0.032988440509134791 0 -0.0019802805324552657 -0.034961480341481457 0 -0.002195078704494599 -0.034934054737559991 0 -0.0018572951037489377 -0.034321867793643421 0 -0.0021809934059245457 -0.034327925128609001 0 -0.0029792658613524356 -0.031405891043927069 0 -0.0026941315920531038 -0.031114705965575647 0 -0.0028012457513526441 -0.031406000306340491 0 -0.0019802805324552657 -0.034961480341481457 0 -0.0015410071586033781 -0.033819935533618409 0 -0.0019802805324552657 -0.034961480341481457 0 -0.0010878919308868638 -0.035739285999478926 0 -0.0015410071586033781 -0.033819935533618409 0 -0.0010878919308868638 -0.035739285999478926 0 -0.0010878919308868638 -0.035739285999478926 0 7.2635630882996436e-05 -0.038342894423770681 0 -0.0013316854185201103 -0.035891803764612353 0 -0.0013110771870849375 -0.034956562107180678 0 -0.00088308463342590886 -0.035338021428259293 0 -0.00065318954328987271 -0.034798545904475293 0 -0.0013110771870849375 -0.034956562107180678 0 -0.00088308463342590886 -0.035338021428259293 0 -0.00035931050732416879 -0.035161083084880689 0 -0.00065318954328987271 -0.034798545904475293 0 -0.00088308463342590886 -0.035338021428259293 0 -0.00035931050732416879 -0.035161083084880689 0 -0.00075934633258545054 -0.035881490123293426 0 -0.00088308463342590886 -0.035338021428259293 0 -0.00075934633258545054 -0.035881490123293426 0 -0.0013316854185201103 -0.035891803764612353 0 -0.00088308463342590886 -0.035338021428259293 0 -0.0021127845077959346 -0.032988440509134791 0 -0.0022946037659999159 -0.032194564816521651 0 -0.0019802805324552657 -0.034961480341481457 0 -0.0019512821320469662 -0.036193632376457674 0 -0.0023406563544427451 -0.034229702736748802 0 -0.002137702292846579 -0.033684198317801561 0 -0.0020422517028336851 -0.03368367803715077 0 -0.0026893823633510395 -0.031135610553463575 0 -0.002382941031632052 -0.030368700613906799 0 -0.0026923315935902838 -0.03071870911701766 0 -0.0023406563544427451 -0.034229702736748802 0 -0.002339152717095519 -0.034296107747230901 0 -0.0020422517028336851 -0.03368367803715077 0 -0.0030661729270721142 -0.030504567464676079 0 -0.002382941031632052 -0.030368700613906799 0 -0.0026923315935902838 -0.03071870911701766 0 -0.0029725452409485485 -0.030913884154202015 0 -0.0026941315920531038 -0.031114705965575647 0 -0.0026923315935902838 -0.03071870911701766 0 -0.0021127845077959346 -0.032988440509134791 0 -0.0024342562352396026 -0.030680576714616846 0 -0.0016942248777538516 -0.037879299786233112 0 -0.0014717505582991673 -0.038009684127316236 0 -0.0014355735719718441 -0.037832285479132373 0 -0.0015869447309861137 -0.038211119835230921 0 -0.0016942248777538516 -0.037879299786233112 0 -0.0014717505582991673 -0.038009684127316236 0 -0.0019512821320469662 -0.036193632376457674 0 -0.0019872179601329205 -0.034163344352409329 0 -0.0020422517028336851 -0.03368367803715077 0 -0.0019105520983461524 -0.033105560406159321 0 -0.0017116166677795907 -0.033034218154432124 0 -0.0016942248777538516 -0.037879299786233112 0 -0.0014355735719718441 -0.037832285479132373 0 -0.0015565992652140938 -0.037587699558540362 0 -0.0029698670109673309 -0.029952570203908381 0 -0.002382941031632052 -0.030368700613906799 0 -0.0020766073396664224 -0.029645566170967936 0 -0.0022946037659999159 -0.032194564816521651 0 -0.0027003493715965867 -0.029948436311028399 0 -0.0030661729270721142 -0.030504567464676079 0 -0.0029698670109673309 -0.029952570203908381 0 -0.002382941031632052 -0.030368700613906799 0 -0.002137702292846579 -0.033684198317801561 0 -0.0020422517028336851 -0.03368367803715077 0 -0.0019105520983461524 -0.033105560406159321 0 -0.0036533466788828814 -0.028418429687623745 0 -0.0027003493715965867 -0.029948436311028399 0 -0.0010610060707605721 -0.037931473704810759 0 -0.0012024284416650639 -0.038044611119036231 0 -0.0012495022274307708 -0.037866617826281 0 -0.0012024284416650639 -0.038044611119036231 0 -0.0013368999515631394 -0.037990005981885094 0 -0.0012495022274307708 -0.037866617826281 0 -0.0010228682967344069 -0.038177861950124237 0 -0.0010610060707605721 -0.037931473704810759 0 -0.0012024284416650639 -0.038044611119036231 0 -0.0013206164548572815 -0.038184180716392888 0 -0.0012024284416650639 -0.038044611119036231 0 -0.0013368999515631394 -0.037990005981885094 0 -0.0013206164548572815 -0.038184180716392888 0 -0.0014717505582991673 -0.038009684127316236 0 -0.0013368999515631394 -0.037990005981885094 0 -0.0014717505582991673 -0.038009684127316236 0 -0.0013368999515631394 -0.037990005981885094 0 -0.0014355735719718441 -0.037832285479132373 0 -0.0013368999515631394 -0.037990005981885094 0 -0.0014355735719718441 -0.037832285479132373 0 -0.0012495022274307708 -0.037866617826281 0 -0.0014355735719718441 -0.037832285479132373 0 -0.0013218743002262581 -0.03766904460159446 0 -0.0012495022274307708 -0.037866617826281 0 -0.0014355735719718441 -0.037832285479132373 0 -0.0013218743002262581 -0.03766904460159446 0 -0.0015565992652140938 -0.037587699558540362 0 -0.0013218743002262581 -0.03766904460159446 0 -0.0012495022274307708 -0.037866617826281 0 -0.0011125591585458298 -0.037708871624949944 0 -0.0010610060707605721 -0.037931473704810759 0 -0.0012495022274307708 -0.037866617826281 0 -0.0011125591585458298 -0.037708871624949944 0 -0.0011125591585458298 -0.037708871624949944 0 -0.0012109415136147949 -0.037455918624938335 0 -0.000955948714463144 -0.037536099120615993 0 -0.0013218743002262581 -0.03766904460159446 0 -0.0011125591585458298 -0.037708871624949944 0 -0.0012109415136147949 -0.037455918624938335 0 -0.0011296868852893507 -0.037756101904139958 0 -0.0019872179601329205 -0.034163344352409329 0 -0.0011116548619543041 -0.037224669049801484 0 -0.0012014032898333277 -0.037142317784678053 0 -0.001243120629702061 -0.037182901847804019 0 -0.0013218743002262581 -0.03766904460159446 0 -0.0012109415136147949 -0.037455918624938335 0 -0.0015565992652140938 -0.037587699558540362 0 -0.0011116548619543041 -0.037224669049801484 0 -0.0012014032898333277 -0.037142317784678053 0 -0.001109683219274528 -0.037138750895702559 0 -0.0031429864690431918 -0.026918101653540673 0 -0.0033290097141820702 -0.026368016086418776 0 -0.002906883429036776 -0.026120162209105811 0 -0.0012014032898333277 -0.037142317784678053 0 -0.001109683219274528 -0.037138750895702559 0 -0.0011648833271514789 -0.03703684604123763 0 -0.0020863356715295459 -0.031870097680416341 0 -0.0033580485447513393 -0.030985626750727073 0 -0.001109683219274528 -0.037138750895702559 0 -0.0010164082894149793 -0.037104441043389946 0 -0.0011163142674851566 -0.037072782035483448 0 -0.001109683219274528 -0.037138750895702559 0 -0.00099190413627600897 -0.037186636009803965 0 -0.0010164082894149793 -0.037104441043389946 0 -0.0011116548619543041 -0.037224669049801484 0 -0.001109683219274528 -0.037138750895702559 0 -0.00099190413627600897 -0.037186636009803965 0 -0.0039672751558700453 -0.026650371152919072 0 -0.0037285795763852244 -0.026584559098945394 0 -0.0036096925452563703 -0.026818847380095611 0 -0.0040344697858943259 -0.026936958854038861 0 -0.0039672751558700453 -0.026650371152919072 0 -0.0036096925452563703 -0.026818847380095611 0 -0.0020863356715295459 -0.031870097680416341 0 -0.0019872179601329205 -0.034163344352409329 0 -0.0031429864690431918 -0.026918101653540673 0 -0.0037361888763304866 -0.028192665324302112 0 -0.0037895871281068438 -0.027272324972313782 0 -0.0037285795763852244 -0.026584559098945394 0 -0.0036096925452563703 -0.026818847380095611 0 -0.0034868860539833935 -0.026567376797201607 0 -0.0027003493715965867 -0.029948436311028399 0 -0.0034418275847707992 -0.026718749787687558 0 -0.0027003493715965867 -0.029948436311028399 0 -0.0019872179601329205 -0.034163344352409329 0 -0.0042415097208191388 -0.028383217864340563 0 -0.0037361888763304866 -0.028192665324302112 0 -0.0037895871281068438 -0.027272324972313782 0 -0.0031429864690431918 -0.026918101653540673 0 -0.0033290097141820702 -0.026368016086418776 0 -0.0037895871281068438 -0.027272324972313782 0 -0.0034089380334997939 -0.026511142826410802 0 -0.0034418275847707992 -0.026718749787687558 0 -0.0033290097141820702 -0.026368016086418776 0 -0.0035931265588850059 -0.026308068546275432 0 -0.0033738568835290734 -0.026206901725052245 0 -0.0033290097141820702 -0.026368016086418776 0 -0.0034868860539833935 -0.026567376797201607 0 -0.0035931265588850059 -0.026308068546275432 0 -0.0034868860539833935 -0.026567376797201607 0 -0.0035931265588850059 -0.026308068546275432 0 -0.0036616945491891677 -0.026457291279798567 0 -0.0037285795763852244 -0.026584559098945394 0 -0.0034868860539833935 -0.026567376797201607 0 -0.0036616945491891677 -0.026457291279798567 0 -0.0037285795763852244 -0.026584559098945394 0 -0.0036616945491891677 -0.026457291279798567 0 -0.0038423406403686705 -0.026368168325859448 0 -0.0035931265588850059 -0.026308068546275432 0 -0.0036616945491891677 -0.026457291279798567 0 -0.0038423406403686705 -0.026368168325859448 0 -0.0035931265588850059 -0.026308068546275432 0 -0.0038423406403686705 -0.026368168325859448 0 -0.0038246140363534286 -0.026160174482641494 0 -0.0040186828631585724 -0.026218842797713238 0 -0.0038423406403686705 -0.026368168325859448 0 -0.0038246140363534286 -0.026160174482641494 0 -0.0039672751558700453 -0.026650371152919072 0 -0.0037285795763852244 -0.026584559098945394 0 -0.0038423406403686705 -0.026368168325859448 0 -0.0041010810755902774 -0.026441587018088179 0 -0.0039672751558700453 -0.026650371152919072 0 -0.0038423406403686705 -0.026368168325859448 0 -0.0038159771614922214 -0.025897842044466008 0 -0.0036304348043458912 -0.025940077044844106 0 -0.004021877156082705 -0.025967831247134879 0 -0.0038246140363534286 -0.026160174482641494 0 -0.0035814556066517708 -0.025971065729389096 0 -0.0038429329171134597 -0.025718756634508622 0 -0.0035814556066517708 -0.025971065729389096 0 -0.00369024313231718 -0.025829760595660046 0 -0.0040186828631585724 -0.026218842797713238 0 -0.004021877156082705 -0.025967831247134879 0 -0.0038246140363534286 -0.026160174482641494 0 -0.0035814556066517708 -0.025971065729389096 0 -0.00369024313231718 -0.025829760595660046 0 -0.002906883429036776 -0.026120162209105811 0 -0.0047730644781134712 -0.026230262973097752 0 -0.0055444782516755105 -0.02601549502367672 0 -0.0052243542301371277 -0.026293539596119967 0 -0.0045620939562770208 -0.025252761555968322 0 -0.0033580485447513393 -0.030985626750727073 0 -0.0035931265588850059 -0.026308068546275432 0 -0.0038246140363534286 -0.026160174482641494 0 -0.0035814556066517708 -0.025971065729389096 0 -0.0035931265588850059 -0.026308068546275432 0 -0.0035814556066517708 -0.025971065729389096 0 -0.0033738568835290734 -0.026206901725052245 0 -0.0047730644781134712 -0.026230262973097752 0 -0.004987530924234259 -0.026450582847999414 0 -0.0052243542301371277 -0.026293539596119967 0 -0.004987530924234259 -0.026450582847999414 0 -0.0053723000108432291 -0.026611667250715267 0 -0.0050805334559852703 -0.02678428890784549 0 -0.004987530924234259 -0.026450582847999414 0 -0.0047569369352905479 -0.026574129681140032 0 -0.0050805334559852703 -0.02678428890784549 0 -0.0047730644781134712 -0.026230262973097752 0 -0.004987530924234259 -0.026450582847999414 0 -0.0047569369352905479 -0.026574129681140032 0 -0.0037621374790468738 -0.026144916989621635 0 -0.0045620939562770208 -0.025252761555968322 0 -0.0039689280525175702 -0.02633597775548447 0 -0.0047730644781134712 -0.026230262973097752 0 -0.0044453456575850566 -0.026527056042462634 0 -0.0038429329171134597 -0.025718756634508622 0 -0.0038387286825849365 -0.025671857182692416 0 -0.00369024313231718 -0.025829760595660046 0 -0.0047730644781134712 -0.026230262973097752 0 -0.0047569369352905479 -0.026574129681140032 0 -0.0044453456575850566 -0.026527056042462634 0 -0.0010579710639472874 -0.037000633767502733 0 -0.0012189503269668873 -0.037031261579071259 0 -0.0011079029159177275 -0.03670324135938783 0 -0.0010579710639472874 -0.037000633767502733 0 -0.0010164082894149793 -0.037104441043389946 0 -0.0011163142674851566 -0.037072782035483448 0 -0.0010579710639472874 -0.037000633767502733 0 -0.0010164082894149793 -0.037104441043389946 0 -0.00093487061253097936 -0.037064573893376737 0 -0.001109683219274528 -0.037138750895702559 0 -0.0011163142674851566 -0.037072782035483448 0 -0.0011648833271514789 -0.03703684604123763 0 -0.0010579710639472874 -0.037000633767502733 0 -0.0011163142674851566 -0.037072782035483448 0 -0.0012189503269668873 -0.037031261579071259 0 -0.00042809201373057184 -0.034395692406042649 0 -0.0033580485447513393 -0.030985626750727073 0 -0.0035814556066517708 -0.025971065729389096 0 -0.0033738568835290734 -0.026206901725052245 0 -0.002906883429036776 -0.026120162209105811 0 -0.0033290097141820702 -0.026368016086418776 0 -0.0033738568835290734 -0.026206901725052245 0 -0.002906883429036776 -0.026120162209105811 0 -0.0055444782516755105 -0.02601549502367672 0 -0.0053723000108432291 -0.026611667250715267 0 -0.0059857523423350635 -0.026753066628000467 0 -0.0055444782516755105 -0.02601549502367672 0 -0.0052243542301371277 -0.026293539596119967 0 -0.0053723000108432291 -0.026611667250715267 0 -0.004987530924234259 -0.026450582847999414 0 -0.0052243542301371277 -0.026293539596119967 0 -0.0053723000108432291 -0.026611667250715267 0 -0.0033580485447513393 -0.030985626750727073 0 -0.0035344031851097112 -0.031830812259694773 0 -0.0011079029159177275 -0.03670324135938783 0 -0.0007768466209656825 -0.036990940168208516 0 -0.00085104371740738849 -0.03654640136059497 0 -0.0010579710639472874 -0.037000633767502733 0 -0.0011079029159177275 -0.03670324135938783 0 -0.0007768466209656825 -0.036990940168208516 0 -0.0007768466209656825 -0.036990940168208516 0 -0.00028696244902831549 -0.037354133798346276 0 -9.0927470282035257e-05 -0.036922942898555682 0 -0.0007768466209656825 -0.036990940168208516 0 -0.00085104371740738849 -0.03654640136059497 0 -0.00050884982951679273 -0.03668399910311048 0 -0.0007768466209656825 -0.036990940168208516 0 -9.0927470282035257e-05 -0.036922942898555682 0 -0.00050884982951679273 -0.03668399910311048 0 -0.0007768466209656825 -0.036990940168208516 0 -0.0008693794377435584 -0.037136275698804698 0 -0.00066360169151564086 -0.03721156275574572 0 -0.00028696244902831549 -0.037354133798346276 0 -0.00056182659381939369 -0.03798670823489441 0 -0.00010450155977452074 -0.037714460017686378 0 -0.00071312161746834451 -0.037243470784020634 0 -0.00071549327551597927 -0.03709633970409567 0 -0.0007768466209656825 -0.036990940168208516 0 -0.00028696244902831549 -0.037354133798346276 0 -0.00056182659381939369 -0.03798670823489441 0 -0.0010579710639472874 -0.037000633767502733 0 -0.0007768466209656825 -0.036990940168208516 0 -0.00093487061253097936 -0.037064573893376737 0 -0.0007768466209656825 -0.036990940168208516 0 -0.0008693794377435584 -0.037136275698804698 0 -0.00093487061253097936 -0.037064573893376737 0 -0.0010164082894149793 -0.037104441043389946 0 -0.0008693794377435584 -0.037136275698804698 0 -0.00093487061253097936 -0.037064573893376737 0 -0.0011116548619543041 -0.037224669049801484 0 -0.00099190413627600897 -0.037186636009803965 0 -0.00081746960855647 -0.037268198407328243 0 -0.0011296868852893507 -0.037756101904139958 0 -0.00081339763962048829 -0.037155192459509205 0 -0.00099190413627600897 -0.037186636009803965 0 -0.0008693794377435584 -0.037136275698804698 0 -0.00081746960855647 -0.037268198407328243 0 -0.00099190413627600897 -0.037186636009803965 0 -0.0010164082894149793 -0.037104441043389946 0 -0.0008693794377435584 -0.037136275698804698 0 -0.00081746960855647 -0.037268198407328243 0 -0.00066360169151564086 -0.03721156275574572 0 -0.00072719012639570104 -0.037522563944580194 0 -0.0008693794377435584 -0.037136275698804698 0 -0.00081746960855647 -0.037268198407328243 0 -0.00066360169151564086 -0.03721156275574572 0 -0.00070867396146691449 -0.037812812109666458 0 -0.00072719012639570104 -0.037522563944580194 0 -0.00045500108987211893 -0.037655473034843477 0 -0.00071549327551597927 -0.03709633970409567 0 -0.00014555873232564796 -0.040635107213088377 0 -0.00066360169151564086 -0.03721156275574572 0 -0.00072719012639570104 -0.037522563944580194 0 -0.00045500108987211893 -0.037655473034843477 0 -0.0012109415136147949 -0.037455918624938335 0 -0.00081746960855647 -0.037268198407328243 0 -0.000955948714463144 -0.037536099120615993 0 -0.00089947483125878505 -0.037701271289266494 0 -0.00072719012639570104 -0.037522563944580194 0 -0.000955948714463144 -0.037536099120615993 0 -0.00089947483125878505 -0.037701271289266494 0 -0.0011125591585458298 -0.037708871624949944 0 -0.000955948714463144 -0.037536099120615993 0 -0.00081746960855647 -0.037268198407328243 0 -0.00072719012639570104 -0.037522563944580194 0 -0.000955948714463144 -0.037536099120615993 0 8.3970577939124571e-06 -0.044983203899904595 0 1.5247799800340088e-08 -0.044999986451395933 0 1.0040305815563574e-05 -0.04497094955942544 0 8.3970577939124571e-06 -0.044983203899904595 0 1.1398046604813973e-05 -0.044959976022292798 0 1.0040305815563574e-05 -0.04497094955942544 0 -0.00014555873232564796 -0.040635107213088377 0 -2.6322949553564758e-05 -0.041877680460833719 0 -0.00056182659381939369 -0.03798670823489441 0 9.7429148166715542e-05 -0.038159501798048855 0 -0.00010450155977452074 -0.037714460017686378 0 -0.00056182659381939369 -0.03798670823489441 0 -0.00019902184338712819 -0.039031130401056574 0 9.7429148166715542e-05 -0.038159501798048855 0 1.5247799800340088e-08 -0.044999986451395933 0 1.0040305815563574e-05 -0.04497094955942544 0 5.2255812574275778e-09 -0.044999961340303249 0 6.5601359790466972e-06 -0.044980630836535716 0 5.2255812574275778e-09 -0.044999961340303249 0 6.2400191270456611e-10 -0.044999957403943261 0 1.0040305815563574e-05 -0.04497094955942544 0 6.5601359790466972e-06 -0.044980630836535716 0 5.2255812574275778e-09 -0.044999961340303249 0 -0.00028696244902831549 -0.037354133798346276 0 0.00028565960941085393 -0.037388785340045839 0 -9.0927470282035257e-05 -0.036922942898555682 0 -2.6322949553564758e-05 -0.041877680460833719 0 0.00027101282683522404 -0.040855561936833082 0 9.7429148166715542e-05 -0.038159501798048855 0 0.00028565960941085393 -0.037388785340045839 0 -0.00010450155977452074 -0.037714460017686378 0 -0.00028696244902831549 -0.037354133798346276 0 0.00028565960941085393 -0.037388785340045839 0 -0.00010450155977452074 -0.037714460017686378 0 0.00027101282683522404 -0.040855561936833082 0 -0.00035008043985777304 -0.042293872427912056 0 6.5601359790466972e-06 -0.044980630836535716 0 6.2400191270456611e-10 -0.044999957403943261 0 6.344447235821534e-07 -0.044989567044228115 0 0.00028565960941085393 -0.037388785340045839 0 -9.0927470282035257e-05 -0.036922942898555682 0 0.000469288464916862 -0.036780576256813358 0 8.8965464776224405e-07 -0.044997673289752828 0 -0.00035008043985777304 -0.042293872427912056 0 -1.9211555681678798e-05 -0.045008804150061754 0 -6.6560737235881096e-06 -0.044998008862566594 0 -8.0268579469335916e-05 -0.044986926975321147 0 -1.8974398806901763e-08 -0.045000009203826873 0 -6.6560737235881096e-06 -0.044998008862566594 0 -2.7399680797930524e-08 -0.044999931663105695 0 -0.00035008043985777304 -0.042293872427912056 0 -6.8975467818902387e-05 -0.040701967476057525 0 -0.00035008043985777304 -0.042293872427912056 0 -0.00056707661945482513 -0.044946557972601123 0 -1.8974398806901763e-08 -0.045000009203826873 0 -5.4459815501798787e-06 -0.044994593955523528 0 -6.6560737235881096e-06 -0.044998008862566594 0 -6.6560737235881096e-06 -0.044998008862566594 0 -8.0268579469335916e-05 -0.044986926975321147 0 -4.2282853294474066e-05 -0.044973169570420662 0 -9.0927470282035257e-05 -0.036922942898555682 0 0.000469288464916862 -0.036780576256813358 0 -9.2926508033453912e-05 -0.036479534099297814 0 -9.0927470282035257e-05 -0.036922942898555682 0 -9.2926508033453912e-05 -0.036479534099297814 0 -0.00050884982951679273 -0.03668399910311048 0 -8.0268579469335916e-05 -0.044986926975321147 0 -0.00011098505874731403 -0.044937614862588883 0 -4.2282853294474066e-05 -0.044973169570420662 0 -0.00011098505874731403 -0.044937614862588883 0 -4.2282853294474066e-05 -0.044973169570420662 0 -7.8124648387676448e-05 -0.044935812832590599 0 -6.6560737235881096e-06 -0.044998008862566594 0 -2.7399680797930524e-08 -0.044999931663105695 0 -4.2282853294474066e-05 -0.044973169570420662 0 -2.7399680797930524e-08 -0.044999931663105695 0 -4.2282853294474066e-05 -0.044973169570420662 0 -1.543256400566601e-05 -0.044962491358514094 0 -0.00085104371740738849 -0.03654640136059497 0 -0.00071169211534364565 -0.036340337037497519 0 -0.00087145375040174747 -0.036111606678587489 0 -0.0011079029159177275 -0.03670324135938783 0 -0.00085104371740738849 -0.03654640136059497 0 -0.00087145375040174747 -0.036111606678587489 0 -0.0035344031851097112 -0.031830812259694773 0 -0.0038656721985880142 -0.031814185376130247 0 -0.00085104371740738849 -0.03654640136059497 0 -0.00071169211534364565 -0.036340337037497519 0 -0.00064363597060271109 -0.036504521799148322 0 -9.2926508033453912e-05 -0.036479534099297814 0 -0.00064363597060271109 -0.036504521799148322 0 -0.00058673576027188886 -0.03628723392575231 0 -6.8975467818902387e-05 -0.040701967476057525 0 -0.00012625355629755888 -0.039802080606875991 0 -9.2926508033453912e-05 -0.036479534099297814 0 -0.00064363597060271109 -0.036504521799148322 0 -0.00050884982951679273 -0.03668399910311048 0 -9.2926508033453912e-05 -0.036479534099297814 0 -0.00059757030868034318 -0.036242974833926439 0 -0.00058673576027188886 -0.03628723392575231 0 -0.00071169211534364565 -0.036340337037497519 0 -0.00064363597060271109 -0.036504521799148322 0 -0.00058673576027188886 -0.03628723392575231 0 -0.00085104371740738849 -0.03654640136059497 0 -0.00064363597060271109 -0.036504521799148322 0 -0.00050884982951679273 -0.03668399910311048 0 -8.0268579469335916e-05 -0.044986926975321147 0 -0.00011098505874731403 -0.044937614862588883 0 -0.00016720079287949578 -0.044931091957794468 0 -0.00012625355629755888 -0.039802080606875991 0 -0.003491445439479453 -0.03638479122615073 0 -0.00011098505874731403 -0.044937614862588883 0 -0.00016720079287949578 -0.044931091957794468 0 -0.00019577567084436403 -0.044861762547068966 0 -0.00012625355629755888 -0.039802080606875991 0 -0.00020764826094279919 -0.039382859167814921 0 -0.00071169211534364565 -0.036340337037497519 0 -0.00059885551859112937 -0.036244441861391932 0 -0.00058673576027188886 -0.03628723392575231 0 -0.0064376125024340394 -0.027587887622257681 0 -0.0061502820794100219 -0.027735980651779363 0 -0.0059384275117011671 -0.027345363806392419 0 -0.0020720551857208169 -0.036844799517693878 0 -0.0031497158853695095 -0.036269345372730029 0 -0.0024803820656338262 -0.035046087346875372 0 -0.00012625355629755888 -0.039802080606875991 0 -0.0038656721985880142 -0.031814185376130247 0 -0.00071169211534364565 -0.036340337037497519 0 -0.00059885551859112937 -0.036244441861391932 0 -0.00087145375040174747 -0.036111606678587489 0 -0.0038656721985880142 -0.031814185376130247 0 -0.003491445439479453 -0.03638479122615073 0 -0.0038656721985880142 -0.031814185376130247 0 -0.0070463207741202211 -0.028394718605187746 0 -0.006394890711203906 -0.0276426525430006 0 -0.0061502820794100219 -0.027735980651779363 0 -0.0062656409492681756 -0.027962012708046324 0 -0.0062656409492681756 -0.027962012708046324 0 -0.0065877264866625179 -0.028003536375991189 0 -0.0061721566610136586 -0.028301703539143856 0 -0.006394890711203906 -0.0276426525430006 0 -0.0062656409492681756 -0.027962012708046324 0 -0.0065877264866625179 -0.028003536375991189 0 -0.00011098505874731403 -0.044937614862588883 0 -0.00019577567084436403 -0.044861762547068966 0 -0.00012447991823280282 -0.04489338212952141 0 -0.00019577567084436403 -0.044861762547068966 0 -0.00012447991823280282 -0.04489338212952141 0 -0.00018486205029796032 -0.044769996805994638 0 -0.0037396587306597912 -0.036729938582898726 0 -0.0041358415712884362 -0.037463620516596588 0 -0.0040433075720572587 -0.037491655664183735 0 -0.0037396587306597912 -0.036729938582898726 0 -0.0040433075720572587 -0.037491655664183735 0 -0.0035908175088602929 -0.037467387769655393 0 -0.003491445439479453 -0.03638479122615073 0 -0.0021870630207817712 -0.041791107754262313 0 -0.0061721566610136586 -0.028301703539143856 0 -0.006419878522151555 -0.028813145384659344 0 -0.0059256723850801005 -0.028783130705614994 0 -0.0065877264866625179 -0.028003536375991189 0 -0.0061721566610136586 -0.028301703539143856 0 -0.006419878522151555 -0.028813145384659344 0 -0.003491445439479453 -0.03638479122615073 0 -0.0053013307844504759 -0.033303244321711785 0 -2.7399680797930524e-08 -0.044999931663105695 0 -1.543256400566601e-05 -0.044962491358514094 0 -1.0914706226294021e-08 -0.044999844271782871 0 -1.543256400566601e-05 -0.044962491358514094 0 -7.3808234982857644e-05 -0.044898092148576756 0 3.641104181863401e-06 -0.044946482072152294 0 -4.2282853294474066e-05 -0.044973169570420662 0 -1.543256400566601e-05 -0.044962491358514094 0 -7.8124648387676448e-05 -0.044935812832590599 0 -0.00011098505874731403 -0.044937614862588883 0 -7.8124648387676448e-05 -0.044935812832590599 0 -0.00012447991823280282 -0.04489338212952141 0 -7.8124648387676448e-05 -0.044935812832590599 0 -0.00012447991823280282 -0.04489338212952141 0 -7.3808234982857644e-05 -0.044898092148576756 0 -1.543256400566601e-05 -0.044962491358514094 0 -7.8124648387676448e-05 -0.044935812832590599 0 -7.3808234982857644e-05 -0.044898092148576756 0 -0.00012447991823280282 -0.04489338212952141 0 -7.3808234982857644e-05 -0.044898092148576756 0 -0.00018486205029796032 -0.044769996805994638 0 -7.3808234982857644e-05 -0.044898092148576756 0 -6.5990116837073338e-05 -0.044820652614734509 0 3.641104181863401e-06 -0.044946482072152294 0 -7.3808234982857644e-05 -0.044898092148576756 0 -6.5990116837073338e-05 -0.044820652614734509 0 -0.00018486205029796032 -0.044769996805994638 0 -1.0914706226294021e-08 -0.044999844271782871 0 3.641104181863401e-06 -0.044946482072152294 0 2.8415559084987133e-06 -0.044997639066141681 0 -1.543256400566601e-05 -0.044962491358514094 0 -1.0914706226294021e-08 -0.044999844271782871 0 3.641104181863401e-06 -0.044946482072152294 0 -3.1294837095763456e-05 -0.044754411551957612 0 0.00012690626296313394 -0.045315914321027842 0 -6.5990116837073338e-05 -0.044820652614734509 0 3.641104181863401e-06 -0.044946482072152294 0 8.0383938462396992e-06 -0.044670088223773857 0 -1.0914706226294021e-08 -0.044999844271782871 0 2.8415559084987133e-06 -0.044997639066141681 0 6.3936907273038728e-09 -0.045000027803270511 0 2.8415559084987133e-06 -0.044997639066141681 0 6.3936907273038728e-09 -0.045000027803270511 0 -3.2708974175604255e-06 -0.044987557490288051 0 6.3936907273038728e-09 -0.045000027803270511 0 -3.2708974175604255e-06 -0.044987557490288051 0 -2.414303116929341e-06 -0.044993809316093571 0 -0.0045578032573112747 -0.038286518303087068 0 -0.0039271320152895325 -0.038366739751296737 0 -0.0041616864913140697 -0.037958532499140225 0 0.00012690626296313394 -0.045315914321027842 0 -0.0013021744826184197 -0.042312343342221073 0 -0.0013021744826184197 -0.042312343342221073 0 -0.0021870630207817712 -0.041791107754262313 0 8.0383938462396992e-06 -0.044670088223773857 0 -5.9811736631797417e-05 -0.04441040644064484 0 -0.00018486205029796032 -0.044769996805994638 0 -6.5990116837073338e-05 -0.044820652614734509 0 8.0383938462396992e-06 -0.044670088223773857 0 -0.00018486205029796032 -0.044769996805994638 0 -0.0045578032573112747 -0.038286518303087068 0 -0.0041358415712884362 -0.037463620516596588 0 -0.0041616864913140697 -0.037958532499140225 0 -0.0041358415712884362 -0.037463620516596588 0 -0.0040335829925607263 -0.037684594041374052 0 -0.0040433075720572587 -0.037491655664183735 0 -0.003405330015302179 -0.037453630347721797 0 -0.0053013307844504759 -0.033303244321711785 0 -0.0040433075720572587 -0.037491655664183735 0 -0.0037898926369318467 -0.037826611802766613 0 -0.0035391665387534293 -0.037471658572068689 0 -0.0041358415712884362 -0.037463620516596588 0 -0.0040335829925607263 -0.037684594041374052 0 -0.0041616864913140697 -0.037958532499140225 0 -0.0040335829925607263 -0.037684594041374052 0 -0.0040433075720572587 -0.037491655664183735 0 -0.0037898926369318467 -0.037826611802766613 0 -0.0040335829925607263 -0.037684594041374052 0 -0.0037898926369318467 -0.037826611802766613 0 -0.0041616864913140697 -0.037958532499140225 0 -0.0058892242703543823 -0.032500780194471821 0 -0.0058139912384712498 -0.032557163288908751 0 -0.0057461870645481973 -0.032489016570056761 0 -0.0053013307844504759 -0.033303244321711785 0 -0.0058658320031056196 -0.030644696985102724 0 -0.0058892242703543823 -0.032500780194471821 0 -0.0058139912384712498 -0.032557163288908751 0 -0.0058548060128561594 -0.032670435462018706 0 -0.0053013307844504759 -0.033303244321711785 0 -0.0049385238384032273 -0.035239564812908714 0 -0.0037898926369318467 -0.037826611802766613 0 -0.0035391665387534293 -0.037471658572068689 0 -0.0034176020261718404 -0.038024197743169466 0 -0.0049385238384032273 -0.035239564812908714 0 -0.0037001990467937372 -0.038281169144595242 0 -0.0049385238384032273 -0.035239564812908714 0 -0.005893035361557465 -0.034514157500528352 0 -0.0031187528760617156 -0.037719340959082463 0 -0.0035192392299166096 -0.037997619053509485 0 -0.0029979557031617945 -0.038269235421803986 0 -0.0037898926369318467 -0.037826611802766613 0 -0.0039271320152895325 -0.038366739751296737 0 -0.0041616864913140697 -0.037958532499140225 0 -0.0037898926369318467 -0.037826611802766613 0 -0.0034176020261718404 -0.038024197743169466 0 -0.0039271320152895325 -0.038366739751296737 0 -0.0035192392299166096 -0.037997619053509485 0 -0.0035930324430847168 -0.038375183118591297 0 -0.0029979557031617945 -0.038269235421803986 0 -0.0035192392299166096 -0.037997619053509485 0 -0.0035930324430847168 -0.038375183118591297 0 -0.0039143741901249175 -0.038268707928182578 0 -0.0029979557031617945 -0.038269235421803986 0 -0.0033596270892281709 -0.038739136617023953 0 -0.0028831034495542967 -0.038813537348106802 0 -0.0035930324430847168 -0.038375183118591297 0 -0.0029979557031617945 -0.038269235421803986 0 -0.0033596270892281709 -0.038739136617023953 0 -0.0035930324430847168 -0.038375183118591297 0 -0.0033596270892281709 -0.038739136617023953 0 -0.0038388854411094808 -0.038671368221422385 0 -0.001519513304120645 -0.042083094406127446 0 -0.001663054460814366 -0.042734225699992551 0 -0.001663054460814366 -0.042734225699992551 0 -0.0033572376899590464 -0.039356392108596767 0 -0.0035930324430847168 -0.038375183118591297 0 -0.0038388854411094808 -0.038671368221422385 0 -0.0039143741901249175 -0.038268707928182578 0 -0.0014125499187921193 -0.042507094445944429 0 -0.001652576470523833 -0.042474802329468014 0 -0.0014447108950956216 -0.042307701410176243 0 -0.001663054460814366 -0.042734225699992551 0 -0.00036736397523224088 -0.044336834796469049 0 -0.00012959290165128978 -0.045042329376498005 0 -1.640479778189025e-05 -0.045028234217633106 0 -5.5533631412997291e-05 -0.044990859722391127 0 -8.7228361278658968e-08 -0.045000171485562235 0 -1.640479778189025e-05 -0.045028234217633106 0 -5.5533631412997291e-05 -0.044990859722391127 0 -2.1559303291777325e-10 -0.044999999586437169 0 -1.0479364202470706e-09 -0.044999997370654472 0 -7.5257320666052943e-07 -0.044999093012403818 0 -7.1578437095788758e-07 -0.044999433382404329 0 -0.00036736397523224088 -0.044336834796469049 0 -9.1132883325032031e-09 -0.044999962693378241 0 -5.2625752091564294e-07 -0.044998729986133003 0 -2.414303116929341e-06 -0.044993809316093571 0 -3.5130504746513445e-07 -0.044998033135123801 0 -0.00036736397523224088 -0.044336834796469049 0 6.3936907273038728e-09 -0.045000027803270511 0 -9.1132883325032031e-09 -0.044999962693378241 0 -2.414303116929341e-06 -0.044993809316093571 0 -0.001652576470523833 -0.042474802329468014 0 -0.0015718052458990638 -0.042308919536694092 0 -0.0014447108950956216 -0.042307701410176243 0 -0.00036736397523224088 -0.044336834796469049 0 -0.00083856343815326623 -0.043710667518581908 0 -0.0013021744826184197 -0.042312343342221073 0 -0.00083856343815326623 -0.043710667518581908 0 -0.0037001990467937372 -0.038281169144595242 0 -0.0033572376899590464 -0.039356392108596767 0 -0.0045578032573112747 -0.038286518303087068 0 -0.0039271320152895325 -0.038366739751296737 0 -0.004439056136250643 -0.038702826432482358 0 -0.0014852009523289619 -0.042145816314000585 0 -0.0015718052458990638 -0.042308919536694092 0 -0.0014447108950956216 -0.042307701410176243 0 -0.0013021744826184197 -0.042312343342221073 0 -0.0033572376899590464 -0.039356392108596767 0 -0.0057268164567222364 -0.032748989423950541 0 -0.0065464417303936198 -0.0319398040391035 0 -0.0054639817469961304 -0.031575621665278449 0 -0.0057268164567222364 -0.032748989423950541 0 -0.0065193624053862444 -0.033022346608589298 0 -0.0065464417303936198 -0.0319398040391035 0 -0.0049827861740964017 -0.032702500229221249 0 -0.0054639817469961304 -0.031575621665278449 0 -0.0044143672616832955 -0.032176461269449882 0 -0.0049827861740964017 -0.032702500229221249 0 -0.0058211418174693528 -0.032781988863336775 0 -0.0054639817469961304 -0.031575621665278449 0 -0.0057914740405811647 -0.032478065154488707 0 -0.0055003598698266437 -0.031777019602207558 0 -0.0049827861740964017 -0.032702500229221249 0 -0.005534956797452196 -0.033458434677406994 0 -0.0058211418174693528 -0.032781988863336775 0 -0.0049827861740964017 -0.032702500229221249 0 -0.005534956797452196 -0.033458434677406994 0 -0.0048626297552302059 -0.033692197027513186 0 -0.005534956797452196 -0.033458434677406994 0 -0.0058211418174693528 -0.032781988863336775 0 -0.0061668193638777591 -0.034036717610067595 0 -0.0057268164567222364 -0.032748989423950541 0 -0.0065193624053862444 -0.033022346608589298 0 -0.0060295928104020921 -0.033901409939189747 0 -0.0057914740405811647 -0.032478065154488707 0 -0.0050862738608584883 -0.035529577345109038 0 -0.0065193624053862444 -0.033022346608589298 0 -0.007305976367272757 -0.032785541380839826 0 -0.0069791807018198919 -0.033734301062256777 0 -0.0081833528498292361 -0.032355792618587363 0 -0.007305976367272757 -0.032785541380839826 0 -0.0079088045244219123 -0.033587808065820929 0 -0.005893035361557465 -0.034514157500528352 0 -0.0038568511995561083 -0.03920033980613858 0 -0.007305976367272757 -0.032785541380839826 0 -0.0079088045244219123 -0.033587808065820929 0 -0.0069791807018198919 -0.033734301062256777 0 -0.0081833528498292361 -0.032355792618587363 0 -0.007305976367272757 -0.032785541380839826 0 -0.007626389858643428 -0.031558535615283857 0 -0.0065193624053862444 -0.033022346608589298 0 -0.007305976367272757 -0.032785541380839826 0 -0.0065464417303936198 -0.0319398040391035 0 -0.007305976367272757 -0.032785541380839826 0 -0.0065464417303936198 -0.0319398040391035 0 -0.007626389858643428 -0.031558535615283857 0 -0.0065464417303936198 -0.0319398040391035 0 -0.0069717919692106091 -0.030984052174766529 0 -0.0061837982018292598 -0.030907654844851674 0 -0.0065464417303936198 -0.0319398040391035 0 -0.0069717919692106091 -0.030984052174766529 0 -0.007626389858643428 -0.031558535615283857 0 -0.0084355380647735435 -0.031150558689038398 0 -0.0081833528498292361 -0.032355792618587363 0 -0.007626389858643428 -0.031558535615283857 0 -0.0069717919692106091 -0.030984052174766529 0 -0.007626389858643428 -0.031558535615283857 0 -0.0076444699207645931 -0.030642379956537603 0 -0.0084355380647735435 -0.031150558689038398 0 -0.007626389858643428 -0.031558535615283857 0 -0.0076444699207645931 -0.030642379956537603 0 -0.0057297968732187106 -0.032568350549341991 0 -0.0057461870645481973 -0.032489016570056761 0 -0.0056119840288877563 -0.032464576255671958 0 -0.0058139912384712498 -0.032557163288908751 0 -0.0058548060128561594 -0.032670435462018706 0 -0.0057297968732187106 -0.032568350549341991 0 -0.0049385238384032273 -0.035239564812908714 0 -0.0067998885842453323 -0.031652230621078525 0 -0.0058139912384712498 -0.032557163288908751 0 -0.0057297968732187106 -0.032568350549341991 0 -0.0057461870645481973 -0.032489016570056761 0 -0.0069717919692106091 -0.030984052174766529 0 -0.0076444699207645931 -0.030642379956537603 0 -0.0068579764740945189 -0.030138282032926803 0 -0.0058658320031056196 -0.030644696985102724 0 -0.0062139698297783387 -0.030326389458179594 0 -0.0069717919692106091 -0.030984052174766529 0 -0.0068579764740945189 -0.030138282032926803 0 -0.0061837982018292598 -0.030907654844851674 0 -0.0067998885842453323 -0.031652230621078525 0 -0.0062139698297783387 -0.030326389458179594 0 -0.0068579764740945189 -0.030138282032926803 0 -0.0061837982018292598 -0.030907654844851674 0 -0.0056743305686992283 -0.030080979849441296 0 -0.0062139698297783387 -0.030326389458179594 0 -0.005939758000016779 -0.029942708513406743 0 -0.0065464417303936198 -0.0319398040391035 0 -0.0061837982018292598 -0.030907654844851674 0 -0.0054639817469961304 -0.031575621665278449 0 -0.0054639817469961304 -0.031575621665278449 0 -0.005119153087531329 -0.030714910315780788 0 -0.0042612410404720283 -0.031388143771332457 0 -0.0061837982018292598 -0.030907654844851674 0 -0.0054639817469961304 -0.031575621665278449 0 -0.005119153087531329 -0.030714910315780788 0 -0.005119153087531329 -0.030714910315780788 0 -0.0056743305686992283 -0.030080979849441296 0 -0.0044862466835164779 -0.029911489269031505 0 -0.0061837982018292598 -0.030907654844851674 0 -0.005119153087531329 -0.030714910315780788 0 -0.0056743305686992283 -0.030080979849441296 0 -0.005939758000016779 -0.029942708513406743 0 -0.004494751646420438 -0.029933956507175001 0 -0.0058962607252796891 -0.029873625749875354 0 -0.0058958992214433181 -0.029032438426806074 0 -0.0044862466835164779 -0.029911489269031505 0 -0.0054215835671549374 -0.028764513748332665 0 -0.0047203605521186996 -0.028286881891090014 0 -0.0052598637365293376 -0.028242266190923432 0 -0.0072402566441537785 -0.029864898469651336 0 -0.0058962607252796891 -0.029873625749875354 0 -0.0058958992214433181 -0.029032438426806074 0 -0.0062139698297783387 -0.030326389458179594 0 -0.0052906786689770387 -0.028514941641809229 0 -0.0047203605521186996 -0.028286881891090014 0 -0.0049709813537397295 -0.027790135360856765 0 -0.0052598637365293376 -0.028242266190923432 0 -0.0047203605521186996 -0.028286881891090014 0 -0.0049709813537397295 -0.027790135360856765 0 -0.0045600705189640621 -0.027782625711918762 0 -0.0052906786689770387 -0.028514941641809229 0 -0.0042652697991540098 -0.02798058763106458 0 -0.0047203605521186996 -0.028286881891090014 0 -0.0045600705189640621 -0.027782625711918762 0 -0.0040129306338745454 -0.027781145832815012 0 -0.0059256723850801005 -0.028783130705614994 0 -0.0054215835671549374 -0.028764513748332665 0 -0.0057040050590715279 -0.028346795374279747 0 -0.0061721566610136586 -0.028301703539143856 0 -0.0059256723850801005 -0.028783130705614994 0 -0.0057040050590715279 -0.028346795374279747 0 -0.0054215835671549374 -0.028764513748332665 0 -0.0057040050590715279 -0.028346795374279747 0 -0.0052598637365293376 -0.028242266190923432 0 -0.0049709813537397295 -0.027790135360856765 0 -0.0054830290084163175 -0.027967427663129443 0 -0.0053500056056040015 -0.027607285558332608 0 -0.0049709813537397295 -0.027790135360856765 0 -0.0052598637365293376 -0.028242266190923432 0 -0.0054830290084163175 -0.027967427663129443 0 -0.0054830290084163175 -0.027967427663129443 0 -0.0058010807811884283 -0.027681797895195537 0 -0.0053500056056040015 -0.027607285558332608 0 -0.0057040050590715279 -0.028346795374279747 0 -0.0052598637365293376 -0.028242266190923432 0 -0.0054830290084163175 -0.027967427663129443 0 -0.0061721566610136586 -0.028301703539143856 0 -0.0057040050590715279 -0.028346795374279747 0 -0.0059431732815215009 -0.028019849139743282 0 -0.0057040050590715279 -0.028346795374279747 0 -0.0054830290084163175 -0.027967427663129443 0 -0.0059431732815215009 -0.028019849139743282 0 -0.0054830290084163175 -0.027967427663129443 0 -0.0059431732815215009 -0.028019849139743282 0 -0.0058010807811884283 -0.027681797895195537 0 -0.0061502820794100219 -0.027735980651779363 0 -0.0062656409492681756 -0.027962012708046324 0 -0.0059431732815215009 -0.028019849139743282 0 -0.0061502820794100219 -0.027735980651779363 0 -0.0059431732815215009 -0.028019849139743282 0 -0.0058010807811884283 -0.027681797895195537 0 -0.0062656409492681756 -0.027962012708046324 0 -0.0061721566610136586 -0.028301703539143856 0 -0.0059431732815215009 -0.028019849139743282 0 -0.0061502820794100219 -0.027735980651779363 0 -0.0059384275117011671 -0.027345363806392419 0 -0.0058010807811884283 -0.027681797895195537 0 -0.0059384275117011671 -0.027345363806392419 0 -0.0055913020888131064 -0.027399592894202643 0 -0.0055214485865315828 -0.027017945031514546 0 -0.0059384275117011671 -0.027345363806392419 0 -0.0058010807811884283 -0.027681797895195537 0 -0.0055913020888131064 -0.027399592894202643 0 -0.0055913020888131064 -0.027399592894202643 0 -0.0055214485865315828 -0.027017945031514546 0 -0.0051130158389206416 -0.027252589128664028 0 -0.0055913020888131064 -0.027399592894202643 0 -0.0053500056056040015 -0.027607285558332608 0 -0.0051130158389206416 -0.027252589128664028 0 -0.0058010807811884283 -0.027681797895195537 0 -0.0055913020888131064 -0.027399592894202643 0 -0.0053500056056040015 -0.027607285558332608 0 -0.0053723000108432291 -0.026611667250715267 0 -0.0059857523423350635 -0.026753066628000467 0 -0.0055214485865315828 -0.027017945031514546 0 -0.0055214485865315828 -0.027017945031514546 0 -0.0051130158389206416 -0.027252589128664028 0 -0.0050805334559852703 -0.02678428890784549 0 -0.0053723000108432291 -0.026611667250715267 0 -0.0055214485865315828 -0.027017945031514546 0 -0.0050805334559852703 -0.02678428890784549 0 -0.0059857523423350635 -0.026753066628000467 0 -0.0064376125024340394 -0.027587887622257681 0 -0.0059384275117011671 -0.027345363806392419 0 -0.0059857523423350635 -0.026753066628000467 0 -0.0059384275117011671 -0.027345363806392419 0 -0.0055214485865315828 -0.027017945031514546 0 -0.0045600705189640621 -0.027782625711918762 0 -0.0045306874016287297 -0.027268630624441216 0 -0.0040129306338745454 -0.027781145832815012 0 -0.0049709813537397295 -0.027790135360856765 0 -0.0045600705189640621 -0.027782625711918762 0 -0.0045306874016287297 -0.027268630624441216 0 -0.0049709813537397295 -0.027790135360856765 0 -0.0045306874016287297 -0.027268630624441216 0 -0.0051130158389206416 -0.027252589128664028 0 -0.0045306874016287297 -0.027268630624441216 0 -0.0051130158389206416 -0.027252589128664028 0 -0.0048368868878233941 -0.026939343383966155 0 -0.0049709813537397295 -0.027790135360856765 0 -0.0053500056056040015 -0.027607285558332608 0 -0.0051130158389206416 -0.027252589128664028 0 -0.0051130158389206416 -0.027252589128664028 0 -0.0048368868878233941 -0.026939343383966155 0 -0.0050805334559852703 -0.02678428890784549 0 -0.0047569369352905479 -0.026574129681140032 0 -0.0048368868878233941 -0.026939343383966155 0 -0.0050805334559852703 -0.02678428890784549 0 -0.0047569369352905479 -0.026574129681140032 0 -0.0048368868878233941 -0.026939343383966155 0 -0.0045473696930859123 -0.026777832829492854 0 -0.0047569369352905479 -0.026574129681140032 0 -0.0044453456575850566 -0.026527056042462634 0 -0.0045473696930859123 -0.026777832829492854 0 -0.0045306874016287297 -0.027268630624441216 0 -0.0048368868878233941 -0.026939343383966155 0 -0.0045473696930859123 -0.026777832829492854 0 -0.0045306874016287297 -0.027268630624441216 0 -0.0045473696930859123 -0.026777832829492854 0 -0.0041709362582378808 -0.026737512623544193 0 -0.0044453456575850566 -0.026527056042462634 0 -0.0045473696930859123 -0.026777832829492854 0 -0.0041709362582378808 -0.026737512623544193 0 -0.0045306874016287297 -0.027268630624441216 0 -0.0041709362582378808 -0.026737512623544193 0 -0.0039253283970598803 -0.027110907865594617 0 -0.0039689280525175702 -0.02633597775548447 0 -0.0041709362582378808 -0.026737512623544193 0 -0.00362538180216918 -0.026682015499629241 0 -0.0041709362582378808 -0.026737512623544193 0 -0.0039253283970598803 -0.027110907865594617 0 -0.00362538180216918 -0.026682015499629241 0 -0.0045306874016287297 -0.027268630624441216 0 -0.0039253283970598803 -0.027110907865594617 0 -0.0040129306338745454 -0.027781145832815012 0 -0.0032564744724504174 -0.027287148509578224 0 -0.0042652697991540098 -0.02798058763106458 0 -0.0039253283970598803 -0.027110907865594617 0 -0.0032137969176400114 -0.027248218269339104 0 -0.0040129306338745454 -0.027781145832815012 0 -0.0039253283970598803 -0.027110907865594617 0 -0.0032137969176400114 -0.027248218269339104 0 -0.00362538180216918 -0.026682015499629241 0 -0.0039689280525175702 -0.02633597775548447 0 -0.00362538180216918 -0.026682015499629241 0 -0.0029244239390367739 -0.026196592181098616 0 -0.0032137969176400114 -0.027248218269339104 0 -0.00362538180216918 -0.026682015499629241 0 -0.0029244239390367739 -0.026196592181098616 0 -0.0032137969176400114 -0.027248218269339104 0 -0.0029244239390367739 -0.026196592181098616 0 -0.0023622765796325064 -0.026943528767940365 0 -0.0029244239390367739 -0.026196592181098616 0 -0.0018717733604554109 -0.026009429196611467 0 -0.0023622765796325064 -0.026943528767940365 0 -0.0023622765796325064 -0.026943528767940365 0 -0.0023058466286591793 -0.028111025069025845 0 -0.0013591291122341596 -0.027201800949464901 0 -0.0018717733604554109 -0.026009429196611467 0 -0.0023622765796325064 -0.026943528767940365 0 -0.0013591291122341596 -0.027201800949464901 0 -0.0032137969176400114 -0.027248218269339104 0 -0.0023622765796325064 -0.026943528767940365 0 -0.0023058466286591793 -0.028111025069025845 0 -0.0023058466286591793 -0.028111025069025845 0 -0.003033515116749924 -0.029327063819873937 0 -0.0035039077235453175 -0.02854677498302001 0 -0.0032137969176400114 -0.027248218269339104 0 -0.0023058466286591793 -0.028111025069025845 0 -0.0035039077235453175 -0.02854677498302001 0 -0.0023058466286591793 -0.028111025069025845 0 -0.0016124352065585539 -0.029257627261670652 0 -0.0010566676040077315 -0.028276833935099381 0 -0.0023058466286591793 -0.028111025069025845 0 -0.0013591291122341596 -0.027201800949464901 0 -0.0010566676040077315 -0.028276833935099381 0 -0.0023058466286591793 -0.028111025069025845 0 -0.0016124352065585539 -0.029257627261670652 0 -0.003033515116749924 -0.029327063819873937 0 -0.003033515116749924 -0.029327063819873937 0 -0.0035039077235453175 -0.02854677498302001 0 -0.0044862466835164779 -0.029911489269031505 0 -0.0045203706572399006 -0.028156412180940019 0 -0.0035039077235453175 -0.02854677498302001 0 -0.0044862466835164779 -0.029911489269031505 0 -0.0058958992214433181 -0.029032438426806074 0 -0.0045203706572399006 -0.028156412180940019 0 -0.0044862466835164779 -0.029911489269031505 0 -0.0032137969176400114 -0.027248218269339104 0 -0.0045203706572399006 -0.028156412180940019 0 -0.0035039077235453175 -0.02854677498302001 0 0.0026234832669125535 -0.02672769247699168 0 0.0013194631379049172 -0.026744316913697452 0 0.0017964957874188681 -0.028428379867686319 0 0.0027421650084920217 -0.025928822301553248 0 0.0016657299689265812 -0.024963973595079059 0 0.0031369885220719923 -0.02523507204482078 0 0.0026974489968662452 -0.026328748090358053 0 0.0016311992203999382 -0.025181593805313228 0 0.0016655490387096669 -0.025487796156733963 0 0.0013194631379049172 -0.026744316913697452 0 -0.00011497685386135157 -0.025722963828161846 0 0.0026234832669125535 -0.02672769247699168 0 0.0016655490387096669 -0.025487796156733963 0 0.0013194631379049172 -0.026744316913697452 0 0.0013194631379049172 -0.026744316913697452 0 0.0001963395540535173 -0.027434174057492499 0 0.0017964957874188681 -0.028428379867686319 0 0.0013194631379049172 -0.026744316913697452 0 0.0001963395540535173 -0.027434174057492499 0 -0.00011497685386135157 -0.025722963828161846 0 -0.0018717733604554109 -0.026009429196611467 0 -0.00011497685386135157 -0.025722963828161846 0 -0.0013591291122341596 -0.027201800949464901 0 -0.0013312693561776505 -0.02482781855643925 0 -0.0018717733604554109 -0.026009429196611467 0 -0.00011497685386135157 -0.025722963828161846 0 0.0001963395540535173 -0.027434174057492499 0 -0.00011497685386135157 -0.025722963828161846 0 -0.0013591291122341596 -0.027201800949464901 0 0.0001963395540535173 -0.027434174057492499 0 -0.0013591291122341596 -0.027201800949464901 0 -0.0010566676040077315 -0.028276833935099381 0 -0.0016124352065585539 -0.029257627261670652 0 -0.0010566676040077315 -0.028276833935099381 0 -2.2106516853100623e-05 -0.028884740982213424 0 -0.0016124352065585539 -0.029257627261670652 0 1.9344648759478091e-05 -0.028704556198808566 0 -0.00067353084898260783 -0.029937710050956877 0 -0.0015173054536244774 -0.029231496327951523 0 -7.4520173631351369e-06 -0.028790794522868542 0 1.9344648759478091e-05 -0.028704556198808566 0 0.0012902502980628641 -0.029300187007643849 0 0.00032381698186612339 -0.029645402437669277 0 1.9344648759478091e-05 -0.028704556198808566 0 0.00032381698186612339 -0.029645402437669277 0 -0.00067353084898260783 -0.029937710050956877 0 0.0001963395540535173 -0.027434174057492499 0 -0.0010566676040077315 -0.028276833935099381 0 -2.2106516853100623e-05 -0.028884740982213424 0 0.0001963395540535173 -0.027434174057492499 0 -2.2106516853100623e-05 -0.028884740982213424 0 0.0017964957874188681 -0.028428379867686319 0 -7.4520173631351369e-06 -0.028790794522868542 0 0.0017027840374354507 -0.02838837714381447 0 1.9344648759478091e-05 -0.028704556198808566 0 0.0016231697615989144 -0.028219307273611809 0 0.0012902502980628641 -0.029300187007643849 0 0.0016231697615989144 -0.028219307273611809 0 0.0012902502980628641 -0.029300187007643849 0 0.0021931654364515576 -0.028890514016746471 0 0.0012902502980628641 -0.029300187007643849 0 0.0021931654364515576 -0.028890514016746471 0 0.0021982604368106047 -0.029548513289549168 0 0.0021931654364515576 -0.028890514016746471 0 0.0021982604368106047 -0.029548513289549168 0 0.0027690491403740093 -0.029193199954491298 0 0.0021931654364515576 -0.028890514016746471 0 0.002588787853649794 -0.028367808095600616 0 0.0028805940774220321 -0.028724450326023346 0 0.0026234832669125535 -0.02672769247699168 0 0.0017964957874188681 -0.028428379867686319 0 0.0036258398435701643 -0.027905231823525993 0 0.0016231697615989144 -0.028219307273611809 0 0.002588787853649794 -0.028367808095600616 0 0.003141407147895822 -0.027773056004965643 0 0.0016231697615989144 -0.028219307273611809 0 0.0021931654364515576 -0.028890514016746471 0 0.002588787853649794 -0.028367808095600616 0 0.0017027840374354507 -0.02838837714381447 0 0.0033661305404209855 -0.027296791470650179 0 0.0019876574918074943 -0.030900688501952017 0 0.0030113758399330677 -0.031803689565804726 0 0.0026712202650130031 -0.030325719260050642 0 0.00087920126405988748 -0.037282944423415863 0 0.000982291268150227 -0.037352990467997588 0 0.00094632397893847759 -0.037206853292020607 0 0.0019288149540347794 -0.034667304682639538 0 0.0011905833896809538 -0.032342698862746572 0 0.0019876574918074943 -0.030900688501952017 0 0.0017441240251359225 -0.030091711234549623 0 0.0014531708846674174 -0.03045227979299495 0 0.0019876574918074943 -0.030900688501952017 0 0.0022382437527682605 -0.030093479505963538 0 0.0026712202650130031 -0.030325719260050642 0 0.0022382437527682605 -0.030093479505963538 0 0.0026598160426290676 -0.029711313805874797 0 0.0026712202650130031 -0.030325719260050642 0 0.0021982604368106047 -0.029548513289549168 0 0.0026598160426290676 -0.029711313805874797 0 0.0027690491403740093 -0.029193199954491298 0 0.0022382437527682605 -0.030093479505963538 0 0.0021982604368106047 -0.029548513289549168 0 0.0026598160426290676 -0.029711313805874797 0 0.0022382437527682605 -0.030093479505963538 0 0.0021982604368106047 -0.029548513289549168 0 0.0017441240251359225 -0.030091711234549623 0 0.0012902502980628641 -0.029300187007643849 0 0.0021982604368106047 -0.029548513289549168 0 0.0017441240251359225 -0.030091711234549623 0 0.0019876574918074943 -0.030900688501952017 0 0.0022382437527682605 -0.030093479505963538 0 0.0017441240251359225 -0.030091711234549623 0 0.00092499895806650646 -0.030057912786517045 0 0.0014959735119447672 -0.0306036708312275 0 0.00025024029003925481 -0.030449610264351775 0 0.00061138058758864399 -0.030368325698408524 0 0.0011905833896809538 -0.032342698862746572 0 0.0017441240251359225 -0.030091711234549623 0 0.00092499895806650646 -0.030057912786517045 0 0.0014531708846674174 -0.03045227979299495 0 0.0012902502980628641 -0.029300187007643849 0 0.0017441240251359225 -0.030091711234549623 0 0.00092499895806650646 -0.030057912786517045 0 0.0012902502980628641 -0.029300187007643849 0 0.00092499895806650646 -0.030057912786517045 0 0.00032381698186612339 -0.029645402437669277 0 0.000982291268150227 -0.037352990467997588 0 0.0010642188039864981 -0.037225097509025563 0 0.00094632397893847759 -0.037206853292020607 0 0.000982291268150227 -0.037352990467997588 0 0.0010642188039864981 -0.037225097509025563 0 0.001200224013153086 -0.037267570405830168 0 0.0011905833896809538 -0.032342698862746572 0 0.00059668142709493315 -0.034463587204099623 0 0.0014959735119447672 -0.0306036708312275 0 0.00011886730068753332 -0.031279258195360794 0 0.00025024029003925481 -0.030449610264351775 0 0.00011886730068753332 -0.031279258195360794 0 0.00025024029003925481 -0.030449610264351775 0 -0.00093617791421982523 -0.031195906013887182 0 0.0010642188039864981 -0.037225097509025563 0 0.001200224013153086 -0.037267570405830168 0 0.0011601030828271562 -0.037187981647559196 0 0.00092499895806650646 -0.030057912786517045 0 0.00025024029003925481 -0.030449610264351775 0 0.00032381698186612339 -0.029645402437669277 0 0.00025024029003925481 -0.030449610264351775 0 0.00032381698186612339 -0.029645402437669277 0 -0.00067353084898260783 -0.029937710050956877 0 0.00025024029003925481 -0.030449610264351775 0 -0.00067353084898260783 -0.029937710050956877 0 -0.0010921443171445239 -0.031058535846664452 0 -0.00067353084898260783 -0.029937710050956877 0 -0.0010921443171445239 -0.031058535846664452 0 -0.0013864981125403183 -0.030176100412557114 0 -0.0016124352065585539 -0.029257627261670652 0 -0.00067353084898260783 -0.029937710050956877 0 -0.0013864981125403183 -0.030176100412557114 0 0.00011886730068753332 -0.031279258195360794 0 -0.00093617791421982523 -0.031195906013887182 0 -0.0010373092565623514 -0.031865330005253593 0 0.00017037300408329282 -0.030501541521476622 0 -0.00097960139776374325 -0.031108276400078017 0 0.00059668142709493315 -0.034463587204099623 0 0.00017795576919560195 -0.034513973276886128 0 0.001200224013153086 -0.037267570405830168 0 0.0013522513158485982 -0.037208892477174037 0 0.0012563891719596595 -0.037188799813947723 0 0.0013522513158485982 -0.037208892477174037 0 0.0013268866408584214 -0.037164522857154214 0 0.0012563891719596595 -0.037188799813947723 0 0.0013268866408584214 -0.037164522857154214 0 0.0012158562876618815 -0.037123692586935479 0 0.0012563891719596595 -0.037188799813947723 0 0.0013522513158485982 -0.037208892477174037 0 0.0013268866408584214 -0.037164522857154214 0 0.0013911041545078859 -0.037193153569489136 0 0.0013268866408584214 -0.037164522857154214 0 0.0012848790938446461 -0.037082809665915199 0 0.0013678152056182278 -0.037164598666466805 0 0.0012848790938446461 -0.037082809665915199 0 0.0013678152056182278 -0.037164598666466805 0 0.0013318750640974666 -0.037092718897223723 0 0.0013268866408584214 -0.037164522857154214 0 0.0012848790938446461 -0.037082809665915199 0 0.0012158562876618815 -0.037123692586935479 0 0.0012158562876618815 -0.037123692586935479 0 0.0011579815505185333 -0.036996210822686011 0 0.0010465600290999911 -0.037104968615134959 0 0.0012848790938446461 -0.037082809665915199 0 0.0012158562876618815 -0.037123692586935479 0 0.0011579815505185333 -0.036996210822686011 0 0.0012158562876618815 -0.037123692586935479 0 0.0011601030828271562 -0.037187981647559196 0 0.0010465600290999911 -0.037104968615134959 0 0.0012158562876618815 -0.037123692586935479 0 0.0012563891719596595 -0.037188799813947723 0 0.0011601030828271562 -0.037187981647559196 0 0.001200224013153086 -0.037267570405830168 0 0.0012563891719596595 -0.037188799813947723 0 0.0011601030828271562 -0.037187981647559196 0 0.00094632397893847759 -0.037206853292020607 0 0.0010465600290999911 -0.037104968615134959 0 0.00084590246959712133 -0.037116786134913461 0 0.0010642188039864981 -0.037225097509025563 0 0.0011601030828271562 -0.037187981647559196 0 0.0010465600290999911 -0.037104968615134959 0 0.0010642188039864981 -0.037225097509025563 0 0.00094632397893847759 -0.037206853292020607 0 0.0010465600290999911 -0.037104968615134959 0 0.0011579815505185333 -0.036996210822686011 0 0.0010465600290999911 -0.037104968615134959 0 0.00092477785436961997 -0.036946549720467507 0 0.0011579815505185333 -0.036996210822686011 0 0.00092477785436961997 -0.036946549720467507 0 0.0010309188023910644 -0.03681639015233254 0 0.0010465600290999911 -0.037104968615134959 0 0.00092477785436961997 -0.036946549720467507 0 0.00084590246959712133 -0.037116786134913461 0 0.00092477785436961997 -0.036946549720467507 0 0.00070104426529058394 -0.036923385846322869 0 0.00084590246959712133 -0.037116786134913461 0 0.00092477785436961997 -0.036946549720467507 0 0.00070104426529058394 -0.036923385846322869 0 0.00079445491738607693 -0.036731626932218021 0 0.00087920126405988748 -0.037282944423415863 0 0.00094632397893847759 -0.037206853292020607 0 0.00084590246959712133 -0.037116786134913461 0 0.00087920126405988748 -0.037282944423415863 0 0.00084590246959712133 -0.037116786134913461 0 0.00064058528188058338 -0.037090872969604657 0 0.0019288149540347794 -0.034667304682639538 0 0.0013278341952608313 -0.030999269610183615 0 0.00070104426529058394 -0.036923385846322869 0 0.00084590246959712133 -0.037116786134913461 0 0.00064058528188058338 -0.037090872969604657 0 -0.0031985888510608082 -0.030925985103604739 0 -0.0042612410404720283 -0.031388143771332457 0 -0.0044862466835164779 -0.029911489269031505 0 -0.0031985888510608082 -0.030925985103604739 0 -0.0042612410404720283 -0.031388143771332457 0 -0.0038181505843261064 -0.03190723486905675 0 -0.005119153087531329 -0.030714910315780788 0 -0.0042612410404720283 -0.031388143771332457 0 -0.0044862466835164779 -0.029911489269031505 0 -0.0030317765551734605 -0.029423865394550709 0 -0.0032836701136253399 -0.030838476399941337 0 -0.003033515116749924 -0.029327063819873937 0 -0.0031985888510608082 -0.030925985103604739 0 -0.0044862466835164779 -0.029911489269031505 0 -0.003033515116749924 -0.029327063819873937 0 -0.0032920219949358989 -0.0307729991512064 0 -0.0021560649550724331 -0.030453084182925305 0 -0.0016124352065585539 -0.029257627261670652 0 -0.003033515116749924 -0.029327063819873937 0 -0.0021560649550724331 -0.030453084182925305 0 -0.0010921443171445239 -0.031058535846664452 0 -0.0021560649550724331 -0.030453084182925305 0 -0.0013864981125403183 -0.030176100412557114 0 -0.0016124352065585539 -0.029257627261670652 0 -0.0021560649550724331 -0.030453084182925305 0 -0.0013864981125403183 -0.030176100412557114 0 -0.00097960139776374325 -0.031108276400078017 0 -0.0021707110959601201 -0.031727286437756921 0 -0.0010921443171445239 -0.031058535846664452 0 -0.0021560649550724331 -0.030453084182925305 0 -0.0023303652325741141 -0.031636911530331949 0 -0.00093617791421982523 -0.031195906013887182 0 -0.0010373092565623514 -0.031865330005253593 0 -0.0019728984467008597 -0.031817361914949847 0 -0.0032920219949358989 -0.0307729991512064 0 -0.0021560649550724331 -0.030453084182925305 0 -0.0023303652325741141 -0.031636911530331949 0 -0.0032920219949358989 -0.0307729991512064 0 -0.0023303652325741141 -0.031636911530331949 0 -0.0035401214394525792 -0.032230472161150686 0 -0.0021707110959601201 -0.031727286437756921 0 -0.0031392910017596222 -0.032328388349402694 0 -0.0019728984467008597 -0.031817361914949847 0 -0.0020588539644870508 -0.032384351019949034 0 -0.0029650938313572979 -0.032358221127299601 0 0.0013522513158485982 -0.037208892477174037 0 0.0014116001256814367 -0.037192186508141954 0 0.0013911041545078859 -0.037193153569489136 0 -0.0010373092565623514 -0.031865330005253593 0 -0.0019728984467008597 -0.031817361914949847 0 -0.0020588539644870508 -0.032384351019949034 0 0.00017795576919560195 -0.034513973276886128 0 -0.00033598183331350122 -0.034796438778573878 0 0.0013268866408584214 -0.037164522857154214 0 0.0013911041545078859 -0.037193153569489136 0 0.0013678152056182278 -0.037164598666466805 0 0.0014116001256814367 -0.037192186508141954 0 0.0013911041545078859 -0.037193153569489136 0 0.0014022465144147265 -0.037227967119556671 0 0.0013911041545078859 -0.037193153569489136 0 0.0014092722993930837 -0.037240060122607638 0 0.0014022465144147265 -0.037227967119556671 0 0.0014092722993930837 -0.037240060122607638 0 0.0013678152056182278 -0.037164598666466805 0 0.0013878076520323695 -0.037226218006191927 0 0.0013911041545078859 -0.037193153569489136 0 0.0014092722993930837 -0.037240060122607638 0 0.0013678152056182278 -0.037164598666466805 0 -0.00033598183331350122 -0.034796438778573878 0 -0.00095106609045799665 -0.034961041285591757 0 0.0014116001256814367 -0.037192186508141954 0 0.0013752405464650078 -0.037271121696144827 0 0.0012099627152218286 -0.037198146430442489 0 0.0014116001256814367 -0.037192186508141954 0 0.0014022465144147265 -0.037227967119556671 0 0.0013752405464650078 -0.037271121696144827 0 0.0014092722993930837 -0.037240060122607638 0 0.0014022465144147265 -0.037227967119556671 0 0.0013752405464650078 -0.037271121696144827 0 0.0014092722993930837 -0.037240060122607638 0 0.0013752405464650078 -0.037271121696144827 0 0.0013939157236716106 -0.037369413058904517 0 0.0013752405464650078 -0.037271121696144827 0 0.0013422982155021561 -0.037368445150405015 0 0.0013939157236716106 -0.037369413058904517 0 0.0013752405464650078 -0.037271121696144827 0 0.0013422982155021561 -0.037368445150405015 0 0.0012099627152218286 -0.037198146430442489 0 0.0013422982155021561 -0.037368445150405015 0 0.0012099627152218286 -0.037198146430442489 0 0.0013040873023554256 -0.037570285264674916 0 -0.0020588539644870508 -0.032384351019949034 0 -0.0030427974186394147 -0.032874802920245347 0 -0.0029650938313572979 -0.032358221127299601 0 -0.0034904160759475951 -0.03303438147955394 0 -0.0037980183560667501 -0.032617579112618665 0 -0.0043052740171559325 -0.032741816171972374 0 -0.0034904160759475951 -0.03303438147955394 0 -0.0037980183560667501 -0.032617579112618665 0 -0.003385450064393108 -0.032416945453951358 0 -0.00095106609045799665 -0.034961041285591757 0 -0.0031392910017596222 -0.032328388349402694 0 -0.0031985888510608082 -0.030925985103604739 0 -0.0034058212298938382 -0.032417785722152259 0 -0.0038181505843261064 -0.03190723486905675 0 -0.0032836701136253399 -0.030838476399941337 0 -0.0031392910017596222 -0.032328388349402694 0 -0.0036157835516872619 -0.032547391701694732 0 -0.0031392910017596222 -0.032328388349402694 0 -0.0037980183560667501 -0.032617579112618665 0 -0.0034058212298938382 -0.032417785722152259 0 -0.0038181505843261064 -0.03190723486905675 0 -0.0054639817469961304 -0.031575621665278449 0 -0.0042612410404720283 -0.031388143771332457 0 -0.0044143672616832955 -0.032176461269449882 0 -0.0042612410404720283 -0.031388143771332457 0 -0.0038181505843261064 -0.03190723486905675 0 -0.0044143672616832955 -0.032176461269449882 0 -0.0037980183560667501 -0.032617579112618665 0 -0.0038181505843261064 -0.03190723486905675 0 -0.0044143672616832955 -0.032176461269449882 0 -0.0037980183560667501 -0.032617579112618665 0 -0.0044143672616832955 -0.032176461269449882 0 -0.0043052740171559325 -0.032741816171972374 0 -0.0049827861740964017 -0.032702500229221249 0 -0.0044143672616832955 -0.032176461269449882 0 -0.0043052740171559325 -0.032741816171972374 0 -0.00095106609045799665 -0.034961041285591757 0 -0.0027892810461373906 -0.035027949324891984 0 -0.0034904160759475951 -0.03303438147955394 0 -0.0043052740171559325 -0.032741816171972374 0 -0.0048626297552302059 -0.033692197027513186 0 -0.0049827861740964017 -0.032702500229221249 0 -0.0043052740171559325 -0.032741816171972374 0 -0.0048626297552302059 -0.033692197027513186 0 0.0015631012720514206 -0.035802082232331368 0 0.00065488274004758156 -0.036883791214190415 0 -0.00078613985521009018 -0.036891562467794778 0 0.00065488274004758156 -0.036883791214190415 0 0.00012428055809621513 -0.037626479113151701 0 -0.00078613985521009018 -0.036891562467794778 0 0.00065488274004758156 -0.036883791214190415 0 0.00012428055809621513 -0.037626479113151701 0 0.0010923606192124564 -0.037366470386185034 0 0.00012428055809621513 -0.037626479113151701 0 0.000666983485148117 -0.037817305477905572 0 0.0010923606192124564 -0.037366470386185034 0 0.00012428055809621513 -0.037626479113151701 0 0.000666983485148117 -0.037817305477905572 0 0.00014891281591728633 -0.038324814924549908 0 0.000666983485148117 -0.037817305477905572 0 0.0009938604001506529 -0.037746833056069705 0 0.00096330194096144056 -0.037899809993951587 0 0.00012428055809621513 -0.037626479113151701 0 -0.00053952414198631799 -0.038342182783409631 0 -0.00078613985521009018 -0.036891562467794778 0 0.00012428055809621513 -0.037626479113151701 0 -0.00053952414198631799 -0.038342182783409631 0 0.00014891281591728633 -0.038324814924549908 0 -0.00053952414198631799 -0.038342182783409631 0 0.00014891281591728633 -0.038324814924549908 0 -2.3449066854847168e-05 -0.039228494315106652 0 -0.00053952414198631799 -0.038342182783409631 0 -2.3449066854847168e-05 -0.039228494315106652 0 -0.0010199400972305691 -0.039646799976903881 0 0.000666983485148117 -0.037817305477905572 0 0.00014891281591728633 -0.038324814924549908 0 0.00053781368811662981 -0.038619396338330218 0 0.000666983485148117 -0.037817305477905572 0 0.00053781368811662981 -0.038619396338330218 0 0.00096330194096144056 -0.037899809993951587 0 0.00053781368811662981 -0.038619396338330218 0 0.0012375756814488141 -0.038064656877321121 0 0.00096330194096144056 -0.037899809993951587 0 0.00014891281591728633 -0.038324814924549908 0 0.00053781368811662981 -0.038619396338330218 0 -2.3449066854847168e-05 -0.039228494315106652 0 -2.3449066854847168e-05 -0.039228494315106652 0 0.0002414855157267998 -0.040633720315104413 0 0.00094647388558349573 -0.04014681982111868 0 0.00053781368811662981 -0.038619396338330218 0 -2.3449066854847168e-05 -0.039228494315106652 0 0.00094647388558349573 -0.04014681982111868 0 -2.3449066854847168e-05 -0.039228494315106652 0 0.0002414855157267998 -0.040633720315104413 0 -0.0010199400972305691 -0.039646799976903881 0 0.0012375756814488141 -0.038064656877321121 0 0.0014064642651077711 -0.037638673647889226 0 0.0016678955325172215 -0.037031543325847266 0 0.0012375756814488141 -0.038064656877321121 0 0.0016873130338927391 -0.041325048856557821 0 0.00094647388558349573 -0.04014681982111868 0 0.0011983679543013485 -0.038048950337972329 0 0.0016077786666341917 -0.039084066164511232 0 0.00053781368811662981 -0.038619396338330218 0 0.0012375756814488141 -0.038064656877321121 0 0.00094647388558349573 -0.04014681982111868 0 0.0012375756814488141 -0.038064656877321121 0 0.0014064642651077711 -0.037638673647889226 0 0.0013277011663963272 -0.037812189679388215 0 0.0014064642651077711 -0.037638673647889226 0 0.001394757704055878 -0.03761958863418411 0 0.0013277011663963272 -0.037812189679388215 0 0.001353344376560149 -0.037647458423674188 0 0.0013627740078026749 -0.037500966624156147 0 0.0014089430238531919 -0.03749424006010918 0 -0.00095106609045799665 -0.034961041285591757 0 0.0015779546616420019 -0.038307625439379676 0 0.001394757704055878 -0.03761958863418411 0 0.001353344376560149 -0.037647458423674188 0 0.0014089430238531919 -0.03749424006010918 0 0.0015631012720514206 -0.035802082232331368 0 0.0012323098401926037 -0.037896800386250096 0 0.0010923606192124564 -0.037366470386185034 0 0.0012099627152218286 -0.037198146430442489 0 0.0012323098401926037 -0.037896800386250096 0 0.0013040873023554256 -0.037570285264674916 0 0.0015631012720514206 -0.035802082232331368 0 0.00065488274004758156 -0.036883791214190415 0 0.0010923606192124564 -0.037366470386185034 0 0.001353344376560149 -0.037647458423674188 0 0.0013006320093657401 -0.037744719311284439 0 0.0013277011663963272 -0.037812189679388215 0 0.001394757704055878 -0.03761958863418411 0 0.001353344376560149 -0.037647458423674188 0 0.0013277011663963272 -0.037812189679388215 0 0.001353344376560149 -0.037647458423674188 0 0.0013006320093657401 -0.037744719311284439 0 0.0013040873023554256 -0.037570285264674916 0 0.0012323098401926037 -0.037896800386250096 0 0.0013006320093657401 -0.037744719311284439 0 0.0013040873023554256 -0.037570285264674916 0 0.0009938604001506529 -0.037746833056069705 0 0.0012323098401926037 -0.037896800386250096 0 0.0010923606192124564 -0.037366470386185034 0 0.0009938604001506529 -0.037746833056069705 0 0.00096330194096144056 -0.037899809993951587 0 0.0012323098401926037 -0.037896800386250096 0 0.0012375756814488141 -0.038064656877321121 0 0.00096330194096144056 -0.037899809993951587 0 0.0012323098401926037 -0.037896800386250096 0 0.0012323098401926037 -0.037896800386250096 0 0.0013006320093657401 -0.037744719311284439 0 0.0013277011663963272 -0.037812189679388215 0 0.0012375756814488141 -0.038064656877321121 0 0.0012323098401926037 -0.037896800386250096 0 0.0013277011663963272 -0.037812189679388215 0 0.000666983485148117 -0.037817305477905572 0 0.0009938604001506529 -0.037746833056069705 0 0.0010923606192124564 -0.037366470386185034 0 0.001353344376560149 -0.037647458423674188 0 0.0013627740078026749 -0.037500966624156147 0 0.0013040873023554256 -0.037570285264674916 0 0.0013422982155021561 -0.037368445150405015 0 0.0013627740078026749 -0.037500966624156147 0 0.0013040873023554256 -0.037570285264674916 0 0.0013627740078026749 -0.037500966624156147 0 0.0013939157236716106 -0.037369413058904517 0 0.0014089430238531919 -0.03749424006010918 0 0.0013939157236716106 -0.037369413058904517 0 0.0014110876167856958 -0.037354296800617609 0 0.0014089430238531919 -0.03749424006010918 0 0.0013422982155021561 -0.037368445150405015 0 0.0013627740078026749 -0.037500966624156147 0 0.0013939157236716106 -0.037369413058904517 0 0.0014092722993930837 -0.037240060122607638 0 0.0013939157236716106 -0.037369413058904517 0 0.0014110876167856958 -0.037354296800617609 0 0.0014110876167856958 -0.037354296800617609 0 0.0014089430238531919 -0.03749424006010918 0 0.001394215722146763 -0.037293190032473326 0 0.0013678152056182278 -0.037164598666466805 0 0.0013878076520323695 -0.037226218006191927 0 0.0013318750640974666 -0.037092718897223723 0 0.0014092722993930837 -0.037240060122607638 0 0.0014110876167856958 -0.037354296800617609 0 0.0013878076520323695 -0.037226218006191927 0 0.0014110876167856958 -0.037354296800617609 0 0.0013878076520323695 -0.037226218006191927 0 0.001394215722146763 -0.037293190032473326 0 0.0013878076520323695 -0.037226218006191927 0 0.0013388049521577347 -0.037130355253949407 0 0.0013318750640974666 -0.037092718897223723 0 0.0013878076520323695 -0.037226218006191927 0 0.0013388049521577347 -0.037130355253949407 0 0.001394215722146763 -0.037293190032473326 0 0.001394215722146763 -0.037293190032473326 0 0.0013901867153736406 -0.037098030650467434 0 0.001295408616785123 -0.037061282843782573 0 0.0013388049521577347 -0.037130355253949407 0 0.001394215722146763 -0.037293190032473326 0 0.001295408616785123 -0.037061282843782573 0 0.001394215722146763 -0.037293190032473326 0 0.0014375691701687041 -0.037462444587363759 0 0.0013901867153736406 -0.037098030650467434 0 0.0014064642651077711 -0.037638673647889226 0 0.0014375691701687041 -0.037462444587363759 0 0.0016678955325172215 -0.037031543325847266 0 0.001394757704055878 -0.03761958863418411 0 0.0014089430238531919 -0.03749424006010918 0 0.0014375691701687041 -0.037462444587363759 0 0.0014064642651077711 -0.037638673647889226 0 0.001394757704055878 -0.03761958863418411 0 0.0014375691701687041 -0.037462444587363759 0 0.0014089430238531919 -0.03749424006010918 0 0.001394215722146763 -0.037293190032473326 0 0.0014375691701687041 -0.037462444587363759 0 0.0016678955325172215 -0.037031543325847266 0 0.0013901867153736406 -0.037098030650467434 0 0.0014037729640555519 -0.036629936017751316 0 0.0014375691701687041 -0.037462444587363759 0 0.0016678955325172215 -0.037031543325847266 0 0.0013901867153736406 -0.037098030650467434 0 0.0013901867153736406 -0.037098030650467434 0 0.0014037729640555519 -0.036629936017751316 0 0.0012683583683022529 -0.036895442606435944 0 0.0013901867153736406 -0.037098030650467434 0 0.001295408616785123 -0.037061282843782573 0 0.0012683583683022529 -0.036895442606435944 0 0.0016873130338927391 -0.041325048856557821 0 0.0010471855292209762 -0.042177394340193269 0 0.0010901514296345225 -0.042338449060635809 0 0.0016678955325172215 -0.037031543325847266 0 0.0014037729640555519 -0.036629936017751316 0 0.0015403043126892464 -0.036262285533621291 0 0.0016077786666341917 -0.039084066164511232 0 0.0013114427566386128 -0.03926440889270906 0 0.0016873130338927391 -0.041325048856557821 0 0.00065769952240650887 -0.041908579849524265 0 0.0010471855292209762 -0.042177394340193269 0 0.00065769952240650887 -0.041908579849524265 0 0.00071750687533711369 -0.042403473657739603 0 0.0010471855292209762 -0.042177394340193269 0 0.00065769952240650887 -0.041908579849524265 0 2.7185812108406891e-05 -0.041819106744009633 0 0.00029419697697731056 -0.042541631753156735 0 2.7185812108406891e-05 -0.041819106744009633 0 0.0002414855157267998 -0.040633720315104413 0 -0.0010199400972305691 -0.039646799976903881 0 0.00065769952240650887 -0.041908579849524265 0 2.7185812108406891e-05 -0.041819106744009633 0 0.0002414855157267998 -0.040633720315104413 0 0.00065769952240650887 -0.041908579849524265 0 0.0002414855157267998 -0.040633720315104413 0 0.00094647388558349573 -0.04014681982111868 0 0.0016873130338927391 -0.041325048856557821 0 0.00065769952240650887 -0.041908579849524265 0 0.00094647388558349573 -0.04014681982111868 0 0.00093376645057060821 -0.036479375987641817 0 0.0007671571640064372 -0.036099063059155931 0 0.00062097588939972049 -0.036412235728256158 0 0.00093376645057060821 -0.036479375987641817 0 0.00079445491738607693 -0.036731626932218021 0 0.00062097588939972049 -0.036412235728256158 0 0.00093376645057060821 -0.036479375987641817 0 0.00079445491738607693 -0.036731626932218021 0 0.0010309188023910644 -0.03681639015233254 0 0.00092477785436961997 -0.036946549720467507 0 0.00079445491738607693 -0.036731626932218021 0 0.0010309188023910644 -0.03681639015233254 0 0.00093376645057060821 -0.036479375987641817 0 0.0012825457085900176 -0.036919661395048473 0 0.0011647505390212575 -0.036252924545060093 0 0.00093376645057060821 -0.036479375987641817 0 0.0010309188023910644 -0.03681639015233254 0 0.0012825457085900176 -0.036919661395048473 0 0.0012825457085900176 -0.036919661395048473 0 0.0012155129676827549 -0.036941499462627522 0 0.0011213817769172439 -0.036919292381831989 0 0.0012529338105093351 -0.03685281978839737 0 0.001173918547833368 -0.036628134287526086 0 0.0012848790938446461 -0.037082809665915199 0 0.0011579815505185333 -0.036996210822686011 0 0.0012825457085900176 -0.036919661395048473 0 0.0011579815505185333 -0.036996210822686011 0 0.0010309188023910644 -0.03681639015233254 0 0.0012825457085900176 -0.036919661395048473 0 0.0012848790938446461 -0.037082809665915199 0 0.0012825457085900176 -0.036919661395048473 0 0.0013318750640974666 -0.037092718897223723 0 0.0013388049521577347 -0.037130355253949407 0 0.0012825457085900176 -0.036919661395048473 0 0.0013318750640974666 -0.037092718897223723 0 0.0013388049521577347 -0.037130355253949407 0 0.0012825457085900176 -0.036919661395048473 0 0.001295408616785123 -0.037061282843782573 0 0.0012825457085900176 -0.036919661395048473 0 0.001295408616785123 -0.037061282843782573 0 0.0012155129676827549 -0.036941499462627522 0 0.0012683583683022529 -0.036895442606435944 0 0.0011639090515971487 -0.036800246728450649 0 0.0012155129676827549 -0.036941499462627522 0 0.001295408616785123 -0.037061282843782573 0 0.0012683583683022529 -0.036895442606435944 0 0.0012155129676827549 -0.036941499462627522 0 0.0014037729640555519 -0.036629936017751316 0 0.0012683583683022529 -0.036895442606435944 0 0.0011639090515971487 -0.036800246728450649 0 0.0014111588232029665 -0.03659958003258753 0 0.0010896474088349564 -0.036560227263535326 0 0.0014037729640555519 -0.036629936017751316 0 0.00095319549422947332 -0.036212095473466516 0 0.001182662376523876 -0.03616922098314064 0 0.0011639090515971487 -0.036800246728450649 0 0.0012155129676827549 -0.036941499462627522 0 0.0011213817769172439 -0.036919292381831989 0 0.00093376645057060821 -0.036479375987641817 0 0.0011647505390212575 -0.036252924545060093 0 0.0007671571640064372 -0.036099063059155931 0 0.0010896474088349564 -0.036560227263535326 0 0.00077377744876606371 -0.036065746069603652 0 0.00095319549422947332 -0.036212095473466516 0 0.00058903882831560172 -0.036008841701625403 0 0.00078147234443426655 -0.035870037696140882 0 0.001173918547833368 -0.036628134287526086 0 0.00077377744876606371 -0.036065746069603652 0 0.0011639090515971487 -0.036800246728450649 0 0.0011213817769172439 -0.036919292381831989 0 0.0010186633150408918 -0.036793477842694884 0 0.00077377744876606371 -0.036065746069603652 0 0.00053770478959392818 -0.035595228741165275 0 0.0009146624936673647 -0.035728565948064776 0 0.0007671571640064372 -0.036099063059155931 0 0.00051638099870490359 -0.035624404817563932 0 0.0011647505390212575 -0.036252924545060093 0 0.0009146624936673647 -0.035728565948064776 0 0.0007671571640064372 -0.036099063059155931 0 0.00058110853525530318 -0.035443347716165169 0 0.00063266950132904868 -0.035671051463733713 0 0.00048313791278195003 -0.035432287078926421 0 0.00058110853525530318 -0.035443347716165169 0 0.00063266950132904868 -0.035671051463733713 0 0.0007649893623323978 -0.035624318790338193 0 0.00077377744876606371 -0.036065746069603652 0 0.00042593708522989019 -0.035366777687360781 0 0.00058903882831560172 -0.036008841701625403 0 0.00063266950132904868 -0.035671051463733713 0 0.00048313791278195003 -0.035432287078926421 0 0.00058903882831560172 -0.036008841701625403 0 0.00063266950132904868 -0.035671051463733713 0 0.00078147234443426655 -0.035870037696140882 0 0.00063266950132904868 -0.035671051463733713 0 0.00078147234443426655 -0.035870037696140882 0 0.0007649893623323978 -0.035624318790338193 0 0.0007649893623323978 -0.035624318790338193 0 0.00096309327065528469 -0.035855649967434858 0 0.00093593046177778861 -0.03554320208849885 0 0.00078147234443426655 -0.035870037696140882 0 0.0007649893623323978 -0.035624318790338193 0 0.00096309327065528469 -0.035855649967434858 0 0.00095319549422947332 -0.036212095473466516 0 0.00078147234443426655 -0.035870037696140882 0 0.00096309327065528469 -0.035855649967434858 0 0.00095319549422947332 -0.036212095473466516 0 0.00096309327065528469 -0.035855649967434858 0 0.001182662376523876 -0.03616922098314064 0 0.00096309327065528469 -0.035855649967434858 0 0.001182662376523876 -0.03616922098314064 0 0.0012407856821453987 -0.035634038262002031 0 0.00096309327065528469 -0.035855649967434858 0 0.0012407856821453987 -0.035634038262002031 0 0.00093593046177778861 -0.03554320208849885 0 0.00097297052611049737 -0.035289599171004001 0 0.0007324338811009859 -0.035330317671934744 0 0.00079925721844752542 -0.035083165410544466 0 0.0012407856821453987 -0.035634038262002031 0 0.00097297052611049737 -0.035289599171004001 0 0.00093593046177778861 -0.03554320208849885 0 0.00065265579020986622 -0.042431663380852622 0 0.00036416184127448578 -0.042313846578608871 0 0.00064837305173491794 -0.042386998889462443 0 0.00094156087037077971 -0.039020604194778048 0 0.00067635440012282831 -0.038813461642366952 0 0.00097297052611049737 -0.035289599171004001 0 0.00093593046177778861 -0.03554320208849885 0 0.0007324338811009859 -0.035330317671934744 0 0.00058110853525530318 -0.035443347716165169 0 0.0007649893623323978 -0.035624318790338193 0 0.0007324338811009859 -0.035330317671934744 0 0.0007649893623323978 -0.035624318790338193 0 0.00093593046177778861 -0.03554320208849885 0 0.0007324338811009859 -0.035330317671934744 0 0.0007324338811009859 -0.035330317671934744 0 0.00053488333527644191 -0.035278494141072154 0 0.00057797290472317089 -0.035119714639746953 0 0.00058110853525530318 -0.035443347716165169 0 0.0007324338811009859 -0.035330317671934744 0 0.00053488333527644191 -0.035278494141072154 0 0.00065355426565610615 -0.042515681765441946 0 0.00071750687533711369 -0.042403473657739603 0 0.00090850082345589052 -0.042387513096413705 0 0.00051968718399993965 -0.04252936335080168 0 0.0004774340825453964 -0.042576999022217336 0 0.00029419697697731056 -0.042541631753156735 0 0.00065355426565610615 -0.042515681765441946 0 0.00051968718399993965 -0.04252936335080168 0 0.00071750687533711369 -0.042403473657739603 0 0.00065355426565610615 -0.042515681765441946 0 0.00051968718399993965 -0.04252936335080168 0 0.0004774340825453964 -0.042576999022217336 0 0.00065769952240650887 -0.041908579849524265 0 0.00071750687533711369 -0.042403473657739603 0 0.00029419697697731056 -0.042541631753156735 0 0.00051968718399993965 -0.04252936335080168 0 0.00071750687533711369 -0.042403473657739603 0 0.00029419697697731056 -0.042541631753156735 0 0.00071750687533711369 -0.042403473657739603 0 0.0010471855292209762 -0.042177394340193269 0 0.00090850082345589052 -0.042387513096413705 0 0.0010471855292209762 -0.042177394340193269 0 0.00090850082345589052 -0.042387513096413705 0 0.0010901514296345225 -0.042338449060635809 0 0.0014037729640555519 -0.036629936017751316 0 0.001182662376523876 -0.03616922098314064 0 0.0015403043126892464 -0.036262285533621291 0 0.001182662376523876 -0.03616922098314064 0 0.0012407856821453987 -0.035634038262002031 0 0.0015403043126892464 -0.036262285533621291 0 0.00094156087037077971 -0.039020604194778048 0 0.0013114427566386128 -0.03926440889270906 0 0.00065265579020986622 -0.042431663380852622 0 0.0010901514296345225 -0.042338449060635809 0 0.00079246771802590212 -0.042448429373020118 0 0.00065355426565610615 -0.042515681765441946 0 0.00090850082345589052 -0.042387513096413705 0 0.00079246771802590212 -0.042448429373020118 0 0.00090850082345589052 -0.042387513096413705 0 0.0010901514296345225 -0.042338449060635809 0 0.00079246771802590212 -0.042448429373020118 0 0.00079246771802590212 -0.042448429373020118 0 0.00064837305173491794 -0.042386998889462443 0 0.0006487096275359025 -0.042431920151000127 0 0.00065265579020986622 -0.042431663380852622 0 0.00079246771802590212 -0.042448429373020118 0 0.00064837305173491794 -0.042386998889462443 0 0.00036416184127448578 -0.042313846578608871 0 0.00064837305173491794 -0.042386998889462443 0 0.00053571296286821662 -0.042252941213438915 0 0.00064837305173491794 -0.042386998889462443 0 0.0006487096275359025 -0.042431920151000127 0 0.00053571296286821662 -0.042252941213438915 0 0.00065355426565610615 -0.042515681765441946 0 0.00079246771802590212 -0.042448429373020118 0 0.0006487096275359025 -0.042431920151000127 0 0.00065355426565610615 -0.042515681765441946 0 0.0006487096275359025 -0.042431920151000127 0 0.0005834670600939738 -0.042507154052013947 0 0.00065355426565610615 -0.042515681765441946 0 0.0005834670600939738 -0.042507154052013947 0 0.0004774340825453964 -0.042576999022217336 0 0.0006487096275359025 -0.042431920151000127 0 0.0005834670600939738 -0.042507154052013947 0 0.00062220100111334245 -0.04240650502328111 0 0.00058954731726553063 -0.042444233178545253 0 0.00052161014961336709 -0.042531225261784135 0 0.00062220100111334245 -0.04240650502328111 0 0.0005834670600939738 -0.042507154052013947 0 0.00052161014961336709 -0.042531225261784135 0 0.00062220100111334245 -0.04240650502328111 0 0.00058954731726553063 -0.042444233178545253 0 0.00057115902357061563 -0.042504029577754843 0 0.00063784869375436406 -0.042417556920037749 0 0.00058954731726553063 -0.042444233178545253 0 0.00057115902357061563 -0.042504029577754843 0 0.00052161014961336709 -0.042531225261784135 0 0.00048732967617978859 -0.042611493812772613 0 0.00052161014961336709 -0.042531225261784135 0 0.00039865800640972711 -0.04265183156896471 0 0.00057115902357061563 -0.042504029577754843 0 0.00048732967617978859 -0.042611493812772613 0 0.00052161014961336709 -0.042531225261784135 0 0.00057115902357061563 -0.042504029577754843 0 0.00048732967617978859 -0.042611493812772613 0 0.00056936304482668222 -0.042605530633038034 0 0.00048732967617978859 -0.042611493812772613 0 0.00045032031078528822 -0.04275193692060697 0 0.00056936304482668222 -0.042605530633038034 0 0.00052161014961336709 -0.042531225261784135 0 0.0004774340825453964 -0.042576999022217336 0 0.00039865800640972711 -0.04265183156896471 0 0.0005834670600939738 -0.042507154052013947 0 0.00052161014961336709 -0.042531225261784135 0 0.0004774340825453964 -0.042576999022217336 0 0.0004774340825453964 -0.042576999022217336 0 0.00039865800640972711 -0.04265183156896471 0 0.00029419697697731056 -0.042541631753156735 0 0.00048732967617978859 -0.042611493812772613 0 0.00039865800640972711 -0.04265183156896471 0 0.00045032031078528822 -0.04275193692060697 0 0.00039865800640972711 -0.04265183156896471 0 0.00045032031078528822 -0.04275193692060697 0 0.0003441950935773311 -0.042812734575839374 0 0.00045032031078528822 -0.04275193692060697 0 0.0003441950935773311 -0.042812734575839374 0 0.00046175559459973983 -0.04309945213731637 0 0.0003441950935773311 -0.042812734575839374 0 0.00046175559459973983 -0.04309945213731637 0 0.00036947288375749744 -0.042982282701432124 0 0.0003441950935773311 -0.042812734575839374 0 0.00023465670007102716 -0.042665352380212143 0 0.00036947288375749744 -0.042982282701432124 0 0.00039865800640972711 -0.04265183156896471 0 0.0003441950935773311 -0.042812734575839374 0 0.00029419697697731056 -0.042541631753156735 0 0.0003441950935773311 -0.042812734575839374 0 0.00029419697697731056 -0.042541631753156735 0 0.00023465670007102716 -0.042665352380212143 0 0.00066217668169250182 -0.04357365231275509 0 0.00037881254339352399 -0.044407457036162654 0 0.00033718213573774927 -0.044041597919770734 0 0.00066217668169250182 -0.04357365231275509 0 0.00033718213573774927 -0.044041597919770734 0 0.0004310918380685444 -0.043774114165014248 0 0.00066217668169250182 -0.04357365231275509 0 0.00046175559459973983 -0.04309945213731637 0 0.00050710939319066823 -0.043308283782991785 0 0.00066217668169250182 -0.04357365231275509 0 0.00046175559459973983 -0.04309945213731637 0 0.00068994710774187814 -0.042715396607024995 0 0.00046175559459973983 -0.04309945213731637 0 0.00036947288375749744 -0.042982282701432124 0 0.00050710939319066823 -0.043308283782991785 0 0.00045032031078528822 -0.04275193692060697 0 0.00068994710774187814 -0.042715396607024995 0 0.00056936304482668222 -0.042605530633038034 0 0.00045032031078528822 -0.04275193692060697 0 0.00046175559459973983 -0.04309945213731637 0 0.00068994710774187814 -0.042715396607024995 0 0.00066217668169250182 -0.04357365231275509 0 0.00084676221197563695 -0.044515319815270162 0 0.00037881254339352399 -0.044407457036162654 0 0.00068496182654017538 -0.043564893679289181 0 0.00074565060606606663 -0.043590824528433811 0 0.00084676221197563695 -0.044515319815270162 0 0.00056924618747107277 -0.044634934542604615 0 0.00037881254339352399 -0.044407457036162654 0 0.00056924618747107277 -0.044634934542604615 0 0.00083184324489275817 -0.044710010160672005 0 0.00044818582878521735 -0.044797056404800938 0 0.00083184324489275817 -0.044710010160672005 0 0.00050557553676658243 -0.044921122106417022 0 0.00044818582878521735 -0.044797056404800938 0 0.00084676221197563695 -0.044515319815270162 0 0.00056924618747107277 -0.044634934542604615 0 0.00083184324489275817 -0.044710010160672005 0 0.00074565060606606663 -0.043590824528433811 0 0.00076540898511268151 -0.043752983067516078 0 0.00068994710774187814 -0.042715396607024995 0 0.00056936304482668222 -0.042605530633038034 0 0.00063652991922649206 -0.042503796675263501 0 0.00084676221197563695 -0.044515319815270162 0 0.00083184324489275817 -0.044710010160672005 0 0.0008544926220799547 -0.044834288264347426 0 0.00057115902357061563 -0.042504029577754843 0 0.00056936304482668222 -0.042605530633038034 0 0.00063652991922649206 -0.042503796675263501 0 0.00076540898511268151 -0.043752983067516078 0 0.00073243878195497253 -0.043287243753583358 0 0.00057115902357061563 -0.042504029577754843 0 0.00063652991922649206 -0.042503796675263501 0 0.00063784869375436406 -0.042417556920037749 0 0.0008544926220799547 -0.044834288264347426 0 0.00088582190982271485 -0.045012487439875265 0 0.00068254465905845754 -0.04495901040498633 0 0.00083184324489275817 -0.044710010160672005 0 0.0008544926220799547 -0.044834288264347426 0 0.00068254465905845754 -0.04495901040498633 0 0.00083184324489275817 -0.044710010160672005 0 0.00050557553676658243 -0.044921122106417022 0 0.00052905092050975174 -0.045153618199341779 0 0.00082030562095631383 -0.044840641309476258 0 0.00051026340790947232 -0.044724703374921758 0 0.00031043226740109635 -0.044915347244698291 0 0.00017771852238206962 -0.044955301246542241 0 0.00052905092050975174 -0.045153618199341779 0 0.00050557553676658243 -0.044921122106417022 0 0.00031043226740109635 -0.044915347244698291 0 0.00052905092050975174 -0.045153618199341779 0 0.00017771852238206962 -0.044955301246542241 0 9.8623810301381373e-06 -0.044903552986358619 0 0.00015871395360062408 -0.044909542311987245 0 0.00011681221677719462 -0.045012244245581361 0 0.00051026340790947232 -0.044724703374921758 0 0.00050557553676658243 -0.044921122106417022 0 0.00031043226740109635 -0.044915347244698291 0 0.00044818582878521735 -0.044797056404800938 0 0.00031043226740109635 -0.044915347244698291 0 0.00017771852238206962 -0.044955301246542241 0 0.00021712907220021777 -0.044808494794882581 0 0.00016433054975186734 -0.044962157489816516 0 0.00017771852238206962 -0.044955301246542241 0 0.00015871395360062408 -0.044909542311987245 0 9.1234210109795435e-05 -0.044965507986716162 0 3.5741218424573915e-05 -0.044962483742694487 0 3.8891110890425976e-05 -0.044986352043504936 0 9.1234210109795435e-05 -0.044965507986716162 0 3.5741218424573915e-05 -0.044962483742694487 0 3.6270821217761453e-05 -0.044889206155152558 0 0.00016433054975186734 -0.044962157489816516 0 0.00017771852238206962 -0.044955301246542241 0 0.00021712907220021777 -0.044808494794882581 0 0.00016433054975186734 -0.044962157489816516 0 0.00011431277851485227 -0.044706035294521239 0 0.00021712907220021777 -0.044808494794882581 0 9.1234210109795435e-05 -0.044965507986716162 0 0.00011431277851485227 -0.044706035294521239 0 3.6270821217761453e-05 -0.044889206155152558 0 0.00012821988092518309 -0.044918098312257106 0 0.0001173022372983227 -0.044734542920504036 0 0.00011431277851485227 -0.044706035294521239 0 0.0003292366012449868 -0.044674752379626877 0 0.00021712907220021777 -0.044808494794882581 0 0.00056924618747107277 -0.044634934542604615 0 0.0003292366012449868 -0.044674752379626877 0 0.00044818582878521735 -0.044797056404800938 0 0.00031043226740109635 -0.044915347244698291 0 0.00044818582878521735 -0.044797056404800938 0 0.00021712907220021777 -0.044808494794882581 0 0.0003292366012449868 -0.044674752379626877 0 0.00044818582878521735 -0.044797056404800938 0 0.00021712907220021777 -0.044808494794882581 0 -2.8429217704023712e-08 -0.04499993314838948 0 1.0521118890045827e-05 -0.044941102614189959 0 1.2737201226253666e-05 -0.044987101625967543 0 1.0521118890045827e-05 -0.044941102614189959 0 3.5741218424573915e-05 -0.044962483742694487 0 1.2737201226253666e-05 -0.044987101625967543 0 1.0521118890045827e-05 -0.044941102614189959 0 3.5741218424573915e-05 -0.044962483742694487 0 3.6270821217761453e-05 -0.044889206155152558 0 0.00011431277851485227 -0.044706035294521239 0 -1.0799172908781879e-05 -0.044850887845996446 0 3.6270821217761453e-05 -0.044889206155152558 0 1.0521118890045827e-05 -0.044941102614189959 0 -1.0799172908781879e-05 -0.044850887845996446 0 3.6270821217761453e-05 -0.044889206155152558 0 -2.8429217704023712e-08 -0.04499993314838948 0 -1.0799172908781879e-05 -0.044850887845996446 0 -6.9194562606177757e-08 -0.044999671225244744 0 -2.8429217704023712e-08 -0.04499993314838948 0 1.0521118890045827e-05 -0.044941102614189959 0 -1.0799172908781879e-05 -0.044850887845996446 0 -1.0799172908781879e-05 -0.044850887845996446 0 -6.9194562606177757e-08 -0.044999671225244744 0 -2.6017139276985437e-05 -0.044723982212430929 0 -1.0799172908781879e-05 -0.044850887845996446 0 -2.6017139276985437e-05 -0.044723982212430929 0 4.6862793209442065e-05 -0.044574119472006901 0 -2.6017139276985437e-05 -0.044723982212430929 0 4.6862793209442065e-05 -0.044574119472006901 0 2.281184567595627e-05 -0.044496934723496577 0 -2.6017139276985437e-05 -0.044723982212430929 0 2.281184567595627e-05 -0.044496934723496577 0 -3.2597905303557278e-05 -0.044551154872579414 0 -6.9194562606177757e-08 -0.044999671225244744 0 -2.6017139276985437e-05 -0.044723982212430929 0 -1.1071508877671406e-08 -0.044999460347275255 0 0.00037881254339352399 -0.044407457036162654 0 0.00018048963586322011 -0.044416691785689841 0 0.00033718213573774927 -0.044041597919770734 0 0.00011431277851485227 -0.044706035294521239 0 0.00037881254339352399 -0.044407457036162654 0 0.00018048963586322011 -0.044416691785689841 0 0.00011431277851485227 -0.044706035294521239 0 0.0003292366012449868 -0.044674752379626877 0 0.00037881254339352399 -0.044407457036162654 0 0.00056924618747107277 -0.044634934542604615 0 0.0003292366012449868 -0.044674752379626877 0 0.00037881254339352399 -0.044407457036162654 0 0.00011431277851485227 -0.044706035294521239 0 -1.0799172908781879e-05 -0.044850887845996446 0 4.6862793209442065e-05 -0.044574119472006901 0 0.00011431277851485227 -0.044706035294521239 0 4.6862793209442065e-05 -0.044574119472006901 0 0.00018048963586322011 -0.044416691785689841 0 4.6862793209442065e-05 -0.044574119472006901 0 0.00018048963586322011 -0.044416691785689841 0 0.00013644278687174473 -0.044316251897525825 0 4.6862793209442065e-05 -0.044574119472006901 0 2.281184567595627e-05 -0.044496934723496577 0 0.00013644278687174473 -0.044316251897525825 0 2.281184567595627e-05 -0.044496934723496577 0 0.00013644278687174473 -0.044316251897525825 0 6.6907816233518222e-05 -0.044310652133716107 0 0.00013644278687174473 -0.044316251897525825 0 0.00033718213573774927 -0.044041597919770734 0 0.00024572975566563286 -0.044036508150136364 0 0.00018048963586322011 -0.044416691785689841 0 0.00013644278687174473 -0.044316251897525825 0 0.00033718213573774927 -0.044041597919770734 0 0.00033718213573774927 -0.044041597919770734 0 0.0004310918380685444 -0.043774114165014248 0 0.00024572975566563286 -0.044036508150136364 0 0.00024572975566563286 -0.044036508150136364 0 0.00016421976654929058 -0.044091536942193206 0 0.00042208818054931198 -0.043692541107510204 0 0.0004310918380685444 -0.043774114165014248 0 0.00024572975566563286 -0.044036508150136364 0 0.00042208818054931198 -0.043692541107510204 0 0.00013644278687174473 -0.044316251897525825 0 0.00024572975566563286 -0.044036508150136364 0 6.6907816233518222e-05 -0.044310652133716107 0 6.6907816233518222e-05 -0.044310652133716107 0 7.9181164575914775e-06 -0.044346614146171463 0 -3.2597905303557278e-05 -0.044551154872579414 0 2.281184567595627e-05 -0.044496934723496577 0 6.6907816233518222e-05 -0.044310652133716107 0 -3.2597905303557278e-05 -0.044551154872579414 0 7.9181164575914775e-06 -0.044346614146171463 0 6.257499267921937e-05 -0.044094561017120622 0 -7.8643564126900655e-05 -0.044535643047740228 0 6.6907816233518222e-05 -0.044310652133716107 0 7.9181164575914775e-06 -0.044346614146171463 0 0.00016421976654929058 -0.044091536942193206 0 7.9181164575914775e-06 -0.044346614146171463 0 0.00016421976654929058 -0.044091536942193206 0 6.257499267921937e-05 -0.044094561017120622 0 0.00024572975566563286 -0.044036508150136364 0 6.6907816233518222e-05 -0.044310652133716107 0 0.00016421976654929058 -0.044091536942193206 0 -0.0010938520104391049 -0.0432158512402957 0 -0.0020607573235624835 -0.042895086657929876 0 -0.00029216479928506254 -0.044623191450355183 0 -0.00036095490859537404 -0.044693581816985642 0 -0.00052923063596540588 -0.0446795686703216 0 -0.0010938520104391049 -0.0432158512402957 0 -0.00019077374412192322 -0.044023624666645646 0 -0.00033369620661780075 -0.044619880523352681 0 -0.0002249867100167059 -0.04463376393377206 0 -7.8643564126900655e-05 -0.044535643047740228 0 -0.00029216479928506254 -0.044623191450355183 0 -0.0002249867100167059 -0.04463376393377206 0 -0.00026313569953391192 -0.044722580585255037 0 -0.0010938520104391049 -0.0432158512402957 0 -0.00062189936588628826 -0.043488912921828778 0 -0.00026313569953391192 -0.044722580585255037 0 -0.00035710783411629606 -0.044750792732718946 0 -0.00024254085795525653 -0.044828792731241414 0 -0.0002249867100167059 -0.04463376393377206 0 -0.00026313569953391192 -0.044722580585255037 0 -0.00012749438164875288 -0.044760046903581277 0 -0.00026313569953391192 -0.044722580585255037 0 -0.00012749438164875288 -0.044760046903581277 0 -0.00024254085795525653 -0.044828792731241414 0 -0.00029216479928506254 -0.044623191450355183 0 -0.00026313569953391192 -0.044722580585255037 0 -0.00036095490859537404 -0.044693581816985642 0 -0.00036095490859537404 -0.044693581816985642 0 -0.00035710783411629606 -0.044750792732718946 0 -0.00052923063596540588 -0.0446795686703216 0 -0.00026313569953391192 -0.044722580585255037 0 -0.00036095490859537404 -0.044693581816985642 0 -0.00035710783411629606 -0.044750792732718946 0 0.00016421976654929058 -0.044091536942193206 0 6.257499267921937e-05 -0.044094561017120622 0 0.00042208818054931198 -0.043692541107510204 0 -0.0032523989761563447 -0.040979392902406056 0 -0.0036927820749551084 -0.041134943230973761 0 -0.0038207550467677779 -0.040951890433524547 0 -0.0010938520104391049 -0.0432158512402957 0 -0.0017796797466690436 -0.042279809838615595 0 -0.0036927820749551084 -0.041134943230973761 0 -0.0038207550467677779 -0.040951890433524547 0 -0.0038870887564779423 -0.041076710453965638 0 -2.6017139276985437e-05 -0.044723982212430929 0 -1.1071508877671406e-08 -0.044999460347275255 0 -1.6281679354431907e-05 -0.044788220190492188 0 -2.6017139276985437e-05 -0.044723982212430929 0 -3.2597905303557278e-05 -0.044551154872579414 0 -1.6281679354431907e-05 -0.044788220190492188 0 -3.2597905303557278e-05 -0.044551154872579414 0 -7.8643564126900655e-05 -0.044535643047740228 0 -1.6281679354431907e-05 -0.044788220190492188 0 7.9181164575914775e-06 -0.044346614146171463 0 -3.2597905303557278e-05 -0.044551154872579414 0 -7.8643564126900655e-05 -0.044535643047740228 0 -0.00012749438164875288 -0.044760046903581277 0 -1.6281679354431907e-05 -0.044788220190492188 0 -8.2764745142234139e-05 -0.04489700710263117 0 -0.0002249867100167059 -0.04463376393377206 0 -7.8643564126900655e-05 -0.044535643047740228 0 -0.00012749438164875288 -0.044760046903581277 0 -7.8643564126900655e-05 -0.044535643047740228 0 -0.00012749438164875288 -0.044760046903581277 0 -1.6281679354431907e-05 -0.044788220190492188 0 -1.1071508877671406e-08 -0.044999460347275255 0 -1.6281679354431907e-05 -0.044788220190492188 0 2.1848393594329599e-08 -0.044999800713960668 0 -1.6281679354431907e-05 -0.044788220190492188 0 2.1848393594329599e-08 -0.044999800713960668 0 -8.2764745142234139e-05 -0.04489700710263117 0 2.1848393594329599e-08 -0.044999800713960668 0 -8.2764745142234139e-05 -0.04489700710263117 0 -5.5533631412997291e-05 -0.044990859722391127 0 -0.00012749438164875288 -0.044760046903581277 0 -8.2764745142234139e-05 -0.04489700710263117 0 -0.00024254085795525653 -0.044828792731241414 0 -8.2764745142234139e-05 -0.04489700710263117 0 -0.00018370478628888272 -0.044956341587549055 0 -0.00024254085795525653 -0.044828792731241414 0 -8.2764745142234139e-05 -0.04489700710263117 0 -0.00018370478628888272 -0.044956341587549055 0 -5.5533631412997291e-05 -0.044990859722391127 0 -0.001663054460814366 -0.042734225699992551 0 6.5775856051940651e-05 -0.045862201008194881 0 -0.00012959290165128978 -0.045042329376498005 0 -0.00018370478628888272 -0.044956341587549055 0 -5.5533631412997291e-05 -0.044990859722391127 0 -8.7228361278658968e-08 -0.045000171485562235 0 2.1848393594329599e-08 -0.044999800713960668 0 -5.5533631412997291e-05 -0.044990859722391127 0 -0.00052923063596540588 -0.0446795686703216 0 -0.00056458373960969219 -0.044849462790901656 0 -0.00076227936715179208 -0.044738408455015054 0 -0.00056458373960969219 -0.044849462790901656 0 -0.00041991011525729872 -0.044833229418835219 0 -0.00041787811413415037 -0.044963995151133536 0 -0.00052923063596540588 -0.0446795686703216 0 -0.00056458373960969219 -0.044849462790901656 0 -0.00041991011525729872 -0.044833229418835219 0 -0.00035710783411629606 -0.044750792732718946 0 -0.00052923063596540588 -0.0446795686703216 0 -0.00041991011525729872 -0.044833229418835219 0 -0.00035710783411629606 -0.044750792732718946 0 -0.00024254085795525653 -0.044828792731241414 0 -0.00041991011525729872 -0.044833229418835219 0 -0.00018370478628888272 -0.044956341587549055 0 -0.00024254085795525653 -0.044828792731241414 0 -0.00031363960028143442 -0.044895290011414533 0 -0.00031363960028143442 -0.044895290011414533 0 -0.00041991011525729872 -0.044833229418835219 0 -0.00041787811413415037 -0.044963995151133536 0 -0.00024254085795525653 -0.044828792731241414 0 -0.00031363960028143442 -0.044895290011414533 0 -0.00041991011525729872 -0.044833229418835219 0 -0.00041120646884860285 -0.045099132364691763 0 -0.00018370478628888272 -0.044956341587549055 0 -0.00041787811413415037 -0.044963995151133536 0 -0.00041120646884860285 -0.045099132364691763 0 -0.00017074034723836903 -0.04512916014994249 0 -0.00018370478628888272 -0.044956341587549055 0 -0.00018370478628888272 -0.044956341587549055 0 -0.00031363960028143442 -0.044895290011414533 0 -0.00041787811413415037 -0.044963995151133536 0 -0.001519513304120645 -0.042083094406127446 0 -0.0038568511995561083 -0.03920033980613858 0 -0.00056458373960969219 -0.044849462790901656 0 -0.00041787811413415037 -0.044963995151133536 0 -0.00069718173556243416 -0.045030718433919051 0 -0.00041120646884860285 -0.045099132364691763 0 -0.00041787811413415037 -0.044963995151133536 0 -0.00069718173556243416 -0.045030718433919051 0 -0.0049023289182455699 -0.038753630871393677 0 -0.0048282871025407906 -0.039096932504344005 0 -0.0046795912539433779 -0.038783693779215471 0 -0.0038568511995561083 -0.03920033980613858 0 -0.0034933001935639426 -0.042124014093604799 0 -0.0038568511995561083 -0.03920033980613858 0 -0.0063407061315406141 -0.036149391806750933 0 -0.00056458373960969219 -0.044849462790901656 0 -0.00069718173556243416 -0.045030718433919051 0 -0.00076227936715179208 -0.044738408455015054 0 -0.0020607573235624835 -0.042895086657929876 0 -0.0034933001935639426 -0.042124014093604799 0 -0.0040153062922532526 -0.040985811485539037 0 -0.0039925241451022973 -0.041065030134058378 0 -0.0039452814714447948 -0.041017435762953199 0 -0.0034933001935639426 -0.042124014093604799 0 -0.0036272873728665162 -0.041669613487481667 0 -0.0039849681463609019 -0.041126507371157181 0 -0.0039925241451022973 -0.041065030134058378 0 -0.0038870887564779423 -0.041076710453965638 0 -0.0048282871025407906 -0.039096932504344005 0 -0.0046507875058530677 -0.038993852504043143 0 -0.0046795912539433779 -0.038783693779215471 0 -0.0038343712406835877 -0.040798852280033722 0 -0.0036732977549013626 -0.040908765957258224 0 -0.0038548034747615191 -0.040984061915155967 0 -0.0038343712406835877 -0.040798852280033722 0 -0.0039452814714447948 -0.041017435762953199 0 -0.0038548034747615191 -0.040984061915155967 0 -0.0034933001935639426 -0.042124014093604799 0 -0.004275636253597676 -0.039931309088242939 0 -0.0040153062922532526 -0.040985811485539037 0 -0.0038343712406835877 -0.040798852280033722 0 -0.0039452814714447948 -0.041017435762953199 0 -0.004275636253597676 -0.039931309088242939 0 -0.0045351103392141778 -0.037846169862791483 0 -0.0063407061315406141 -0.036149391806750933 0 -0.0050862738608584883 -0.035529577345109038 0 -0.0065193624053862444 -0.033022346608589298 0 -0.0069791807018198919 -0.033734301062256777 0 -0.0060295928104020921 -0.033901409939189747 0 -0.0046507875058530677 -0.038993852504043143 0 -0.0046795912539433779 -0.038783693779215471 0 -0.004474670630787621 -0.038887878549002081 0 -0.0046795912539433779 -0.038783693779215471 0 -0.0044559880679224213 -0.038808169767110816 0 -0.004474670630787621 -0.038887878549002081 0 -0.005534956797452196 -0.033458434677406994 0 -0.0061668193638777591 -0.034036717610067595 0 -0.0058583303454253187 -0.034092582373037777 0 -0.0061518915392620929 -0.034051280060929418 0 -0.0058583303454253187 -0.034092582373037777 0 -0.0062481654145156639 -0.034395219778903335 0 -0.0050862738608584883 -0.035529577345109038 0 -0.0057200171548726147 -0.035121038959743098 0 -0.0050862738608584883 -0.035529577345109038 0 -0.0045351103392141778 -0.037846169862791483 0 -0.0058583303454253187 -0.034092582373037777 0 -0.0062481654145156639 -0.034395219778903335 0 -0.0048626297552302059 -0.033692197027513186 0 -0.0032446458963473548 -0.038194074527529785 0 -0.00078613985521009018 -0.036891562467794778 0 -0.0016691246831926725 -0.038472669674908068 0 -0.005534956797452196 -0.033458434677406994 0 -0.0058583303454253187 -0.034092582373037777 0 -0.0048626297552302059 -0.033692197027513186 0 -0.0045351103392141778 -0.037846169862791483 0 -0.0027892810461373906 -0.035027949324891984 0 -0.00053952414198631799 -0.038342182783409631 0 -0.00078613985521009018 -0.036891562467794778 0 -0.0016691246831926725 -0.038472669674908068 0 -0.00053952414198631799 -0.038342182783409631 0 -0.0016691246831926725 -0.038472669674908068 0 -0.0010199400972305691 -0.039646799976903881 0 -0.0010199400972305691 -0.039646799976903881 0 -0.0025085698982977747 -0.039410396318677092 0 -0.0019290863702454402 -0.040572284250970009 0 -0.0016691246831926725 -0.038472669674908068 0 -0.0010199400972305691 -0.039646799976903881 0 -0.0025085698982977747 -0.039410396318677092 0 -0.0038343712406835877 -0.040798852280033722 0 -0.0036114165442848946 -0.040663005207175931 0 -0.0036732977549013626 -0.040908765957258224 0 -0.0045351103392141778 -0.037846169862791483 0 -0.0037020292725263638 -0.040518809013515109 0 -0.0032446458963473548 -0.038194074527529785 0 -0.0025085698982977747 -0.039410396318677092 0 -0.0035724657963508229 -0.039807325250861801 0 -0.0032446458963473548 -0.038194074527529785 0 -0.0016691246831926725 -0.038472669674908068 0 -0.0025085698982977747 -0.039410396318677092 0 -0.0025085698982977747 -0.039410396318677092 0 -0.0035724657963508229 -0.039807325250861801 0 -0.003111689776325673 -0.040703932745575287 0 -0.0035724657963508229 -0.039807325250861801 0 -0.003111689776325673 -0.040703932745575287 0 -0.0036079265840843967 -0.041167534885430096 0 -0.0011159122699503912 -0.042098946969799718 0 -0.0017049311418234367 -0.042254349650119392 0 -0.0025085698982977747 -0.039410396318677092 0 -0.003111689776325673 -0.040703932745575287 0 -0.0019290863702454402 -0.040572284250970009 0 -0.003111689776325673 -0.040703932745575287 0 -0.0026583552568730097 -0.041467712928184713 0 -0.0019290863702454402 -0.040572284250970009 0 -0.003111689776325673 -0.040703932745575287 0 -0.0026583552568730097 -0.041467712928184713 0 -0.0036079265840843967 -0.041167534885430096 0 -2.3995674220533733e-06 -0.041902603063635538 0 -0.0011159122699503912 -0.042098946969799718 0 2.7185812108406891e-05 -0.041819106744009633 0 -0.0026583552568730097 -0.041467712928184713 0 -0.0019290863702454402 -0.040572284250970009 0 2.7185812108406891e-05 -0.041819106744009633 0 -0.0010199400972305691 -0.039646799976903881 0 -0.0019290863702454402 -0.040572284250970009 0 2.7185812108406891e-05 -0.041819106744009633 0 0.00025018003998715765 -0.042780535176088624 0 0.00023465670007102716 -0.042665352380212143 0 2.7185812108406891e-05 -0.041819106744009633 0 0.00029419697697731056 -0.042541631753156735 0 0.00023465670007102716 -0.042665352380212143 0 0.00025018003998715765 -0.042780535176088624 0 0.00040644233620853564 -0.043103850032284813 0 0.00049743511065497082 -0.043345008721729757 0 0.00025018003998715765 -0.042780535176088624 0 0.00036947288375749744 -0.042982282701432124 0 0.00040644233620853564 -0.043103850032284813 0 0.00025018003998715765 -0.042780535176088624 0 0.00023465670007102716 -0.042665352380212143 0 0.00036947288375749744 -0.042982282701432124 0 0.00036947288375749744 -0.042982282701432124 0 0.00040644233620853564 -0.043103850032284813 0 0.00050710939319066823 -0.043308283782991785 0 0.00040644233620853564 -0.043103850032284813 0 0.00050710939319066823 -0.043308283782991785 0 0.00049743511065497082 -0.043345008721729757 0 0.00050710939319066823 -0.043308283782991785 0 0.00051334251987536082 -0.043548268611168756 0 0.00049743511065497082 -0.043345008721729757 0 0.00066217668169250182 -0.04357365231275509 0 0.00050710939319066823 -0.043308283782991785 0 0.00051334251987536082 -0.043548268611168756 0 0.00042208818054931198 -0.043692541107510204 0 0.00051334251987536082 -0.043548268611168756 0 0.00049743511065497082 -0.043345008721729757 0 0.00066217668169250182 -0.04357365231275509 0 0.0004310918380685444 -0.043774114165014248 0 0.00051334251987536082 -0.043548268611168756 0 0.0004310918380685444 -0.043774114165014248 0 0.00042208818054931198 -0.043692541107510204 0 0.00051334251987536082 -0.043548268611168756 0 -0.0017796797466690436 -0.042279809838615595 0 -0.0017049311418234367 -0.042254349650119392 0 -0.0038207550467677779 -0.040951890433524547 0 -0.0039261567858868574 -0.041052338520431261 0 -0.0040524204181267573 -0.041166569558829823 0 -0.0039261567858868574 -0.041052338520431261 0 -0.0039832249411261636 -0.041084960118752928 0 -0.0040524204181267573 -0.041166569558829823 0 -0.0036927820749551084 -0.041134943230973761 0 -0.0039849681463609019 -0.041126507371157181 0 -0.0038870887564779423 -0.041076710453965638 0 -0.0038207550467677779 -0.040951890433524547 0 -0.0038870887564779423 -0.041076710453965638 0 -0.0039261567858868574 -0.041052338520431261 0 -0.0039925241451022973 -0.041065030134058378 0 -0.0038870887564779423 -0.041076710453965638 0 -0.0039261567858868574 -0.041052338520431261 0 -0.0039925241451022973 -0.041065030134058378 0 -0.0039261567858868574 -0.041052338520431261 0 -0.0039751806626012083 -0.041064573399856169 0 -0.0039261567858868574 -0.041052338520431261 0 -0.0039832249411261636 -0.041084960118752928 0 -0.0039751806626012083 -0.041064573399856169 0 -0.0039832249411261636 -0.041084960118752928 0 -0.0039452814714447948 -0.041017435762953199 0 -0.0039751806626012083 -0.041064573399856169 0 -0.0039925241451022973 -0.041065030134058378 0 -0.0039452814714447948 -0.041017435762953199 0 -0.0039751806626012083 -0.041064573399856169 0 -0.0026583552568730097 -0.041467712928184713 0 -0.0036079265840843967 -0.041167534885430096 0 -0.0040524204181267573 -0.041166569558829823 0 -0.0039832249411261636 -0.041084960118752928 0 -0.0039452814714447948 -0.041017435762953199 0 -0.0038548034747615191 -0.040984061915155967 0 -0.0039832249411261636 -0.041084960118752928 0 -0.0038548034747615191 -0.040984061915155967 0 -0.0038359501840357323 -0.041045690504505648 0 -0.0036732977549013626 -0.040908765957258224 0 -0.0038359501840357323 -0.041045690504505648 0 -0.0036079265840843967 -0.041167534885430096 0 -0.0036732977549013626 -0.040908765957258224 0 -0.0038548034747615191 -0.040984061915155967 0 -0.0038359501840357323 -0.041045690504505648 0 -0.0037020292725263638 -0.040518809013515109 0 -0.0036493485881502574 -0.040968704285263315 0 -0.0038359501840357323 -0.041045690504505648 0 -0.0036079265840843967 -0.041167534885430096 0 -0.0040524204181267573 -0.041166569558829823 0 -0.0039832249411261636 -0.041084960118752928 0 -0.0038359501840357323 -0.041045690504505648 0 -0.0040524204181267573 -0.041166569558829823 0 0.0025638693115669852 0.0013012343909417615 0 0.0023703839220766193 -0.0039753505959739073 0 0.0018250150921492899 -0.0035207036995733051 0 0.0018981493308946778 -0.0034311059330339477 0 0.0017563704717060734 -0.0033801338072369557 0 0.0018250150921492899 -0.0035207036995733051 0 0.0016969916289755987 -0.0035522850475924453 0 0.0017563704717060734 -0.0033801338072369557 0 0.0018250150921492899 -0.0035207036995733051 0 0.0018981493308946778 -0.0034311059330339477 0 0.0019402367144299186 -0.0034822192759138598 0 0.0024860597353903533 0.0026767425588482626 0 0.0023680358405700195 0.0023285517587617551 0 0.0021064020577342374 0.0028827903073944715 0 0.0016421109587830491 -0.0057691268456406038 0 0.0017829479508788047 -0.00044353470356067536 0 0.0025638693115669852 0.0013012343909417615 0 0.0024278533614047106 0.0024717520766670397 0 0.0025638693115669852 0.0013012343909417615 0 0.0013501380691864975 0.0063151728075291217 0 0.0030697085124967911 0.0021267873178725306 0 0.0019974028503078963 0.0035685755648145498 0 0.001076503301717942 0.0030913980697486565 0 0.0025638693115669852 0.0013012343909417615 0 0.0017829479508788047 -0.00044353470356067536 0 0.0019974028503078963 0.0035685755648145498 0 0.0011925061304389976 0.0035309813578577559 0 0.001076503301717942 0.0030913980697486565 0 0.0017829479508788047 -0.00044353470356067536 0 0.0014042293532520844 0.0040365428244182764 0 0.0016517231593840848 -0.0081939553835348334 0 0.0012495822986978002 -0.0079596510791983197 0 0.0014277955140884523 -0.0078083210443581248 0 0.0016517231593840848 -0.0081939553835348334 0 0.0011148629901938955 -0.0081509168535706215 0 0.0012495822986978002 -0.0079596510791983197 0 0.0008150582534562638 0.0012153114272286795 0 0.00055105948177756143 0.0015667745538559122 0 0.00045571295121599995 0.0012008456328862218 0 0.0017829479508788047 -0.00044353470356067536 0 0.00085025584075599484 0.00065215284053324405 0 0.0011148629901938955 -0.0081509168535706215 0 0.0012495822986978002 -0.0079596510791983197 0 0.0010070765339796209 -0.0079986391247332551 0 0.0012495822986978002 -0.0079596510791983197 0 0.0010070765339796209 -0.0079986391247332551 0 0.0011661905214083324 -0.0078332677961455103 0 0.00085025584075599484 0.00065215284053324405 0 0.00021871621200669924 -0.0035193727793941228 0 0.0010070765339796209 -0.0079986391247332551 0 0.0011661905214083324 -0.0078332677961455103 0 0.0010871491764059993 -0.0077020117883777606 0 0.0011661905214083324 -0.0078332677961455103 0 0.0011506369206719087 -0.0077242152512069272 0 0.001284950841824716 -0.0077632242208430001 0 0.0012495822986978002 -0.0079596510791983197 0 0.0011661905214083324 -0.0078332677961455103 0 0.001284950841824716 -0.0077632242208430001 0 0.0011506369206719087 -0.0077242152512069272 0 0.0010828427785971914 -0.0077069304959619571 0 0.0012981094255395604 -0.0076294464570685521 0 0.0011661905214083324 -0.0078332677961455103 0 0.0011506369206719087 -0.0077242152512069272 0 0.0010871491764059993 -0.0077020117883777606 0 0.00047940933854947993 -0.0037619814013811455 0 0.00021871621200669924 -0.0035193727793941228 0 0.0014277955140884523 -0.0078083210443581248 0 0.0016753397507998054 -0.0076702309312613112 0 0.0012981094255395604 -0.0076294464570685521 0 0.0012495822986978002 -0.0079596510791983197 0 0.0014277955140884523 -0.0078083210443581248 0 0.001284950841824716 -0.0077632242208430001 0 0.0011506369206719087 -0.0077242152512069272 0 0.001284950841824716 -0.0077632242208430001 0 0.0012981094255395604 -0.0076294464570685521 0 0.0014277955140884523 -0.0078083210443581248 0 0.001284950841824716 -0.0077632242208430001 0 0.0012981094255395604 -0.0076294464570685521 0 0.0016517231593840848 -0.0081939553835348334 0 0.0020035972074775349 -0.0079567871426452722 0 0.0022189270869889702 -0.0082196685639041502 0 0.0016517231593840848 -0.0081939553835348334 0 0.0020035972074775349 -0.0079567871426452722 0 0.0016753397507998054 -0.0076702309312613112 0 0.0016421109587830491 -0.0057691268456406038 0 0.0020875574427684567 -0.006990747906635628 0 0.0016517231593840848 -0.0081939553835348334 0 0.0014277955140884523 -0.0078083210443581248 0 0.0016753397507998054 -0.0076702309312613112 0 0.0020035972074775349 -0.0079567871426452722 0 0.0016753397507998054 -0.0076702309312613112 0 0.0021532128618783268 -0.0076888559649870023 0 0.0020035972074775349 -0.0079567871426452722 0 0.0023251060226675631 -0.0079981613059539776 0 0.0021532128618783268 -0.0076888559649870023 0 0.0025824482705901035 -0.0080581270224863496 0 0.0022184627612214488 -0.0083101939174515978 0 0.0030855653961886689 -0.0082779116319391752 0 0.0023251060226675631 -0.0079981613059539776 0 0.0025170656513439547 -0.0078170982139669862 0 0.0021532128618783268 -0.0076888559649870023 0 0.0025170656513439547 -0.0078170982139669862 0 0.0025824482705901035 -0.0080581270224863496 0 0.0027770598558525894 -0.0079442047857077244 0 0.0023251060226675631 -0.0079981613059539776 0 0.0025170656513439547 -0.0078170982139669862 0 0.0025824482705901035 -0.0080581270224863496 0 0.0023251060226675631 -0.0079981613059539776 0 0.0025824482705901035 -0.0080581270224863496 0 0.0022184627612214488 -0.0083101939174515978 0 0.0020035972074775349 -0.0079567871426452722 0 0.0023251060226675631 -0.0079981613059539776 0 0.0022189270869889702 -0.0082196685639041502 0 0.0020159499797349901 -0.0079234619629366919 0 0.0020875574427684567 -0.006990747906635628 0 0.0030855653961886689 -0.0082779116319391752 0 0.0031506208111198538 -0.0084204045859167312 0 0.0030948926946684063 -0.0076981206143290253 0 0.0025711967258983961 -0.019571374831515834 0 0.0025699271286619956 -0.019709134140600625 0 0.0027460564732921019 -0.020037861944475696 0 0.0020875574427684567 -0.006990747906635628 0 0.0032678065921623689 -0.0084596125597128542 0 0.0029174861524787024 -0.0078738441366976754 0 0.0030855653961886689 -0.0082779116319391752 0 0.0030948926946684063 -0.0076981206143290253 0 0.0029724713833986062 -0.014233529460794109 0 0.0019919504537288333 -0.013609266518436289 0 0.0029174861524787024 -0.0078738441366976754 0 0.0027770598558525894 -0.0079442047857077244 0 0.0030855653961886689 -0.0082779116319391752 0 0.0029174861524787024 -0.0078738441366976754 0 0.0027770598558525894 -0.0079442047857077244 0 0.0027081937721262763 -0.0076609788125127556 0 0.0025170656513439547 -0.0078170982139669862 0 0.0027770598558525894 -0.0079442047857077244 0 0.0027081937721262763 -0.0076609788125127556 0 0.0025824482705901035 -0.0080581270224863496 0 0.0027770598558525894 -0.0079442047857077244 0 0.0030855653961886689 -0.0082779116319391752 0 0.0031120609342575071 -0.0083646372385196635 0 0.0030855653961886689 -0.0082779116319391752 0 0.0031062546698295839 -0.008366780197716802 0 0.0030855653961886689 -0.0082779116319391752 0 0.0031506208111198538 -0.0084204045859167312 0 0.0031062546698295839 -0.008366780197716802 0 0.0031506208111198538 -0.0084204045859167312 0 0.0031062546698295839 -0.008366780197716802 0 0.003134202334333458 -0.0083794611525939318 0 0.0031120609342575071 -0.0083646372385196635 0 0.0031303033951559172 -0.0083578219659197553 0 0.0031471548689164324 -0.008334115888353779 0 0.0020875574427684567 -0.006990747906635628 0 0.0023703839220766193 -0.0039753505959739073 0 0.0031120609342575071 -0.0083646372385196635 0 0.0031062546698295839 -0.008366780197716802 0 0.0031303033951559172 -0.0083578219659197553 0 0.0031062546698295839 -0.008366780197716802 0 0.0031303033951559172 -0.0083578219659197553 0 0.003134202334333458 -0.0083794611525939318 0 0.0040100738836216848 -0.0073453678129669067 0 0.0023703839220766193 -0.0039753505959739073 0 0.0031303033951559172 -0.0083578219659197553 0 0.0031583045608227093 -0.008345202735260876 0 0.0031471548689164324 -0.008334115888353779 0 0.0031303033951559172 -0.0083578219659197553 0 0.0031583045608227093 -0.008345202735260876 0 0.003134202334333458 -0.0083794611525939318 0 0.0031583045608227093 -0.008345202735260876 0 0.003134202334333458 -0.0083794611525939318 0 0.0031546518891561988 -0.0083467972279707928 0 0.0031506208111198538 -0.0084204045859167312 0 0.003134202334333458 -0.0083794611525939318 0 0.0031194753661907453 -0.008386963874973008 0 0.0029724713833986062 -0.014233529460794109 0 0.0029823017120552239 -0.014058048547091213 0 0.003134202334333458 -0.0083794611525939318 0 0.0031194753661907453 -0.008386963874973008 0 0.0031546518891561988 -0.0083467972279707928 0 0.0031194753661907453 -0.008386963874973008 0 0.0031546518891561988 -0.0083467972279707928 0 0.0031676199957275161 -0.0083012148500349985 0 0.0031194753661907453 -0.008386963874973008 0 0.0031154869172085133 -0.0082893498200442787 0 0.0031676199957275161 -0.0083012148500349985 0 0.0031583045608227093 -0.008345202735260876 0 0.0031546518891561988 -0.0083467972279707928 0 0.0031974286048261913 -0.008302958655044948 0 0.0031974286048261913 -0.008302958655044948 0 0.0032408997754977409 -0.0082494015493392876 0 0.0031676199957275161 -0.0083012148500349985 0 0.0031583045608227093 -0.008345202735260876 0 0.0031974286048261913 -0.008302958655044948 0 0.0032281651718871641 -0.0082665852453486441 0 0.0031546518891561988 -0.0083467972279707928 0 0.0031974286048261913 -0.008302958655044948 0 0.0031676199957275161 -0.0083012148500349985 0 0.0031974286048261913 -0.008302958655044948 0 0.0032801540156527113 -0.0082824081390292115 0 0.0032408997754977409 -0.0082494015493392876 0 0.003389010020458163 -0.0076014186263957794 0 0.0031729767555705116 -0.0030678948097186401 0 0.0031729767555705116 -0.0030678948097186401 0 0.0023703839220766193 -0.0039753505959739073 0 0.0028285560474137278 0.0017586188940648016 0 0.0027259393185834701 0.0022785762023023021 0 0.002554846394396773 0.0020447343764868667 0 0.0031583045608227093 -0.008345202735260876 0 0.0032281651718871641 -0.0082665852453486441 0 0.0031907987569344178 -0.0083359282388625246 0 0.0028285560474137278 0.0017586188940648016 0 0.0027259393185834701 0.0022785762023023021 0 0.0030025677095324552 0.0022961266172471795 0 0.002531734141518859 0.002515146069399482 0 0.0027259393185834701 0.0022785762023023021 0 0.0030025677095324552 0.0022961266172471795 0 0.0023680358405700195 0.0023285517587617551 0 0.002554846394396773 0.0020447343764868667 0 0.0023599317581775403 0.0018192250319437682 0 0.0023680358405700195 0.0023285517587617551 0 0.0023599317581775403 0.0018192250319437682 0 0.0019888066610180034 0.002368552295900364 0 0.0024860597353903533 0.0026767425588482626 0 0.0027259393185834701 0.0022785762023023021 0 0.0023680358405700195 0.0023285517587617551 0 0.0027259393185834701 0.0022785762023023021 0 0.0023680358405700195 0.0023285517587617551 0 0.002554846394396773 0.0020447343764868667 0 0.0033600192475537493 0.0018858150387030535 0 0.0029145683521028714 0.0019587040679154778 0 0.0031091778735703513 0.0011806612997445061 0 0.0028285560474137278 0.0017586188940648016 0 0.002554846394396773 0.0020447343764868667 0 0.0023599317581775403 0.0018192250319437682 0 0.0031729767555705116 -0.0030678948097186401 0 0.0026534859062696324 0.0019073966690218928 0 0.0029145683521028714 0.0019587040679154778 0 0.0024607878388488167 0.0020369542158503538 0 0.002668703263609008 0.0015811176875509467 0 0.0026534859062696324 0.0019073966690218928 0 0.0020366065743816718 0.0075755386730062988 0 0.0031850775642219206 0.01299737978897892 0 0.0015281806903817579 0.01319811255048906 0 0.0017486621703982253 0.012014618094132696 0 0.0020366065743816718 0.0075755386730062988 0 0.0009132566394647936 0.013723149722242757 0 0.00074489439864947548 0.013017827201451532 0 0.00062940255592383088 0.013180504051775189 0 0.00042818843331894824 0.013115459926920111 0 0.00055307059741680604 0.013307780095084659 0 0.00062940255592383088 0.013180504051775189 0 0.00042818843331894824 0.013115459926920111 0 0.00055307059741680604 0.013307780095084659 0 0.00062940255592383088 0.013180504051775189 0 0.00078465926234936928 0.01321718201192779 0 0.0023599317581775403 0.0018192250319437682 0 0.0018720773268689982 0.0019002566659440852 0 0.0019888066610180034 0.002368552295900364 0 0.00074489439864947548 0.013017827201451532 0 0.00062940255592383088 0.013180504051775189 0 0.00078465926234936928 0.01321718201192779 0 0.0020366065743816718 0.0075755386730062988 0 0.0014625114328067773 0.0080192719680325028 0 -0.00012031584593788652 0.013085902815603168 0 0.00065697521802920023 0.012558569740605168 0 0.00011041102723124445 0.011887487854156163 0 -0.00012941672109375394 0.013330225805560725 0 0.00065697521802920023 0.012558569740605168 0 0.0015281806903817579 0.01319811255048906 0 2.886899665155077e-05 0.013217637260448183 0 0.0009132566394647936 0.013723149722242757 0 -0.00012941672109375394 0.013330225805560725 0 -0.00012031584593788652 0.013085902815603168 0 0.00065697521802920023 0.012558569740605168 0 0.00065697521802920023 0.012558569740605168 0 0.0015281806903817579 0.01319811255048906 0 0.0017486621703982253 0.012014618094132696 0 0.00055307059741680604 0.013307780095084659 0 0.00042818843331894824 0.013115459926920111 0 0.00024000186458944178 0.013395142342308859 0 0.00042818843331894824 0.013115459926920111 0 0.00018822691628727579 0.013295955637000664 0 0.00024000186458944178 0.013395142342308859 0 9.7657073866370042e-05 0.013227648542656378 0 0.00042818843331894824 0.013115459926920111 0 0.00018822691628727579 0.013295955637000664 0 0.00024000186458944178 0.013395142342308859 0 6.1543321065303958e-05 0.013387080683013119 0 -2.6494430278590536e-05 0.013536804777101442 0 0.00018822691628727579 0.013295955637000664 0 0.00024000186458944178 0.013395142342308859 0 6.1543321065303958e-05 0.013387080683013119 0 9.7657073866370042e-05 0.013227648542656378 0 0.00018822691628727579 0.013295955637000664 0 6.1543321065303958e-05 0.013387080683013119 0 0.00060584481364619753 0.011206183295323848 0 0.00057445186559061559 0.012148583812604365 0 0.00083034271421597659 0.0083268691816461293 0 0.0010053010665481241 0.008186978723734261 0 0.001232453808774683 0.0083882567378837959 0 0.00024000186458944178 0.013395142342308859 0 -2.6494430278590536e-05 0.013536804777101442 0 1.6507807038232832e-05 0.013607781466187248 0 0.00024000186458944178 0.013395142342308859 0 0.00041962099050330378 0.013504708186665599 0 1.6507807038232832e-05 0.013607781466187248 0 0.00055307059741680604 0.013307780095084659 0 0.00024000186458944178 0.013395142342308859 0 0.00041962099050330378 0.013504708186665599 0 0.00083824257062970657 0.0080559795111780248 0 0.0010053010665481241 0.008186978723734261 0 0.00096311465768679776 0.0080560290479819979 0 0.00083034271421597659 0.0083268691816461293 0 0.00083824257062970657 0.0080559795111780248 0 0.0010053010665481241 0.008186978723734261 0 0.0010053010665481241 0.008186978723734261 0 0.0011493702883853534 0.0081347754340429443 0 0.001232453808774683 0.0083882567378837959 0 0.00063279513429086913 0.011331888620440676 0 0.00057445186559061559 0.012148583812604365 0 0.0010053010665481241 0.008186978723734261 0 0.0011493702883853534 0.0081347754340429443 0 0.00096311465768679776 0.0080560290479819979 0 0.00078465926234936928 0.01321718201192779 0 0.00077631137009510681 0.013411836486703403 0 0.00082793380725218425 0.013374181692509788 0 0.0014625114328067773 0.0080192719680325028 0 0.0013501380691864975 0.0063151728075291217 0 0.0023680358405700195 0.0023285517587617551 0 0.0019888066610180034 0.002368552295900364 0 0.0021064020577342374 0.0028827903073944715 0 0.00055307059741680604 0.013307780095084659 0 0.00078465926234936928 0.01321718201192779 0 0.00077631137009510681 0.013411836486703403 0 0.00071647938251397341 0.0075930048497611412 0 0.0013501380691864975 0.0063151728075291217 0 0.00065140939031791203 0.00624427900839899 0 0.0023085363126558668 0.0063264160236807965 0 0.0021024083175646374 0.0055443591684794635 0 0.00071647938251397341 0.0075930048497611412 0 0.0014042293532520844 0.0040365428244182764 0 0.0014042293532520844 0.0040365428244182764 0 0.0013501380691864975 0.0063151728075291217 0 0.00055307059741680604 0.013307780095084659 0 0.00041962099050330378 0.013504708186665599 0 0.00077631137009510681 0.013411836486703403 0 0.00060584481364619753 0.011206183295323848 0 0.00071647938251397341 0.0075930048497611412 0 0.00083034271421597659 0.0083268691816461293 0 0.00036203507185328978 0.008290484435872561 0 0.0005917043616684147 0.008181718195009369 0 0.00083034271421597659 0.0083268691816461293 0 0.00083824257062970657 0.0080559795111780248 0 0.0005917043616684147 0.008181718195009369 0 0.00083766965924194606 0.0080266511072516512 0 0.00073508215672900778 0.0080226132451753154 0 0.00083824257062970657 0.0080559795111780248 0 0.00090812993444529754 0.007857485324211818 0 0.00088666910587616133 0.0079689072148399868 0 0.00090812993444529754 0.007857485324211818 0 0.00088666910587616133 0.0079689072148399868 0 0.0010288706760778485 0.0079652516105522524 0 0.0011753003964410113 0.0077659439570653159 0 0.0010802872921661048 0.0077138432805716074 0 0.0010288706760778485 0.0079652516105522524 0 0.0010802872921661048 0.0077138432805716074 0 0.00090812993444529754 0.007857485324211818 0 0.0010288706760778485 0.0079652516105522524 0 0.00071647938251397341 0.0075930048497611412 0 0.00073508215672900778 0.0080226132451753154 0 0.00085025584075599484 0.00065215284053324405 0 0.0014042293532520844 0.0040365428244182764 0 0.0011753003964410113 0.0077659439570653159 0 0.0010802872921661048 0.0077138432805716074 0 0.0011577667631334392 0.0077028061586865149 0 0.00021871621200669924 -0.0035193727793941228 0 5.1140659295873444e-05 0.00296238137863093 0 0.00082110858196056597 -0.00044765811063803549 0 0.001037866236042661 0.00037975475186867056 0 5.0046690384326113e-07 0.00065685909355358109 0 0.00085025584075599484 0.00065215284053324405 0 5.1140659295873444e-05 0.00296238137863093 0 -0.00070424953253511345 -0.0021811639180437901 0 -0.00071576021047511213 -0.002165241775507038 0 -0.00071631542026586511 -0.0021628407868351331 0 -0.00071576021047511213 -0.002165241775507038 0 -0.00074666761142907221 -0.0021385083999689615 0 -0.00071631542026586511 -0.0021628407868351331 0 0.00061152879088466057 0.0049488036353767572 0 0.00062294563364304891 0.0049495274957163287 0 0.00063041627191958935 0.0049782826935137973 0 0.00088666910587616133 0.0079689072148399868 0 0.0010288706760778485 0.0079652516105522524 0 0.0008292891114426859 0.0080099249498308666 0 5.1140659295873444e-05 0.00296238137863093 0 7.3008963502100359e-05 0.00063403472963482902 0 5.1140659295873444e-05 0.00296238137863093 0 0.00096798615120412051 0.0064947291742339713 0 0.00083824257062970657 0.0080559795111780248 0 0.00088666910587616133 0.0079689072148399868 0 0.0008292891114426859 0.0080099249498308666 0 -0.00074666761142907221 -0.0021385083999689615 0 -0.00071631542026586511 -0.0021628407868351331 0 -0.00072633442624804741 -0.0021308596647258518 0 -0.00071631542026586511 -0.0021628407868351331 0 -0.00072633442624804741 -0.0021308596647258518 0 -0.00069574908960955216 -0.0021833336668247516 0 0.0011493702883853534 0.0081347754340429443 0 0.0010541515566094416 0.0079345852452658433 0 0.00096311465768679776 0.0080560290479819979 0 0.00063279513429086913 0.011331888620440676 0 0.00039766820530243196 0.0095560203531602789 0 4.1422468776369587e-05 0.014290761710873347 0 1.0158547222714725e-05 0.014227171884698287 0 5.1332934003112769e-05 0.014270326005382262 0 0.00067172232782153156 0.0050162789989748836 0 0.00063041627191958935 0.0049782826935137973 0 0.00064471916233235533 0.004976785494089417 0 0.0010541515566094416 0.0079345852452658433 0 0.00096311465768679776 0.0080560290479819979 0 0.0008292891114426859 0.0080099249498308666 0 0.00039766820530243196 0.0095560203531602789 0 0.00096798615120412051 0.0064947291742339713 0 0.00083824257062970657 0.0080559795111780248 0 0.00096311465768679776 0.0080560290479819979 0 0.0008292891114426859 0.0080099249498308666 0 0.00062294563364304891 0.0049495274957163287 0 0.00064471916233235533 0.004976785494089417 0 0.00066110371436309137 0.0049610085257521122 0 0.00062294563364304891 0.0049495274957163287 0 0.00063041627191958935 0.0049782826935137973 0 0.00064471916233235533 0.004976785494089417 0 -5.9970083871463367e-05 0.011240760454216823 0 -0.00019093251315153759 0.010855986019267799 0 0.00019148903624438703 0.010840826129926833 0 0.00039766820530243196 0.0095560203531602789 0 0.00033990437681369117 0.0082497156481185965 0 0.00067172232782153156 0.0050162789989748836 0 0.00064471916233235533 0.004976785494089417 0 0.00066110371436309137 0.0049610085257521122 0 -0.00019093251315153759 0.010855986019267799 0 3.8423349658366336e-05 0.01051952965305138 0 -0.00032014825566911644 0.01046023349001333 0 -0.00019093251315153759 0.010855986019267799 0 3.8423349658366336e-05 0.01051952965305138 0 0.00019148903624438703 0.010840826129926833 0 0.00033990437681369117 0.0082497156481185965 0 4.8080104890522971e-05 0.0040576965158642536 0 7.3008963502100359e-05 0.00063403472963482902 0 4.8080104890522971e-05 0.0040576965158642536 0 -0.00080093603183544132 -0.002074625868524894 0 -0.0007968770220204602 -0.0020662781027346558 0 -0.00072633442624804741 -0.0021308596647258518 0 0.00062294563364304891 0.0049495274957163287 0 0.00066110371436309137 0.0049610085257521122 0 0.00064471002560343078 0.0049122476069202985 0 -0.0023473757932670068 -0.010219841178249046 0 -0.0020163935856832905 -0.010214613806075568 0 -0.0022247416112408033 -0.0098601057291667817 0 9.405722131595456e-05 -9.1584044987909868e-06 0 0.00029532156331709103 0.00060988607752079341 0 -0.00092051778986806097 0.0013436456756684796 0 4.8080104890522971e-05 0.0040576965158642536 0 -0.0013527679501996006 -0.0057806693176325648 0 4.8080104890522971e-05 0.0040576965158642536 0 -0.000440603647992655 0.0031064263702373996 0 3.8423349658366336e-05 0.01051952965305138 0 -0.00032014825566911644 0.01046023349001333 0 -7.1140504766929006e-05 0.010092504043640562 0 -0.0013527679501996006 -0.0057806693176325648 0 -0.000440603647992655 0.0031064263702373996 0 3.8423349658366336e-05 0.01051952965305138 0 0.00025136804142731597 0.010271169454911529 0 -7.1140504766929006e-05 0.010092504043640562 0 -0.001836351102702478 -0.010518604035817961 0 -0.0014878036107054146 -0.0107019991854482 0 -0.0012829659017961994 -0.010917312981774063 0 -0.001852833972967597 -0.010545034741368916 0 -0.001836351102702478 -0.010518604035817961 0 -0.0016128432760443899 -0.010472669182661376 0 -0.0014866844178146497 -0.0063617536335896247 0 -0.0003247932836782799 -0.0062438201115565771 0 -0.0020799357032811822 -0.010656616418497571 0 -0.00063428051530667415 -0.010079892074472416 0 -0.001836351102702478 -0.010518604035817961 0 -0.0017294492016892177 -0.010476524441776453 0 -0.0018628495881834221 -0.010327786970596246 0 -0.001836351102702478 -0.010518604035817961 0 -0.0017294492016892177 -0.010476524441776453 0 -0.0016239451064569601 -0.010589798455088326 0 -0.001852833972967597 -0.010545034741368916 0 -0.001836351102702478 -0.010518604035817961 0 -0.0018628495881834221 -0.010327786970596246 0 -0.001836351102702478 -0.010518604035817961 0 -0.0016239451064569601 -0.010589798455088326 0 -0.0014878036107054146 -0.0107019991854482 0 -0.0017294492016892177 -0.010476524441776453 0 -0.0015870528692212311 -0.01050559623577991 0 -0.0016239451064569601 -0.010589798455088326 0 -0.0017294492016892177 -0.010476524441776453 0 -0.0015870528692212311 -0.01050559623577991 0 -0.0016699437906576491 -0.010384267336056394 0 -0.0016239451064569601 -0.010589798455088326 0 -0.0014832128735275574 -0.010642266769796615 0 -0.0015283376085143149 -0.010587483748132587 0 -0.0015870528692212311 -0.01050559623577991 0 -0.0016239451064569601 -0.010589798455088326 0 -0.0015283376085143149 -0.010587483748132587 0 -0.0016239451064569601 -0.010589798455088326 0 -0.0014832128735275574 -0.010642266769796615 0 -0.0014878036107054146 -0.0107019991854482 0 -0.00074666761142907221 -0.0021385083999689615 0 -0.00080093603183544132 -0.002074625868524894 0 -0.00072633442624804741 -0.0021308596647258518 0 -0.001852833972967597 -0.010545034741368916 0 -0.0020163935856832905 -0.010214613806075568 0 -0.0018628495881834221 -0.010327786970596246 0 -0.0023473757932670068 -0.010219841178249046 0 -0.001852833972967597 -0.010545034741368916 0 -0.0020163935856832905 -0.010214613806075568 0 -0.0013527679501996006 -0.0057806693176325648 0 -0.0014866844178146497 -0.0063617536335896247 0 -0.0020163935856832905 -0.010214613806075568 0 -0.0018397277093834424 -0.01010801828359933 0 -0.0018628495881834221 -0.010327786970596246 0 -0.0018397277093834424 -0.01010801828359933 0 -0.0018628495881834221 -0.010327786970596246 0 -0.0017038270606188348 -0.010167630459376485 0 -0.0018628495881834221 -0.010327786970596246 0 -0.0016699437906576491 -0.010384267336056394 0 -0.0017038270606188348 -0.010167630459376485 0 -0.0017294492016892177 -0.010476524441776453 0 -0.0018628495881834221 -0.010327786970596246 0 -0.0016699437906576491 -0.010384267336056394 0 -0.0016699437906576491 -0.010384267336056394 0 -0.0017038270606188348 -0.010167630459376485 0 -0.0015862922881637838 -0.010283730841485235 0 -0.0015870528692212311 -0.01050559623577991 0 -0.0016699437906576491 -0.010384267336056394 0 -0.0015061497140676648 -0.010427328906412807 0 -0.0016699437906576491 -0.010384267336056394 0 -0.0015862922881637838 -0.010283730841485235 0 -0.0015061497140676648 -0.010427328906412807 0 -0.0017038270606188348 -0.010167630459376485 0 -0.0015862922881637838 -0.010283730841485235 0 -0.001551924035385673 -0.010082637104972855 0 -0.0014294755745626901 -0.010292048539852754 0 -0.001551924035385673 -0.010082637104972855 0 -0.0013537864087327116 -0.009897783827079976 0 -0.0014294755745626901 -0.010292048539852754 0 -0.0010711917253325405 -0.010466367933087696 0 -0.0013537864087327116 -0.009897783827079976 0 -0.0015862922881637838 -0.010283730841485235 0 -0.0014294755745626901 -0.010292048539852754 0 -0.001551924035385673 -0.010082637104972855 0 -0.0014294755745626901 -0.010292048539852754 0 -0.0013437145824511608 -0.010491916130295063 0 -0.0010711917253325405 -0.010466367933087696 0 -0.0014294755745626901 -0.010292048539852754 0 -0.0013437145824511608 -0.010491916130295063 0 -0.0015061497140676648 -0.010427328906412807 0 -0.0015862922881637838 -0.010283730841485235 0 -0.0014294755745626901 -0.010292048539852754 0 -0.0015061497140676648 -0.010427328906412807 0 -0.00031299601875312217 -0.01212420637630042 0 0.00012800829804509231 -0.011507974808684559 0 -0.0013617565983071291 -0.010702665596849575 0 -0.00070786061826671749 -0.010326262402942139 0 -0.0012004244938922718 -0.01048109905419546 0 -0.0010711917253325405 -0.010466367933087696 0 -0.00047956935792818872 -0.010351479167288949 0 -0.0013537864087327116 -0.009897783827079976 0 -0.0010711917253325405 -0.010466367933087696 0 -0.00047956935792818872 -0.010351479167288949 0 -0.00066223555162107971 -0.011061919516709554 0 -0.0010711917253325405 -0.010466367933087696 0 -0.00066223555162107971 -0.011061919516709554 0 -0.001674569400788125 -0.012329232491495533 0 -6.2305685590961017e-05 -0.011410376108548916 0 -0.00066223555162107971 -0.011061919516709554 0 -0.00048249884201450206 -0.01172688497939863 0 -0.00047956935792818872 -0.010351479167288949 0 -6.2305685590961017e-05 -0.011410376108548916 0 -0.00066223555162107971 -0.011061919516709554 0 -0.00066223555162107971 -0.011061919516709554 0 -0.00048249884201450206 -0.01172688497939863 0 -0.001674569400788125 -0.012329232491495533 0 -6.2305685590961017e-05 -0.011410376108548916 0 -0.00048249884201450206 -0.01172688497939863 0 0.00030179497311806061 -0.012370366264917837 0 -0.0010711917253325405 -0.010466367933087696 0 -0.0012882832517767181 -0.01065577678976224 0 -0.0012829659017961994 -0.010917312981774063 0 -0.0013633641280961604 -0.011187254999082727 0 -0.00063428051530667415 -0.010079892074472416 0 -0.0014364350012668018 -0.010582453023452655 0 -0.0014832128735275574 -0.010642266769796615 0 -0.0013820096292711549 -0.010698555023686876 0 -0.0014364350012668018 -0.010582453023452655 0 -0.0012882832517767181 -0.01065577678976224 0 -0.0013820096292711549 -0.010698555023686876 0 -0.0014364350012668018 -0.010582453023452655 0 -0.0014832128735275574 -0.010642266769796615 0 -0.0015283376085143149 -0.010587483748132587 0 -0.0015870528692212311 -0.01050559623577991 0 -0.0014364350012668018 -0.010582453023452655 0 -0.0015283376085143149 -0.010587483748132587 0 -0.0015870528692212311 -0.01050559623577991 0 -0.0015061497140676648 -0.010427328906412807 0 -0.0014364350012668018 -0.010582453023452655 0 -0.0013437145824511608 -0.010491916130295063 0 -0.0014364350012668018 -0.010582453023452655 0 -0.0012882832517767181 -0.01065577678976224 0 -0.0013437145824511608 -0.010491916130295063 0 -0.0015061497140676648 -0.010427328906412807 0 -0.0014364350012668018 -0.010582453023452655 0 -0.0013437145824511608 -0.010491916130295063 0 -0.0010711917253325405 -0.010466367933087696 0 -0.0012882832517767181 -0.01065577678976224 0 -0.0012882832517767181 -0.01065577678976224 0 -0.0013820096292711549 -0.010698555023686876 0 -0.0012829659017961994 -0.010917312981774063 0 -0.0013820096292711549 -0.010698555023686876 0 -0.0014878036107054146 -0.0107019991854482 0 -0.0012829659017961994 -0.010917312981774063 0 -0.0014832128735275574 -0.010642266769796615 0 -0.0013820096292711549 -0.010698555023686876 0 -0.0014878036107054146 -0.0107019991854482 0 -0.001852833972967597 -0.010545034741368916 0 -0.0016163060304119836 -0.010487995350946052 0 -0.0016128432760443899 -0.010472669182661376 0 0.0012128308839733624 -0.0068468940284726115 0 0.001252139633363499 -0.006698790041672736 0 0.00177394089510784 -0.0071405979526466641 0 -0.0003247932836782799 -0.0062438201115565771 0 -0.00063428051530667415 -0.010079892074472416 0 -0.00048249884201450206 -0.01172688497939863 0 -0.001674569400788125 -0.012329232491495533 0 0.00030179497311806061 -0.012370366264917837 0 -0.001674569400788125 -0.012329232491495533 0 0.0002825636329066121 -0.013461816191394792 0 0.00030179497311806061 -0.012370366264917837 0 0.001252139633363499 -0.006698790041672736 0 0.00177394089510784 -0.0071405979526466641 0 0.0021713165790771655 -0.007144890597695519 0 -0.00063428051530667415 -0.010079892074472416 0 0.0013408485612179462 -0.0099134177341334371 0 -0.0003247932836782799 -0.0062438201115565771 0 0.0021621144539855893 -0.0073875936245685258 0 0.0012941155382028753 -0.0068513689493018741 0 0.00177394089510784 -0.0071405979526466641 0 0.0015017900188992602 -0.0072006371963808146 0 0.00177394089510784 -0.0071405979526466641 0 0.0015017900188992602 -0.0072006371963808146 0 0.0016272189020213824 -0.007362952659078421 0 0.0015017900188992602 -0.0072006371963808146 0 0.0016272189020213824 -0.007362952659078421 0 0.0013837163022969903 -0.0074151091084834362 0 0.00177394089510784 -0.0071405979526466641 0 0.0019428025185952542 -0.0074114921640207028 0 0.0021713165790771655 -0.007144890597695519 0 0.00177394089510784 -0.0071405979526466641 0 0.0016272189020213824 -0.007362952659078421 0 0.0019428025185952542 -0.0074114921640207028 0 0.0019428025185952542 -0.0074114921640207028 0 0.0016753397507998054 -0.0076702309312613112 0 0.0021532128618783268 -0.0076888559649870023 0 0.0016272189020213824 -0.007362952659078421 0 0.0019428025185952542 -0.0074114921640207028 0 0.0016753397507998054 -0.0076702309312613112 0 0.0016272189020213824 -0.007362952659078421 0 0.0016753397507998054 -0.0076702309312613112 0 0.0013837163022969903 -0.0074151091084834362 0 0.0010828427785971914 -0.0077069304959619571 0 0.0013837163022969903 -0.0074151091084834362 0 0.0012981094255395604 -0.0076294464570685521 0 0.0016753397507998054 -0.0076702309312613112 0 0.0013837163022969903 -0.0074151091084834362 0 0.0012981094255395604 -0.0076294464570685521 0 -0.00070424953253511345 -0.0021811639180437901 0 -0.00071631542026586511 -0.0021628407868351331 0 -0.00069574908960955216 -0.0021833336668247516 0 0.00021871621200669924 -0.0035193727793941228 0 -0.0003247932836782799 -0.0062438201115565771 0 0.0010828427785971914 -0.0077069304959619571 0 0.0012941155382028753 -0.0068513689493018741 0 0.0013837163022969903 -0.0074151091084834362 0 0.0012941155382028753 -0.0068513689493018741 0 0.0015017900188992602 -0.0072006371963808146 0 0.0013837163022969903 -0.0074151091084834362 0 0.0030948926946684063 -0.0076981206143290253 0 0.0027081937721262763 -0.0076609788125127556 0 0.0021713165790771655 -0.007144890597695519 0 0.0014921719759883904 -0.0135607741395198 0 0.0023423621462051185 -0.014604306627474351 0 0.0002825636329066121 -0.013461816191394792 0 0.0023122661587355472 -0.021085086512554956 0 0.0023450688699430326 -0.021104043040977745 0 0.0023501099188810233 -0.021066726995087943 0 0.0023993834899211594 -0.020463633934162267 0 0.0023498820074354171 -0.018880005249290101 0 0.0014921719759883904 -0.0135607741395198 0 0.0023083368121090135 -0.01401303874499916 0 0.0023423621462051185 -0.014604306627474351 0 0.0023498820074354171 -0.018880005249290101 0 0.0019919504537288333 -0.013609266518436289 0 0.0029174861524787024 -0.0078738441366976754 0 0.0030948926946684063 -0.0076981206143290253 0 0.0027081937721262763 -0.0076609788125127556 0 0.0019919504537288333 -0.013609266518436289 0 0.0013408485612179462 -0.0099134177341334371 0 0.0025170656513439547 -0.0078170982139669862 0 0.0024205523062926847 -0.0075532387249763466 0 0.0021532128618783268 -0.0076888559649870023 0 0.0025170656513439547 -0.0078170982139669862 0 0.0027081937721262763 -0.0076609788125127556 0 0.0024205523062926847 -0.0075532387249763466 0 0.0024205523062926847 -0.0075532387249763466 0 0.0021532128618783268 -0.0076888559649870023 0 0.0021710324784086819 -0.0074515045186298355 0 0.0019428025185952542 -0.0074114921640207028 0 0.0021532128618783268 -0.0076888559649870023 0 0.0021710324784086819 -0.0074515045186298355 0 0.0024205523062926847 -0.0075532387249763466 0 0.0021710324784086819 -0.0074515045186298355 0 0.0021713165790771655 -0.007144890597695519 0 0.0019428025185952542 -0.0074114921640207028 0 0.0021710324784086819 -0.0074515045186298355 0 0.0021713165790771655 -0.007144890597695519 0 0.0027081937721262763 -0.0076609788125127556 0 0.0024205523062926847 -0.0075532387249763466 0 0.0021713165790771655 -0.007144890597695519 0 0.00088147853954348985 -0.012939376201058117 0 0.0016740015255868397 -0.012788840763866202 0 0.0010396179513413367 -0.011581845181134755 0 0.0014921719759883904 -0.0135607741395198 0 0.00088147853954348985 -0.012939376201058117 0 0.0002825636329066121 -0.013461816191394792 0 0.00088147853954348985 -0.012939376201058117 0 0.00030179497311806061 -0.012370366264917837 0 0.0010396179513413367 -0.011581845181134755 0 0.00088147853954348985 -0.012939376201058117 0 0.0002825636329066121 -0.013461816191394792 0 0.00030179497311806061 -0.012370366264917837 0 0.00050310444202768766 -0.019776600061170276 0 -0.00010405067078506159 -0.027510395180345672 0 0.0021586351956682233 -0.020982506668902987 0 0.0020176352849965652 -0.020711516450001719 0 0.0023501099188810233 -0.021066726995087943 0 0.001568471221202891 -0.016377499051431078 0 0.00050310444202768766 -0.019776600061170276 0 0.0014921719759883904 -0.0135607741395198 0 0.00088147853954348985 -0.012939376201058117 0 0.0016740015255868397 -0.012788840763866202 0 0.0014921719759883904 -0.0135607741395198 0 0.0023083368121090135 -0.01401303874499916 0 0.0016740015255868397 -0.012788840763866202 0 0.0023498820074354171 -0.018880005249290101 0 0.001568471221202891 -0.016377499051431078 0 0.0023122661587355472 -0.021085086512554956 0 0.0023387123782471833 -0.021155097029406524 0 0.0021586351956682233 -0.020982506668902987 0 0.0023122661587355472 -0.021085086512554956 0 0.0021586351956682233 -0.020982506668902987 0 0.0023501099188810233 -0.021066726995087943 0 -0.002891338595464667 -0.032065954297355148 0 -0.0030785330249711467 -0.032043974159848124 0 -0.002839893462968192 -0.031997146048796242 0 -0.002891338595464667 -0.032065954297355148 0 -0.0030785330249711467 -0.032043974159848124 0 -0.0030357072143231451 -0.031935838022416306 0 -0.00070786061826671749 -0.010326262402942139 0 0.00050310444202768766 -0.019776600061170276 0 -0.00047956935792818872 -0.010351479167288949 0 -6.2305685590961017e-05 -0.011410376108548916 0 0.0010396179513413367 -0.011581845181134755 0 -6.2305685590961017e-05 -0.011410376108548916 0 0.00030179497311806061 -0.012370366264917837 0 0.0010396179513413367 -0.011581845181134755 0 0.00050310444202768766 -0.019776600061170276 0 -0.0016648136279807254 -0.022101871037695162 0 -0.00031299601875312217 -0.01212420637630042 0 0.0012923113466861993 -0.013723454568905922 0 0.00012800829804509231 -0.011507974808684559 0 -0.0030785330249711467 -0.032043974159848124 0 -0.0031958978131440482 -0.031827762403534153 0 -0.0034178284979035356 -0.03166509829075155 0 -0.0030785330249711467 -0.032043974159848124 0 -0.0031958978131440482 -0.031827762403534153 0 -0.0030357072143231451 -0.031935838022416306 0 -0.0031958978131440482 -0.031827762403534153 0 -0.0034178284979035356 -0.03166509829075155 0 -0.0032381690744472127 -0.031615026901626382 0 -0.0031958978131440482 -0.031827762403534153 0 -0.0030357072143231451 -0.031935838022416306 0 -0.0032381690744472127 -0.031615026901626382 0 -0.0030357072143231451 -0.031935838022416306 0 -0.0030226722895546759 -0.03172966595686625 0 -0.0028501237454938988 -0.032201723763252914 0 -0.002891338595464667 -0.032065954297355148 0 -0.0030357072143231451 -0.031935838022416306 0 -0.0028501237454938988 -0.032201723763252914 0 -0.0030357072143231451 -0.031935838022416306 0 -0.0030226722895546759 -0.03172966595686625 0 -0.0032381690744472127 -0.031615026901626382 0 -0.0028501237454938988 -0.032201723763252914 0 -0.0020720535126608017 -0.032428059369426353 0 -0.002774992079181182 -0.031475781005078252 0 -0.0030226722895546759 -0.03172966595686625 0 -0.0028501237454938988 -0.032201723763252914 0 -0.002774992079181182 -0.031475781005078252 0 -0.002891338595464667 -0.032065954297355148 0 -0.0028501237454938988 -0.032201723763252914 0 -0.0029231694570993304 -0.03203461388382195 0 -0.0028602654703242655 -0.032277681133369387 0 -0.002653824813361932 -0.032886892883989362 0 -0.0022183589811498 -0.032969514090725432 0 -0.001585480764363824 -0.033334337882219955 0 -0.0024622579486351793 -0.033696163228215642 0 -0.0028501237454938988 -0.032201723763252914 0 -0.0022183589811498 -0.032969514090725432 0 -0.0024622579486351793 -0.033696163228215642 0 -0.0022183589811498 -0.032969514090725432 0 -0.0020720535126608017 -0.032428059369426353 0 -0.001585480764363824 -0.033334337882219955 0 -0.0020720535126608017 -0.032428059369426353 0 -0.0019359450959173842 -0.032250015146177313 0 -0.002774992079181182 -0.031475781005078252 0 -0.0020720535126608017 -0.032428059369426353 0 -0.0019002854945885594 -0.032236311527333493 0 -0.001585480764363824 -0.033334337882219955 0 -0.0028501237454938988 -0.032201723763252914 0 -0.0022183589811498 -0.032969514090725432 0 -0.0020720535126608017 -0.032428059369426353 0 -0.0014936017147825996 -0.032873625515808066 0 -0.0013975386584942344 -0.033182774250283251 0 -0.0013975386584942344 -0.033182774250283251 0 -0.00040061892321291323 -0.034296587528525005 0 -0.0019002854945885594 -0.032236311527333493 0 -0.00079965182635153534 -0.033283356007597624 0 -0.001585480764363824 -0.033334337882219955 0 -0.00039934575336547054 -0.035012671495913458 0 -0.00014577328742311751 -0.034973596998800704 0 -8.5186164921415575e-05 -0.035177824015125141 0 -0.00014577328742311751 -0.034973596998800704 0 -8.5186164921415575e-05 -0.035177824015125141 0 0.00013531464034088084 -0.035034385669828083 0 -0.00079965182635153534 -0.033283356007597624 0 -0.001585480764363824 -0.033334337882219955 0 -0.0007570850826836246 -0.034157774357432877 0 -0.0012757703911550173 -0.034403441041045396 0 -0.0018375159424580509 -0.034839243768174752 0 -0.0024622579486351793 -0.033696163228215642 0 -0.001585480764363824 -0.033334337882219955 0 -0.0012757703911550173 -0.034403441041045396 0 -0.0024622579486351793 -0.033696163228215642 0 -0.001585480764363824 -0.033334337882219955 0 -0.0012757703911550173 -0.034403441041045396 0 -0.0007570850826836246 -0.034157774357432877 0 -0.0007570850826836246 -0.034157774357432877 0 -0.0007874071421178772 -0.034911021180802922 0 -0.00037206864256715782 -0.034711338956865151 0 -0.0012757703911550173 -0.034403441041045396 0 -0.0007570850826836246 -0.034157774357432877 0 -0.0007874071421178772 -0.034911021180802922 0 -0.0012757703911550173 -0.034403441041045396 0 -0.0007874071421178772 -0.034911021180802922 0 -0.0012114519010339928 -0.035047259279588711 0 -0.0007874071421178772 -0.034911021180802922 0 -0.0012114519010339928 -0.035047259279588711 0 -0.00095718100134393189 -0.035359424925321507 0 -0.0007874071421178772 -0.034911021180802922 0 -0.00062067710435798789 -0.035418518819693809 0 -0.00095718100134393189 -0.035359424925321507 0 -0.0024216366883651058 -0.033190398408252449 0 -0.0021418245286333728 -0.034445599569584526 0 -0.0018375159424580509 -0.034839243768174752 0 -0.0012114519010339928 -0.035047259279588711 0 -0.0012020307601369852 -0.035619177670919884 0 -0.0012757703911550173 -0.034403441041045396 0 -0.0018375159424580509 -0.034839243768174752 0 -0.0012114519010339928 -0.035047259279588711 0 -0.0029492434212362783 -0.03184783898724896 0 -0.0028687660883910623 -0.031798160544240527 0 -0.0029231694570993304 -0.03203461388382195 0 -0.0029492434212362783 -0.03184783898724896 0 -0.0028687660883910623 -0.031798160544240527 0 -0.0029192870424014287 -0.031588439488172006 0 0.0023450688699430326 -0.021104043040977745 0 0.0023541922612044606 -0.021125735067966379 0 0.0023501099188810233 -0.021066726995087943 0 0.0023450688699430326 -0.021104043040977745 0 0.0023541922612044606 -0.021125735067966379 0 0.0024709505755757697 -0.021086615699247017 0 -0.00027362195930501345 -0.026361108773870143 0 -0.00010405067078506159 -0.027510395180345672 0 -0.0028687660883910623 -0.031798160544240527 0 -0.002839893462968192 -0.031997146048796242 0 -0.0029231694570993304 -0.03203461388382195 0 -0.002891338595464667 -0.032065954297355148 0 -0.002839893462968192 -0.031997146048796242 0 -0.0029231694570993304 -0.03203461388382195 0 -0.0024216366883651058 -0.033190398408252449 0 -0.002653824813361932 -0.032886892883989362 0 0.00046731073804105418 -0.035341066968043781 0 0.00053488333527644191 -0.035278494141072154 0 0.00039341988994415314 -0.035248411198739747 0 0.00058110853525530318 -0.035443347716165169 0 0.00046731073804105418 -0.035341066968043781 0 0.00053488333527644191 -0.035278494141072154 0 0.00054677534343546431 -0.035282310330924625 0 0.00035229904946183511 -0.035039975672507932 0 0.00053488333527644191 -0.035278494141072154 0 0.00057797290472317089 -0.035119714639746953 0 0.00038509114217656068 -0.035184534759040785 0 0.00053488333527644191 -0.035278494141072154 0 0.00039341988994415314 -0.035248411198739747 0 0.00041301299140597374 -0.035018948155736425 0 0.00039341988994415314 -0.035248411198739747 0 0.00022513507321608955 -0.035301666701753005 0 0.00013531464034088084 -0.035034385669828083 0 0.00039341988994415314 -0.035248411198739747 0 0.00013531464034088084 -0.035034385669828083 0 0.00041301299140597374 -0.035018948155736425 0 -0.00079965182635153534 -0.033283356007597624 0 -0.0007570850826836246 -0.034157774357432877 0 -1.2788222632075344e-05 -0.034297205505989754 0 -0.00040061892321291323 -0.034296587528525005 0 5.8601129103236446e-05 -0.034776507211398959 0 -8.5186164921415575e-05 -0.035177824015125141 0 0.00022513507321608955 -0.035301666701753005 0 0.00013531464034088084 -0.035034385669828083 0 -0.0007570850826836246 -0.034157774357432877 0 -1.2788222632075344e-05 -0.034297205505989754 0 -0.00037206864256715782 -0.034711338956865151 0 -1.2788222632075344e-05 -0.034297205505989754 0 -0.00037206864256715782 -0.034711338956865151 0 -7.6571875645076602e-06 -0.03505656821473313 0 -0.0007874071421178772 -0.034911021180802922 0 -0.00037206864256715782 -0.034711338956865151 0 -0.00037331253468678345 -0.035112712957444024 0 -0.00037331253468678345 -0.035112712957444024 0 -7.6571875645076602e-06 -0.03505656821473313 0 -0.00017598694243053375 -0.035501322018266564 0 -0.0007874071421178772 -0.034911021180802922 0 -0.00037331253468678345 -0.035112712957444024 0 -0.00062067710435798789 -0.035418518819693809 0 -0.00037206864256715782 -0.034711338956865151 0 -0.00037331253468678345 -0.035112712957444024 0 -7.6571875645076602e-06 -0.03505656821473313 0 -7.6571875645076602e-06 -0.03505656821473313 0 0.00022418305876391781 -0.035429079445193648 0 -0.00017598694243053375 -0.035501322018266564 0 -1.2788222632075344e-05 -0.034297205505989754 0 -7.6571875645076602e-06 -0.03505656821473313 0 0.00042378483475483537 -0.035262305910483113 0 5.8601129103236446e-05 -0.034776507211398959 0 0.00039941920835281149 -0.035201874281979885 0 0.00046731073804105418 -0.035341066968043781 0 0.00039341988994415314 -0.035248411198739747 0 0.00042378483475483537 -0.035262305910483113 0 0.00039341988994415314 -0.035248411198739747 0 0.00022513507321608955 -0.035301666701753005 0 0.00042378483475483537 -0.035262305910483113 0 -7.6571875645076602e-06 -0.03505656821473313 0 0.00042378483475483537 -0.035262305910483113 0 0.00022418305876391781 -0.035429079445193648 0 0.00042378483475483537 -0.035262305910483113 0 0.00022418305876391781 -0.035429079445193648 0 0.00043667778260461279 -0.035451340389635454 0 0.00068612508136914915 -0.035635274761822648 0 0.00048313791278195003 -0.035432287078926421 0 0.00051638099870490359 -0.035624404817563932 0 0.00042378483475483537 -0.035262305910483113 0 0.00043667778260461279 -0.035451340389635454 0 0.00048313791278195003 -0.035432287078926421 0 0.00043667778260461279 -0.035451340389635454 0 0.00048313791278195003 -0.035432287078926421 0 0.00051638099870490359 -0.035624404817563932 0 0.00058110853525530318 -0.035443347716165169 0 0.00046731073804105418 -0.035341066968043781 0 0.00048313791278195003 -0.035432287078926421 0 0.00046731073804105418 -0.035341066968043781 0 0.00042378483475483537 -0.035262305910483113 0 0.00048313791278195003 -0.035432287078926421 0 0.0007671571640064372 -0.036099063059155931 0 0.00045303498915597127 -0.036074384564489512 0 0.00051638099870490359 -0.035624404817563932 0 0.0007671571640064372 -0.036099063059155931 0 0.00045303498915597127 -0.036074384564489512 0 0.00062097588939972049 -0.036412235728256158 0 0.00045303498915597127 -0.036074384564489512 0 0.00051638099870490359 -0.035624404817563932 0 0.00032668501270805109 -0.035738290280274365 0 0.00043667778260461279 -0.035451340389635454 0 0.00051638099870490359 -0.035624404817563932 0 0.00032668501270805109 -0.035738290280274365 0 0.00022418305876391781 -0.035429079445193648 0 0.00043667778260461279 -0.035451340389635454 0 0.00032668501270805109 -0.035738290280274365 0 0.00022418305876391781 -0.035429079445193648 0 0.00032668501270805109 -0.035738290280274365 0 6.6017673271956959e-05 -0.035718329167800288 0 0.00045303498915597127 -0.036074384564489512 0 0.00032668501270805109 -0.035738290280274365 0 0.00016004628363938065 -0.036030464013169429 0 0.00032668501270805109 -0.035738290280274365 0 0.00016004628363938065 -0.036030464013169429 0 6.6017673271956959e-05 -0.035718329167800288 0 0.00016004628363938065 -0.036030464013169429 0 6.6017673271956959e-05 -0.035718329167800288 0 -0.00025669030944040257 -0.035957378124791647 0 0.00022418305876391781 -0.035429079445193648 0 -0.00017598694243053375 -0.035501322018266564 0 6.6017673271956959e-05 -0.035718329167800288 0 -0.00017598694243053375 -0.035501322018266564 0 6.6017673271956959e-05 -0.035718329167800288 0 -0.00025669030944040257 -0.035957378124791647 0 -0.00017598694243053375 -0.035501322018266564 0 -0.0005014467143823018 -0.035757515467385516 0 -0.00062067710435798789 -0.035418518819693809 0 -0.00017598694243053375 -0.035501322018266564 0 -0.00025669030944040257 -0.035957378124791647 0 -0.0005014467143823018 -0.035757515467385516 0 -0.00037331253468678345 -0.035112712957444024 0 -0.00017598694243053375 -0.035501322018266564 0 -0.00062067710435798789 -0.035418518819693809 0 -0.00025669030944040257 -0.035957378124791647 0 -0.0005014467143823018 -0.035757515467385516 0 -0.00073165455509014278 -0.036104652853448743 0 0.0029140152029094846 -0.021503884735947387 0 0.00073104490387035414 -0.028392587989411858 0 0.0015739497541913466 -0.030497998832843456 0 0.00073104490387035414 -0.028392587989411858 0 0.0027100303117917391 -0.023543623179579542 0 0.0031823203830007871 -0.023311948059205057 0 0.0040991924917202806 -0.025070434779426998 0 -0.00025669030944040257 -0.035957378124791647 0 -0.00022994101750080601 -0.036485377183058276 0 -0.00073165455509014278 -0.036104652853448743 0 0.0027100303117917391 -0.023543623179579542 0 0.0031823203830007871 -0.023311948059205057 0 0.002273870582250257 -0.021803614774869019 0 0.0025378541480359307 -0.021492669186107666 0 0.0024602956537447501 -0.021385521976668601 0 0.0024715358995782578 -0.021523246434397007 0 0.0025378541480359307 -0.021492669186107666 0 0.0024715358995782578 -0.021523246434397007 0 0.0024454342195150561 -0.021611882323317708 0 0.0015739497541913466 -0.030497998832843456 0 0.00064689288789977566 -0.02915884018495488 0 -0.00022994101750080601 -0.036485377183058276 0 0.00027400968835534329 -0.036461062983311261 0 0.00019119518801312499 -0.036826885001986984 0 0.00016004628363938065 -0.036030464013169429 0 -0.00022994101750080601 -0.036485377183058276 0 0.00027400968835534329 -0.036461062983311261 0 0.00016004628363938065 -0.036030464013169429 0 -0.00025669030944040257 -0.035957378124791647 0 -0.00022994101750080601 -0.036485377183058276 0 0.00045303498915597127 -0.036074384564489512 0 0.00016004628363938065 -0.036030464013169429 0 0.00027400968835534329 -0.036461062983311261 0 0.00027400968835534329 -0.036461062983311261 0 0.00055967475271283956 -0.036653365410344863 0 0.00019119518801312499 -0.036826885001986984 0 0.00070104426529058394 -0.036923385846322869 0 0.00079445491738607693 -0.036731626932218021 0 0.00055967475271283956 -0.036653365410344863 0 0.00079445491738607693 -0.036731626932218021 0 0.00055967475271283956 -0.036653365410344863 0 0.00062097588939972049 -0.036412235728256158 0 0.00027400968835534329 -0.036461062983311261 0 0.00055967475271283956 -0.036653365410344863 0 0.00062097588939972049 -0.036412235728256158 0 0.00045303498915597127 -0.036074384564489512 0 0.00027400968835534329 -0.036461062983311261 0 0.00062097588939972049 -0.036412235728256158 0 0.002670505451721642 -0.020823623777394558 0 0.0023760145628864506 -0.020004493618784348 0 0.0022604198092140023 -0.020848678751634313 0 0.0024709505755757697 -0.021086615699247017 0 0.0024310665492393827 -0.020127381130181376 0 0.0027460564732921019 -0.020037861944475696 0 0.0024310665492393827 -0.020127381130181376 0 0.0026670875469140404 -0.020006061146096432 0 0.0026843984553891489 -0.020076424988008698 0 0.0027460564732921019 -0.020037861944475696 0 0.0026670875469140404 -0.020006061146096432 0 0.0023498820074354171 -0.018880005249290101 0 0.002670505451721642 -0.020823623777394558 0 0.0026843984553891489 -0.020076424988008698 0 0.0025699271286619956 -0.019709134140600625 0 0.0027460564732921019 -0.020037861944475696 0 0.0023541922612044606 -0.021125735067966379 0 0.0024709505755757697 -0.021086615699247017 0 0.0023213223200746415 -0.021029550030591575 0 -0.00027362195930501345 -0.026361108773870143 0 -0.00057134722422164108 -0.025932446082875933 0 0.0023541922612044606 -0.021125735067966379 0 0.0023213223200746415 -0.021029550030591575 0 0.0022917649994896741 -0.020995537524416998 0 0.0022604198092140023 -0.020848678751634313 0 0.0023213223200746415 -0.021029550030591575 0 0.0022917649994896741 -0.020995537524416998 0 0.0022604198092140023 -0.020848678751634313 0 0.0024709505755757697 -0.021086615699247017 0 0.0023213223200746415 -0.021029550030591575 0 -0.0029492434212362783 -0.03184783898724896 0 -0.0029192870424014287 -0.031588439488172006 0 -0.0029634394742767195 -0.031617306124986616 0 -0.0012114519010339928 -0.035047259279588711 0 -0.0012020307601369852 -0.035619177670919884 0 -0.00095718100134393189 -0.035359424925321507 0 -0.00062067710435798789 -0.035418518819693809 0 -0.00095718100134393189 -0.035359424925321507 0 -0.00080038712757046846 -0.03566900636764652 0 -0.0012020307601369852 -0.035619177670919884 0 -0.00095718100134393189 -0.035359424925321507 0 -0.00080038712757046846 -0.03566900636764652 0 -0.0005014467143823018 -0.035757515467385516 0 -0.00062067710435798789 -0.035418518819693809 0 -0.00080038712757046846 -0.03566900636764652 0 -0.0012020307601369852 -0.035619177670919884 0 -0.00080038712757046846 -0.03566900636764652 0 -0.00073165455509014278 -0.036104652853448743 0 -0.0021418245286333728 -0.034445599569584526 0 0.00073104490387035414 -0.028392587989411858 0 -0.00057134722422164108 -0.025932446082875933 0 0.00073104490387035414 -0.028392587989411858 0 -0.0005014467143823018 -0.035757515467385516 0 -0.00080038712757046846 -0.03566900636764652 0 -0.00073165455509014278 -0.036104652853448743 0 0.0022917649994896741 -0.020995537524416998 0 0.0024962890529979282 -0.021211975969443981 0 0.0023309923119480807 -0.021128390391069913 0 -0.0029192870424014287 -0.031588439488172006 0 -0.0029634394742767195 -0.031617306124986616 0 -0.0029489250730050866 -0.031347587324039146 0 0.0022604198092140023 -0.020848678751634313 0 0.0022917649994896741 -0.020995537524416998 0 0.0023309923119480807 -0.021128390391069913 0 0.0023309923119480807 -0.021128390391069913 0 0.002384583939580518 -0.021321599893308271 0 0.0022286259270410144 -0.021368715061473104 0 0.0024962890529979282 -0.021211975969443981 0 0.0023309923119480807 -0.021128390391069913 0 0.002384583939580518 -0.021321599893308271 0 0.0025378541480359307 -0.021492669186107666 0 0.0024962890529979282 -0.021211975969443981 0 0.0024602956537447501 -0.021385521976668601 0 0.0024962890529979282 -0.021211975969443981 0 0.002384583939580518 -0.021321599893308271 0 0.0024602956537447501 -0.021385521976668601 0 0.002384583939580518 -0.021321599893308271 0 0.0024602956537447501 -0.021385521976668601 0 0.0024199400539573115 -0.021488268723143373 0 0.0024602956537447501 -0.021385521976668601 0 0.0024199400539573115 -0.021488268723143373 0 0.0024715358995782578 -0.021523246434397007 0 0.002384583939580518 -0.021321599893308271 0 0.0024199400539573115 -0.021488268723143373 0 0.0022286259270410144 -0.021368715061473104 0 0.0023003364555484384 -0.019543287744883085 0 0.002600795469558919 -0.019736120950533308 0 0.0025804975711420184 -0.019274177039592475 0 0.0022604198092140023 -0.020848678751634313 0 0.0023309923119480807 -0.021128390391069913 0 0.0022286259270410144 -0.021368715061473104 0 0.0022604198092140023 -0.020848678751634313 0 0.0023003364555484384 -0.019543287744883085 0 0.0024310665492393827 -0.020127381130181376 0 0.0022715318601564251 -0.020860966362857086 0 0.0022790711725686982 -0.020447755243131482 0 0.0023003364555484384 -0.019543287744883085 0 0.0024310665492393827 -0.020127381130181376 0 0.002600795469558919 -0.019736120950533308 0 0.0026843984553891489 -0.020076424988008698 0 0.0028776685570454609 -0.019711171932405513 0 0.0026670875469140404 -0.020006061146096432 0 0.0024310665492393827 -0.020127381130181376 0 0.0026670875469140404 -0.020006061146096432 0 0.002600795469558919 -0.019736120950533308 0 0.0028776685570454609 -0.019711171932405513 0 0.0026670875469140404 -0.020006061146096432 0 0.002600795469558919 -0.019736120950533308 0 0.0028776685570454609 -0.019711171932405513 0 0.002600795469558919 -0.019736120950533308 0 0.0025804975711420184 -0.019274177039592475 0 0.0028776685570454609 -0.019711171932405513 0 0.002849780688454187 -0.019001560570749879 0 0.0025804975711420184 -0.019274177039592475 0 0.0029823017120552239 -0.014058048547091213 0 0.0029983298380453663 -0.013560524699110682 0 0.002849780688454187 -0.019001560570749879 0 0.0025804975711420184 -0.019274177039592475 0 0.0026380198742961733 -0.018870132274915085 0 0.002849780688454187 -0.019001560570749879 0 0.0026380198742961733 -0.018870132274915085 0 0.0027310265051439342 -0.018647451452513064 0 0.0029983298380453663 -0.013560524699110682 0 0.0027798711051525513 -0.013827255119455617 0 0.0026380198742961733 -0.018870132274915085 0 0.0023724211175733985 -0.018998223648110702 0 0.0025523322622487835 -0.018773306172499841 0 0.0023003364555484384 -0.019543287744883085 0 0.0025804975711420184 -0.019274177039592475 0 0.0023724211175733985 -0.018998223648110702 0 0.0022790711725686982 -0.020447755243131482 0 0.0022902401368995085 -0.020382092434873551 0 0.0025804975711420184 -0.019274177039592475 0 0.0026380198742961733 -0.018870132274915085 0 0.0023724211175733985 -0.018998223648110702 0 0.0024199400539573115 -0.021488268723143373 0 0.0023617261215794845 -0.02150685275285329 0 0.0023515072026619671 -0.021520023572206809 0 0.0024199400539573115 -0.021488268723143373 0 0.0022286259270410144 -0.021368715061473104 0 0.0023515072026619671 -0.021520023572206809 0 0.0024364564976508689 -0.021401369744695701 0 0.0024361395507074223 -0.021677347920490166 0 0.0024199400539573115 -0.021488268723143373 0 0.0025804376321325053 -0.021495717985597473 0 0.002473573660399085 -0.021582911424575316 0 0.0024199400539573115 -0.021488268723143373 0 0.0024715358995782578 -0.021523246434397007 0 0.002473573660399085 -0.021582911424575316 0 0.0025804376321325053 -0.021495717985597473 0 0.0025113179576383851 -0.021338762993941506 0 0.0024050552431904198 -0.02148930840103477 0 0.0025804376321325053 -0.021495717985597473 0 0.002473573660399085 -0.021582911424575316 0 0.0024050552431904198 -0.02148930840103477 0 0.0022902401368995085 -0.020382092434873551 0 0.002929407410255117 -0.019445917113237645 0 0.0023617261215794845 -0.02150685275285329 0 0.0023515072026619671 -0.021520023572206809 0 0.0023634363214520091 -0.021470315355716831 0 0.0023724211175733985 -0.018998223648110702 0 0.0024116791387273841 -0.018639566930650702 0 0.0025523322622487835 -0.018773306172499841 0 0.0023515072026619671 -0.021520023572206809 0 0.0023634363214520091 -0.021470315355716831 0 0.002388852806532127 -0.02141631474966238 0 0.002929407410255117 -0.019445917113237645 0 0.0028471647742344419 -0.020436319623240811 0 0.0023634363214520091 -0.021470315355716831 0 0.002388852806532127 -0.02141631474966238 0 0.002341787859389214 -0.02142442605592287 0 0.0025804376321325053 -0.021495717985597473 0 0.0025113179576383851 -0.021338762993941506 0 0.0026528704420365548 -0.021191921795868075 0 0.0023617261215794845 -0.02150685275285329 0 0.0023634363214520091 -0.021470315355716831 0 0.002341787859389214 -0.02142442605592287 0 0.0024361395507074223 -0.021677347920490166 0 0.0028471647742344419 -0.020436319623240811 0 0.0025113179576383851 -0.021338762993941506 0 0.0026528704420365548 -0.021191921795868075 0 0.0023342631016720805 -0.021143467934372513 0 0.0028471647742344419 -0.020436319623240811 0 0.003535864661076834 -0.018916841297087934 0 0.0034618416557277132 -0.020556251430551942 0 0.0028725917670564694 -0.019933394524364337 0 0.0033460140336414265 -0.019288203644381212 0 0.0034718301844674062 -0.018575579862245915 0 0.0032390728619224201 -0.018723754439354475 0 0.0032220042049742508 -0.018966568669980501 0 0.0034718301844674062 -0.018575579862245915 0 0.0032220042049742508 -0.018966568669980501 0 0.0033460140336414265 -0.019288203644381212 0 0.0032390728619224201 -0.018723754439354475 0 0.0031155148502185954 -0.018801954654117457 0 0.0029993872250815602 -0.018709515235783139 0 0.003200004470184831 -0.0185392993308163 0 0.0032390728619224201 -0.018723754439354475 0 0.0029993872250815602 -0.018709515235783139 0 0.002929407410255117 -0.019445917113237645 0 0.0029474811959131941 -0.018939297121307513 0 0.0032128739474523446 -0.018603265418625961 0 0.0034718301844674062 -0.018575579862245915 0 0.0032390728619224201 -0.018723754439354475 0 0.0032220042049742508 -0.018966568669980501 0 0.0030095011466195116 -0.018832170771160374 0 0.0030455986071535684 -0.018998624248709618 0 0.0032390728619224201 -0.018723754439354475 0 0.0032220042049742508 -0.018966568669980501 0 0.0031155148502185954 -0.018801954654117457 0 0.0032220042049742508 -0.018966568669980501 0 0.0031155148502185954 -0.018801954654117457 0 0.0030095011466195116 -0.018832170771160374 0 0.0031155148502185954 -0.018801954654117457 0 0.0030095011466195116 -0.018832170771160374 0 0.0029993872250815602 -0.018709515235783139 0 0.0028716244946775261 -0.018852432522344094 0 0.0030095011466195116 -0.018832170771160374 0 0.0030455986071535684 -0.018998624248709618 0 0.003200004470184831 -0.0185392993308163 0 0.0029993872250815602 -0.018709515235783139 0 0.0026804286260874643 -0.018643388599186572 0 0.002929407410255117 -0.019445917113237645 0 0.0026881331907877516 -0.018604444086491704 0 0.0028716244946775261 -0.018852432522344094 0 0.0028141892577662232 -0.018736751317563183 0 0.0030095011466195116 -0.018832170771160374 0 0.0028141892577662232 -0.018736751317563183 0 0.0030095011466195116 -0.018832170771160374 0 0.0029993872250815602 -0.018709515235783139 0 0.0028141892577662232 -0.018736751317563183 0 0.0029993872250815602 -0.018709515235783139 0 0.0026804286260874643 -0.018643388599186572 0 0.0028141892577662232 -0.018736751317563183 0 0.0026804286260874643 -0.018643388599186572 0 0.0026823918758014549 -0.018738057946603211 0 0.0028716244946775261 -0.018852432522344094 0 0.0028141892577662232 -0.018736751317563183 0 0.0026823918758014549 -0.018738057946603211 0 0.0028716244946775261 -0.018852432522344094 0 0.0026823918758014549 -0.018738057946603211 0 0.0028286363617665094 -0.019025016428362612 0 0.0026804286260874643 -0.018643388599186572 0 0.0026823918758014549 -0.018738057946603211 0 0.0027310265051439342 -0.018647451452513064 0 0.0027798711051525513 -0.013827255119455617 0 0.0040900456347813799 -0.01152032764914558 0 0.0026823918758014549 -0.018738057946603211 0 0.0027310265051439342 -0.018647451452513064 0 0.0027115544036798154 -0.018664371911460375 0 0.0026380198742961733 -0.018870132274915085 0 0.0027310265051439342 -0.018647451452513064 0 0.0026523793321335141 -0.01872523005758326 0 0.0026804286260874643 -0.018643388599186572 0 0.0027310265051439342 -0.018647451452513064 0 0.0026523793321335141 -0.01872523005758326 0 0.0026380198742961733 -0.018870132274915085 0 0.0026523793321335141 -0.01872523005758326 0 0.0025523322622487835 -0.018773306172499841 0 0.0024116791387273841 -0.018639566930650702 0 0.0026804286260874643 -0.018643388599186572 0 0.0025523322622487835 -0.018773306172499841 0 0.0026804286260874643 -0.018643388599186572 0 0.0026523793321335141 -0.01872523005758326 0 0.0025523322622487835 -0.018773306172499841 0 0.00093574354322761312 -0.021596271580014776 0 0.001401879938719532 -0.021345776662714127 0 0.0013018993840360788 -0.020772115474461072 0 0.00070104426529058394 -0.036923385846322869 0 0.00056584162436808835 -0.037117473056758131 0 0.00019119518801312499 -0.036826885001986984 0 -0.00018104857633007723 -0.038617124709664989 0 0.0013278341952608313 -0.030999269610183615 0 0.00070104426529058394 -0.036923385846322869 0 0.00055967475271283956 -0.036653365410344863 0 0.00019119518801312499 -0.036826885001986984 0 0.00093574354322761312 -0.021596271580014776 0 0.0015979514838782476 -0.022236114012966261 0 0.0016766185280622581 -0.021620581335829288 0 0.0013278341952608313 -0.030999269610183615 0 0.00064689288789977566 -0.02915884018495488 0 0.00093574354322761312 -0.021596271580014776 0 0.0016766185280622581 -0.021620581335829288 0 0.001401879938719532 -0.021345776662714127 0 0.0016766185280622581 -0.021620581335829288 0 0.001401879938719532 -0.021345776662714127 0 0.0018415886267334376 -0.021296605045694923 0 0.0018415886267334376 -0.021296605045694923 0 0.002128715970346706 -0.021478757586860259 0 0.0023342631016720805 -0.021143467934372513 0 0.0016766185280622581 -0.021620581335829288 0 0.0018415886267334376 -0.021296605045694923 0 0.002128715970346706 -0.021478757586860259 0 0.002128715970346706 -0.021478757586860259 0 0.002273870582250257 -0.021803614774869019 0 0.0024050552431904198 -0.02148930840103477 0 0.0016766185280622581 -0.021620581335829288 0 0.002128715970346706 -0.021478757586860259 0 0.002273870582250257 -0.021803614774869019 0 0.0027100303117917391 -0.023543623179579542 0 0.0015979514838782476 -0.022236114012966261 0 0.002273870582250257 -0.021803614774869019 0 0.0015979514838782476 -0.022236114012966261 0 0.0016766185280622581 -0.021620581335829288 0 0.002273870582250257 -0.021803614774869019 0 0.0029140152029094846 -0.021503884735947387 0 0.0023776369303871027 -0.022117157220143957 0 0.0025378541480359307 -0.021492669186107666 0 0.002273870582250257 -0.021803614774869019 0 0.0024454342195150561 -0.021611882323317708 0 0.002273870582250257 -0.021803614774869019 0 0.002403449903210468 -0.021634858418240473 0 0.0024050552431904198 -0.02148930840103477 0 0.002273870582250257 -0.021803614774869019 0 0.002403449903210468 -0.021634858418240473 0 0.0024454342195150561 -0.021611882323317708 0 0.002403449903210468 -0.021634858418240473 0 0.0024454342195150561 -0.021611882323317708 0 0.002473573660399085 -0.021582911424575316 0 0.0024715358995782578 -0.021523246434397007 0 0.0024454342195150561 -0.021611882323317708 0 0.002473573660399085 -0.021582911424575316 0 0.002403449903210468 -0.021634858418240473 0 0.002473573660399085 -0.021582911424575316 0 0.0024050552431904198 -0.02148930840103477 0 0.002128715970346706 -0.021478757586860259 0 0.0024050552431904198 -0.02148930840103477 0 0.0023342631016720805 -0.021143467934372513 0 0.0025113179576383851 -0.021338762993941506 0 0.0024050552431904198 -0.02148930840103477 0 0.0023342631016720805 -0.021143467934372513 0 0.0028471647742344419 -0.020436319623240811 0 0.0024165392909314492 -0.020997200333928052 0 0.0034618416557277132 -0.020556251430551942 0 0.0024746417009880129 -0.020744550525791862 0 0.0028725917670564694 -0.019933394524364337 0 0.0024746417009880129 -0.020744550525791862 0 0.0028725917670564694 -0.019933394524364337 0 0.0022911811703238646 -0.01988573297529065 0 0.0024746417009880129 -0.020744550525791862 0 0.0018192979626901905 -0.020491608489867641 0 0.0022911811703238646 -0.01988573297529065 0 0.0018192979626901905 -0.020491608489867641 0 0.0016761985403209198 -0.019921700050050253 0 0.0022911811703238646 -0.01988573297529065 0 0.0024165392909314492 -0.020997200333928052 0 0.0015510796625064376 -0.021025024997516975 0 0.0024746417009880129 -0.020744550525791862 0 0.0015347524680943681 -0.021033340226485803 0 0.0018192979626901905 -0.020491608489867641 0 0.0018415886267334376 -0.021296605045694923 0 0.0023342631016720805 -0.021143467934372513 0 0.0015347524680943681 -0.021033340226485803 0 0.001401879938719532 -0.021345776662714127 0 0.0018415886267334376 -0.021296605045694923 0 0.0015347524680943681 -0.021033340226485803 0 0.001401879938719532 -0.021345776662714127 0 0.0015347524680943681 -0.021033340226485803 0 0.0013018993840360788 -0.020772115474461072 0 0.0015347524680943681 -0.021033340226485803 0 0.0013018993840360788 -0.020772115474461072 0 0.0018192979626901905 -0.020491608489867641 0 0.0036221501816518929 -0.030610766994711405 0 0.0032478599267505076 -0.029617441573116927 0 0.0042480617444918016 -0.029392119399069994 0 0.0027574811041273769 -0.02486340719717724 0 0.0028667529882761694 -0.024886076484504218 0 0.0013018993840360788 -0.020772115474461072 0 0.0018192979626901905 -0.020491608489867641 0 0.0016761985403209198 -0.019921700050050253 0 0.0036221501816518929 -0.030610766994711405 0 0.0032478599267505076 -0.029617441573116927 0 0.0026712202650130031 -0.030325719260050642 0 0.0032478599267505076 -0.029617441573116927 0 0.0026598160426290676 -0.029711313805874797 0 0.0027690491403740093 -0.029193199954491298 0 0.0032478599267505076 -0.029617441573116927 0 0.0026598160426290676 -0.029711313805874797 0 0.0026712202650130031 -0.030325719260050642 0 0.0013278341952608313 -0.030999269610183615 0 0.0027574811041273769 -0.02486340719717724 0 0.0030113758399330677 -0.031803689565804726 0 0.0036221501816518929 -0.030610766994711405 0 0.0026712202650130031 -0.030325719260050642 0 0.00352345636911389 -0.026616647848660416 0 0.0039007862457572165 -0.026758138142605973 0 0.0038227682530921499 -0.026532313462528049 0 0.0033661305404209855 -0.027296791470650179 0 0.0037472517300680421 -0.02694950090947525 0 0.003141407147895822 -0.027773056004965643 0 0.0030794926624601315 -0.028292755292829173 0 0.0037538828605234438 -0.028494392645724079 0 0.0030794926624601315 -0.028292755292829173 0 0.0033096823364705775 -0.028607445601120787 0 0.0037538828605234438 -0.028494392645724079 0 0.0033661305404209855 -0.027296791470650179 0 0.0038109657017337791 -0.028136056871584325 0 0.00352345636911389 -0.026616647848660416 0 0.0039958373019465063 -0.027162011510073074 0 0.0039007862457572165 -0.026758138142605973 0 0.002588787853649794 -0.028367808095600616 0 0.0030794926624601315 -0.028292755292829173 0 0.0028805940774220321 -0.028724450326023346 0 0.002588787853649794 -0.028367808095600616 0 0.003141407147895822 -0.027773056004965643 0 0.0030794926624601315 -0.028292755292829173 0 0.0021931654364515576 -0.028890514016746471 0 0.0028805940774220321 -0.028724450326023346 0 0.0027690491403740093 -0.029193199954491298 0 0.0028805940774220321 -0.028724450326023346 0 0.0027690491403740093 -0.029193199954491298 0 0.0031988453614018456 -0.029000744373941911 0 0.0032478599267505076 -0.029617441573116927 0 0.0031988453614018456 -0.029000744373941911 0 0.0035841488637470748 -0.029114901153151736 0 0.0032478599267505076 -0.029617441573116927 0 0.0027690491403740093 -0.029193199954491298 0 0.0031988453614018456 -0.029000744373941911 0 0.0031988453614018456 -0.029000744373941911 0 0.0035923782146048216 -0.02873446869928863 0 0.0035841488637470748 -0.029114901153151736 0 0.0031988453614018456 -0.029000744373941911 0 0.0033096823364705775 -0.028607445601120787 0 0.0035923782146048216 -0.02873446869928863 0 0.0028805940774220321 -0.028724450326023346 0 0.0031988453614018456 -0.029000744373941911 0 0.0033096823364705775 -0.028607445601120787 0 0.0030794926624601315 -0.028292755292829173 0 0.0028805940774220321 -0.028724450326023346 0 0.0033096823364705775 -0.028607445601120787 0 0.0033096823364705775 -0.028607445601120787 0 0.0035923782146048216 -0.02873446869928863 0 0.0037695295191008289 -0.028448194924859237 0 0.0042480617444918016 -0.029392119399069994 0 0.0040222542216441851 -0.02894992605425311 0 0.0048930597360408385 -0.028087082400101618 0 0.0038881127412406001 -0.028574065147358808 0 0.0035923782146048216 -0.02873446869928863 0 0.0037695295191008289 -0.028448194924859237 0 0.0038881127412406001 -0.028574065147358808 0 0.0040222542216441851 -0.02894992605425311 0 0.0048930597360408385 -0.028087082400101618 0 0.0034476586727191717 -0.028378363511029805 0 0.0038109657017337791 -0.028136056871584325 0 0.0032478599267505076 -0.029617441573116927 0 0.0035841488637470748 -0.029114901153151736 0 0.0042480617444918016 -0.029392119399069994 0 0.0038574967001642887 -0.028219869721175562 0 0.0038109657017337791 -0.028136056871584325 0 0.0038881127412406001 -0.028574065147358808 0 0.0035923782146048216 -0.02873446869928863 0 0.0040222542216441851 -0.02894992605425311 0 0.0035923782146048216 -0.02873446869928863 0 0.0035841488637470748 -0.029114901153151736 0 0.0040222542216441851 -0.02894992605425311 0 0.0035841488637470748 -0.029114901153151736 0 0.0042480617444918016 -0.029392119399069994 0 0.0040222542216441851 -0.02894992605425311 0 0.0039958373019465063 -0.027162011510073074 0 0.0042681273314114409 -0.02672235849311615 0 0.0048070047421086915 -0.026931509541050121 0 0.0038881127412406001 -0.028574065147358808 0 0.0037625720381572487 -0.028427365254707761 0 0.0048930597360408385 -0.028087082400101618 0 0.0038109657017337791 -0.028136056871584325 0 0.0035870380467359184 -0.023235093774017862 0 0.0042681273314114409 -0.02672235849311615 0 0.0048070047421086915 -0.026931509541050121 0 0.0042695714526044103 -0.026214464498208044 0 0.0039958373019465063 -0.027162011510073074 0 0.0039007862457572165 -0.026758138142605973 0 0.0042681273314114409 -0.02672235849311615 0 0.0039007862457572165 -0.026758138142605973 0 0.0038227682530921499 -0.026532313462528049 0 0.0042681273314114409 -0.02672235849311615 0 0.0038227682530921499 -0.026532313462528049 0 0.0042681273314114409 -0.02672235849311615 0 0.0042695714526044103 -0.026214464498208044 0 0.0020825178871367407 -0.019151059166329275 0 0.0022911811703238646 -0.01988573297529065 0 0.0027518381988902584 -0.019405091304502669 0 0.0016761985403209198 -0.019921700050050253 0 0.0020825178871367407 -0.019151059166329275 0 0.0022911811703238646 -0.01988573297529065 0 0.0028667529882761694 -0.024886076484504218 0 0.0035870380467359184 -0.023235093774017862 0 0.0028725917670564694 -0.019933394524364337 0 0.0022911811703238646 -0.01988573297529065 0 0.0027518381988902584 -0.019405091304502669 0 0.0035870380467359184 -0.023235093774017862 0 0.0029209893869801711 -0.018440677359818278 0 0.0020825178871367407 -0.019151059166329275 0 0.0027518381988902584 -0.019405091304502669 0 0.0030683937748715237 -0.018929507503241919 0 0.0027980449426796799 -0.019266176610520977 0 0.0029656163041333369 -0.018895703868511995 0 0.0031410416692570745 -0.019103391045989408 0 0.0070891308642747064 -0.025959837520388478 0 0.0062180180845019719 -0.024362720076750364 0 0.0080463867161645157 -0.024091849051807338 0 0.0045662243145137716 -0.022036143866746669 0 0.0055922534625555843 -0.021780076015782537 0 0.0045662243145137716 -0.022036143866746669 0 0.0051542997894657829 -0.026013148198429252 0 0.0070891308642747064 -0.025959837520388478 0 0.0051215376950441852 -0.025614767241437748 0 0.0062180180845019719 -0.024362720076750364 0 0.0035870380467359184 -0.023235093774017862 0 0.0045662243145137716 -0.022036143866746669 0 0.0048070047421086915 -0.026931509541050121 0 0.0054238469023537399 -0.025683917973519654 0 0.0042695714526044103 -0.026214464498208044 0 0.0054238469023537399 -0.025683917973519654 0 0.0042695714526044103 -0.026214464498208044 0 0.0043064052715034527 -0.025500045433523542 0 0.0038227682530921499 -0.026532313462528049 0 0.0042695714526044103 -0.026214464498208044 0 0.0036087808874927475 -0.026227122317664813 0 0.0042695714526044103 -0.026214464498208044 0 0.0043064052715034527 -0.025500045433523542 0 0.0036350274378648983 -0.025816095017553258 0 0.0042695714526044103 -0.026214464498208044 0 0.0036350274378648983 -0.025816095017553258 0 0.0036087808874927475 -0.026227122317664813 0 0.0051215376950441852 -0.025614767241437748 0 0.0031369885220719923 -0.02523507204482078 0 0.004280539140516587 -0.024349661446532021 0 0.0051542997894657829 -0.026013148198429252 0 0.0030246317187898513 -0.025137744827871417 0 0.0027421650084920217 -0.025928822301553248 0 0.0031369885220719923 -0.02523507204482078 0 0.0036350274378648983 -0.025816095017553258 0 0.0043064052715034527 -0.025500045433523542 0 0.0031369885220719923 -0.02523507204482078 0 0.0036350274378648983 -0.025816095017553258 0 0.0026974489968662452 -0.026328748090358053 0 0.0033661305404209855 -0.027296791470650179 0 0.0027421650084920217 -0.025928822301553248 0 0.0034989602715056237 -0.026645888784242351 0 0.0036087808874927475 -0.026227122317664813 0 0.0027421650084920217 -0.025928822301553248 0 0.0036350274378648983 -0.025816095017553258 0 0.0036087808874927475 -0.026227122317664813 0 0.0034989602715056237 -0.026645888784242351 0 0.0038227682530921499 -0.026532313462528049 0 0.0036087808874927475 -0.026227122317664813 0 0.0036378331971219846 -0.018999456350897413 0 0.0034547287337231233 -0.019037845824764518 0 0.0035273356230054891 -0.019208595708401298 0 0.0034547287337231233 -0.019037845824764518 0 0.0035546988906849739 -0.018900697349169403 0 0.0034743296545768501 -0.018861341004178998 0 0.0036378331971219846 -0.018999456350897413 0 0.0034547287337231233 -0.019037845824764518 0 0.0035546988906849739 -0.018900697349169403 0 0.0036378331971219846 -0.018999456350897413 0 0.0035546988906849739 -0.018900697349169403 0 0.003671495894638172 -0.018744534286347023 0 0.0031979855195049711 -0.016647908901221 0 0.0049108274873659345 -0.011889221467574819 0 0.0040844926078404432 -0.013207279479514722 0 0.0050609740211269112 -0.012750623550019246 0 0.0038876854373199937 -0.011003698961422117 0 0.0030385020669934024 -0.013476326624762003 0 0.0040844926078404432 -0.013207279479514722 0 0.0038876854373199937 -0.011003698961422117 0 0.0040844926078404432 -0.013207279479514722 0 0.0051078978953622003 -0.013531880308986343 0 0.0037898519882761891 -0.015980510176764488 0 0.0030385020669934024 -0.013476326624762003 0 0.0040844926078404432 -0.013207279479514722 0 0.0037898519882761891 -0.015980510176764488 0 0.0051813672038794542 -0.008750733227918063 0 0.0048604565234035306 -0.0093335359220542095 0 0.0040844926078404432 -0.013207279479514722 0 0.0050609740211269112 -0.012750623550019246 0 0.0051078978953622003 -0.013531880308986343 0 0.005013918457328694 -0.0084403193172564658 0 0.0049978136401793473 -0.0084194511965237553 0 0.0050075933053468401 -0.0083989995303835087 0 0.0051813672038794542 -0.008750733227918063 0 0.0051918868932805534 -0.0077973642527993216 0 0.0053888111496861232 -0.0065740284328085615 0 0.0054445111535519784 -0.0064713395442148984 0 0.0050034333770057979 -0.0059136059591017249 0 0.0051918868932805534 -0.0077973642527993216 0 0.0048604565234035306 -0.0093335359220542095 0 0.0048604565234035306 -0.0093335359220542095 0 0.0028955915991735102 -0.016091372277959291 0 0.0048604565234035306 -0.0093335359220542095 0 0.0040900456347813799 -0.01152032764914558 0 0.0054445111535519784 -0.0064713395442148984 0 0.0053936579177350594 -0.0058659878143070355 0 0.0050034333770057979 -0.0059136059591017249 0 0.0047222902146179377 -0.0102112702891683 0 0.0049078885850147944 -0.013431455058785973 0 0.002995750735542532 -0.013408506413150787 0 0.0021710523922805073 -0.019023413317039849 0 0.0028955915991735102 -0.016091372277959291 0 0.0026823918758014549 -0.018738057946603211 0 0.0027115544036798154 -0.018664371911460375 0 0.0026893606082718613 -0.018673110611904613 0 0.0040900456347813799 -0.01152032764914558 0 0.0028955915991735102 -0.016091372277959291 0 0.0026823918758014549 -0.018738057946603211 0 0.0024664200155833801 -0.019116298605164093 0 0.0028286363617665094 -0.019025016428362612 0 0.0024664200155833801 -0.019116298605164093 0 0.0028286363617665094 -0.019025016428362612 0 0.0027883416951170262 -0.019134410767703822 0 0.0028955915991735102 -0.016091372277959291 0 0.0027375468736465748 -0.017757741457974503 0 0.0026438609863682029 -0.018217468940663849 0 0.0027375468736465748 -0.017757741457974503 0 0.0031979855195049711 -0.016647908901221 0 0.0027375468736465748 -0.017757741457974503 0 0.0030385020669934024 -0.013476326624762003 0 0.0037898519882761891 -0.015980510176764488 0 0.0021944171126635041 -0.015964394138705134 0 0.0034547287337231233 -0.019037845824764518 0 0.0035273356230054891 -0.019208595708401298 0 0.0032596328340656852 -0.019173978196743564 0 0.0027375468736465748 -0.017757741457974503 0 0.0033636598521638843 -0.01893689620611649 0 0.0027898221580813427 -0.0191352875402898 0 0.0030455986071535684 -0.018998624248709618 0 0.0032596328340656852 -0.019173978196743564 0 0.0028286363617665094 -0.019025016428362612 0 0.0027898221580813427 -0.0191352875402898 0 0.0030455986071535684 -0.018998624248709618 0 0.0028716244946775261 -0.018852432522344094 0 0.0028286363617665094 -0.019025016428362612 0 0.0030455986071535684 -0.018998624248709618 0 0.0032220042049742508 -0.018966568669980501 0 0.0030455986071535684 -0.018998624248709618 0 0.0032596328340656852 -0.019173978196743564 0 0.0032220042049742508 -0.018966568669980501 0 0.0032596328340656852 -0.019173978196743564 0 0.0033460140336414265 -0.019288203644381212 0 0.0032596328340656852 -0.019173978196743564 0 0.0033460140336414265 -0.019288203644381212 0 0.0033490168967624397 -0.019102878212248143 0 0.0028725917670564694 -0.019933394524364337 0 0.0027518381988902584 -0.019405091304502669 0 0.0033460140336414265 -0.019288203644381212 0 0.0033460140336414265 -0.019288203644381212 0 0.0030683937748715237 -0.018929507503241919 0 0.0033490168967624397 -0.019102878212248143 0 0.0027518381988902584 -0.019405091304502669 0 0.0033460140336414265 -0.019288203644381212 0 0.0030683937748715237 -0.018929507503241919 0 0.0030683937748715237 -0.018929507503241919 0 0.0033490168967624397 -0.019102878212248143 0 0.0034743296545768501 -0.018861341004178998 0 0.0034547287337231233 -0.019037845824764518 0 0.0032596328340656852 -0.019173978196743564 0 0.0033490168967624397 -0.019102878212248143 0 0.0034547287337231233 -0.019037845824764518 0 0.0033490168967624397 -0.019102878212248143 0 0.0034743296545768501 -0.018861341004178998 0 0.0031410416692570745 -0.019103391045989408 0 0.0033037203312788321 -0.018878060135641545 0 0.0034743296545768501 -0.018861341004178998 0 0.0029209893869801711 -0.018440677359818278 0 0.0035048489163962784 -0.019033983411672895 0 0.0029656163041333369 -0.018895703868511995 0 0.0031410416692570745 -0.019103391045989408 0 0.0033037203312788321 -0.018878060135641545 0 0.0045662243145137716 -0.022036143866746669 0 0.0028943242625553466 -0.018229086990268251 0 0.0030006557894530265 -0.018586580900979092 0 0.003339103207479648 -0.01862139868493427 0 0.00331547652886529 -0.018393831107179261 0 0.0030006557894530265 -0.018586580900979092 0 0.00331547652886529 -0.018393831107179261 0 0.0031381422008291259 -0.018262500871662885 0 0.003339103207479648 -0.01862139868493427 0 0.00331547652886529 -0.018393831107179261 0 0.0035834384598824529 -0.018423569610084796 0 0.0035834384598824529 -0.018423569610084796 0 0.003671495894638172 -0.018744534286347023 0 0.0037334826738526631 -0.018721890146687844 0 0.0033037203312788321 -0.018878060135641545 0 0.003671495894638172 -0.018744534286347023 0 0.0034743296545768501 -0.018861341004178998 0 0.0028943242625553466 -0.018229086990268251 0 0.003871160469072943 -0.018916493448154693 0 0.004712957669885753 -0.013947973285767041 0 0.0049108274873659345 -0.011889221467574819 0 0.003339103207479648 -0.01862139868493427 0 0.0035834384598824529 -0.018423569610084796 0 0.003671495894638172 -0.018744534286347023 0 0.0035546988906849739 -0.018900697349169403 0 0.003671495894638172 -0.018744534286347023 0 0.0034743296545768501 -0.018861341004178998 0 0.0052683192235048904 -0.0075604586323880785 0 0.0052977014862703167 -0.0079844622382139862 0 0.0049907632314917447 -0.0079274320269029121 0 0.0051813672038794542 -0.008750733227918063 0 0.0052902714104768739 -0.0075529915606233873 0 0.0052814033346898683 -0.0078037070682652129 0 0.0053446376726513384 -0.0078843756431942677 0 0.0052977014862703167 -0.0079844622382139862 0 0.0052683192235048904 -0.0075604586323880785 0 0.0052403687205637983 -0.0075185233393688248 0 0.0049907632314917447 -0.0079274320269029121 0 0.0049108274873659345 -0.011889221467574819 0 0.0055150383061389873 -0.0076878471650275093 0 0.0051813672038794542 -0.008750733227918063 0 0.0049108274873659345 -0.011889221467574819 0 0.0036378331971219846 -0.018999456350897413 0 0.003671495894638172 -0.018744534286347023 0 0.0037334826738526631 -0.018721890146687844 0 0.005577055522144588 -0.0086824705993049905 0 0.0053508748580814083 -0.0086818731533171729 0 0.0054402993136568305 -0.0088351877761875877 0 0.0053446376726513384 -0.0078843756431942677 0 0.0052977014862703167 -0.0079844622382139862 0 0.0053047867593581056 -0.0080954024458925362 0 0.0052977014862703167 -0.0079844622382139862 0 0.0053047867593581056 -0.0080954024458925362 0 0.0051178056290869358 -0.0080731822437228023 0 0.005577055522144588 -0.0086824705993049905 0 0.0054267073741045861 -0.0085451327850139692 0 0.0053508748580814083 -0.0086818731533171729 0 0.0049907632314917447 -0.0079274320269029121 0 0.004963733543130306 -0.008285362397825952 0 0.0045329782752714654 -0.0083229755873493235 0 0.0053047867593581056 -0.0080954024458925362 0 0.0051178056290869358 -0.0080731822437228023 0 0.004963733543130306 -0.008285362397825952 0 0.0051178056290869358 -0.0080731822437228023 0 0.0049907632314917447 -0.0079274320269029121 0 0.004963733543130306 -0.008285362397825952 0 0.0050217112452336492 -0.0074199329827105559 0 0.0045279510095737338 -0.0083674374154524642 0 0.0052977014862703167 -0.0079844622382139862 0 0.0051178056290869358 -0.0080731822437228023 0 0.0049907632314917447 -0.0079274320269029121 0 0.0041095461502878459 -0.0078327383258254262 0 0.0044287273696060571 -0.0075289974374300895 0 0.0045329782752714654 -0.0083229755873493235 0 0.0044287273696060571 -0.0075289974374300895 0 0.0049781442436619685 -0.0072220098130842013 0 0.0045329782752714654 -0.0083229755873493235 0 0.0044287273696060571 -0.0075289974374300895 0 0.0044415694648565129 -0.0070280103639657841 0 0.0040129562954382891 -0.007293887514970559 0 0.0041095461502878459 -0.0078327383258254262 0 0.0044287273696060571 -0.0075289974374300895 0 0.0040129562954382891 -0.007293887514970559 0 0.0044287273696060571 -0.0075289974374300895 0 0.0044415694648565129 -0.0070280103639657841 0 0.0049781442436619685 -0.0072220098130842013 0 0.0044415694648565129 -0.0070280103639657841 0 0.0039820648725009296 -0.006764067077946136 0 0.0046597255261147533 -0.0065455831650754462 0 0.0044415694648565129 -0.0070280103639657841 0 0.0040129562954382891 -0.007293887514970559 0 0.0039820648725009296 -0.006764067077946136 0 0.0051918868932805534 -0.0077973642527993216 0 0.0050217112452336492 -0.0074199329827105559 0 0.0053570539111173886 -0.0064035574770803204 0 0.0049781442436619685 -0.0072220098130842013 0 0.0046597255261147533 -0.0065455831650754462 0 0.0044415694648565129 -0.0070280103639657841 0 0.0049781442436619685 -0.0072220098130842013 0 0.0046597255261147533 -0.0065455831650754462 0 0.0034026980052571129 -0.0070556168154017806 0 0.0027832187922012539 -0.0070042794866154506 0 0.0029868182686422847 -0.0076671424819029863 0 0.0035634453179171363 -0.0076217354681820688 0 0.0034026980052571129 -0.0070556168154017806 0 0.0029868182686422847 -0.0076671424819029863 0 0.0035634453179171363 -0.0076217354681820688 0 0.0040129562954382891 -0.007293887514970559 0 0.0034026980052571129 -0.0070556168154017806 0 0.0041095461502878459 -0.0078327383258254262 0 0.0035634453179171363 -0.0076217354681820688 0 0.0040129562954382891 -0.007293887514970559 0 0.0039820648725009296 -0.006764067077946136 0 0.0034026980052571129 -0.0070556168154017806 0 0.0032854243452172791 -0.0064789650288585993 0 0.0040129562954382891 -0.007293887514970559 0 0.0039820648725009296 -0.006764067077946136 0 0.0034026980052571129 -0.0070556168154017806 0 0.0034026980052571129 -0.0070556168154017806 0 0.0032854243452172791 -0.0064789650288585993 0 0.0027832187922012539 -0.0070042794866154506 0 0.0032854243452172791 -0.0064789650288585993 0 0.0035756219456267407 -0.0057319494027962365 0 0.0041231794655817661 -0.0062099278571303342 0 0.0039820648725009296 -0.006764067077946136 0 0.0032854243452172791 -0.0064789650288585993 0 0.0041231794655817661 -0.0062099278571303342 0 0.0034097807230400504 -0.0070647092068038533 0 0.0038841346416912453 -0.0064221889785833581 0 0.0035756219456267407 -0.0057319494027962365 0 0.0041231794655817661 -0.0062099278571303342 0 0.0044766569692818196 -0.0057743352274327552 0 0.0033275706723666638 -0.007944387382497111 0 0.0032203662543993563 -0.0079986604219161369 0 0.0032693789669882832 -0.0080322302106850558 0 0.0032854243452172791 -0.0064789650288585993 0 0.0035756219456267407 -0.0057319494027962365 0 0.0027216443668073415 -0.0057131287652654227 0 0.0034097807230400504 -0.0070647092068038533 0 0.0032901074228579835 -0.0049637932317187616 0 0.0053570539111173886 -0.0064035574770803204 0 0.0049437746609869108 -0.0062458514522990395 0 0.0046597255261147533 -0.0065455831650754462 0 0.0049437746609869108 -0.0062458514522990395 0 0.0046597255261147533 -0.0065455831650754462 0 0.0046450526849905697 -0.0061363979079111586 0 0.0051918868932805534 -0.0077973642527993216 0 0.0048658328786342795 -0.0057028492033019485 0 0.0053570539111173886 -0.0064035574770803204 0 0.0049437746609869108 -0.0062458514522990395 0 0.0050034333770057979 -0.0059136059591017249 0 0.0039820648725009296 -0.006764067077946136 0 0.0046597255261147533 -0.0065455831650754462 0 0.0041231794655817661 -0.0062099278571303342 0 0.0046597255261147533 -0.0065455831650754462 0 0.0041231794655817661 -0.0062099278571303342 0 0.0046450526849905697 -0.0061363979079111586 0 0.0041231794655817661 -0.0062099278571303342 0 0.0046450526849905697 -0.0061363979079111586 0 0.0044766569692818196 -0.0057743352274327552 0 0.0040900456347813799 -0.01152032764914558 0 0.0038841346416912453 -0.0064221889785833581 0 0.0053936579177350594 -0.0058659878143070355 0 0.0044766569692818196 -0.0057743352274327552 0 0.0050034333770057979 -0.0059136059591017249 0 0.0031251851554574585 -0.0080494927029560528 0 0.0032203662543993563 -0.0079986604219161369 0 0.0031808758355644988 -0.0080778223714752309 0 0.0046450526849905697 -0.0061363979079111586 0 0.0044766569692818196 -0.0057743352274327552 0 0.0050034333770057979 -0.0059136059591017249 0 0.0049437746609869108 -0.0062458514522990395 0 0.0046450526849905697 -0.0061363979079111586 0 0.0050034333770057979 -0.0059136059591017249 0 0.0031185092652708836 -0.0081698597493090278 0 0.0031251851554574585 -0.0080494927029560528 0 0.0031808758355644988 -0.0080778223714752309 0 0.0031185092652708836 -0.0081698597493090278 0 0.0032462693266086481 -0.0081204814812207843 0 0.0032055822547237879 -0.0082179542676966335 0 0.0031185092652708836 -0.0081698597493090278 0 0.0031808758355644988 -0.0080778223714752309 0 0.0032462693266086481 -0.0081204814812207843 0 0.0031808758355644988 -0.0080778223714752309 0 0.0032462693266086481 -0.0081204814812207843 0 0.0032693789669882832 -0.0080322302106850558 0 0.0032203662543993563 -0.0079986604219161369 0 0.0031808758355644988 -0.0080778223714752309 0 0.0032693789669882832 -0.0080322302106850558 0 0.0033275706723666638 -0.007944387382497111 0 0.0032693789669882832 -0.0080322302106850558 0 0.0033979230494092204 -0.0080468306804500657 0 0.0033275706723666638 -0.007944387382497111 0 0.0033979230494092204 -0.0080468306804500657 0 0.0034508768634799081 -0.0079028648449956957 0 0.0032462693266086481 -0.0081204814812207843 0 0.0032693789669882832 -0.0080322302106850558 0 0.0033979230494092204 -0.0080468306804500657 0 0.0032462693266086481 -0.0081204814812207843 0 0.0033979230494092204 -0.0080468306804500657 0 0.0033389369988280006 -0.0081701938500143255 0 0.0032462693266086481 -0.0081204814812207843 0 0.0033389369988280006 -0.0081701938500143255 0 0.0032055822547237879 -0.0082179542676966335 0 0.0031130373809382878 -0.0036223670874090119 0 0.0032369577038442367 -0.0035528372036250661 0 0.0029145683521028714 0.0019587040679154778 0 0.0031091778735703513 0.0011806612997445061 0 0.002668703263609008 0.0015811176875509467 0 0.0033389369988280006 -0.0081701938500143255 0 0.0032408997754977409 -0.0082494015493392876 0 0.0032055822547237879 -0.0082179542676966335 0 0.0032801540156527113 -0.0082824081390292115 0 0.0033389369988280006 -0.0081701938500143255 0 0.0032408997754977409 -0.0082494015493392876 0 0.0031729767555705116 -0.0030678948097186401 0 0.0032369577038442367 -0.0035528372036250661 0 0.0032408997754977409 -0.0082494015493392876 0 0.0031676199957275161 -0.0083012148500349985 0 0.0032055822547237879 -0.0082179542676966335 0 0.0031154869172085133 -0.0082893498200442787 0 0.0031676199957275161 -0.0083012148500349985 0 0.0032055822547237879 -0.0082179542676966335 0 0.0031154869172085133 -0.0082893498200442787 0 0.0031185092652708836 -0.0081698597493090278 0 0.0032055822547237879 -0.0082179542676966335 0 0.0014644699166897457 0.010555029288149295 0 7.4236666218645015e-05 0.010875407633028626 0 0.00088972612582101807 0.011519947396948432 0 7.4236666218645015e-05 0.010875407633028626 0 0.00015939751395985737 0.0097863880884119948 0 -0.00088290281335528381 0.01006381397740113 0 0.0014644699166897457 0.010555029288149295 0 7.4236666218645015e-05 0.010875407633028626 0 0.00015939751395985737 0.0097863880884119948 0 7.4236666218645015e-05 0.010875407633028626 0 0.00011041102723124445 0.011887487854156163 0 -0.0011367961194423644 0.01151886864225601 0 7.4236666218645015e-05 0.010875407633028626 0 0.00011041102723124445 0.011887487854156163 0 0.00088972612582101807 0.011519947396948432 0 0.00065697521802920023 0.012558569740605168 0 0.00011041102723124445 0.011887487854156163 0 0.00088972612582101807 0.011519947396948432 0 0.00065697521802920023 0.012558569740605168 0 0.0017486621703982253 0.012014618094132696 0 0.00088972612582101807 0.011519947396948432 0 0.0014644699166897457 0.010555029288149295 0 0.0017486621703982253 0.012014618094132696 0 0.00088972612582101807 0.011519947396948432 0 0.0014644699166897457 0.010555029288149295 0 0.0017486621703982253 0.012014618094132696 0 0.0027374591395656882 0.011238063378561949 0 0.0031850775642219206 0.01299737978897892 0 0.0017486621703982253 0.012014618094132696 0 0.0027374591395656882 0.011238063378561949 0 0.0020366065743816718 0.0075755386730062988 0 0.0025833461569762981 0.0061924082937823638 0 0.0031091778735703513 0.0011806612997445061 0 0.0022648722034845476 0.0012862744787243072 0 0.002668703263609008 0.0015811176875509467 0 0.0024607878388488167 0.0020369542158503538 0 0.0022648722034845476 0.0012862744787243072 0 0.002668703263609008 0.0015811176875509467 0 0.0028535275386580889 0.00044583255949842877 0 0.0031091778735703513 0.0011806612997445061 0 0.0022648722034845476 0.0012862744787243072 0 0.0025833461569762981 0.0061924082937823638 0 0.0022492804789679566 0.0053270384525050596 0 0.0014644699166897457 0.010555029288149295 0 0.0027374591395656882 0.011238063378561949 0 0.0022775696784501898 0.0094432701524602772 0 0.0028535275386580889 0.00044583255949842877 0 0.0022648722034845476 0.0012862744787243072 0 0.0020599027892248749 0.00052163546926142453 0 0.0031130373809382878 -0.0036223670874090119 0 0.0032901074228579835 -0.0049637932317187616 0 0.0028535275386580889 0.00044583255949842877 0 0.0020599027892248749 0.00052163546926142453 0 0.0025882810657249225 -0.00031183007036399043 0 0.0022492804789679566 0.0053270384525050596 0 0.0014030610306860944 0.0021191813860468134 0 0.0020599027892248749 0.00052163546926142453 0 0.0025882810657249225 -0.00031183007036399043 0 0.0018513668896352998 -0.000262599598699923 0 0.0022775696784501898 0.0094432701524602772 0 0.0010104187490632961 0.0082528098941525244 0 0.0018097977777727385 0.0076136810176095186 0 0.0010104187490632961 0.0082528098941525244 0 0.001150577742893569 0.0093843859181616338 0 0.00021535716985093139 0.0088689443976786297 0 0.0022775696784501898 0.0094432701524602772 0 0.0010104187490632961 0.0082528098941525244 0 0.001150577742893569 0.0093843859181616338 0 0.0014644699166897457 0.010555029288149295 0 0.0022775696784501898 0.0094432701524602772 0 0.001150577742893569 0.0093843859181616338 0 0.0014644699166897457 0.010555029288149295 0 0.001150577742893569 0.0093843859181616338 0 0.00015939751395985737 0.0097863880884119948 0 0.001150577742893569 0.0093843859181616338 0 0.00015939751395985737 0.0097863880884119948 0 0.00021535716985093139 0.0088689443976786297 0 0.00015939751395985737 0.0097863880884119948 0 0.00021535716985093139 0.0088689443976786297 0 -0.00062123256361377706 0.0090806313070746908 0 0.0010104187490632961 0.0082528098941525244 0 0.00021535716985093139 0.0088689443976786297 0 -0.00042341073004254143 0.0081177322326551928 0 0.00091521566360434252 0.0082373355233035135 0 -0.00047139347642693877 0.0080914895875637063 0 0.00021535716985093139 0.0088689443976786297 0 -0.00062123256361377706 0.0090806313070746908 0 -0.00042341073004254143 0.0081177322326551928 0 0.0010104187490632961 0.0082528098941525244 0 -0.00011053551852034535 0.0076467540351954182 0 -0.00050620969786809608 0.0079437823638486629 0 -0.00065272056010150486 0.004800441736689658 0 -0.00076353341329274166 0.0045549562542598464 0 -5.0739681321966316e-05 0.0042965005758924552 0 -0.00065272056010150486 0.004800441736689658 0 -5.0739681321966316e-05 0.0042965005758924552 0 0.00072687316468774267 0.0047990168156385555 0 -0.00038768491070859926 0.0066328353092818112 0 0.0014030610306860944 0.0021191813860468134 0 0.0010104187490632961 0.0082528098941525244 0 -0.00011053551852034535 0.0076467540351954182 0 0.0018097977777727385 0.0076136810176095186 0 -5.0739681321966316e-05 0.0042965005758924552 0 -0.00039592819083406522 0.0039361550177679852 0 0.00040736611081738 0.0035207898607722147 0 -5.0739681321966316e-05 0.0042965005758924552 0 0.00072687316468774267 0.0047990168156385555 0 0.00040736611081738 0.0035207898607722147 0 0.0014030610306860944 0.0021191813860468134 0 0.00080340272480081056 -0.0017370726175286368 0 -0.00076353341329274166 0.0045549562542598464 0 -5.0739681321966316e-05 0.0042965005758924552 0 -0.00039592819083406522 0.0039361550177679852 0 -0.00039592819083406522 0.0039361550177679852 0 -0.0005488957226848656 0.0033335593122300815 0 0.00040736611081738 0.0035207898607722147 0 -0.00039592819083406522 0.0039361550177679852 0 -0.0005488957226848656 0.0033335593122300815 0 -0.00089964649109966217 0.0038013082833572185 0 -0.00076353341329274166 0.0045549562542598464 0 -0.00039592819083406522 0.0039361550177679852 0 -0.00089964649109966217 0.0038013082833572185 0 0.0032901074228579835 -0.0049637932317187616 0 0.0014030610306860944 0.0021191813860468134 0 0.003188756266193343 -0.0045409142638574741 0 0.0016958763730911418 -0.004501471310775257 0 0.0027444298593312195 -0.0057463635888127911 0 0.0016958763730911418 -0.004501471310775257 0 0.0027444298593312195 -0.0057463635888127911 0 0.0013416653795868178 -0.0060930371764433087 0 0.0032901074228579835 -0.0049637932317187616 0 0.0025660853656242692 -0.0061179359313434335 0 0.0032854243452172791 -0.0064789650288585993 0 0.0027216443668073415 -0.0057131287652654227 0 0.0024761983256454774 -0.006381185213460705 0 0.0024761983256454774 -0.006381185213460705 0 0.0027832187922012539 -0.0070042794866154506 0 0.0022372839647056483 -0.0069159613673352742 0 0.0032854243452172791 -0.0064789650288585993 0 0.0024761983256454774 -0.006381185213460705 0 0.0027832187922012539 -0.0070042794866154506 0 0.0027444298593312195 -0.0057463635888127911 0 0.0022372839647056483 -0.0069159613673352742 0 0.0013416653795868178 -0.0060930371764433087 0 0.0025660853656242692 -0.0061179359313434335 0 0.0022888982226701576 -0.0068264622959824349 0 0.0022372839647056483 -0.0069159613673352742 0 0.0012006980085844555 -0.007330474272995078 0 0.0023632990322211248 -0.0076142856564996178 0 0.0027832187922012539 -0.0070042794866154506 0 0.0022372839647056483 -0.0069159613673352742 0 0.0023632990322211248 -0.0076142856564996178 0 0.0027832187922012539 -0.0070042794866154506 0 0.0023632990322211248 -0.0076142856564996178 0 0.0029868182686422847 -0.0076671424819029863 0 -0.0005488957226848656 0.0033335593122300815 0 -1.7917815767621583e-05 0.0026070745344633148 0 -0.0010834908297802893 0.0026542536345965278 0 -0.0005488957226848656 0.0033335593122300815 0 0.00040736611081738 0.0035207898607722147 0 -1.7917815767621583e-05 0.0026070745344633148 0 0.00040736611081738 0.0035207898607722147 0 -1.7917815767621583e-05 0.0026070745344633148 0 7.4690827822380393e-05 0.0022684591827255153 0 0.0022372839647056483 -0.0069159613673352742 0 0.0013416653795868178 -0.0060930371764433087 0 0.0012006980085844555 -0.007330474272995078 0 0.00080340272480081056 -0.0017370726175286368 0 0.00066492000510479316 -0.002280684219706296 0 -1.7917815767621583e-05 0.0026070745344633148 0 -0.00047094501531844601 0.0021322212635243041 0 -0.00082148635853246778 0.0025173259358201969 0 -1.7917815767621583e-05 0.0026070745344633148 0 7.4690827822380393e-05 0.0022684591827255153 0 -0.00047094501531844601 0.0021322212635243041 0 -9.7241602929385522e-05 0.0026032425573335252 0 -0.00089607965326056168 0.0025956853665606203 0 7.4690827822380393e-05 0.0022684591827255153 0 -0.00035343758356735623 0.0016039864936790542 0 -0.00020573682646651654 0.0013269894956697938 0 7.4690827822380393e-05 0.0022684591827255153 0 -0.00047094501531844601 0.0021322212635243041 0 -0.00035343758356735623 0.0016039864936790542 0 0.00066492000510479316 -0.002280684219706296 0 0.00045427491689866789 -0.0041245035045429992 0 0.0012006980085844555 -0.007330474272995078 0 0.0010240654937036617 -0.0082295029164925725 0 0.0017960051551014398 -0.0080995744758630018 0 0.0015900017739345321 -0.0085612586137230884 0 0.0010240654937036617 -0.0082295029164925725 0 0.0017960051551014398 -0.0080995744758630018 0 0.0015900017739345321 -0.0085612586137230884 0 0.0010240654937036617 -0.0082295029164925725 0 0.0012457632855327973 -0.0088896372092591297 0 -0.00020573682646651654 0.0013269894956697938 0 -0.00045648808982415794 0.00039667255601411554 0 -0.00072676019121783802 0.0012105113826032111 0 -0.00035343758356735623 0.0016039864936790542 0 -0.00020573682646651654 0.0013269894956697938 0 -0.00072676019121783802 0.0012105113826032111 0 0.00045427491689866789 -0.0041245035045429992 0 -0.00085560963421394244 -0.0011909788034336264 0 0.0010240654937036617 -0.0082295029164925725 0 0.00079918737060203499 -0.0090804909168515097 0 0.0012457632855327973 -0.0088896372092591297 0 -0.00085560963421394244 -0.0011909788034336264 0 -0.00026490228188621681 -0.0018210005771677044 0 0.0012457632855327973 -0.0088896372092591297 0 0.0011923969255616146 -0.0091916366051197212 0 0.00085957414757705604 -0.0091203495142601464 0 0.00079918737060203499 -0.0090804909168515097 0 0.0012457632855327973 -0.0088896372092591297 0 0.00085957414757705604 -0.0091203495142601464 0 0.0015900017739345321 -0.0085612586137230884 0 0.0012457632855327973 -0.0088896372092591297 0 0.001785341630909181 -0.0089903414207926115 0 0.0012457632855327973 -0.0088896372092591297 0 0.0014774695290679768 -0.0091751104949570009 0 0.001785341630909181 -0.0089903414207926115 0 0.0012457632855327973 -0.0088896372092591297 0 0.0011923969255616146 -0.0091916366051197212 0 0.0014774695290679768 -0.0091751104949570009 0 0.0011923969255616146 -0.0091916366051197212 0 0.0013825045043986284 -0.0094529199836289428 0 0.0010145808134446569 -0.0093741403798658866 0 0.0011923969255616146 -0.0091916366051197212 0 0.0014774695290679768 -0.0091751104949570009 0 0.0013825045043986284 -0.0094529199836289428 0 0.0013825045043986284 -0.0094529199836289428 0 0.00098258419372085717 -0.0096554749020576584 0 0.0017035692704355039 -0.0099727437833038012 0 0.0014774695290679768 -0.0091751104949570009 0 0.001819227090903618 -0.009454904086528073 0 0.001785341630909181 -0.0089903414207926115 0 0.0014774695290679768 -0.0091751104949570009 0 0.0013825045043986284 -0.0094529199836289428 0 0.001819227090903618 -0.009454904086528073 0 0.0013825045043986284 -0.0094529199836289428 0 0.001819227090903618 -0.009454904086528073 0 0.0017035692704355039 -0.0099727437833038012 0 0.00079661672373113794 -0.0090777743048977028 0 0.00098258419372085717 -0.0096554749020576584 0 0.0010145808134446569 -0.0093741403798658866 0 0.00079661672373113794 -0.0090777743048977028 0 0.00098258419372085717 -0.0096554749020576584 0 0.00057946556440612246 -0.0099563452858245829 0 0.0013825045043986284 -0.0094529199836289428 0 0.00098258419372085717 -0.0096554749020576584 0 0.0010145808134446569 -0.0093741403798658866 0 -0.00085560963421394244 -0.0011909788034336264 0 -0.00030809277579928743 -0.0017122382609328279 0 0.00079661672373113794 -0.0090777743048977028 0 0.00085957414757705604 -0.0091203495142601464 0 0.0010145808134446569 -0.0093741403798658866 0 0.0011923969255616146 -0.0091916366051197212 0 0.00085957414757705604 -0.0091203495142601464 0 0.0010145808134446569 -0.0093741403798658866 0 0.0027339213181302039 -0.0094857240124373316 0 0.0022393062470085433 -0.0097526301960866243 0 0.0022635129257618314 -0.0092104326384095155 0 0.0027339213181302039 -0.0094857240124373316 0 0.0022635129257618314 -0.0092104326384095155 0 0.002658195260549473 -0.0090976409053638001 0 0.0027339213181302039 -0.0094857240124373316 0 0.0022393062470085433 -0.0097526301960866243 0 0.002685555795234247 -0.0099043897530534802 0 0.0022393062470085433 -0.0097526301960866243 0 0.001819227090903618 -0.009454904086528073 0 0.0017035692704355039 -0.0099727437833038012 0 0.001819227090903618 -0.009454904086528073 0 0.0022635129257618314 -0.0092104326384095155 0 0.001785341630909181 -0.0089903414207926115 0 0.0022393062470085433 -0.0097526301960866243 0 0.001819227090903618 -0.009454904086528073 0 0.0022635129257618314 -0.0092104326384095155 0 0.0022635129257618314 -0.0092104326384095155 0 0.001785341630909181 -0.0089903414207926115 0 0.0020749981665190292 -0.008634439163563188 0 0.0015900017739345321 -0.0085612586137230884 0 0.001785341630909181 -0.0089903414207926115 0 0.0020749981665190292 -0.008634439163563188 0 0.0022635129257618314 -0.0092104326384095155 0 0.002559737972381391 -0.0087002102099853762 0 0.0020749981665190292 -0.008634439163563188 0 0.0022635129257618314 -0.0092104326384095155 0 0.002559737972381391 -0.0087002102099853762 0 0.002658195260549473 -0.0090976409053638001 0 0.0027339213181302039 -0.0094857240124373316 0 0.002658195260549473 -0.0090976409053638001 0 0.0030468160679837388 -0.0091099809486382809 0 0.002559737972381391 -0.0087002102099853762 0 0.002658195260549473 -0.0090976409053638001 0 0.002950930682428948 -0.0087293424071301084 0 0.002559737972381391 -0.0087002102099853762 0 0.0029484004709451339 -0.0083279982587341587 0 0.002950930682428948 -0.0087293424071301084 0 0.002559737972381391 -0.0087002102099853762 0 0.0024677246053976401 -0.0081658453861125704 0 0.0020749981665190292 -0.008634439163563188 0 0.002559737972381391 -0.0087002102099853762 0 0.0024677246053976401 -0.0081658453861125704 0 0.0029484004709451339 -0.0083279982587341587 0 0.0024677246053976401 -0.0081658453861125704 0 0.0020749981665190292 -0.008634439163563188 0 0.0017960051551014398 -0.0080995744758630018 0 0.0015900017739345321 -0.0085612586137230884 0 0.0020749981665190292 -0.008634439163563188 0 0.0017960051551014398 -0.0080995744758630018 0 0.0024677246053976401 -0.0081658453861125704 0 0.0017960051551014398 -0.0080995744758630018 0 0.0023632990322211248 -0.0076142856564996178 0 0.0012006980085844555 -0.007330474272995078 0 0.0017960051551014398 -0.0080995744758630018 0 0.0023632990322211248 -0.0076142856564996178 0 0.0024677246053976401 -0.0081658453861125704 0 0.0029868182686422847 -0.0076671424819029863 0 0.0029484004709451339 -0.0083279982587341587 0 0.0024677246053976401 -0.0081658453861125704 0 0.0023632990322211248 -0.0076142856564996178 0 0.0029868182686422847 -0.0076671424819029863 0 0.0029868182686422847 -0.0076671424819029863 0 0.0029484004709451339 -0.0083279982587341587 0 0.0033687736503733422 -0.0081735596134244037 0 0.003049374023188044 -0.0077110330136326947 0 0.0038983770711230256 -0.0080805532304273914 0 0.0029868182686422847 -0.0076671424819029863 0 0.0038474491058234019 -0.007883969797479214 0 0.0033687736503733422 -0.0081735596134244037 0 0.0035634453179171363 -0.0076217354681820688 0 0.0029868182686422847 -0.0076671424819029863 0 0.0039324314144205457 -0.0082882664725317367 0 0.0041095461502878459 -0.0078327383258254262 0 0.0035634453179171363 -0.0076217354681820688 0 0.0039324314144205457 -0.0082882664725317367 0 0.0037466584882470556 -0.0083879392403444324 0 0.003342087616557271 -0.0086371281603726084 0 0.0033687736503733422 -0.0081735596134244037 0 0.0038474491058234019 -0.007883969797479214 0 0.0037466584882470556 -0.0083879392403444324 0 0.0033687736503733422 -0.0081735596134244037 0 0.0038474491058234019 -0.007883969797479214 0 0.0037466584882470556 -0.0083879392403444324 0 0.0042314353894212361 -0.0083215777567508861 0 0.0037466584882470556 -0.0083879392403444324 0 0.0040281388443833372 -0.0086052290795327838 0 0.0038437172430394544 -0.0089042419629560762 0 0.0037466584882470556 -0.0083879392403444324 0 0.003342087616557271 -0.0086371281603726084 0 0.0038437172430394544 -0.0089042419629560762 0 0.003342087616557271 -0.0086371281603726084 0 0.0029484004709451339 -0.0083279982587341587 0 0.002950930682428948 -0.0087293424071301084 0 0.003342087616557271 -0.0086371281603726084 0 0.0029484004709451339 -0.0083279982587341587 0 0.0033687736503733422 -0.0081735596134244037 0 0.0053047867593581056 -0.0080954024458925362 0 0.0051661720297168021 -0.0088069412899509768 0 0.004963733543130306 -0.008285362397825952 0 0.0051661720297168021 -0.0088069412899509768 0 0.004963733543130306 -0.008285362397825952 0 0.0049591488952116991 -0.0085669161416893538 0 0.0051661720297168021 -0.0088069412899509768 0 0.0049591488952116991 -0.0085669161416893538 0 0.0049545290031053763 -0.008838534704146854 0 0.004963733543130306 -0.008285362397825952 0 0.0049591488952116991 -0.0085669161416893538 0 0.0045329782752714654 -0.0083229755873493235 0 0.0049591488952116991 -0.0085669161416893538 0 0.0045329782752714654 -0.0083229755873493235 0 0.0049545290031053763 -0.008838534704146854 0 0.0038983770711230256 -0.0080805532304273914 0 0.0048787339246910951 -0.0085137337922396097 0 0.0039324314144205457 -0.0082882664725317367 0 0.0045329782752714654 -0.0083229755873493235 0 0.0049545290031053763 -0.008838534704146854 0 0.0038474491058234019 -0.007883969797479214 0 0.0042314353894212361 -0.0083215777567508861 0 0.0048058623909502263 -0.0081513393270231313 0 0.0041095461502878459 -0.0078327383258254262 0 0.0039324314144205457 -0.0082882664725317367 0 0.0045329782752714654 -0.0083229755873493235 0 0.0042314353894212361 -0.0083215777567508861 0 0.0040281388443833372 -0.0086052290795327838 0 0.0043682909711546918 -0.0087355692425382468 0 0.0037466584882470556 -0.0083879392403444324 0 0.0042314353894212361 -0.0083215777567508861 0 0.0040281388443833372 -0.0086052290795327838 0 0.0045496772170674745 -0.0084707476959952153 0 0.0047980422379340828 -0.0086725685021384474 0 0.0043682909711546918 -0.0087355692425382468 0 0.0042314353894212361 -0.0083215777567508861 0 0.0045496772170674745 -0.0084707476959952153 0 0.0043682909711546918 -0.0087355692425382468 0 0.0042314353894212361 -0.0083215777567508861 0 0.0045496772170674745 -0.0084707476959952153 0 0.0048058623909502263 -0.0081513393270231313 0 0.0045496772170674745 -0.0084707476959952153 0 0.0048058623909502263 -0.0081513393270231313 0 0.0047980422379340828 -0.0086725685021384474 0 0.0048058623909502263 -0.0081513393270231313 0 0.0047980422379340828 -0.0086725685021384474 0 0.0052910178247516345 -0.0087278317791155257 0 0.0050520185731846266 -0.0090498833900096547 0 0.0048867824406167932 -0.0093045744899148009 0 0.005219347446624726 -0.0093768854818884091 0 0.0047980422379340828 -0.0086725685021384474 0 0.0050520185731846266 -0.0090498833900096547 0 0.0052910178247516345 -0.0087278317791155257 0 0.0047980422379340828 -0.0086725685021384474 0 0.0050520185731846266 -0.0090498833900096547 0 0.0046569514110981472 -0.009048735954498616 0 0.0047980422379340828 -0.0086725685021384474 0 0.0046569514110981472 -0.009048735954498616 0 0.0043682909711546918 -0.0087355692425382468 0 0.0050520185731846266 -0.0090498833900096547 0 0.0048867824406167932 -0.0093045744899148009 0 0.0046569514110981472 -0.009048735954498616 0 0.0048867824406167932 -0.0093045744899148009 0 0.0046569514110981472 -0.009048735954498616 0 0.0045711631907683148 -0.0093920681783298803 0 0.0042179550075694639 -0.0090618753433388873 0 0.0041176254149347174 -0.0094278896356985425 0 0.0045711631907683148 -0.0093920681783298803 0 0.0046569514110981472 -0.009048735954498616 0 0.0042179550075694639 -0.0090618753433388873 0 0.0045711631907683148 -0.0093920681783298803 0 0.0046569514110981472 -0.009048735954498616 0 0.0043682909711546918 -0.0087355692425382468 0 0.0042179550075694639 -0.0090618753433388873 0 0.0040281388443833372 -0.0086052290795327838 0 0.0042179550075694639 -0.0090618753433388873 0 0.0038437172430394544 -0.0089042419629560762 0 0.0040281388443833372 -0.0086052290795327838 0 0.0043682909711546918 -0.0087355692425382468 0 0.0042179550075694639 -0.0090618753433388873 0 0.0042179550075694639 -0.0090618753433388873 0 0.0041176254149347174 -0.0094278896356985425 0 0.0037800227180473786 -0.0092673172813940996 0 0.0041176254149347174 -0.0094278896356985425 0 0.0044068289925916181 -0.0096976028774514739 0 0.0039927572605200192 -0.009942953490027287 0 0.0044068289925916181 -0.0096976028774514739 0 0.0045711631907683148 -0.0093920681783298803 0 0.0046883949361384031 -0.0098101817029094956 0 0.0044068289925916181 -0.0096976028774514739 0 0.0046883949361384031 -0.0098101817029094956 0 0.0045757571881744757 -0.010079303353632644 0 0.0041176254149347174 -0.0094278896356985425 0 0.0044068289925916181 -0.0096976028774514739 0 0.0045711631907683148 -0.0093920681783298803 0 0.0048867824406167932 -0.0093045744899148009 0 0.0045711631907683148 -0.0093920681783298803 0 0.0049394042783742998 -0.0096567784745731182 0 0.0045711631907683148 -0.0093920681783298803 0 0.0046883949361384031 -0.0098101817029094956 0 0.0049394042783742998 -0.0096567784745731182 0 0.0046883949361384031 -0.0098101817029094956 0 0.0049394042783742998 -0.0096567784745731182 0 0.0049998974101980046 -0.00993866589405 0 0.0049394042783742998 -0.0096567784745731182 0 0.0049998974101980046 -0.00993866589405 0 0.005342495959370838 -0.0097120362419102803 0 0.0049394042783742998 -0.0096567784745731182 0 0.005342495959370838 -0.0097120362419102803 0 0.005219347446624726 -0.0093768854818884091 0 0.0048867824406167932 -0.0093045744899148009 0 0.0049394042783742998 -0.0096567784745731182 0 0.005219347446624726 -0.0093768854818884091 0 0.0030468160679837388 -0.0091099809486382809 0 0.0034834061244380745 -0.0090748803415211608 0 0.0034114122776361796 -0.0094595349224547813 0 0.002658195260549473 -0.0090976409053638001 0 0.0030468160679837388 -0.0091099809486382809 0 0.002950930682428948 -0.0087293424071301084 0 0.003342087616557271 -0.0086371281603726084 0 0.0030468160679837388 -0.0091099809486382809 0 0.002950930682428948 -0.0087293424071301084 0 0.003342087616557271 -0.0086371281603726084 0 0.0030468160679837388 -0.0091099809486382809 0 0.0034834061244380745 -0.0090748803415211608 0 0.003342087616557271 -0.0086371281603726084 0 0.0038437172430394544 -0.0089042419629560762 0 0.0034834061244380745 -0.0090748803415211608 0 0.0038437172430394544 -0.0089042419629560762 0 0.0037800227180473786 -0.0092673172813940996 0 0.0034834061244380745 -0.0090748803415211608 0 0.0042179550075694639 -0.0090618753433388873 0 0.0038437172430394544 -0.0089042419629560762 0 0.0037800227180473786 -0.0092673172813940996 0 0.0037800227180473786 -0.0092673172813940996 0 0.0034834061244380745 -0.0090748803415211608 0 0.0034114122776361796 -0.0094595349224547813 0 0.0037800227180473786 -0.0092673172813940996 0 0.0034114122776361796 -0.0094595349224547813 0 0.003778740153722092 -0.0096117684554874547 0 0.0041176254149347174 -0.0094278896356985425 0 0.0037800227180473786 -0.0092673172813940996 0 0.003778740153722092 -0.0096117684554874547 0 0.003778740153722092 -0.0096117684554874547 0 0.0035431403597816044 -0.0098079986465979489 0 0.0039927572605200192 -0.009942953490027287 0 0.0041176254149347174 -0.0094278896356985425 0 0.003778740153722092 -0.0096117684554874547 0 0.0039927572605200192 -0.009942953490027287 0 0.0034114122776361796 -0.0094595349224547813 0 0.003778740153722092 -0.0096117684554874547 0 0.0035431403597816044 -0.0098079986465979489 0 0.0034114122776361796 -0.0094595349224547813 0 0.0035431403597816044 -0.0098079986465979489 0 0.0030935680844472522 -0.0098273096655135759 0 0.0034114122776361796 -0.0094595349224547813 0 0.0030710694168387966 -0.0094703149998423917 0 0.0030935680844472522 -0.0098273096655135759 0 0.0030468160679837388 -0.0091099809486382809 0 0.0034114122776361796 -0.0094595349224547813 0 0.0030710694168387966 -0.0094703149998423917 0 0.0027339213181302039 -0.0094857240124373316 0 0.0030468160679837388 -0.0091099809486382809 0 0.0030710694168387966 -0.0094703149998423917 0 0.0027339213181302039 -0.0094857240124373316 0 0.0030710694168387966 -0.0094703149998423917 0 0.0030935680844472522 -0.0098273096655135759 0 0.0027339213181302039 -0.0094857240124373316 0 0.0030935680844472522 -0.0098273096655135759 0 0.002685555795234247 -0.0099043897530534802 0 0.0030935680844472522 -0.0098273096655135759 0 0.0030012226916171295 -0.010188537745445751 0 0.002685555795234247 -0.0099043897530534802 0 0.0030012226916171295 -0.010188537745445751 0 0.0031284919988348262 -0.010582935908077703 0 0.0026567681568675466 -0.01032684984239988 0 0.0030012226916171295 -0.010188537745445751 0 0.0034485666419448481 -0.010201303241931645 0 0.0031284919988348262 -0.010582935908077703 0 0.0035431403597816044 -0.0098079986465979489 0 0.0030935680844472522 -0.0098273096655135759 0 0.0034485666419448481 -0.010201303241931645 0 0.0030935680844472522 -0.0098273096655135759 0 0.0030012226916171295 -0.010188537745445751 0 0.0034485666419448481 -0.010201303241931645 0 0.0035431403597816044 -0.0098079986465979489 0 0.0034485666419448481 -0.010201303241931645 0 0.0039927572605200192 -0.009942953490027287 0 0.0038900454115682421 -0.010458234744248824 0 0.0034485666419448481 -0.010201303241931645 0 0.0039927572605200192 -0.009942953490027287 0 0.0038900454115682421 -0.010458234744248824 0 0.0034485666419448481 -0.010201303241931645 0 0.0035467968991716699 -0.010650641192081879 0 0.0038900454115682421 -0.010458234744248824 0 0.0035467968991716699 -0.010650641192081879 0 0.0038544460483854346 -0.010984506685328356 0 0.0035467968991716699 -0.010650641192081879 0 0.0038544460483854346 -0.010984506685328356 0 0.0034208751560831567 -0.011028762241455756 0 0.0031284919988348262 -0.010582935908077703 0 0.0030278644130474555 -0.011103337566063192 0 0.0034208751560831567 -0.011028762241455756 0 0.0035467968991716699 -0.010650641192081879 0 0.0031284919988348262 -0.010582935908077703 0 0.0034208751560831567 -0.011028762241455756 0 0.0031284919988348262 -0.010582935908077703 0 0.0030278644130474555 -0.011103337566063192 0 0.0027590861678580248 -0.010763887138102805 0 0.0031284919988348262 -0.010582935908077703 0 0.0026567681568675466 -0.01032684984239988 0 0.0027590861678580248 -0.010763887138102805 0 0.0034485666419448481 -0.010201303241931645 0 0.0035467968991716699 -0.010650641192081879 0 0.0031284919988348262 -0.010582935908077703 0 0.0050388015192282861 -0.010307672811865481 0 0.0050813663900247871 -0.010740162193804175 0 0.00547424539889871 -0.010527990602392928 0 0.0050388015192282861 -0.010307672811865481 0 0.0046629276101988696 -0.010556670532045048 0 0.0050813663900247871 -0.010740162193804175 0 0.0050388015192282861 -0.010307672811865481 0 0.0049998974101980046 -0.00993866589405 0 0.0054258151497974631 -0.010064898560448735 0 0.0050388015192282861 -0.010307672811865481 0 0.0049998974101980046 -0.00993866589405 0 0.0045757571881744757 -0.010079303353632644 0 0.0046883949361384031 -0.0098101817029094956 0 0.0049998974101980046 -0.00993866589405 0 0.0045757571881744757 -0.010079303353632644 0 0.0050388015192282861 -0.010307672811865481 0 0.0045757571881744757 -0.010079303353632644 0 0.0046629276101988696 -0.010556670532045048 0 0.004279948005366312 -0.010373091647709297 0 0.0045757571881744757 -0.010079303353632644 0 0.0046629276101988696 -0.010556670532045048 0 0.0044068289925916181 -0.0096976028774514739 0 0.0045757571881744757 -0.010079303353632644 0 0.0039927572605200192 -0.009942953490027287 0 0.004279948005366312 -0.010373091647709297 0 0.0045757571881744757 -0.010079303353632644 0 0.0039927572605200192 -0.009942953490027287 0 0.0038900454115682421 -0.010458234744248824 0 0.004279948005366312 -0.010373091647709297 0 0.0039927572605200192 -0.009942953490027287 0 0.0038900454115682421 -0.010458234744248824 0 0.0038544460483854346 -0.010984506685328356 0 0.0042857028469275955 -0.010832819373577463 0 0.0038900454115682421 -0.010458234744248824 0 0.004279948005366312 -0.010373091647709297 0 0.0042857028469275955 -0.010832819373577463 0 0.0038544460483854346 -0.010984506685328356 0 0.0042857028469275955 -0.010832819373577463 0 0.0043484009971080703 -0.01124619451625449 0 0.0042857028469275955 -0.010832819373577463 0 0.0048329938946538066 -0.011140428650156657 0 0.0043484009971080703 -0.01124619451625449 0 0.004279948005366312 -0.010373091647709297 0 0.0042857028469275955 -0.010832819373577463 0 0.0046629276101988696 -0.010556670532045048 0 0.0048329938946538066 -0.011140428650156657 0 0.0050813663900247871 -0.010740162193804175 0 0.0054926916460788225 -0.011095421099791399 0 0.0046629276101988696 -0.010556670532045048 0 0.0048329938946538066 -0.011140428650156657 0 0.0050813663900247871 -0.010740162193804175 0 0.0042857028469275955 -0.010832819373577463 0 0.0046629276101988696 -0.010556670532045048 0 0.0048329938946538066 -0.011140428650156657 0 0.0048329938946538066 -0.011140428650156657 0 0.0043484009971080703 -0.01124619451625449 0 0.004739429586129381 -0.011890453722122043 0 0.0048329938946538066 -0.011140428650156657 0 0.0054926916460788225 -0.011095421099791399 0 0.0052315990449612066 -0.011596947444527914 0 0.0048329938946538066 -0.011140428650156657 0 0.004739429586129381 -0.011890453722122043 0 0.0052315990449612066 -0.011596947444527914 0 0.0043484009971080703 -0.01124619451625449 0 0.003978818890453561 -0.011496731754201652 0 0.0042229098980006334 -0.011966675363886075 0 0.0043484009971080703 -0.01124619451625449 0 0.0042229098980006334 -0.011966675363886075 0 0.004739429586129381 -0.011890453722122043 0 0.0038544460483854346 -0.010984506685328356 0 0.0043484009971080703 -0.01124619451625449 0 0.003978818890453561 -0.011496731754201652 0 0.003978818890453561 -0.011496731754201652 0 0.0042229098980006334 -0.011966675363886075 0 0.003746910329551868 -0.012095898860245577 0 0.0042229098980006334 -0.011966675363886075 0 0.003746910329551868 -0.012095898860245577 0 0.0044381212549048756 -0.012649563133800447 0 0.0042229098980006334 -0.011966675363886075 0 0.004739429586129381 -0.011890453722122043 0 0.0044381212549048756 -0.012649563133800447 0 0.004739429586129381 -0.011890453722122043 0 0.0052315990449612066 -0.011596947444527914 0 0.0053876089199294368 -0.012548825447710193 0 0.004739429586129381 -0.011890453722122043 0 0.0053876089199294368 -0.012548825447710193 0 0.0044381212549048756 -0.012649563133800447 0 0.003117442983351025 -0.01152455069759949 0 0.0034208751560831567 -0.011028762241455756 0 0.0035602598730804656 -0.011515512308503614 0 0.003117442983351025 -0.01152455069759949 0 0.0026547227821549432 -0.011587625626937194 0 0.0026249461810908719 -0.011162766343076818 0 0.003117442983351025 -0.01152455069759949 0 0.0030278644130474555 -0.011103337566063192 0 0.0026249461810908719 -0.011162766343076818 0 0.0030278644130474555 -0.011103337566063192 0 0.0026249461810908719 -0.011162766343076818 0 0.0027590861678580248 -0.010763887138102805 0 0.003117442983351025 -0.01152455069759949 0 0.0030278644130474555 -0.011103337566063192 0 0.0034208751560831567 -0.011028762241455756 0 0.0038544460483854346 -0.010984506685328356 0 0.0034208751560831567 -0.011028762241455756 0 0.0035602598730804656 -0.011515512308503614 0 0.0038544460483854346 -0.010984506685328356 0 0.003978818890453561 -0.011496731754201652 0 0.0035602598730804656 -0.011515512308503614 0 0.0035602598730804656 -0.011515512308503614 0 0.003746910329551868 -0.012095898860245577 0 0.0032525111865747357 -0.011960736997463819 0 0.003978818890453561 -0.011496731754201652 0 0.0035602598730804656 -0.011515512308503614 0 0.003746910329551868 -0.012095898860245577 0 0.003746910329551868 -0.012095898860245577 0 0.0032525111865747357 -0.011960736997463819 0 0.003263942694628633 -0.012513181402098344 0 0.003117442983351025 -0.01152455069759949 0 0.0027762810206225512 -0.01206446646071623 0 0.0026547227821549432 -0.011587625626937194 0 0.003117442983351025 -0.01152455069759949 0 0.0032525111865747357 -0.011960736997463819 0 0.0027762810206225512 -0.01206446646071623 0 0.003117442983351025 -0.01152455069759949 0 0.0035602598730804656 -0.011515512308503614 0 0.0032525111865747357 -0.011960736997463819 0 0.0027762810206225512 -0.01206446646071623 0 0.0026547227821549432 -0.011587625626937194 0 0.002199966994645908 -0.011779869392164835 0 0.0026547227821549432 -0.011587625626937194 0 0.0021779959206492971 -0.01128801715144646 0 0.002199966994645908 -0.011779869392164835 0 0.0026249461810908719 -0.011162766343076818 0 0.0021779959206492971 -0.01128801715144646 0 0.0022170572136614775 -0.010726735604644318 0 0.0026547227821549432 -0.011587625626937194 0 0.0026249461810908719 -0.011162766343076818 0 0.0021779959206492971 -0.01128801715144646 0 0.0021779959206492971 -0.01128801715144646 0 0.0017428354082136377 -0.011472648598964928 0 0.0016362301199088337 -0.010951224018546653 0 0.0021779959206492971 -0.01128801715144646 0 0.0016362301199088337 -0.010951224018546653 0 0.0022170572136614775 -0.010726735604644318 0 0.0017428354082136377 -0.011472648598964928 0 0.002199966994645908 -0.011779869392164835 0 0.0016220596534445115 -0.011977127265443741 0 0.0021779959206492971 -0.01128801715144646 0 0.0017428354082136377 -0.011472648598964928 0 0.002199966994645908 -0.011779869392164835 0 0.001085136923315819 -0.011356512102434184 0 0.00089804438047722879 -0.012149679195806524 0 0.0016220596534445115 -0.011977127265443741 0 0.0017428354082136377 -0.011472648598964928 0 0.001085136923315819 -0.011356512102434184 0 0.0016220596534445115 -0.011977127265443741 0 0.001085136923315819 -0.011356512102434184 0 0.00089804438047722879 -0.012149679195806524 0 0.00019180331452830362 -0.011633712844072563 0 0.001085136923315819 -0.011356512102434184 0 0.0011687878627145464 -0.01040373595642104 0 0.00037970034183825921 -0.010815920503757287 0 0.0017428354082136377 -0.011472648598964928 0 0.001085136923315819 -0.011356512102434184 0 0.0016362301199088337 -0.010951224018546653 0 0.001085136923315819 -0.011356512102434184 0 0.0016362301199088337 -0.010951224018546653 0 0.0011687878627145464 -0.01040373595642104 0 0.0016362301199088337 -0.010951224018546653 0 0.001712605408284034 -0.010477642606289349 0 0.0011687878627145464 -0.01040373595642104 0 0.0011687878627145464 -0.01040373595642104 0 0.00057946556440612246 -0.0099563452858245829 0 0.00037970034183825921 -0.010815920503757287 0 0.00098258419372085717 -0.0096554749020576584 0 0.0011687878627145464 -0.01040373595642104 0 0.00057946556440612246 -0.0099563452858245829 0 0.001712605408284034 -0.010477642606289349 0 0.0011687878627145464 -0.01040373595642104 0 0.0017035692704355039 -0.0099727437833038012 0 0.00098258419372085717 -0.0096554749020576584 0 0.0011687878627145464 -0.01040373595642104 0 0.0017035692704355039 -0.0099727437833038012 0 0.001712605408284034 -0.010477642606289349 0 0.0017035692704355039 -0.0099727437833038012 0 0.0022065028516242485 -0.010218978977408951 0 0.0022393062470085433 -0.0097526301960866243 0 0.0017035692704355039 -0.0099727437833038012 0 0.0022065028516242485 -0.010218978977408951 0 0.0022393062470085433 -0.0097526301960866243 0 0.0022065028516242485 -0.010218978977408951 0 0.002685555795234247 -0.0099043897530534802 0 0.0030012226916171295 -0.010188537745445751 0 0.002685555795234247 -0.0099043897530534802 0 0.0026567681568675466 -0.01032684984239988 0 0.0022065028516242485 -0.010218978977408951 0 0.002685555795234247 -0.0099043897530534802 0 0.0026567681568675466 -0.01032684984239988 0 0.0022065028516242485 -0.010218978977408951 0 0.0026567681568675466 -0.01032684984239988 0 0.0022170572136614775 -0.010726735604644318 0 0.0026567681568675466 -0.01032684984239988 0 0.0027590861678580248 -0.010763887138102805 0 0.0022170572136614775 -0.010726735604644318 0 0.0026249461810908719 -0.011162766343076818 0 0.0027590861678580248 -0.010763887138102805 0 0.0022170572136614775 -0.010726735604644318 0 0.0016362301199088337 -0.010951224018546653 0 0.001712605408284034 -0.010477642606289349 0 0.0022170572136614775 -0.010726735604644318 0 0.001712605408284034 -0.010477642606289349 0 0.0022065028516242485 -0.010218978977408951 0 0.0022170572136614775 -0.010726735604644318 0 0.002481806519898949 -0.020908645501621862 0 0.0037351554592904603 -0.020160464488123808 0 0.0035161719496074307 -0.02145248152185843 0 0.0037351554592904603 -0.020160464488123808 0 0.0049334781279926875 -0.020933465205800257 0 0.0035161719496074307 -0.02145248152185843 0 0.0037351554592904603 -0.020160464488123808 0 0.0050124176730848881 -0.019824681379386068 0 0.0043153514629815136 -0.019086919998844983 0 0.0037351554592904603 -0.020160464488123808 0 0.0050124176730848881 -0.019824681379386068 0 0.0049334781279926875 -0.020933465205800257 0 0.0050124176730848881 -0.019824681379386068 0 0.0049334781279926875 -0.020933465205800257 0 0.0060679639856154825 -0.019916096978967322 0 0.0049334781279926875 -0.020933465205800257 0 0.0043516747322634459 -0.02223267732711957 0 0.0058503838185532632 -0.021911355617140717 0 0.0049334781279926875 -0.020933465205800257 0 0.0043516747322634459 -0.02223267732711957 0 0.0035161719496074307 -0.02145248152185843 0 0.0043516747322634459 -0.02223267732711957 0 0.0035161719496074307 -0.02145248152185843 0 0.0030935198689972057 -0.022487667317447658 0 0.0043516747322634459 -0.02223267732711957 0 0.0030935198689972057 -0.022487667317447658 0 0.0033647278642504131 -0.023424612998443534 0 0.002632306042099511 -0.024290383159016282 0 0.0033647278642504131 -0.023424612998443534 0 0.004280539140516587 -0.024349661446532021 0 0.002632306042099511 -0.024290383159016282 0 0.0031369885220719923 -0.02523507204482078 0 0.004280539140516587 -0.024349661446532021 0 0.0051215376950441852 -0.025614767241437748 0 0.004280539140516587 -0.024349661446532021 0 0.0062180180845019719 -0.024362720076750364 0 0.0033647278642504131 -0.023424612998443534 0 0.004280539140516587 -0.024349661446532021 0 0.0052702100861725856 -0.023156463629032745 0 0.004280539140516587 -0.024349661446532021 0 0.0052702100861725856 -0.023156463629032745 0 0.0062180180845019719 -0.024362720076750364 0 0.0043516747322634459 -0.02223267732711957 0 0.0033647278642504131 -0.023424612998443534 0 0.0052702100861725856 -0.023156463629032745 0 0.0043516747322634459 -0.02223267732711957 0 0.0052702100861725856 -0.023156463629032745 0 0.0058503838185532632 -0.021911355617140717 0 0.0052702100861725856 -0.023156463629032745 0 0.0067671901371026714 -0.022831332351538895 0 0.0058503838185532632 -0.021911355617140717 0 0.0052702100861725856 -0.023156463629032745 0 0.0067671901371026714 -0.022831332351538895 0 0.0062180180845019719 -0.024362720076750364 0 0.0067671901371026714 -0.022831332351538895 0 0.0062180180845019719 -0.024362720076750364 0 0.0080463867161645157 -0.024091849051807338 0 0.0067671901371026714 -0.022831332351538895 0 0.0078611889220773726 -0.022350027063345886 0 0.0080463867161645157 -0.024091849051807338 0 0.0067671901371026714 -0.022831332351538895 0 0.0078611889220773726 -0.022350027063345886 0 0.0069107160815752196 -0.021027620540995884 0 0.0071827128077968797 -0.021351619214996873 0 0.0085922721111309254 -0.020201943636578002 0 0.0078611889220773726 -0.022350027063345886 0 0.0069107160815752196 -0.021027620540995884 0 0.008589517986105074 -0.021611556503688335 0 0.0069107160815752196 -0.021027620540995884 0 0.0078628391608360406 -0.020158544084360332 0 0.0088777322509092198 -0.021664531969185254 0 0.0067671901371026714 -0.022831332351538895 0 0.0069107160815752196 -0.021027620540995884 0 0.0058503838185532632 -0.021911355617140717 0 0.0049334781279926875 -0.020933465205800257 0 0.0058503838185532632 -0.021911355617140717 0 0.0059536746307560628 -0.020975501237046217 0 0.0069107160815752196 -0.021027620540995884 0 0.0058503838185532632 -0.021911355617140717 0 0.0059536746307560628 -0.020975501237046217 0 0.0069107160815752196 -0.021027620540995884 0 0.0059536746307560628 -0.020975501237046217 0 0.0060679639856154825 -0.019916096978967322 0 0.0049334781279926875 -0.020933465205800257 0 0.0059536746307560628 -0.020975501237046217 0 0.0060679639856154825 -0.019916096978967322 0 0.0060679639856154825 -0.019916096978967322 0 0.0078628391608360406 -0.020158544084360332 0 0.0068626669717384275 -0.018568235234158612 0 0.0069107160815752196 -0.021027620540995884 0 0.0060679639856154825 -0.019916096978967322 0 0.0078628391608360406 -0.020158544084360332 0 0.0077964001437290801 -0.019616782421492746 0 0.0086301317980289564 -0.019952217867396222 0 0.0085703835956168362 -0.020629990263865836 0 0.007881622009885788 -0.020011031749529989 0 0.0085922721111309254 -0.020201943636578002 0 0.0086301317980289564 -0.019952217867396222 0 0.0093748610492866841 -0.020127820163268965 0 0.0084275530954702055 -0.019048675683015871 0 0.0093748610492866841 -0.020127820163268965 0 0.0090571838159327865 -0.018327947062118637 0 0.0084275530954702055 -0.019048675683015871 0 0.0077964001437290801 -0.019616782421492746 0 0.0086301317980289564 -0.019952217867396222 0 0.0084275530954702055 -0.019048675683015871 0 0.0068466927834116486 -0.009642020261952591 0 0.0069709937078950689 -0.0093915466905967228 0 0.0072953333167586447 -0.010476736281362527 0 0.007400984835648384 -0.013808354421114803 0 0.0083070492193314666 -0.014621718727273129 0 0.0065573038671426827 -0.0098531552464994274 0 0.0068466927834116486 -0.009642020261952591 0 0.0067163389475721003 -0.010208003420220645 0 0.0065573038671426827 -0.0098531552464994274 0 0.0068466927834116486 -0.009642020261952591 0 0.0064254879933013211 -0.0096196285925009631 0 0.0066320245614086048 -0.0094230246574774149 0 0.0068466927834116486 -0.009642020261952591 0 0.0064254879933013211 -0.0096196285925009631 0 0.0066320245614086048 -0.0094230246574774149 0 0.0068466927834116486 -0.009642020261952591 0 0.0069766270943570187 -0.0093749901035342417 0 0.0079778395867645333 -0.010568380086302401 0 0.007400984835648384 -0.013808354421114803 0 0.007400984835648384 -0.013808354421114803 0 0.0059376760966413861 -0.010475404488660319 0 0.0069766270943570187 -0.0093749901035342417 0 0.0066970766238627797 -0.0092071117719489358 0 0.0068305394243647292 -0.0088151434723010135 0 0.007400984835648384 -0.013808354421114803 0 0.0070849076810391813 -0.015651621352604891 0 0.0066320245614086048 -0.0094230246574774149 0 0.0066970766238627797 -0.0092071117719489358 0 0.0063501879507172568 -0.0092145773316655525 0 0.0066970766238627797 -0.0092071117719489358 0 0.0068305394243647292 -0.0088151434723010135 0 0.0063501879507172568 -0.0092145773316655525 0 0.0066320245614086048 -0.0094230246574774149 0 0.0069766270943570187 -0.0093749901035342417 0 0.0066970766238627797 -0.0092071117719489358 0 0.0069902432018963548 -0.01398719689208054 0 0.0067223489835771238 -0.012920545895104895 0 0.0074023465921334497 -0.013155637846184726 0 0.0059312059789092654 -0.0095146058757268406 0 0.0062366263802800239 -0.009469329305643889 0 0.0061707902207773719 -0.0096181774749451773 0 0.0059376760966413861 -0.010475404488660319 0 0.0070849076810391813 -0.015651621352604891 0 0.0056633923227585141 -0.016938701696132798 0 0.0070849076810391813 -0.015651621352604891 0 0.0056633923227585141 -0.016938701696132798 0 0.0085922721111309254 -0.020201943636578002 0 0.0070849076810391813 -0.015651621352604891 0 0.0085922721111309254 -0.020201943636578002 0 0.0065246785232006667 -0.016627548525372782 0 0.0059085645245735424 -0.017865251237742387 0 0.0077886270503794977 -0.018501742906834154 0 0.0086301317980289564 -0.019952217867396222 0 0.0093748610492866841 -0.020127820163268965 0 0.008923191233255013 -0.020336142362864979 0 0.0093748610492866841 -0.020127820163268965 0 0.0090288730959229065 -0.02076769304473727 0 0.008923191233255013 -0.020336142362864979 0 0.0086301317980289564 -0.019952217867396222 0 0.008923191233255013 -0.020336142362864979 0 0.0085703835956168362 -0.020629990263865836 0 0.0090288730959229065 -0.02076769304473727 0 0.008923191233255013 -0.020336142362864979 0 0.0085703835956168362 -0.020629990263865836 0 0.0078611889220773726 -0.022350027063345886 0 0.0089873163977030445 -0.022194822764286713 0 0.008589517986105074 -0.021611556503688335 0 0.0078611889220773726 -0.022350027063345886 0 0.0089873163977030445 -0.022194822764286713 0 0.0080463867161645157 -0.024091849051807338 0 0.0056633923227585141 -0.016938701696132798 0 0.0055922534625555843 -0.021780076015782537 0 0.0033085619661812459 -0.017914382678847662 0 0.0031381422008291259 -0.018262500871662885 0 0.0034526146206437223 -0.018171875677740951 0 0.00331547652886529 -0.018393831107179261 0 0.0031381422008291259 -0.018262500871662885 0 0.0034526146206437223 -0.018171875677740951 0 0.004712957669885753 -0.013947973285767041 0 0.0043423636859285398 -0.012921737519600813 0 0.00331547652886529 -0.018393831107179261 0 0.0035834384598824529 -0.018423569610084796 0 0.0034526146206437223 -0.018171875677740951 0 0.0058716566335085705 -0.008960502625063 0 0.005896713844427753 -0.0093349729149878827 0 0.0056743640187357676 -0.009116404542898247 0 0.0056633923227585141 -0.016938701696132798 0 0.0043423636859285398 -0.012921737519600813 0 0.0062366263802800239 -0.009469329305643889 0 0.0058716566335085705 -0.008960502625063 0 0.005896713844427753 -0.0093349729149878827 0 0.0059312059789092654 -0.0095146058757268406 0 0.0062366263802800239 -0.009469329305643889 0 0.005896713844427753 -0.0093349729149878827 0 0.0059200685725259907 -0.0094613258106317506 0 0.005896713844427753 -0.0093349729149878827 0 0.0056743640187357676 -0.009116404542898247 0 0.0059376760966413861 -0.010475404488660319 0 0.0058185282231203285 -0.0097261195239588608 0 0.0059200685725259907 -0.0094613258106317506 0 0.0056743640187357676 -0.009116404542898247 0 0.0054572446656590773 -0.0091565933931003433 0 0.0059376760966413861 -0.010475404488660319 0 0.0056904906382930906 -0.008658545648317667 0 0.0056743640187357676 -0.009116404542898247 0 0.0054402993136568305 -0.0088351877761875877 0 0.0054572446656590773 -0.0091565933931003433 0 0.0058716566335085705 -0.008960502625063 0 0.0056743640187357676 -0.009116404542898247 0 0.0056399931831926618 -0.0088866506228985117 0 0.005577055522144588 -0.0086824705993049905 0 0.0058716566335085705 -0.008960502625063 0 0.0056399931831926618 -0.0088866506228985117 0 0.0056743640187357676 -0.009116404542898247 0 0.0056399931831926618 -0.0088866506228985117 0 0.0054402993136568305 -0.0088351877761875877 0 0.005577055522144588 -0.0086824705993049905 0 0.0056399931831926618 -0.0088866506228985117 0 0.0054402993136568305 -0.0088351877761875877 0 0.0053508748580814083 -0.0086818731533171729 0 0.0051661720297168021 -0.0088069412899509768 0 0.0054402993136568305 -0.0088351877761875877 0 0.0055150383061389873 -0.0076878471650275093 0 0.0050923881492709964 -0.0090579555940982319 0 0.0048787339246910951 -0.0085137337922396097 0 0.0056904906382930906 -0.008658545648317667 0 0.0048058623909502263 -0.0081513393270231313 0 0.0058075716820320099 -0.0084633206351478925 0 0.0052910178247516345 -0.0087278317791155257 0 0.0051661720297168021 -0.0088069412899509768 0 0.0049545290031053763 -0.008838534704146854 0 0.0054572446656590773 -0.0091565933931003433 0 0.0051661720297168021 -0.0088069412899509768 0 0.0054402993136568305 -0.0088351877761875877 0 0.0054572446656590773 -0.0091565933931003433 0 0.0050520185731846266 -0.0090498833900096547 0 0.0052910178247516345 -0.0087278317791155257 0 0.0054186114801780668 -0.0091082259477129213 0 0.0050520185731846266 -0.0090498833900096547 0 0.0054186114801780668 -0.0091082259477129213 0 0.005219347446624726 -0.0093768854818884091 0 0.0054186114801780668 -0.0091082259477129213 0 0.005219347446624726 -0.0093768854818884091 0 0.0056283197342774571 -0.0094116712723615985 0 0.0054186114801780668 -0.0091082259477129213 0 0.0059074846831506404 -0.0089743680872906659 0 0.0056283197342774571 -0.0094116712723615985 0 0.0052910178247516345 -0.0087278317791155257 0 0.0054186114801780668 -0.0091082259477129213 0 0.0059074846831506404 -0.0089743680872906659 0 0.0058075716820320099 -0.0084633206351478925 0 0.0052910178247516345 -0.0087278317791155257 0 0.0059074846831506404 -0.0089743680872906659 0 0.0068305394243647292 -0.0088151434723010135 0 0.0059074846831506404 -0.0089743680872906659 0 0.0063501879507172568 -0.0092145773316655525 0 0.0068305394243647292 -0.0088151434723010135 0 0.0058075716820320099 -0.0084633206351478925 0 0.0059074846831506404 -0.0089743680872906659 0 0.0059074846831506404 -0.0089743680872906659 0 0.0060515096039472256 -0.0094923980053949943 0 0.0056283197342774571 -0.0094116712723615985 0 0.0059074846831506404 -0.0089743680872906659 0 0.0063501879507172568 -0.0092145773316655525 0 0.0060515096039472256 -0.0094923980053949943 0 0.0066320245614086048 -0.0094230246574774149 0 0.0063501879507172568 -0.0092145773316655525 0 0.0064254879933013211 -0.0096196285925009631 0 0.0063501879507172568 -0.0092145773316655525 0 0.0060515096039472256 -0.0094923980053949943 0 0.0064254879933013211 -0.0096196285925009631 0 0.0065573038671426827 -0.0098531552464994274 0 0.0064254879933013211 -0.0096196285925009631 0 0.006238327094155849 -0.0099431291340679462 0 0.0060515096039472256 -0.0094923980053949943 0 0.0064254879933013211 -0.0096196285925009631 0 0.006238327094155849 -0.0099431291340679462 0 0.0060515096039472256 -0.0094923980053949943 0 0.006238327094155849 -0.0099431291340679462 0 0.0057638318102858363 -0.009811587955332178 0 0.0057638318102858363 -0.009811587955332178 0 0.005342495959370838 -0.0097120362419102803 0 0.0056283197342774571 -0.0094116712723615985 0 0.0057638318102858363 -0.009811587955332178 0 0.005342495959370838 -0.0097120362419102803 0 0.0054258151497974631 -0.010064898560448735 0 0.0049998974101980046 -0.00993866589405 0 0.005342495959370838 -0.0097120362419102803 0 0.0054258151497974631 -0.010064898560448735 0 0.005342495959370838 -0.0097120362419102803 0 0.005219347446624726 -0.0093768854818884091 0 0.0056283197342774571 -0.0094116712723615985 0 0.0060515096039472256 -0.0094923980053949943 0 0.0057638318102858363 -0.009811587955332178 0 0.0056283197342774571 -0.0094116712723615985 0 0.00547424539889871 -0.010527990602392928 0 0.0058447910485634582 -0.010222336790325953 0 0.0059285024330970682 -0.01069925278649801 0 0.00547424539889871 -0.010527990602392928 0 0.0054258151497974631 -0.010064898560448735 0 0.0058447910485634582 -0.010222336790325953 0 0.0050388015192282861 -0.010307672811865481 0 0.00547424539889871 -0.010527990602392928 0 0.0054258151497974631 -0.010064898560448735 0 0.0057638318102858363 -0.009811587955332178 0 0.0054258151497974631 -0.010064898560448735 0 0.0058447910485634582 -0.010222336790325953 0 0.006238327094155849 -0.0099431291340679462 0 0.0057638318102858363 -0.009811587955332178 0 0.0058447910485634582 -0.010222336790325953 0 0.006238327094155849 -0.0099431291340679462 0 0.0058447910485634582 -0.010222336790325953 0 0.0062796996146063403 -0.010353450687411326 0 0.006238327094155849 -0.0099431291340679462 0 0.0062796996146063403 -0.010353450687411326 0 0.0067163389475721003 -0.010208003420220645 0 0.0062796996146063403 -0.010353450687411326 0 0.0059285024330970682 -0.01069925278649801 0 0.0064905983229687925 -0.010734636361333511 0 0.0062796996146063403 -0.010353450687411326 0 0.0064905983229687925 -0.010734636361333511 0 0.0067163389475721003 -0.010208003420220645 0 0.0058447910485634582 -0.010222336790325953 0 0.0062796996146063403 -0.010353450687411326 0 0.0059285024330970682 -0.01069925278649801 0 0.0059285024330970682 -0.01069925278649801 0 0.0064905983229687925 -0.010734636361333511 0 0.0060790614569536834 -0.011141852930752748 0 0.0064905983229687925 -0.010734636361333511 0 0.0060790614569536834 -0.011141852930752748 0 0.0066528017554739992 -0.011444645186433938 0 0.0059285024330970682 -0.01069925278649801 0 0.0060790614569536834 -0.011141852930752748 0 0.0054926916460788225 -0.011095421099791399 0 0.00547424539889871 -0.010527990602392928 0 0.0059285024330970682 -0.01069925278649801 0 0.0054926916460788225 -0.011095421099791399 0 0.0050813663900247871 -0.010740162193804175 0 0.00547424539889871 -0.010527990602392928 0 0.0054926916460788225 -0.011095421099791399 0 0.0060790614569536834 -0.011141852930752748 0 0.0054926916460788225 -0.011095421099791399 0 0.0058437697099136725 -0.011739647821608783 0 0.0054926916460788225 -0.011095421099791399 0 0.0052315990449612066 -0.011596947444527914 0 0.0058437697099136725 -0.011739647821608783 0 0.0052315990449612066 -0.011596947444527914 0 0.0058437697099136725 -0.011739647821608783 0 0.0053876089199294368 -0.012548825447710193 0 0.0061292207841349058 -0.012438353377764697 0 0.0058437697099136725 -0.011739647821608783 0 0.0053876089199294368 -0.012548825447710193 0 0.0061292207841349058 -0.012438353377764697 0 0.0058437697099136725 -0.011739647821608783 0 0.0066528017554739992 -0.011444645186433938 0 0.0060790614569536834 -0.011141852930752748 0 0.0058437697099136725 -0.011739647821608783 0 0.0066528017554739992 -0.011444645186433938 0 0.0066528017554739992 -0.011444645186433938 0 0.0069016745304345253 -0.012515130252393539 0 0.0076473384754736293 -0.011677918042897376 0 0.0061292207841349058 -0.012438353377764697 0 0.0066528017554739992 -0.011444645186433938 0 0.0069016745304345253 -0.012515130252393539 0 0.008116334517098896 -0.013800139675634975 0 0.0079449195559726064 -0.013375658382263751 0 0.0069016745304345253 -0.012515130252393539 0 0.0076473384754736293 -0.011677918042897376 0 0.0079037396524124816 -0.013329549687121698 0 0.008116334517098896 -0.013800139675634975 0 0.0083070492193314666 -0.014621718727273129 0 0.008683565431174288 -0.016044217237614934 0 0.0090571838159327865 -0.018327947062118637 0 0.0079558675424741924 -0.017703866222293939 0 0.0066528017554739992 -0.011444645186433938 0 0.0076473384754736293 -0.011677918042897376 0 0.0072953333167586447 -0.010476736281362527 0 0.0064905983229687925 -0.010734636361333511 0 0.0066528017554739992 -0.011444645186433938 0 0.0072953333167586447 -0.010476736281362527 0 0.0068466927834116486 -0.009642020261952591 0 0.0067163389475721003 -0.010208003420220645 0 0.0072953333167586447 -0.010476736281362527 0 0.0064905983229687925 -0.010734636361333511 0 0.0067163389475721003 -0.010208003420220645 0 0.0072953333167586447 -0.010476736281362527 0 0.0065573038671426827 -0.0098531552464994274 0 0.006238327094155849 -0.0099431291340679462 0 0.0067163389475721003 -0.010208003420220645 0 0.0090571838159327865 -0.018327947062118637 0 0.0084275530954702055 -0.019048675683015871 0 0.0079558675424741924 -0.017703866222293939 0 0.0084275530954702055 -0.019048675683015871 0 0.0068626669717384275 -0.018568235234158612 0 0.0079558675424741924 -0.017703866222293939 0 0.007881622009885788 -0.020011031749529989 0 0.0069157917302037049 -0.01861137489090426 0 0.0077964001437290801 -0.019616782421492746 0 0.0084275530954702055 -0.019048675683015871 0 0.0068626669717384275 -0.018568235234158612 0 0.0060679639856154825 -0.019916096978967322 0 0.0068626669717384275 -0.018568235234158612 0 0.0055299762488597573 -0.018482868421668925 0 0.0068626669717384275 -0.018568235234158612 0 0.0067432591145636118 -0.016949966267973064 0 0.0055299762488597573 -0.018482868421668925 0 0.0067432591145636118 -0.016949966267973064 0 0.0052728541611908797 -0.01707774228615043 0 0.0055299762488597573 -0.018482868421668925 0 0.008683565431174288 -0.016044217237614934 0 0.0067432591145636118 -0.016949966267973064 0 0.0079558675424741924 -0.017703866222293939 0 0.0068626669717384275 -0.018568235234158612 0 0.0067432591145636118 -0.016949966267973064 0 0.0079558675424741924 -0.017703866222293939 0 0.008683565431174288 -0.016044217237614934 0 0.0067432591145636118 -0.016949966267973064 0 0.0069963755188100114 -0.015153766403621149 0 0.008683565431174288 -0.016044217237614934 0 0.0069963755188100114 -0.015153766403621149 0 0.0079037396524124816 -0.013329549687121698 0 0.0069963755188100114 -0.015153766403621149 0 0.0060193756009167699 -0.013800287885970729 0 0.0079037396524124816 -0.013329549687121698 0 0.0056975829935916392 -0.015770648413004171 0 0.0047735540396065456 -0.015288948302908707 0 0.0060193756009167699 -0.013800287885970729 0 0.0069963755188100114 -0.015153766403621149 0 0.0056975829935916392 -0.015770648413004171 0 0.0060193756009167699 -0.013800287885970729 0 0.0067432591145636118 -0.016949966267973064 0 0.0069963755188100114 -0.015153766403621149 0 0.0056975829935916392 -0.015770648413004171 0 0.0067432591145636118 -0.016949966267973064 0 0.0056975829935916392 -0.015770648413004171 0 0.0052728541611908797 -0.01707774228615043 0 0.0056975829935916392 -0.015770648413004171 0 0.004438432157549404 -0.016466272221166992 0 0.0052728541611908797 -0.01707774228615043 0 0.004438432157549404 -0.016466272221166992 0 0.0047735540396065456 -0.015288948302908707 0 0.0038638861444638861 -0.015650982971957824 0 0.0056975829935916392 -0.015770648413004171 0 0.004438432157549404 -0.016466272221166992 0 0.0047735540396065456 -0.015288948302908707 0 0.0047735540396065456 -0.015288948302908707 0 0.003859181806803386 -0.014739551773665125 0 0.0060193756009167699 -0.013800287885970729 0 0.0027791383982963681 -0.018659579173260613 0 0.0040551387606242465 -0.016878776825606946 0 0.0047735540396065456 -0.015288948302908707 0 0.003859181806803386 -0.014739551773665125 0 0.0038638861444638861 -0.015650982971957824 0 0.0027791383982963681 -0.018659579173260613 0 0.0014668997220009439 -0.020865655435742789 0 0.0016501180816073299 -0.020458548548622647 0 0.0016936613846090952 -0.020546062788887202 0 0.0018004378646063748 -0.020487783372426946 0 0.0016501180816073299 -0.020458548548622647 0 0.0018004378646063748 -0.020487783372426946 0 0.0017871989223196725 -0.020358839472022317 0 0.0027791383982963681 -0.018659579173260613 0 0.003152159610050569 -0.017604359125068931 0 0.003859181806803386 -0.014739551773665125 0 0.003063439919014276 -0.015674811384766181 0 0.0038638861444638861 -0.015650982971957824 0 0.0024886862652498585 -0.019086527881990362 0 0.0030815796861362568 -0.018871535889894601 0 0.0027208016588645099 -0.01928231921553759 0 0.0019823286903429241 -0.019840481931078124 0 0.0027791383982963681 -0.018659579173260613 0 0.0031326649172982953 -0.015691653951929924 0 0.0038638861444638861 -0.015650982971957824 0 0.0032640689326824939 -0.016774390274261947 0 0.003152159610050569 -0.017604359125068931 0 0.0036292905890837868 -0.0166174462790428 0 0.004438432157549404 -0.016466272221166992 0 0.0038638861444638861 -0.015650982971957824 0 0.0032640689326824939 -0.016774390274261947 0 0.0032640689326824939 -0.016774390274261947 0 0.0031826347217173067 -0.018311086493302622 0 0.0042796340956416361 -0.017784271760655907 0 0.004438432157549404 -0.016466272221166992 0 0.0032640689326824939 -0.016774390274261947 0 0.0042796340956416361 -0.017784271760655907 0 0.0052728541611908797 -0.01707774228615043 0 0.0042796340956416361 -0.017784271760655907 0 0.0055299762488597573 -0.018482868421668925 0 0.004438432157549404 -0.016466272221166992 0 0.0052728541611908797 -0.01707774228615043 0 0.0042796340956416361 -0.017784271760655907 0 0.0042796340956416361 -0.017784271760655907 0 0.0055299762488597573 -0.018482868421668925 0 0.0043153514629815136 -0.019086919998844983 0 0.0050124176730848881 -0.019824681379386068 0 0.0060679639856154825 -0.019916096978967322 0 0.0055299762488597573 -0.018482868421668925 0 0.0050124176730848881 -0.019824681379386068 0 0.0055299762488597573 -0.018482868421668925 0 0.0043153514629815136 -0.019086919998844983 0 0.0037351554592904603 -0.020160464488123808 0 0.0043153514629815136 -0.019086919998844983 0 0.0034200649587011046 -0.019274364763563059 0 0.0025570916459871315 -0.019616723976338742 0 0.0031826347217173067 -0.018311086493302622 0 0.0034200649587011046 -0.019274364763563059 0 0.0025570916459871315 -0.019616723976338742 0 0.0037351554592904603 -0.020160464488123808 0 0.0034200649587011046 -0.019274364763563059 0 0.0031826347217173067 -0.018311086493302622 0 0.0042796340956416361 -0.017784271760655907 0 0.0043153514629815136 -0.019086919998844983 0 0.0031826347217173067 -0.018311086493302622 0 0.0043153514629815136 -0.019086919998844983 0 0.0034200649587011046 -0.019274364763563059 0 0.0017353359183233782 -0.020065871729002715 0 0.0018047662758950882 -0.0201225100051384 0 0.0016990582392025174 -0.020172526257383829 0 0.0017353359183233782 -0.020065871729002715 0 0.0018179456696543529 -0.019993047518294945 0 0.0018047662758950882 -0.0201225100051384 0 0.0018179456696543529 -0.019993047518294945 0 0.0019020258861014458 -0.019977850572326299 0 0.0018461866868942889 -0.019875250702378305 0 0.0018179456696543529 -0.019993047518294945 0 0.0018047662758950882 -0.0201225100051384 0 0.0019020258861014458 -0.019977850572326299 0 0.0018047662758950882 -0.0201225100051384 0 0.0018173618166826833 -0.020225700077583036 0 0.00185914697249021 -0.02015278719439904 0 0.0018047662758950882 -0.0201225100051384 0 0.0019109965491065669 -0.020085404826639498 0 0.0019020258861014458 -0.019977850572326299 0 0.0018047662758950882 -0.0201225100051384 0 0.00185914697249021 -0.02015278719439904 0 0.0019109965491065669 -0.020085404826639498 0 0.0018047662758950882 -0.0201225100051384 0 0.0016990582392025174 -0.020172526257383829 0 0.0017122905932312206 -0.020240838243872367 0 0.0018047662758950882 -0.0201225100051384 0 0.0017122905932312206 -0.020240838243872367 0 0.0018173618166826833 -0.020225700077583036 0 0.0017122905932312206 -0.020240838243872367 0 0.0017166713800812793 -0.020324806315771955 0 0.0018173618166826833 -0.020225700077583036 0 0.0016501180816073299 -0.020458548548622647 0 0.0017166713800812793 -0.020324806315771955 0 0.0017871989223196725 -0.020358839472022317 0 0.0017166713800812793 -0.020324806315771955 0 0.0017871989223196725 -0.020358839472022317 0 0.0018173618166826833 -0.020225700077583036 0 0.001928806574941722 -0.020246155726855283 0 0.0019060418666099516 -0.020290310406883269 0 0.0019393226835402694 -0.020275581603109983 0 0.0017871989223196725 -0.020358839472022317 0 0.0019060418666099516 -0.020290310406883269 0 0.0018173618166826833 -0.020225700077583036 0 0.0018004378646063748 -0.020487783372426946 0 0.0017871989223196725 -0.020358839472022317 0 0.0019060418666099516 -0.020290310406883269 0 0.0019060418666099516 -0.020290310406883269 0 0.0018173618166826833 -0.020225700077583036 0 0.0019065249977069927 -0.020178908322970916 0 0.00185914697249021 -0.02015278719439904 0 0.0019065249977069927 -0.020178908322970916 0 0.0019109965491065669 -0.020085404826639498 0 0.0018173618166826833 -0.020225700077583036 0 0.00185914697249021 -0.02015278719439904 0 0.0019065249977069927 -0.020178908322970916 0 0.001993509725596772 -0.020100470698821819 0 0.0019065249977069927 -0.020178908322970916 0 0.0019109965491065669 -0.020085404826639498 0 0.001993509725596772 -0.020100470698821819 0 0.0019065249977069927 -0.020178908322970916 0 0.0019617755672072857 -0.020199296206833469 0 0.0019060418666099516 -0.020290310406883269 0 0.0019065249977069927 -0.020178908322970916 0 0.0019617755672072857 -0.020199296206833469 0 0.0019060418666099516 -0.020290310406883269 0 0.0019617755672072857 -0.020199296206833469 0 0.0019393226835402694 -0.020275581603109983 0 0.0060193756009167699 -0.013800287885970729 0 0.0079037396524124816 -0.013329549687121698 0 0.0079069009012614731 -0.013126508659670254 0 0.0019617755672072857 -0.020199296206833469 0 0.0019393226835402694 -0.020275581603109983 0 0.0021191838672712641 -0.020148943829102262 0 0.0040551387606242465 -0.016878776825606946 0 0.0049465126274516255 -0.016676347038443711 0 0.001993509725596772 -0.020100470698821819 0 0.0019617755672072857 -0.020199296206833469 0 0.0021191838672712641 -0.020148943829102262 0 0.001993509725596772 -0.020100470698821819 0 0.002107243552395588 -0.0200142152976489 0 0.0021191838672712641 -0.020148943829102262 0 0.001993509725596772 -0.020100470698821819 0 0.0020176918586345136 -0.019957171997630002 0 0.002107243552395588 -0.0200142152976489 0 0.0020176918586345136 -0.019957171997630002 0 0.0019109965491065669 -0.020085404826639498 0 0.0019020258861014458 -0.019977850572326299 0 0.001993509725596772 -0.020100470698821819 0 0.0020176918586345136 -0.019957171997630002 0 0.0019109965491065669 -0.020085404826639498 0 0.0020176918586345136 -0.019957171997630002 0 0.0019020258861014458 -0.019977850572326299 0 0.0019760527269128214 -0.019853590975756792 0 0.0020176918586345136 -0.019957171997630002 0 0.0021233494905870428 -0.019749538271378674 0 0.0019760527269128214 -0.019853590975756792 0 0.0020176918586345136 -0.019957171997630002 0 0.0021816846981731774 -0.01986867726300736 0 0.0021233494905870428 -0.019749538271378674 0 0.0022873333541933855 -0.019682239473682892 0 0.0021816846981731774 -0.01986867726300736 0 0.0021233494905870428 -0.019749538271378674 0 0.0022873333541933855 -0.019682239473682892 0 0.0021816846981731774 -0.01986867726300736 0 0.002304753014093967 -0.019821219141007772 0 0.0021816846981731774 -0.01986867726300736 0 0.0022777726963642882 -0.019983792010763401 0 0.002304753014093967 -0.019821219141007772 0 0.0020176918586345136 -0.019957171997630002 0 0.0021816846981731774 -0.01986867726300736 0 0.002107243552395588 -0.0200142152976489 0 0.002107243552395588 -0.0200142152976489 0 0.0021191838672712641 -0.020148943829102262 0 0.0022777726963642882 -0.019983792010763401 0 0.0021816846981731774 -0.01986867726300736 0 0.002107243552395588 -0.0200142152976489 0 0.0022777726963642882 -0.019983792010763401 0 0.0069016745304345253 -0.012515130252393539 0 0.0079037396524124816 -0.013329549687121698 0 0.0073703319678884282 -0.013063464112121016 0 0.0079069009012614731 -0.013126508659670254 0 0.0073703319678884282 -0.013063464112121016 0 0.0067840193482672107 -0.013517962976962001 0 0.0049465126274516255 -0.016676347038443711 0 0.0045426214276964739 -0.016732325967408326 0 0.0079037396524124816 -0.013329549687121698 0 0.0079069009012614731 -0.013126508659670254 0 0.0073703319678884282 -0.013063464112121016 0 0.0069016745304345253 -0.012515130252393539 0 0.0067840193482672107 -0.013517962976962001 0 0.0060893216551159909 -0.013083030571440833 0 0.0069016745304345253 -0.012515130252393539 0 0.0073703319678884282 -0.013063464112121016 0 0.0067840193482672107 -0.013517962976962001 0 0.0067840193482672107 -0.013517962976962001 0 0.0060893216551159909 -0.013083030571440833 0 0.0056812095743765355 -0.013660186685684274 0 0.0022777726963642882 -0.019983792010763401 0 0.002414532722279782 -0.019832838377976194 0 0.002304753014093967 -0.019821219141007772 0 0.0045426214276964739 -0.016732325967408326 0 0.0040601074286250099 -0.016761320149445671 0 0.0061292207841349058 -0.012438353377764697 0 0.0060893216551159909 -0.013083030571440833 0 0.0053876089199294368 -0.012548825447710193 0 0.0061292207841349058 -0.012438353377764697 0 0.0069016745304345253 -0.012515130252393539 0 0.0060893216551159909 -0.013083030571440833 0 0.0060893216551159909 -0.013083030571440833 0 0.0053876089199294368 -0.012548825447710193 0 0.0056812095743765355 -0.013660186685684274 0 0.0053876089199294368 -0.012548825447710193 0 0.0056812095743765355 -0.013660186685684274 0 0.0050469722648578052 -0.013175595510062935 0 0.002414532722279782 -0.019832838377976194 0 0.0024455716774229291 -0.019569291714257048 0 0.0026500771067762947 -0.019730045515658854 0 0.002414532722279782 -0.019832838377976194 0 0.002304753014093967 -0.019821219141007772 0 0.0024455716774229291 -0.019569291714257048 0 0.0022873333541933855 -0.019682239473682892 0 0.002304753014093967 -0.019821219141007772 0 0.0024455716774229291 -0.019569291714257048 0 0.0022873333541933855 -0.019682239473682892 0 0.0024455716774229291 -0.019569291714257048 0 0.0023883776863946097 -0.019465976331615589 0 0.0024455716774229291 -0.019569291714257048 0 0.0023883776863946097 -0.019465976331615589 0 0.0025066788684477807 -0.019236234995341776 0 0.0023883776863946097 -0.019465976331615589 0 0.0024316689699270871 -0.019378445952039639 0 0.0025066788684477807 -0.019236234995341776 0 0.0023883776863946097 -0.019465976331615589 0 0.0023286025841164162 -0.019445488511455885 0 0.0022513504998600258 -0.019583500284692749 0 0.0022873333541933855 -0.019682239473682892 0 0.0023883776863946097 -0.019465976331615589 0 0.0022513504998600258 -0.019583500284692749 0 0.0016761101956898037 -0.020398688852751815 0 0.0018441174689306076 -0.020264211121022696 0 0.0016454654205203063 -0.020246278816207421 0 0.0023883776863946097 -0.019465976331615589 0 0.0023286025841164162 -0.019445488511455885 0 0.0024316689699270871 -0.019378445952039639 0 0.0016761101956898037 -0.020398688852751815 0 0.0018441174689306076 -0.020264211121022696 0 0.0021235471949657345 -0.020307812188133458 0 0.0020099516217948039 -0.019976767940820615 0 0.0021942414098611949 -0.019377505691274569 0 0.0018441174689306076 -0.020264211121022696 0 0.0021235471949657345 -0.020307812188133458 0 0.0019757043856276379 -0.020199745246395114 0 0.0021942414098611949 -0.019377505691274569 0 0.0009495250603063361 -0.014063774776654244 0 0.0017467811562952601 -0.018027511066027131 0 0.0014050003686758171 -0.017301867390558327 0 0.0020375707385750451 -0.018009001706922739 0 0.0021235471949657345 -0.020307812188133458 0 0.0019757043856276379 -0.020199745246395114 0 0.0020015345311579142 -0.020062505517259771 0 0.0018441174689306076 -0.020264211121022696 0 0.0019757043856276379 -0.020199745246395114 0 0.0019655925518285767 -0.02007891804381701 0 0.0019757043856276379 -0.020199745246395114 0 0.0019655925518285767 -0.02007891804381701 0 0.0020015345311579142 -0.020062505517259771 0 0.00076286955999911924 -0.014492713838754327 0 0.0009146438496854827 -0.014496269106553512 0 0.00033821365505262219 -0.014133193506458482 0 0.0010841168450178432 -0.016470253646089863 0 0.0009495250603063361 -0.014063774776654244 0 0.0009495250603063361 -0.014063774776654244 0 -7.0484463722907555e-07 -0.012935894086879261 0 0.0009146438496854827 -0.014496269106553512 0 1.434992163149098e-06 -0.012941631601224716 0 0.00033821365505262219 -0.014133193506458482 0 4.1877257350562077e-05 -0.011054088990512712 0 1.1318114697907162e-06 -0.012934024375884421 0 -8.333251752747043e-07 -0.010851264483616549 0 1.434992163149098e-06 -0.012941631601224716 0 0.00033821365505262219 -0.014133193506458482 0 -0.00025086558507172302 -0.01458494725047548 0 0.00076286955999911924 -0.014492713838754327 0 0.00033821365505262219 -0.014133193506458482 0 -0.00025086558507172302 -0.01458494725047548 0 0.0020201328488654718 -0.020117695205389363 0 0.001674403007694934 -0.02029256743970223 0 0.0015165885455405233 -0.020031486825613957 0 0.0018441174689306076 -0.020264211121022696 0 0.0019655925518285767 -0.02007891804381701 0 0.0016454654205203063 -0.020246278816207421 0 0.0010841168450178432 -0.016470253646089863 0 0.001619392551286919 -0.02041937494966975 0 0.0010841168450178432 -0.016470253646089863 0 0.00068825003388970902 -0.017464117846553669 0 0.001674403007694934 -0.02029256743970223 0 0.001445676995583221 -0.02027222119940858 0 0.0015165885455405233 -0.020031486825613957 0 0.001674403007694934 -0.02029256743970223 0 0.001445676995583221 -0.02027222119940858 0 0.0012982262751827147 -0.020492942659808253 0 0.0012850497838733151 -0.02030687867447227 0 0.0015165885455405233 -0.020031486825613957 0 0.0010835817356350441 -0.020228627036696221 0 0.001445676995583221 -0.02027222119940858 0 0.0012850497838733151 -0.02030687867447227 0 0.0015165885455405233 -0.020031486825613957 0 0.001445676995583221 -0.02027222119940858 0 0.0012850497838733151 -0.02030687867447227 0 0.0012982262751827147 -0.020492942659808253 0 -0.00025086558507172302 -0.01458494725047548 0 -1.0835474633739905e-06 -0.015105991116192662 0 -8.7234716162515374e-06 -0.01637996113601459 0 1.434992163149098e-06 -0.012941631601224716 0 -0.00025086558507172302 -0.01458494725047548 0 -1.0835474633739905e-06 -0.015105991116192662 0 -1.0835474633739905e-06 -0.015105991116192662 0 -8.7234716162515374e-06 -0.01637996113601459 0 4.6796992543305636e-07 -0.017275677746198221 0 0.00068825003388970902 -0.017464117846553669 0 0.00032096080992519735 -0.018132435215546343 0 0.0015165885455405233 -0.020031486825613957 0 0.00098082829431855932 -0.019866741769297484 0 0.0010835817356350441 -0.020228627036696221 0 0.00098082829431855932 -0.019866741769297484 0 0.0010835817356350441 -0.020228627036696221 0 0.000684403984260241 -0.020211289912409221 0 0.0012850497838733151 -0.02030687867447227 0 0.0010835817356350441 -0.020228627036696221 0 0.0011841490812407218 -0.020595777595486638 0 0.0010835817356350441 -0.020228627036696221 0 0.0011841490812407218 -0.020595777595486638 0 0.00043266862620306714 -0.020752503336922783 0 0.0012850497838733151 -0.02030687867447227 0 0.0011841490812407218 -0.020595777595486638 0 0.0012982262751827147 -0.020492942659808253 0 0.0023286025841164162 -0.019445488511455885 0 0.0021579966426993982 -0.0195604645044062 0 0.0022513504998600258 -0.019583500284692749 0 0.0020099516217948039 -0.019976767940820615 0 0.0016860176899539403 -0.020094864582626389 0 0.0016761101956898037 -0.020398688852751815 0 0.0016454654205203063 -0.020246278816207421 0 0.0012982262751827147 -0.020492942659808253 0 0.0016761101956898037 -0.020398688852751815 0 0.0011841490812407218 -0.020595777595486638 0 0.0012982262751827147 -0.020492942659808253 0 0.001619392551286919 -0.02041937494966975 0 0.0013583783307894058 -0.020436291628401253 0 0.0022873333541933855 -0.019682239473682892 0 0.0022513504998600258 -0.019583500284692749 0 0.0021233494905870428 -0.019749538271378674 0 0.0021579966426993982 -0.0195604645044062 0 0.0021233494905870428 -0.019749538271378674 0 0.0019851131868723754 -0.019694554834788554 0 0.0021579966426993982 -0.0195604645044062 0 0.0022513504998600258 -0.019583500284692749 0 0.0021233494905870428 -0.019749538271378674 0 0.0021233494905870428 -0.019749538271378674 0 0.0019760527269128214 -0.019853590975756792 0 0.0019851131868723754 -0.019694554834788554 0 0.0019020258861014458 -0.019977850572326299 0 0.0019760527269128214 -0.019853590975756792 0 0.0018461866868942889 -0.019875250702378305 0 0.0019760527269128214 -0.019853590975756792 0 0.0019851131868723754 -0.019694554834788554 0 0.0018461866868942889 -0.019875250702378305 0 0.0019851131868723754 -0.019694554834788554 0 0.0017709319215198571 -0.019805309380667647 0 0.0018461866868942889 -0.019875250702378305 0 0.000118654995346443 -0.020547818134766593 0 0.00043266862620306714 -0.020752503336922783 0 -8.894699686740145e-05 -0.020657358156411964 0 0.000118654995346443 -0.020547818134766593 0 0.00043266862620306714 -0.020752503336922783 0 0.00033593664376721868 -0.020341613225997576 0 0.0010984173999243666 -0.01998983197958356 0 0.0014897725309898277 -0.022323684501209643 0 0.0016860176899539403 -0.020094864582626389 0 0.0010984173999243666 -0.01998983197958356 0 0.00043266862620306714 -0.020752503336922783 0 0.000684403984260241 -0.020211289912409221 0 0.00033593664376721868 -0.020341613225997576 0 0.00098082829431855932 -0.019866741769297484 0 0.00043945071688597352 -0.020010789310927143 0 0.000684403984260241 -0.020211289912409221 0 0.0010835817356350441 -0.020228627036696221 0 0.00043266862620306714 -0.020752503336922783 0 0.000684403984260241 -0.020211289912409221 0 0.00043945071688597352 -0.020010789310927143 0 0.000684403984260241 -0.020211289912409221 0 0.00033593664376721868 -0.020341613225997576 0 -8.7234716162515374e-06 -0.01637996113601459 0 4.6796992543305636e-07 -0.017275677746198221 0 7.202860032800448e-05 -0.019299484466471561 0 0.00098082829431855932 -0.019866741769297484 0 0.00043945071688597352 -0.020010789310927143 0 7.202860032800448e-05 -0.019299484466471561 0 0.00032096080992519735 -0.018132435215546343 0 -9.7019595242585769e-06 -0.019043660614753252 0 4.6796992543305636e-07 -0.017275677746198221 0 1.0433939823414264e-07 -0.019445475383284075 0 7.202860032800448e-05 -0.019299484466471561 0 1.0433939823414264e-07 -0.019445475383284075 0 7.202860032800448e-05 -0.019299484466471561 0 -0.0001142045686914975 -0.020044795821020693 0 0.00043945071688597352 -0.020010789310927143 0 7.202860032800448e-05 -0.019299484466471561 0 1.5566731178538898e-05 -0.020250584680511979 0 7.202860032800448e-05 -0.019299484466471561 0 1.5566731178538898e-05 -0.020250584680511979 0 -0.0001142045686914975 -0.020044795821020693 0 0.00043945071688597352 -0.020010789310927143 0 1.5566731178538898e-05 -0.020250584680511979 0 0.00033593664376721868 -0.020341613225997576 0 0.000118654995346443 -0.020547818134766593 0 1.5566731178538898e-05 -0.020250584680511979 0 -9.1305241814959137e-05 -0.020578450602353995 0 0.000118654995346443 -0.020547818134766593 0 1.5566731178538898e-05 -0.020250584680511979 0 0.00033593664376721868 -0.020341613225997576 0 -9.1305241814959137e-05 -0.020578450602353995 0 5.0957416741892291e-05 -0.02082006724907836 0 -8.894699686740145e-05 -0.020657358156411964 0 -9.1305241814959137e-05 -0.020578450602353995 0 -0.00016533450876887696 -0.020554029228692171 0 5.0957416741892291e-05 -0.02082006724907836 0 1.5566731178538898e-05 -0.020250584680511979 0 -9.1305241814959137e-05 -0.020578450602353995 0 -0.00016533450876887696 -0.020554029228692171 0 1.0433939823414264e-07 -0.019445475383284075 0 -0.0001142045686914975 -0.020044795821020693 0 -8.8994771068557884e-07 -0.021614373683131804 0 1.5566731178538898e-05 -0.020250584680511979 0 -0.0001142045686914975 -0.020044795821020693 0 -0.00016533450876887696 -0.020554029228692171 0 -0.0001142045686914975 -0.020044795821020693 0 -0.00016533450876887696 -0.020554029228692171 0 -8.8994771068557884e-07 -0.021614373683131804 0 -0.00016533450876887696 -0.020554029228692171 0 -8.8994771068557884e-07 -0.021614373683131804 0 5.0957416741892291e-05 -0.02082006724907836 0 1.41977079215302e-06 -0.023779574623086445 0 -8.8994771068557884e-07 -0.021614373683131804 0 5.0957416741892291e-05 -0.02082006724907836 0 0.00097755287246164809 -0.023612566255516918 0 0.0014897725309898277 -0.022323684501209643 0 0.001708958232522827 -0.023919398529775877 0 0.0014897725309898277 -0.022323684501209643 0 0.0013156145774742716 -0.027477643270339008 0 0.0019298798835931546 -0.025765981333454126 0 0.0032041191226908016 -0.027248695320331844 0 0.000118654995346443 -0.020547818134766593 0 -9.1305241814959137e-05 -0.020578450602353995 0 -8.894699686740145e-05 -0.020657358156411964 0 0.0018070610303537512 -0.019913212645659827 0 0.0017744789411183297 -0.019978716674017322 0 0.0018461866868942889 -0.019875250702378305 0 0.0014897725309898277 -0.022323684501209643 0 0.0012348619464943068 -0.020023088666994565 0 0.0018179456696543529 -0.019993047518294945 0 0.0017744789411183297 -0.019978716674017322 0 0.0018461866868942889 -0.019875250702378305 0 0.0017353359183233782 -0.020065871729002715 0 0.0018179456696543529 -0.019993047518294945 0 0.0017744789411183297 -0.019978716674017322 0 0.0016588724488972835 -0.020049080358899761 0 0.0018070610303537512 -0.019913212645659827 0 0.0017744789411183297 -0.019978716674017322 0 0.0016588724488972835 -0.020049080358899761 0 0.0017353359183233782 -0.020065871729002715 0 0.0017744789411183297 -0.019978716674017322 0 0.0017958258518121048 -0.013297041103460683 0 0.002590232401545951 -0.013156464422419798 0 0.0022005964765760971 -0.012875982417203261 0 0.0017958258518121048 -0.013297041103460683 0 0.002590232401545951 -0.013156464422419798 0 0.0025292817898810065 -0.013564803826726955 0 0.002605156166684872 -0.013938481020696969 0 0.0011782027738751867 -0.010987559634353963 0 0.002590232401545951 -0.013156464422419798 0 0.0025666868808536694 -0.013552004996638287 0 0.0025292817898810065 -0.013564803826726955 0 0.0016668966283902972 -0.0078009310715177454 0 0.0005197665454134727 -0.00019825140690252652 0 0.0011604902920105261 -0.0073995586927302097 0 0.0016668966283902972 -0.0078009310715177454 0 0.00035021919711260312 -0.00021076242813245315 0 0.00035212196458917432 -0.00020628855635940934 0 0.00035180500018253201 -0.00015441480293762816 0 0.0011782027738751867 -0.010987559634353963 0 0.0016668966283902972 -0.0078009310715177454 0 0.000798970218030871 -0.0018779475394960774 0 0.00030202013499802416 -0.0017279037823604397 0 0.00067872135933818049 -0.0015121552641956209 0 0.000798970218030871 -0.0018779475394960774 0 0.00093463688465176555 -0.0015913020250890404 0 0.00067872135933818049 -0.0015121552641956209 0 0.00093463688465176555 -0.0015913020250890404 0 0.0011874116172725675 -0.0016942000468213791 0 0.0010851209779788149 -0.0012749080774500745 0 0.000798970218030871 -0.0018779475394960774 0 0.00093463688465176555 -0.0015913020250890404 0 0.0011874116172725675 -0.0016942000468213791 0 0.0011874116172725675 -0.0016942000468213791 0 0.0013747991128877307 -0.001278845115738493 0 0.0015112788141185593 -0.0016036956739819887 0 0.0011874116172725675 -0.0016942000468213791 0 0.0013543196946008019 -0.0020896812004892692 0 0.0015112788141185593 -0.0016036956739819887 0 0.0011604902920105261 -0.0073995586927302097 0 0.0013668265126046827 -0.008466854750438178 0 0.000798970218030871 -0.0018779475394960774 0 0.0011874116172725675 -0.0016942000468213791 0 0.0013543196946008019 -0.0020896812004892692 0 0.0017958258518121048 -0.013297041103460683 0 0.00088724689659414177 -0.012891764824386838 0 0.0016277419141270597 -0.012616792934497212 0 0.00088724689659414177 -0.012891764824386838 0 0.0016277419141270597 -0.012616792934497212 0 0.00089804438047722879 -0.012149679195806524 0 0.0016277419141270597 -0.012616792934497212 0 0.00089804438047722879 -0.012149679195806524 0 0.0016220596534445115 -0.011977127265443741 0 0.002199966994645908 -0.011779869392164835 0 0.0016220596534445115 -0.011977127265443741 0 0.0022322200278034211 -0.012381898577322517 0 0.0016277419141270597 -0.012616792934497212 0 0.0016220596534445115 -0.011977127265443741 0 0.0022322200278034211 -0.012381898577322517 0 0.0017958258518121048 -0.013297041103460683 0 0.0016277419141270597 -0.012616792934497212 0 0.0022005964765760971 -0.012875982417203261 0 0.0016277419141270597 -0.012616792934497212 0 0.0022005964765760971 -0.012875982417203261 0 0.0022322200278034211 -0.012381898577322517 0 0.002605156166684872 -0.013938481020696969 0 0.002645010555350082 -0.012753628724434135 0 0.0022005964765760971 -0.012875982417203261 0 0.0026613882564398032 -0.012854721519535893 0 0.0022322200278034211 -0.012381898577322517 0 0.002590232401545951 -0.013156464422419798 0 0.0022005964765760971 -0.012875982417203261 0 0.0026613882564398032 -0.012854721519535893 0 0.0027762810206225512 -0.01206446646071623 0 0.002199966994645908 -0.011779869392164835 0 0.0022322200278034211 -0.012381898577322517 0 0.0027762810206225512 -0.01206446646071623 0 0.0026613882564398032 -0.012854721519535893 0 0.0022322200278034211 -0.012381898577322517 0 0.0027762810206225512 -0.01206446646071623 0 0.0026613882564398032 -0.012854721519535893 0 0.003263942694628633 -0.012513181402098344 0 0.0032525111865747357 -0.011960736997463819 0 0.0027762810206225512 -0.01206446646071623 0 0.003263942694628633 -0.012513181402098344 0 0.003746910329551868 -0.012095898860245577 0 0.003263942694628633 -0.012513181402098344 0 0.0038164606929382292 -0.013068326370983145 0 0.003263942694628633 -0.012513181402098344 0 0.0038164606929382292 -0.013068326370983145 0 0.0032283636713297636 -0.013271116484106199 0 0.0026613882564398032 -0.012854721519535893 0 0.003263942694628633 -0.012513181402098344 0 0.0032283636713297636 -0.013271116484106199 0 0.0026329263850904095 -0.013716370428505509 0 0.0026613882564398032 -0.012854721519535893 0 0.0032283636713297636 -0.013271116484106199 0 0.0053876089199294368 -0.012548825447710193 0 0.0044381212549048756 -0.012649563133800447 0 0.0050469722648578052 -0.013175595510062935 0 0.003746910329551868 -0.012095898860245577 0 0.0038164606929382292 -0.013068326370983145 0 0.0044381212549048756 -0.012649563133800447 0 0.0038164606929382292 -0.013068326370983145 0 0.0044381212549048756 -0.012649563133800447 0 0.004687409240501819 -0.01383644067812446 0 0.0044381212549048756 -0.012649563133800447 0 0.0050469722648578052 -0.013175595510062935 0 0.004687409240501819 -0.01383644067812446 0 0.0056812095743765355 -0.013660186685684274 0 0.0050469722648578052 -0.013175595510062935 0 0.004687409240501819 -0.01383644067812446 0 0.0040601074286250099 -0.016761320149445671 0 0.0036480043086029906 -0.016701046755282462 0 0.0038164606929382292 -0.013068326370983145 0 0.004687409240501819 -0.01383644067812446 0 0.0037021401759078807 -0.014089966468952768 0 0.0036480043086029906 -0.016701046755282462 0 0.0037664044703383079 -0.017509440831437992 0 0.0026500771067762947 -0.019730045515658854 0 0.0027189400848390893 -0.019421617928585912 0 0.0032867022059947224 -0.019545332368052254 0 0.0027189400848390893 -0.019421617928585912 0 0.0032867022059947224 -0.019545332368052254 0 0.0030984914997796952 -0.018839272010130075 0 0.0024455716774229291 -0.019569291714257048 0 0.0026500771067762947 -0.019730045515658854 0 0.0027189400848390893 -0.019421617928585912 0 0.0024455716774229291 -0.019569291714257048 0 0.0027189400848390893 -0.019421617928585912 0 0.0025066788684477807 -0.019236234995341776 0 0.0026329263850904095 -0.013716370428505509 0 0.0026235759640798645 -0.014431779923883238 0 0.0037021401759078807 -0.014089966468952768 0 0.0026329263850904095 -0.013716370428505509 0 0.0032283636713297636 -0.013271116484106199 0 0.0037021401759078807 -0.014089966468952768 0 0.0038164606929382292 -0.013068326370983145 0 0.0032283636713297636 -0.013271116484106199 0 0.0037021401759078807 -0.014089966468952768 0 0.0032867022059947224 -0.019545332368052254 0 0.0036746477393754941 -0.018769505910584405 0 0.0030984914997796952 -0.018839272010130075 0 0.0011782027738751867 -0.010987559634353963 0 0.0037664044703383079 -0.017509440831437992 0 0.0040953288585067298 -0.019169506458237406 0 0.0032867022059947224 -0.019545332368052254 0 0.0036746477393754941 -0.018769505910584405 0 0.0040953288585067298 -0.019169506458237406 0 0.0036746477393754941 -0.018769505910584405 0 0.0040990884534142357 -0.018142363636399383 0 0.0036746477393754941 -0.018769505910584405 0 0.0038291637291277504 -0.018100026587144689 0 0.0030984914997796952 -0.018839272010130075 0 0.0022696479541188977 -0.012609348024806295 0 0.0034224742780750647 -0.020495892349993855 0 0.0016321630548285896 -0.012370261200678084 0 0.0022696479541188977 -0.012609348024806295 0 0.0033045681641955976 -0.017942215869065973 0 0.0041201149618354665 -0.018095004699111034 0 0.0030984914997796952 -0.018839272010130075 0 -5.150263814195018e-05 -0.0068032033987692154 0 9.5303827965195772e-05 -0.0068620409364791883 0 4.5011074602916963e-05 -0.0067062149945497683 0 0.0036746477393754941 -0.018769505910584405 0 0.0038291637291277504 -0.018100026587144689 0 0.0040990884534142357 -0.018142363636399383 0 0.0015152062332745555 -0.0087641374099990017 0 0.0021899781249424197 -0.0083103014154397841 0 0.0021882324656760876 -0.0089136528426690832 0 0.0022696479541188977 -0.012609348024806295 0 0.0015288548756904525 -0.0051459197185375763 0 9.5303827965195772e-05 -0.0068620409364791883 0 4.5011074602916963e-05 -0.0067062149945497683 0 0.00019340717254062481 -0.0068074834722611543 0 0.0022696479541188977 -0.012609348024806295 0 0.001953362441859955 -0.0070674253391685427 0 0.0021942414098611949 -0.019377505691274569 0 0.0023939044324848154 -0.018946421164453449 0 0.0025066788684477807 -0.019236234995341776 0 0.0030984914997796952 -0.018839272010130075 0 0.0026862386725479874 -0.018432388871851252 0 0.0027189400848390893 -0.019421617928585912 0 0.0025066788684477807 -0.019236234995341776 0 0.0030984914997796952 -0.018839272010130075 0 0.0033045681641955976 -0.017942215869065973 0 0.0026862386725479874 -0.018432388871851252 0 0.0025017260347268556 -0.018075603187501631 0 0.0033045681641955976 -0.017942215869065973 0 0.0025017260347268556 -0.018075603187501631 0 0.0024810190751387768 -0.017692272733401491 0 0.0033045681641955976 -0.017942215869065973 0 0.0030984914997796952 -0.018839272010130075 0 0.0026862386725479874 -0.018432388871851252 0 0.0025066788684477807 -0.019236234995341776 0 0.0026862386725479874 -0.018432388871851252 0 0.0020375707385750451 -0.018009001706922739 0 0.0017497526110276723 -0.018034329327166556 0 0.0025066788684477807 -0.019236234995341776 0 0.0020375707385750451 -0.018009001706922739 0 0.0026862386725479874 -0.018432388871851252 0 0.0025017260347268556 -0.018075603187501631 0 0.0020375707385750451 -0.018009001706922739 0 0.0025017260347268556 -0.018075603187501631 0 0.0020375707385750451 -0.018009001706922739 0 0.0024810190751387768 -0.017692272733401491 0 0.0021942414098611949 -0.019377505691274569 0 0.0020677120629990476 -0.019030675687635296 0 0.0009495250603063361 -0.014063774776654244 0 0.00099890668002058881 -0.012121962212763944 0 0.0009495250603063361 -0.014063774776654244 0 -0.00010889224721417879 -0.008232746680262238 0 0.0014050003686758171 -0.017301867390558327 0 0.0020375707385750451 -0.018009001706922739 0 0.0024810190751387768 -0.017692272733401491 0 -0.00016247981324422588 -0.0068676657371373566 0 -0.00011571828666446988 -0.0068069571057235061 0 -0.00012700877588605678 -0.0067560320479680552 0 -5.150263814195018e-05 -0.0068032033987692154 0 -0.00011571828666446988 -0.0068069571057235061 0 -8.0165864399581307e-05 -0.0067310035478817601 0 0.0016321630548285896 -0.012370261200678084 0 0.00099890668002058881 -0.012121962212763944 0 -0.00011571828666446988 -0.0068069571057235061 0 -8.0165864399581307e-05 -0.0067310035478817601 0 -0.00012700877588605678 -0.0067560320479680552 0 -8.0165864399581307e-05 -0.0067310035478817601 0 -0.00012700877588605678 -0.0067560320479680552 0 -4.2458290775184013e-05 -0.0066339729192678382 0 1.2829667375176994e-07 -0.0087627157420342213 0 -8.8510065897491272e-05 -0.010460879881682199 0 6.3573539063918892e-05 -0.0088574430116907729 0 -0.00010889224721417879 -0.008232746680262238 0 -0.00015255729753953985 -0.0077960002269415098 0 4.1877257350562077e-05 -0.011054088990512712 0 -8.333251752747043e-07 -0.010851264483616549 0 -8.8510065897491272e-05 -0.010460879881682199 0 1.2829667375176994e-07 -0.0087627157420342213 0 -8.333251752747043e-07 -0.010851264483616549 0 -8.8510065897491272e-05 -0.010460879881682199 0 4.5011074602916963e-05 -0.0067062149945497683 0 0.00022094513064340677 -0.0066101539036420636 0 0.00019340717254062481 -0.0068074834722611543 0 4.5011074602916963e-05 -0.0067062149945497683 0 -1.934898092526166e-05 -0.006598573270176003 0 -5.1547028004385086e-05 -0.0064590745038706522 0 4.5011074602916963e-05 -0.0067062149945497683 0 -5.1547028004385086e-05 -0.0064590745038706522 0 0.00022094513064340677 -0.0066101539036420636 0 -5.150263814195018e-05 -0.0068032033987692154 0 -8.0165864399581307e-05 -0.0067310035478817601 0 -1.934898092526166e-05 -0.006598573270176003 0 -5.150263814195018e-05 -0.0068032033987692154 0 4.5011074602916963e-05 -0.0067062149945497683 0 -1.934898092526166e-05 -0.006598573270176003 0 1.2829667375176994e-07 -0.0087627157420342213 0 6.3573539063918892e-05 -0.0088574430116907729 0 2.9917423559729593e-07 -0.0066755688523064188 0 -8.0165864399581307e-05 -0.0067310035478817601 0 -4.2458290775184013e-05 -0.0066339729192678382 0 -1.934898092526166e-05 -0.006598573270176003 0 -4.2458290775184013e-05 -0.0066339729192678382 0 -1.934898092526166e-05 -0.006598573270176003 0 -5.4360512101200989e-07 -0.0066711467025495092 0 -0.00015255729753953985 -0.0077960002269415098 0 -2.2318204824711642e-07 -0.0066751918796230719 0 -5.1547028004385086e-05 -0.0064590745038706522 0 6.5521642139927614e-07 -0.0055941717737174436 0 0.00022094513064340677 -0.0066101539036420636 0 -1.934898092526166e-05 -0.006598573270176003 0 -5.4360512101200989e-07 -0.0066711467025495092 0 -5.1547028004385086e-05 -0.0064590745038706522 0 -5.4360512101200989e-07 -0.0066711467025495092 0 -5.1547028004385086e-05 -0.0064590745038706522 0 6.5521642139927614e-07 -0.0055941717737174436 0 1.154626981106669e-06 -0.005587412007320762 0 -0.00016575060682075189 -0.0040254898340260931 0 -1.1338194935996844e-06 -0.0032855522644619044 0 1.4466739053889969e-07 -0.0055904253670493384 0 0.00021585519798258818 -0.0053683386930425195 0 1.154626981106669e-06 -0.005587412007320762 0 -0.00016575060682075189 -0.0040254898340260931 0 0.00026135807475188258 -0.0040838519798609306 0 -0.00016575060682075189 -0.0040254898340260931 0 -0.00014808407938174696 -0.003920001209959118 0 3.0541862795701242e-05 -0.0032349639713694861 0 -0.00016575060682075189 -0.0040254898340260931 0 -1.1338194935996844e-06 -0.0032855522644619044 0 3.0541862795701242e-05 -0.0032349639713694861 0 0.00044998252117094812 -0.00020231452477714631 0 0.00035916761948987994 -9.4677830941784078e-05 0 0.00041754091940664434 -0.00034192345287023393 0 0.00019925255044198067 -0.001808274682162706 0 5.9802210404088569e-05 -0.0018091167337896043 0 0.00044998252117094812 -0.00020231452477714631 0 0.00035916761948987994 -9.4677830941784078e-05 0 0.00044878984441751784 -0.00011732546673398895 0 0.00021585519798258818 -0.0053683386930425195 0 0.0015288548756904525 -0.0051459197185375763 0 -0.00016575060682075189 -0.0040254898340260931 0 -0.00014808407938174696 -0.003920001209959118 0 0.00026135807475188258 -0.0040838519798609306 0 0.00019925255044198067 -0.001808274682162706 0 0.0015288548756904525 -0.0051459197185375763 0 -0.00014808407938174696 -0.003920001209959118 0 0.00026135807475188258 -0.0040838519798609306 0 0.00027080242177485078 -0.0036807262684448194 0 0.00044998252117094812 -0.00020231452477714631 0 0.00056099559997072784 -0.00016946003730744939 0 0.00044878984441751784 -0.00011732546673398895 0 0.00056099559997072784 -0.00016946003730744939 0 0.00056656980877893733 -0.00011832135906639629 0 0.00044878984441751784 -0.00011732546673398895 0 0.00056656980877893733 -0.00011832135906639629 0 0.00044878984441751784 -0.00011732546673398895 0 0.00033471033930303619 -3.7983079818858241e-05 0 0.001953362441859955 -0.0070674253391685427 0 -0.00055614371403900765 0.0017955257914504291 0 0.0015288548756904525 -0.0051459197185375763 0 0.001953362441859955 -0.0070674253391685427 0 0.00035916761948987994 -9.4677830941784078e-05 0 0.00044878984441751784 -0.00011732546673398895 0 0.00033471033930303619 -3.7983079818858241e-05 0 0.00033471033930303619 -3.7983079818858241e-05 0 0.00034492269989010372 -7.9704417182543022e-05 0 0.00035180500018253201 -0.00015441480293762816 0 0.0011782027738751867 -0.010987559634353963 0 0.001953362441859955 -0.0070674253391685427 0 0.00035212196458917432 -0.00020628855635940934 0 0.00034492269989010372 -7.9704417182543022e-05 0 0.00035180500018253201 -0.00015441480293762816 0 0.00035021919711260312 -0.00021076242813245315 0 0.00036424644402822552 -0.00019318379138237056 0 0.00035180500018253201 -0.00015441480293762816 0 0.00036424644402822552 -0.00019318379138237056 0 0.00033471033930303619 -3.7983079818858241e-05 0 0.00035180500018253201 -0.00015441480293762816 0 0.00064076608886711654 -0.00070418179126778904 0 0.00054029943017546258 -4.1563604265010413e-05 0 0.0011874116172725675 -0.0016942000468213791 0 0.0013747991128877307 -0.001278845115738493 0 0.0010851209779788149 -0.0012749080774500745 0 0.0013747991128877307 -0.001278845115738493 0 0.0010851209779788149 -0.0012749080774500745 0 0.0015047402675721004 -0.0010699764108303251 0 0.0010581800315464884 -0.0010353879391212929 0 0.00054029943017546258 -4.1563604265010413e-05 0 0.00033471033930303619 -3.7983079818858241e-05 0 0.00034492269989010372 -7.9704417182543022e-05 0 0.00020419929161569583 6.1874186168669101e-05 0 0.00093463688465176555 -0.0015913020250890404 0 0.00067872135933818049 -0.0015121552641956209 0 0.0010851209779788149 -0.0012749080774500745 0 0.0005197665454134727 -0.00019825140690252652 0 0.00064076608886711654 -0.00070418179126778904 0 0.00033471033930303619 -3.7983079818858241e-05 0 0.00020419929161569583 6.1874186168669101e-05 0 0.00016316817687740687 1.9469479494105587e-05 0 0.00035916761948987994 -9.4677830941784078e-05 0 0.00033471033930303619 -3.7983079818858241e-05 0 0.00016316817687740687 1.9469479494105587e-05 0 0.00016316817687740687 1.9469479494105587e-05 0 -0.0001143337260191912 0.00012101710890222901 0 1.8105680224012758e-05 9.7312981917891363e-05 0 0.00020419929161569583 6.1874186168669101e-05 0 0.00016316817687740687 1.9469479494105587e-05 0 1.8105680224012758e-05 9.7312981917891363e-05 0 0.00035916761948987994 -9.4677830941784078e-05 0 0.00016316817687740687 1.9469479494105587e-05 0 0.00041754091940664434 -0.00034192345287023393 0 0.00016316817687740687 1.9469479494105587e-05 0 -0.0001143337260191912 0.00012101710890222901 0 0.00041754091940664434 -0.00034192345287023393 0 -1.1338194935996844e-06 -0.0032855522644619044 0 3.0541862795701242e-05 -0.0032349639713694861 0 1.1392801018565171e-06 -0.00098047844455748708 0 5.9802210404088569e-05 -0.0018091167337896043 0 -1.5497733088891108e-07 -0.00097956128455465663 0 -0.0001143337260191912 0.00012101710890222901 0 5.5070079981730083e-07 -0.00097539480103645112 0 -1.0232855607521137e-06 0.0011022832248283941 0 -0.0001143337260191912 0.00012101710890222901 0 0.00041754091940664434 -0.00034192345287023393 0 5.5070079981730083e-07 -0.00097539480103645112 0 -0.0001143337260191912 0.00012101710890222901 0 -1.0232855607521137e-06 0.0011022832248283941 0 0.00012006694894553558 0.00044987054423992412 0 -1.0232855607521137e-06 0.0011022832248283941 0 0.00012006694894553558 0.00044987054423992412 0 1.5445454470400373e-06 0.003219587210072553 0 -9.366443998736569e-05 0.0014922280592190573 0 0.00055896503533758965 0.003143924227315941 0 8.7039284718221809e-05 0.0022841381868543712 0 0.0007591363078889744 0.0032694210267224925 0 0.00074335635839562766 0.0026024567663866078 0 -0.0001143337260191912 0.00012101710890222901 0 0.00012006694894553558 0.00044987054423992412 0 1.8105680224012758e-05 9.7312981917891363e-05 0 9.4295186728474498e-05 0.0061714574648627949 0 0.00043843674364337241 0.0054023752158705047 0 0.00020628561469180796 0.0076870318480933269 0 9.4295186728474498e-05 0.0061714574648627949 0 2.2025889120158881e-06 0.0044267632097625713 0 -4.3868589497889126e-07 0.006722654305453833 0 -4.2206023800489773e-05 0.0045172801226909106 0 -0.00065604346479417725 0.0069203368747666368 0 9.4295186728474498e-05 0.0061714574648627949 0 2.2025889120158881e-06 0.0044267632097625713 0 0.00043843674364337241 0.0054023752158705047 0 1.6049084595969639e-08 0.0044239563030782176 0 -4.2206023800489773e-05 0.0045172801226909106 0 0.0012398997683290916 0.0030022744998229158 0 0.0007591363078889744 0.0032694210267224925 0 0.00074335635839562766 0.0026024567663866078 0 3.2386390428476866e-08 0.0044218879693095538 0 2.5960663584638688e-07 0.0042402993029728268 0 -3.1185134895658039e-08 0.0032247048899526876 0 -4.2206023800489773e-05 0.0045172801226909106 0 0.00055896503533758965 0.003143924227315941 0 0.0012398997683290916 0.0030022744998229158 0 0.00074335635839562766 0.0026024567663866078 0 0.00095730572518911371 0.0018831234064062923 0 -4.2206023800489773e-05 0.0045172801226909106 0 0.00051849346193821009 0.0031842056902629651 0 8.7039284718221809e-05 0.0022841381868543712 0 0.00074335635839562766 0.0026024567663866078 0 0.00095730572518911371 0.0018831234064062923 0 -0.0012026228766055147 0.0058555020334100432 0 0.00051849346193821009 0.0031842056902629651 0 -0.0009202161407163424 0.0055969741706982604 0 -0.0010288941273282331 0.0058010284434337313 0 -0.00084927323069048407 0.0058397612921022831 0 -0.0009202161407163424 0.0055969741706982604 0 -0.0010288941273282331 0.0058010284434337313 0 -0.0011059506237027542 0.005739554461260234 0 -0.0010288941273282331 0.0058010284434337313 0 -0.0010260947535530634 0.0058799955649565033 0 -0.00095637931615098282 0.00582376080056038 0 -0.0010288941273282331 0.0058010284434337313 0 -0.0010260947535530634 0.0058799955649565033 0 -0.0011019530058105906 0.0058476204446608364 0 0.00051849346193821009 0.0031842056902629651 0 0.00064070661392791437 0.0021242659464409475 0 0.0024089243944194309 -0.00058686542348708275 0 0.0022633268567755493 -0.0012006943538880113 0 0.0019530298382539814 -0.00079751119686331036 0 -0.0010260947535530634 0.0058799955649565033 0 -0.00095637931615098282 0.00582376080056038 0 -0.0009425935695476492 0.0059318641777608089 0 -0.0009425935695476492 0.0059318641777608089 0 -0.0010543309192880556 0.0059617909812426902 0 -0.0010018905483285964 0.0060118331801511191 0 -0.0010260947535530634 0.0058799955649565033 0 -0.0010543309192880556 0.0059617909812426902 0 -0.0011294030623348239 0.0059336436478231039 0 -0.0010260947535530634 0.0058799955649565033 0 -0.0009425935695476492 0.0059318641777608089 0 -0.0010543309192880556 0.0059617909812426902 0 0.00054029943017546258 -4.1563604265010413e-05 0 0.0011520982044018093 0.00030734138814106609 0 8.7039284718221809e-05 0.0022841381868543712 0 -0.00057582872029777966 0.0012943052542627102 0 0.00018829951006563717 0.0015890630168311013 0 -9.366443998736569e-05 0.0014922280592190573 0 0.00054029943017546258 -4.1563604265010413e-05 0 8.7039284718221809e-05 0.0022841381868543712 0 0.00095730572518911371 0.0018831234064062923 0 0.00018829951006563717 0.0015890630168311013 0 0.00051849346193821009 0.0031842056902629651 0 0.0011520982044018093 0.00030734138814106609 0 0.0019530298382539814 -0.00079751119686331036 0 0.0016399455629787952 -0.001228909411546682 0 0.0018581962396292584 -0.0014361195429620853 0 0.0022633268567755493 -0.0012006943538880113 0 0.0019530298382539814 -0.00079751119686331036 0 0.0018581962396292584 -0.0014361195429620853 0 0.0015152323400477092 -0.0010048194473296008 0 0.0019530298382539814 -0.00079751119686331036 0 0.0016399455629787952 -0.001228909411546682 0 0.0013747991128877307 -0.001278845115738493 0 0.0015152323400477092 -0.0010048194473296008 0 0.0016399455629787952 -0.001228909411546682 0 0.0013747991128877307 -0.001278845115738493 0 0.0016399455629787952 -0.001228909411546682 0 0.0015112788141185593 -0.0016036956739819887 0 0.0015112788141185593 -0.0016036956739819887 0 0.0017455355416043984 -0.0018709667067331659 0 0.0018581962396292584 -0.0014361195429620853 0 0.0016399455629787952 -0.001228909411546682 0 0.0015112788141185593 -0.0016036956739819887 0 0.0018581962396292584 -0.0014361195429620853 0 0.0013543196946008019 -0.0020896812004892692 0 0.0017455355416043984 -0.0018709667067331659 0 0.0019526313350016131 -0.0023050662203284167 0 0.0013543196946008019 -0.0020896812004892692 0 0.0015112788141185593 -0.0016036956739819887 0 0.0017455355416043984 -0.0018709667067331659 0 0.00066667084056904824 0.0028184814601386935 0 0.00077801484715982346 -0.0011889266459094959 0 0.0017455355416043984 -0.0018709667067331659 0 0.0021051115934554898 -0.0017691184243628054 0 0.0019526313350016131 -0.0023050662203284167 0 0.0022633268567755493 -0.0012006943538880113 0 0.0021051115934554898 -0.0017691184243628054 0 0.0018581962396292584 -0.0014361195429620853 0 0.00064070661392791437 0.0021242659464409475 0 0.00066667084056904824 0.0028184814601386935 0 0.0017455355416043984 -0.0018709667067331659 0 0.0021051115934554898 -0.0017691184243628054 0 0.0018581962396292584 -0.0014361195429620853 0 -0.0009425935695476492 0.0059318641777608089 0 -0.00091216006158718335 0.0060524317108120416 0 -0.0010018905483285964 0.0060118331801511191 0 -0.0010018905483285964 0.0060118331801511191 0 -0.0010348349272473426 0.0060528536542455089 0 -0.0010016777115611608 0.0060726295147796542 0 -0.00091216006158718335 0.0060524317108120416 0 -0.0010018905483285964 0.0060118331801511191 0 -0.0010016777115611608 0.0060726295147796542 0 -0.0010543309192880556 0.0059617909812426902 0 -0.0010561619432515909 0.0060167182515675245 0 -0.0011449843769496856 0.0060443106299029967 0 -0.0010561619432515909 0.0060167182515675245 0 -0.0010729742652885871 0.0060775882430120567 0 -0.0011449843769496856 0.0060443106299029967 0 -0.0010729742652885871 0.0060775882430120567 0 -0.001079649197073949 0.0060952371708709839 0 -0.0011449843769496856 0.0060443106299029967 0 -0.0010543309192880556 0.0059617909812426902 0 -0.0010018905483285964 0.0060118331801511191 0 -0.0010561619432515909 0.0060167182515675245 0 -0.0010018905483285964 0.0060118331801511191 0 -0.0010561619432515909 0.0060167182515675245 0 -0.0010348349272473426 0.0060528536542455089 0 -0.0010561619432515909 0.0060167182515675245 0 -0.0010348349272473426 0.0060528536542455089 0 -0.0010729742652885871 0.0060775882430120567 0 -0.0010348349272473426 0.0060528536542455089 0 -0.0010729742652885871 0.0060775882430120567 0 -0.0010473432280222474 0.0060955853014507105 0 -0.0015805717989960805 0.0078780426357459785 0 -0.0022249588521762267 0.0083960900703479151 0 -0.001312547731467375 0.0071540229410355744 0 -0.0015805717989960805 0.0078780426357459785 0 -0.0010729742652885871 0.0060775882430120567 0 -0.0010856977745297256 0.0060943391328652126 0 -0.0010473432280222474 0.0060955853014507105 0 -0.0010856977745297256 0.0060943391328652126 0 -0.0010473432280222474 0.0060955853014507105 0 -0.0010434675204657841 0.0061920067743059595 0 -0.0015805717989960805 0.0078780426357459785 0 -0.0011975127046557374 0.0061624087200675814 0 -0.0013411566504677164 0.0062645506136399477 0 -0.0012024391819547829 0.006335329001844147 0 -0.0013106028430319736 0.0063961595455390777 0 -0.00091216006158718335 0.0060524317108120416 0 -0.0010434675204657841 0.0061920067743059595 0 -0.00096337159958056811 0.0063577379451896041 0 -0.00091216006158718335 0.0060524317108120416 0 -0.0010016777115611608 0.0060726295147796542 0 -0.0010434675204657841 0.0061920067743059595 0 -0.0010473432280222474 0.0060955853014507105 0 -0.0010016777115611608 0.0060726295147796542 0 -0.0010434675204657841 0.0061920067743059595 0 -0.0010348349272473426 0.0060528536542455089 0 -0.0010473432280222474 0.0060955853014507105 0 -0.0010016777115611608 0.0060726295147796542 0 -0.0011975127046557374 0.0061624087200675814 0 -0.00093410888169242893 0.0063904938098994215 0 -0.0012024391819547829 0.006335329001844147 0 -0.0012704412329723519 0.0064985453190884827 0 -0.0011651899145518798 0.0065060189151725347 0 -0.0012024391819547829 0.006335329001844147 0 -0.0011651899145518798 0.0065060189151725347 0 -0.00096337159958056811 0.0063577379451896041 0 -0.0013411566504677164 0.0062645506136399477 0 -0.0013106028430319736 0.0063961595455390777 0 -0.0014210584604708108 0.0064916222027312977 0 -0.0013106028430319736 0.0063961595455390777 0 -0.0012704412329723519 0.0064985453190884827 0 -0.0014210584604708108 0.0064916222027312977 0 -0.0012024391819547829 0.006335329001844147 0 -0.0013106028430319736 0.0063961595455390777 0 -0.0012704412329723519 0.0064985453190884827 0 -0.0012704412329723519 0.0064985453190884827 0 -0.0012986882374351012 0.0066306270639526835 0 -0.0014210584604708108 0.0064916222027312977 0 -0.0012986882374351012 0.0066306270639526835 0 -0.0012238403529779035 0.0066116527842178426 0 -0.0012649331800420177 0.0067674402162153438 0 -0.0012704412329723519 0.0064985453190884827 0 -0.0012986882374351012 0.0066306270639526835 0 -0.0012238403529779035 0.0066116527842178426 0 -0.0011651899145518798 0.0065060189151725347 0 -0.0012238403529779035 0.0066116527842178426 0 -0.0011985933334653449 0.0066280021183091602 0 -0.0012704412329723519 0.0064985453190884827 0 -0.0011651899145518798 0.0065060189151725347 0 -0.0012238403529779035 0.0066116527842178426 0 -0.0011651899145518798 0.0065060189151725347 0 -0.0011083371703665826 0.006422638517083832 0 -0.0011985933334653449 0.0066280021183091602 0 -0.0011083371703665826 0.006422638517083832 0 -0.0011605941413575351 0.0065758720892600039 0 -0.0011985933334653449 0.0066280021183091602 0 0.00077801484715982346 -0.0011889266459094959 0 -0.0006985040511194152 -0.0029551597556396834 0 0.00089804438047722879 -0.012149679195806524 0 -1.197197039737461e-05 -0.012407699476091036 0 0.00019180331452830362 -0.011633712844072563 0 0.00088724689659414177 -0.012891764824386838 0 0.00089804438047722879 -0.012149679195806524 0 -1.197197039737461e-05 -0.012407699476091036 0 0.0013668265126046827 -0.008466854750438178 0 0.00077801484715982346 -0.0011889266459094959 0 -0.0025373252956746211 0.0069563009827972163 0 0.00077801484715982346 -0.0011889266459094959 0 -0.0011651899145518798 0.0065060189151725347 0 -0.00085834765378773779 0.0063311330824476668 0 -0.00096337159958056811 0.0063577379451896041 0 -0.00091216006158718335 0.0060524317108120416 0 -0.00085834765378773779 0.0063311330824476668 0 -0.00096337159958056811 0.0063577379451896041 0 -0.0013658692152555922 0.010540597631198632 0 -0.001257010439373697 0.009612843091164525 0 -0.0019696682637954303 0.010265726615569222 0 -0.0013658692152555922 0.010540597631198632 0 -0.00056243608580607322 0.010311150479517063 0 -0.001257010439373697 0.009612843091164525 0 -0.00056243608580607322 0.010311150479517063 0 -0.00032542854812894371 0.0095839993774669979 0 -0.001257010439373697 0.009612843091164525 0 -0.00032542854812894371 0.0095839993774669979 0 -0.001257010439373697 0.009612843091164525 0 -0.00047773999710971524 0.0087741196688553083 0 -0.00075076642311274714 0.0090196945315236376 0 -0.0019696682637954303 0.010265726615569222 0 -0.0021705216453353545 0.0085264923353438968 0 -0.0012986882374351012 0.0066306270639526835 0 -0.0014210584604708108 0.0064916222027312977 0 -0.0014490952244950671 0.0067745823520403963 0 -0.0022249588521762267 0.0083960900703479151 0 -0.0017668296987523337 0.0076140301023648492 0 -0.0028189411716007117 0.0099391436767207724 0 -0.0019696682637954303 0.010265726615569222 0 -0.0021705216453353545 0.0085264923353438968 0 -0.0028189411716007117 0.0099391436767207724 0 -0.0019696682637954303 0.010265726615569222 0 -0.002600747894012238 0.01070645151299547 0 -0.0010350547585730146 0.0093289219879689068 0 -0.0019171839432618892 0.010213208323460024 0 -0.0013658692152555922 0.010540597631198632 0 -0.0019696682637954303 0.010265726615569222 0 -0.0020179195716732677 0.010856045906091688 0 -0.0013658692152555922 0.010540597631198632 0 -0.0016163528628155436 0.011211571997238438 0 -0.0020179195716732677 0.010856045906091688 0 -0.0032264442680280431 0.011066361628686716 0 -0.002600747894012238 0.01070645151299547 0 -0.0024086758643979658 0.011687450929785851 0 -0.0032264442680280431 0.011066361628686716 0 -0.0028189411716007117 0.0099391436767207724 0 -0.002600747894012238 0.01070645151299547 0 -0.0020179195716732677 0.010856045906091688 0 -0.002600747894012238 0.01070645151299547 0 -0.0024086758643979658 0.011687450929785851 0 -0.0019696682637954303 0.010265726615569222 0 -0.0020179195716732677 0.010856045906091688 0 -0.002600747894012238 0.01070645151299547 0 -0.0015805717989960805 0.0078780426357459785 0 -0.0017915515231455667 0.0089414490920351995 0 -0.0016163528628155436 0.011211571997238438 0 -0.0020179195716732677 0.010856045906091688 0 -0.0024086758643979658 0.011687450929785851 0 -0.0016163528628155436 0.011211571997238438 0 -0.0024086758643979658 0.011687450929785851 0 -0.0016690022699047107 0.012299152888868622 0 -0.0016163528628155436 0.011211571997238438 0 -0.0011140966227970728 0.011673096794721841 0 -0.00078271378245291635 0.011109698889208271 0 -0.0016163528628155436 0.011211571997238438 0 -0.0011140966227970728 0.011673096794721841 0 -0.0016690022699047107 0.012299152888868622 0 -0.0013658692152555922 0.010540597631198632 0 -0.0016163528628155436 0.011211571997238438 0 -0.00078271378245291635 0.011109698889208271 0 -0.00078271378245291635 0.011109698889208271 0 -0.00033616913229097449 0.011842328292488807 0 0.00025154632662166565 0.01096576085924086 0 -0.0013658692152555922 0.010540597631198632 0 -0.00056243608580607322 0.010311150479517063 0 -0.00078271378245291635 0.011109698889208271 0 -0.00056243608580607322 0.010311150479517063 0 -0.00078271378245291635 0.011109698889208271 0 0.00025154632662166565 0.01096576085924086 0 -0.0011140966227970728 0.011673096794721841 0 -0.00033616913229097449 0.011842328292488807 0 -0.00093170648459655963 0.012231572240072154 0 -0.0011140966227970728 0.011673096794721841 0 -0.00078271378245291635 0.011109698889208271 0 -0.00033616913229097449 0.011842328292488807 0 -0.00036903693029482121 0.012624963328692755 0 -0.00093170648459655963 0.012231572240072154 0 -0.00093431464685131546 0.012894847695016058 0 -0.00033616913229097449 0.011842328292488807 0 -0.00036903693029482121 0.012624963328692755 0 -0.00093170648459655963 0.012231572240072154 0 -0.00040885658131633912 0.010182572654065077 0 -0.001599357244925474 0.0090109530311411126 0 -0.0011140966227970728 0.011673096794721841 0 -0.00093170648459655963 0.012231572240072154 0 -0.0016690022699047107 0.012299152888868622 0 -0.00093170648459655963 0.012231572240072154 0 -0.00093431464685131546 0.012894847695016058 0 -0.0016690022699047107 0.012299152888868622 0 -0.0013019156925809633 0.0059621858854841045 0 -0.0012244778299338188 0.0059997417905429526 0 -0.0012154482915886057 0.0058639013619357673 0 -0.00040885658131633912 0.010182572654065077 0 -0.00060996375783009939 0.0075696041632958792 0 -0.00040885658131633912 0.010182572654065077 0 0.00055360968982107542 0.012473916138693197 0 0.00022855322342276859 0.012984981385944132 0 0.00075863948203460686 0.012674416180264705 0 0.00014376341374377791 0.012152284800997327 0 -0.00021378311390303113 0.012740692969984419 0 -0.00040885658131633912 0.010182572654065077 0 -0.0010543309192880556 0.0059617909812426902 0 -0.0011449843769496856 0.0060443106299029967 0 -0.0011294030623348239 0.0059336436478231039 0 -0.0017915515231455667 0.0089414490920351995 0 -0.001599357244925474 0.0090109530311411126 0 -0.0011449843769496856 0.0060443106299029967 0 -0.0012244778299338188 0.0059997417905429526 0 -0.0011294030623348239 0.0059336436478231039 0 -0.0012244778299338188 0.0059997417905429526 0 -0.0011294030623348239 0.0059336436478231039 0 -0.0012154482915886057 0.0058639013619357673 0 -0.0011294030623348239 0.0059336436478231039 0 -0.0011019530058105906 0.0058476204446608364 0 -0.0012154482915886057 0.0058639013619357673 0 -0.0010260947535530634 0.0058799955649565033 0 -0.0011294030623348239 0.0059336436478231039 0 -0.0011019530058105906 0.0058476204446608364 0 -0.0011019530058105906 0.0058476204446608364 0 -0.0011059506237027542 0.005739554461260234 0 -0.0012154482915886057 0.0058639013619357673 0 -0.0010288941273282331 0.0058010284434337313 0 -0.0011019530058105906 0.0058476204446608364 0 -0.0011059506237027542 0.005739554461260234 0 -0.00065604346479417725 0.0069203368747666368 0 -0.00060996375783009939 0.0075696041632958792 0 0.00020628561469180796 0.0076870318480933269 0 9.1843400406761744e-06 0.0097451091025882348 0 -3.1920679800225842e-05 0.0086248966015806984 0 9.1843400406761744e-06 0.0097451091025882348 0 -3.1920679800225842e-05 0.0086248966015806984 0 -8.0765471701024205e-05 0.010367839419529335 0 -3.1920679800225842e-05 0.0086248966015806984 0 -4.3868589497889126e-07 0.006722654305453833 0 -1.1774177400367931e-07 0.0090213287958505889 0 9.4295186728474498e-05 0.0061714574648627949 0 0.00020628561469180796 0.0076870318480933269 0 -4.3868589497889126e-07 0.006722654305453833 0 0.00020628561469180796 0.0076870318480933269 0 -3.1920679800225842e-05 0.0086248966015806984 0 -4.3868589497889126e-07 0.006722654305453833 0 -8.0765471701024205e-05 0.010367839419529335 0 -6.6699470398169494e-08 0.011319458147442498 0 0.00014376341374377791 0.012152284800997327 0 -5.28347510737671e-05 0.010765270338559662 0 -8.0765471701024205e-05 0.010367839419529335 0 0.00014376341374377791 0.012152284800997327 0 -5.28347510737671e-05 0.010765270338559662 0 9.1843400406761744e-06 0.0097451091025882348 0 -8.0765471701024205e-05 0.010367839419529335 0 -3.1920679800225842e-05 0.0086248966015806984 0 -8.0765471701024205e-05 0.010367839419529335 0 -1.1774177400367931e-07 0.0090213287958505889 0 -8.0765471701024205e-05 0.010367839419529335 0 -1.1774177400367931e-07 0.0090213287958505889 0 -6.6699470398169494e-08 0.011319458147442498 0 -6.6699470398169494e-08 0.011319458147442498 0 0.0001540786382511578 0.013083607267529515 0 2.3127903978964088e-07 0.013617313429577628 0 -6.6699470398169494e-08 0.011319458147442498 0 0.00014376341374377791 0.012152284800997327 0 0.0001540786382511578 0.013083607267529515 0 0.00014376341374377791 0.012152284800997327 0 0.0001540786382511578 0.013083607267529515 0 0.00057061552230482007 0.013842152782362975 0 0.0001540786382511578 0.013083607267529515 0 -0.00024297508479300607 0.014496165812962345 0 0.00057061552230482007 0.013842152782362975 0 0.0001540786382511578 0.013083607267529515 0 2.3127903978964088e-07 0.013617313429577628 0 -0.00024297508479300607 0.014496165812962345 0 2.3127903978964088e-07 0.013617313429577628 0 -1.4853635114754979e-06 0.015915930861226245 0 -0.00024297508479300607 0.014496165812962345 0 -1.4853635114754979e-06 0.015915930861226245 0 -0.00024297508479300607 0.014496165812962345 0 -0.00023792825048109972 0.015661645318877399 0 -0.00024297508479300607 0.014496165812962345 0 -0.0010562917183968192 0.015605706378218863 0 -0.00023792825048109972 0.015661645318877399 0 -0.00024297508479300607 0.014496165812962345 0 -0.00018564410048494242 0.015861286781658268 0 -0.0010562917183968192 0.015605706378218863 0 -0.00024297508479300607 0.014496165812962345 0 -0.00018564410048494242 0.015861286781658268 0 0.00057061552230482007 0.013842152782362975 0 -0.00053710251589428315 0.02005479677145092 0 -0.00085179889495881828 0.018624742677440371 0 -0.00065628747646628231 0.019654971882979357 0 -0.0007167314765834954 0.01791360945068898 0 -0.00076475637049649807 0.018602966454809553 0 -0.00018564410048494242 0.015861286781658268 0 -0.0010562917183968192 0.015605706378218863 0 -0.00085179889495881828 0.018624742677440371 0 -0.00018564410048494242 0.015861286781658268 0 -0.00085179889495881828 0.018624742677440371 0 0.0006892642727216598 0.018367733435834858 0 0.0011968111043022171 0.01218926805929953 0 0.00020334545188696078 0.012438448662879412 0 0.00057061552230482007 0.013842152782362975 0 0.00084438148516130952 0.015240321538587813 0 0.00066383691353646003 0.014035463312171748 0 -0.00033616913229097449 0.011842328292488807 0 -0.00036903693029482121 0.012624963328692755 0 0.00020334545188696078 0.012438448662879412 0 -0.00021378311390303113 0.012740692969984419 0 0.00026429210557197733 0.012474738472840006 0 0.00022855322342276859 0.012984981385944132 0 0.00020334545188696078 0.012438448662879412 0 0.00014266296506710747 0.012985185082224517 0 0.00020334545188696078 0.012438448662879412 0 0.00014266296506710747 0.012985185082224517 0 0.00057061552230482007 0.013842152782362975 0 0.00022855322342276859 0.012984981385944132 0 0.00014376341374377791 0.012152284800997327 0 0.00014266296506710747 0.012985185082224517 0 0.00014376341374377791 0.012152284800997327 0 0.00014266296506710747 0.012985185082224517 0 0.00057061552230482007 0.013842152782362975 0 -0.00018564410048494242 0.015861286781658268 0 0.0006892642727216598 0.018367733435834858 0 0.00057061552230482007 0.013842152782362975 0 -0.00031969587629630705 0.020764145467061991 0 -0.00024191113390534028 0.021465148647965823 0 -0.00024786622954660114 0.022276855366347801 0 -1.1419808899188735e-06 0.02074700989359823 0 -1.0174184884580003e-07 0.023281140530921163 0 -0.00024786622954660114 0.022276855366347801 0 -1.1419808899188735e-06 0.02074700989359823 0 -0.00031969587629630705 0.020764145467061991 0 -0.00024786622954660114 0.022276855366347801 0 -0.00031969587629630705 0.020764145467061991 0 0.00017046066597260312 0.020045258005540016 0 -0.00027686814632538686 0.020351847237444504 0 -1.1419808899188735e-06 0.02074700989359823 0 -0.00031969587629630705 0.020764145467061991 0 8.2893202729099514e-07 0.018219826990919497 0 -0.00031969587629630705 0.020764145467061991 0 8.2893202729099514e-07 0.018219826990919497 0 0.00017046066597260312 0.020045258005540016 0 -7.002559489190431e-08 0.018214013870259674 0 -0.00015705924812609574 0.017826270763498284 0 -1.4853635114754979e-06 0.015915930861226245 0 1.7477999925142449e-06 0.018210621777995904 0 -0.00023792825048109972 0.015661645318877399 0 -0.0007167314765834954 0.01791360945068898 0 -0.00015705924812609574 0.017826270763498284 0 -0.00053710251589428315 0.02005479677145092 0 0.00017046066597260312 0.020045258005540016 0 -0.00027686814632538686 0.020351847237444504 0 -0.00053710251589428315 0.02005479677145092 0 -0.00027686814632538686 0.020351847237444504 0 -0.00065628747646628231 0.019654971882979357 0 -0.00066544829933547396 0.019839820392659309 0 -0.00057172112723163438 0.020669026333096398 0 -0.00027686814632538686 0.020351847237444504 0 -0.00065628747646628231 0.019654971882979357 0 -0.00019778834010820455 0.020518021727268316 0 -0.00065628747646628231 0.019654971882979357 0 -0.00098288956256716974 0.020866236312783198 0 -0.00089982061905834513 0.020223543111075017 0 -0.00031969587629630705 0.020764145467061991 0 -0.00027686814632538686 0.020351847237444504 0 -0.00019778834010820455 0.020518021727268316 0 -0.00057172112723163438 0.020669026333096398 0 -0.00053919437574970078 0.021739192901872682 0 -0.00031969587629630705 0.020764145467061991 0 -0.00019778834010820455 0.020518021727268316 0 -0.00024191113390534028 0.021465148647965823 0 -0.00098288956256716974 0.020866236312783198 0 -0.0007533939502334568 0.021160606321664447 0 -0.00083411204490747349 0.020633936205380551 0 -0.0007533939502334568 0.021160606321664447 0 -0.00079914379048614897 0.021925220248240847 0 -0.00049302546709601477 0.021539950225619064 0 -0.00098288956256716974 0.020866236312783198 0 -0.0007533939502334568 0.021160606321664447 0 -0.00079914379048614897 0.021925220248240847 0 -0.00045743403320263281 0.02088265125815375 0 -0.00083411204490747349 0.020633936205380551 0 -0.00069228560807378106 0.020400871169824926 0 -0.0007533939502334568 0.021160606321664447 0 -0.00045743403320263281 0.02088265125815375 0 -0.00049302546709601477 0.021539950225619064 0 -0.0007533939502334568 0.021160606321664447 0 -0.00045743403320263281 0.02088265125815375 0 -0.00083411204490747349 0.020633936205380551 0 -0.00098288956256716974 0.020866236312783198 0 -0.00083411204490747349 0.020633936205380551 0 -0.00089982061905834513 0.020223543111075017 0 -0.00083411204490747349 0.020633936205380551 0 -0.00069228560807378106 0.020400871169824926 0 -0.00086572144068497285 0.020220153775198084 0 -0.00086572144068497285 0.020220153775198084 0 -0.00089982061905834513 0.020223543111075017 0 -0.00086281068920044486 0.019946289531176605 0 -0.00083411204490747349 0.020633936205380551 0 -0.00086572144068497285 0.020220153775198084 0 -0.00089982061905834513 0.020223543111075017 0 -0.00065628747646628231 0.019654971882979357 0 -0.00089982061905834513 0.020223543111075017 0 -0.00086281068920044486 0.019946289531176605 0 -0.00086281068920044486 0.019946289531176605 0 -0.00085564423728043295 0.020059949298179666 0 -0.00077418100884256089 0.020068320504059649 0 -0.00086572144068497285 0.020220153775198084 0 -0.00086281068920044486 0.019946289531176605 0 -0.00085564423728043295 0.020059949298179666 0 -0.00085564423728043295 0.020059949298179666 0 -0.00077418100884256089 0.020068320504059649 0 -0.0008383585724864584 0.019925163089484936 0 -0.00085564423728043295 0.020059949298179666 0 -0.00074815764259677446 0.019904154418111535 0 -0.0008383585724864584 0.019925163089484936 0 -0.00085564423728043295 0.020059949298179666 0 -0.00068564021532200974 0.020062275898461827 0 -0.00074815764259677446 0.019904154418111535 0 -0.00086572144068497285 0.020220153775198084 0 -0.00085564423728043295 0.020059949298179666 0 -0.00068564021532200974 0.020062275898461827 0 -0.00069228560807378106 0.020400871169824926 0 -0.00086572144068497285 0.020220153775198084 0 -0.00068564021532200974 0.020062275898461827 0 -0.00037928479994938773 0.020635570519374102 0 -0.00034044187736774164 0.020436197707800158 0 -0.00068564021532200974 0.020062275898461827 0 -0.00040675824421761945 0.020180088702159666 0 -0.00039161311250529991 0.019882919225047448 0 -0.00032819589616367548 0.021056223512440499 0 -0.00031869270652382884 0.021080787196022563 0 -0.00029855966268044936 0.021078357131570181 0 -0.00069228560807378106 0.020400871169824926 0 -0.00068564021532200974 0.020062275898461827 0 -0.00040675824421761945 0.020180088702159666 0 -0.00045743403320263281 0.02088265125815375 0 -0.00069228560807378106 0.020400871169824926 0 -0.00040675824421761945 0.020180088702159666 0 -0.00043406229376563018 0.020859274222474293 0 -0.00037928479994938773 0.020635570519374102 0 0.00025154632662166565 0.01096576085924086 0 0.00057674700591353622 0.011649192800639755 0 0.0015461588436549505 0.010881094978073077 0 -0.00033616913229097449 0.011842328292488807 0 0.00025154632662166565 0.01096576085924086 0 0.00057674700591353622 0.011649192800639755 0 -0.00033616913229097449 0.011842328292488807 0 0.00020334545188696078 0.012438448662879412 0 0.00057674700591353622 0.011649192800639755 0 0.0011968111043022171 0.01218926805929953 0 0.00057674700591353622 0.011649192800639755 0 0.0015461588436549505 0.010881094978073077 0 0.0011968111043022171 0.01218926805929953 0 0.00020334545188696078 0.012438448662879412 0 0.00057674700591353622 0.011649192800639755 0 -0.00085179889495881828 0.018624742677440371 0 0.0006892642727216598 0.018367733435834858 0 -0.0003395284509695503 0.019970809763588369 0 0.00084438148516130952 0.015240321538587813 0 0.0006385667677969157 0.015385283754256879 0 -0.00085179889495881828 0.018624742677440371 0 -0.00065628747646628231 0.019654971882979357 0 -0.00086281068920044486 0.019946289531176605 0 -0.00085179889495881828 0.018624742677440371 0 -0.00086281068920044486 0.019946289531176605 0 -0.0003395284509695503 0.019970809763588369 0 -0.00086281068920044486 0.019946289531176605 0 -0.0003395284509695503 0.019970809763588369 0 -0.00077418100884256089 0.020068320504059649 0 0.0006385667677969157 0.015385283754256879 0 0.00052401491923958761 0.014918834483940076 0 0.0015461588436549505 0.010881094978073077 0 0.0018982188262304852 0.0096397938357046485 0 0.0010453672934876573 0.010035651245608823 0 0.0018982188262304852 0.0096397938357046485 0 0.0010453672934876573 0.010035651245608823 0 0.00067285608856085103 0.0091373034033852552 0 0.0010453672934876573 0.010035651245608823 0 0.00023326751248105786 0.010106770716740682 0 0.00067285608856085103 0.0091373034033852552 0 0.00025154632662166565 0.01096576085924086 0 0.0010453672934876573 0.010035651245608823 0 0.00023326751248105786 0.010106770716740682 0 0.00025154632662166565 0.01096576085924086 0 0.0015461588436549505 0.010881094978073077 0 0.0010453672934876573 0.010035651245608823 0 -0.00056243608580607322 0.010311150479517063 0 0.00025154632662166565 0.01096576085924086 0 0.00023326751248105786 0.010106770716740682 0 -0.00056243608580607322 0.010311150479517063 0 -0.00032542854812894371 0.0095839993774669979 0 0.00023326751248105786 0.010106770716740682 0 -0.00032542854812894371 0.0095839993774669979 0 0.00023326751248105786 0.010106770716740682 0 0.00067285608856085103 0.0091373034033852552 0 -0.00032542854812894371 0.0095839993774669979 0 0.00067285608856085103 0.0091373034033852552 0 -0.00047773999710971524 0.0087741196688553083 0 0.00039716087128912486 0.0078371295635857041 0 0.00067285608856085103 0.0091373034033852552 0 -0.00047773999710971524 0.0087741196688553083 0 0.00036566926828768525 0.0078533898592631803 0 -0.00026336491408304502 0.008439938333987821 0 0.00039716087128912486 0.0078371295635857041 0 0.00067285608856085103 0.0091373034033852552 0 0.0013287927190772206 0.0083012477469211442 0 0.0018982188262304852 0.0096397938357046485 0 0.00067285608856085103 0.0091373034033852552 0 0.0013287927190772206 0.0083012477469211442 0 0.0018982188262304852 0.0096397938357046485 0 0.0022216264174417287 0.0084338193080215531 0 0.0013287927190772206 0.0083012477469211442 0 0.00052401491923958761 0.014918834483940076 0 0.00085917476467747768 0.013751725571351067 0 -0.00077418100884256089 0.020068320504059649 0 -0.00094694337508679019 0.019708208908230725 0 -0.0008383585724864584 0.019925163089484936 0 0.0022216264174417287 0.0084338193080215531 0 0.0013287927190772206 0.0083012477469211442 0 0.0017740026247176073 0.0076311412417355657 0 0.0013287927190772206 0.0083012477469211442 0 0.0017740026247176073 0.0076311412417355657 0 0.00088861588176851415 0.0073027859515140438 0 0.0022216264174417287 0.0084338193080215531 0 0.0017740026247176073 0.0076311412417355657 0 0.0025495962417354961 0.0073642949625662944 0 0.00063714144119641548 0.0095593760619454779 0 -0.00031464341890603505 0.014658670536298556 0 -0.00048454140034375864 0.013454403274509757 0 -0.00055664949164476471 0.013434916884936523 0 -0.00053713359532626666 0.013497818931213282 0 0.0017740026247176073 0.0076311412417355657 0 0.001580091107085412 0.006838756932601016 0 0.0025495962417354961 0.0073642949625662944 0 0.0017740026247176073 0.0076311412417355657 0 0.001580091107085412 0.006838756932601016 0 0.00088861588176851415 0.0073027859515140438 0 0.001580091107085412 0.006838756932601016 0 0.00080373668379101284 0.0068482073370457917 0 0.00088861588176851415 0.0073027859515140438 0 0.00080373668379101284 0.0068482073370457917 0 0.00033546131604508827 0.0067627378256305817 0 0.00088861588176851415 0.0073027859515140438 0 0.00033546131604508827 0.0067627378256305817 0 -8.5731203701883116e-06 0.0072147011012958125 0 -0.00011383891051679811 0.0067255399368984104 0 0.00033546131604508827 0.0067627378256305817 0 -8.5731203701883116e-06 0.0072147011012958125 0 0.00088861588176851415 0.0073027859515140438 0 0.00039716087128912486 0.0078371295635857041 0 -8.5731203701883116e-06 0.0072147011012958125 0 -0.00042628382513705489 0.007437405099804905 0 0.00039716087128912486 0.0078371295635857041 0 0.0013287927190772206 0.0083012477469211442 0 0.00088861588176851415 0.0073027859515140438 0 0.00039716087128912486 0.0078371295635857041 0 -8.5731203701883116e-06 0.0072147011012958125 0 0.00088861588176851415 0.0073027859515140438 0 -0.00033585460771642277 0.019598395955533258 0 -0.00039161311250529991 0.019882919225047448 0 -0.00056782954372519253 0.01976387489572912 0 -0.00034201005786046502 0.021094343984566593 0 -0.00031869270652382884 0.021080787196022563 0 -0.00034248813369578307 0.021090679263985581 0 -0.00049675057094362681 0.020536197199744907 0 -0.00034044187736774164 0.020436197707800158 0 -0.00049675057094362681 0.020536197199744907 0 -0.00025529109521178729 0.021163226828566303 0 -0.00068564021532200974 0.020062275898461827 0 -0.00039161311250529991 0.019882919225047448 0 -0.00056782954372519253 0.01976387489572912 0 -0.00068564021532200974 0.020062275898461827 0 -0.00056782954372519253 0.01976387489572912 0 -0.00074815764259677446 0.019904154418111535 0 -0.00033585460771642277 0.019598395955533258 0 -0.00056782954372519253 0.01976387489572912 0 -0.00061530601684094057 0.01950396250013977 0 -0.00056782954372519253 0.01976387489572912 0 -0.00077523696860441532 0.019679846444165348 0 -0.00061530601684094057 0.01950396250013977 0 -0.00056782954372519253 0.01976387489572912 0 -0.00077523696860441532 0.019679846444165348 0 -0.00074815764259677446 0.019904154418111535 0 -0.00077523696860441532 0.019679846444165348 0 -0.00074815764259677446 0.019904154418111535 0 -0.0008383585724864584 0.019925163089484936 0 -0.00094694337508679019 0.019708208908230725 0 -0.00077523696860441532 0.019679846444165348 0 -0.0008383585724864584 0.019925163089484936 0 -0.00094694337508679019 0.019708208908230725 0 -0.00077523696860441532 0.019679846444165348 0 -0.00088164064135343189 0.019340851586453895 0 0.00085917476467747768 0.013751725571351067 0 -0.00031464341890603505 0.014658670536298556 0 -0.00031464341890603505 0.014658670536298556 0 -0.00079807888242039232 0.017061081692128648 0 -0.0012397112804895549 0.019170118543016861 0 -0.00057426920063555762 0.019105862995124494 0 -0.0010064082856323716 0.018493866350162525 0 -0.00031464341890603505 0.014658670536298556 0 -0.00066467535201940276 0.020902784306433452 0 -0.00077523696860441532 0.019679846444165348 0 -0.00088164064135343189 0.019340851586453895 0 -0.00061530601684094057 0.01950396250013977 0 -0.0012397112804895549 0.019170118543016861 0 -0.00061530601684094057 0.01950396250013977 0 -0.00057426920063555762 0.019105862995124494 0 -0.00033585460771642277 0.019598395955533258 0 -0.00061530601684094057 0.01950396250013977 0 -0.00057426920063555762 0.019105862995124494 0 -0.00049675057094362681 0.020536197199744907 0 -0.00060273985929527928 0.020443945802064177 0 -0.00075895945223885403 0.020915672711359343 0 -0.00056087640992099036 0.02087192437450594 0 -0.00066962848617593677 0.0207819595253734 0 -0.00056087640992099036 0.02087192437450594 0 -0.00052991180431814734 0.02101626066301825 0 -0.00043484840510800166 0.020954467667218056 0 -0.00075895945223885403 0.020915672711359343 0 -0.00056087640992099036 0.02087192437450594 0 -0.00052991180431814734 0.02101626066301825 0 -0.0005107366805008303 0.021142240622885045 0 -0.00075895945223885403 0.020915672711359343 0 -0.00052991180431814734 0.02101626066301825 0 -0.00052991180431814734 0.02101626066301825 0 -0.00042239246339079959 0.021031369265443144 0 -0.00043484840510800166 0.020954467667218056 0 -0.00049675057094362681 0.020536197199744907 0 -0.00049266616569413084 0.021134850654078337 0 -0.00045713581966581759 0.021071585374274487 0 -0.00052991180431814734 0.02101626066301825 0 -0.00042239246339079959 0.021031369265443144 0 -0.00068507917497902476 0.020657114972537437 0 -0.00061616507910254006 0.020541009033268477 0 -0.00049904502293001394 0.020675890682000327 0 -0.00068507917497902476 0.020657114972537437 0 -0.0007695100560332587 0.020504401469947638 0 -0.00061616507910254006 0.020541009033268477 0 -0.00068507917497902476 0.020657114972537437 0 -0.00056212960713574638 0.020752332412805392 0 -0.00049904502293001394 0.020675890682000327 0 -0.00056087640992099036 0.02087192437450594 0 -0.00056212960713574638 0.020752332412805392 0 -0.00044695754974593491 0.02084101441507628 0 -0.00056087640992099036 0.02087192437450594 0 -0.00056212960713574638 0.020752332412805392 0 -0.00066962848617593677 0.0207819595253734 0 -0.00068507917497902476 0.020657114972537437 0 -0.00056212960713574638 0.020752332412805392 0 -0.00066962848617593677 0.0207819595253734 0 -0.00075895945223885403 0.020915672711359343 0 -0.00066962848617593677 0.0207819595253734 0 -0.00079592726796418132 0.020728932726857868 0 -0.00068507917497902476 0.020657114972537437 0 -0.00066962848617593677 0.0207819595253734 0 -0.00079592726796418132 0.020728932726857868 0 -0.00068507917497902476 0.020657114972537437 0 -0.00079592726796418132 0.020728932726857868 0 -0.00082602543998474718 0.020595605925071377 0 -0.00068507917497902476 0.020657114972537437 0 -0.00082602543998474718 0.020595605925071377 0 -0.0007695100560332587 0.020504401469947638 0 -0.00079807888242039232 0.017061081692128648 0 -0.0010771484197344477 0.017158071197100652 0 -0.00082602543998474718 0.020595605925071377 0 -0.00096883148954890388 0.020668719725219289 0 -0.00090345953151234955 0.020420518336199081 0 -0.00087667744569601901 0.013230606097629919 0 -0.00059774450448592188 0.013542961406496693 0 -0.0012020563716968566 0.013914984257296507 0 -0.00079592726796418132 0.020728932726857868 0 -0.00082602543998474718 0.020595605925071377 0 -0.00096883148954890388 0.020668719725219289 0 -0.00075895945223885403 0.020915672711359343 0 -0.00079592726796418132 0.020728932726857868 0 -0.00096883148954890388 0.020668719725219289 0 -0.00060273985929527928 0.020443945802064177 0 -0.00079807888242039232 0.017061081692128648 0 -0.00055664949164476471 0.013434916884936523 0 -0.00060200178447613586 0.013523971239403684 0 -0.00053713359532626666 0.013497818931213282 0 -0.00060200178447613586 0.013523971239403684 0 -0.00053713359532626666 0.013497818931213282 0 -0.00059774450448592188 0.013542961406496693 0 -0.00053713359532626666 0.013497818931213282 0 -0.00059774450448592188 0.013542961406496693 0 -0.00050170967387391579 0.013540599352480387 0 -0.00079807888242039232 0.017061081692128648 0 -0.0012213857763328903 0.012827528713533185 0 -0.00059774450448592188 0.013542961406496693 0 -0.00050170967387391579 0.013540599352480387 0 -0.00045770789708194162 0.013640664825740388 0 -0.00075109513405763936 0.013895844188498712 0 -0.00056480560644744265 0.014335971076264288 0 -0.00045770789708194162 0.013640664825740388 0 -0.00050608423198509299 0.013912723223423927 0 -0.0004562578139373979 0.013687436999391686 0 -0.00059774450448592188 0.013542961406496693 0 -0.00075109513405763936 0.013895844188498712 0 -0.00045770789708194162 0.013640664825740388 0 -0.00056480560644744265 0.014335971076264288 0 -0.00091294149073382978 0.01453369145043948 0 -0.00079563255108627102 0.014907605962307316 0 -0.00075109513405763936 0.013895844188498712 0 -0.00056480560644744265 0.014335971076264288 0 -0.00091712883869269691 0.014217482271414788 0 -0.00056480560644744265 0.014335971076264288 0 -0.00091712883869269691 0.014217482271414788 0 -0.00091294149073382978 0.01453369145043948 0 -0.00091712883869269691 0.014217482271414788 0 -0.00091294149073382978 0.01453369145043948 0 -0.0011984710848880777 0.014412789350965497 0 -0.00091294149073382978 0.01453369145043948 0 -0.0011984710848880777 0.014412789350965497 0 -0.0010731546227315681 0.014771980809758951 0 -0.00091712883869269691 0.014217482271414788 0 -0.0011984710848880777 0.014412789350965497 0 -0.0012020563716968566 0.013914984257296507 0 -0.00075109513405763936 0.013895844188498712 0 -0.00091712883869269691 0.014217482271414788 0 -0.0012020563716968566 0.013914984257296507 0 -0.00059774450448592188 0.013542961406496693 0 -0.00075109513405763936 0.013895844188498712 0 -0.0012020563716968566 0.013914984257296507 0 -0.00082602543998474718 0.020595605925071377 0 -0.00090345953151234955 0.020420518336199081 0 -0.0007695100560332587 0.020504401469947638 0 -0.0007695100560332587 0.020504401469947638 0 -0.00081789132521312591 0.020409845721573189 0 -0.00070409132217331483 0.020426356240674445 0 -0.00090345953151234955 0.020420518336199081 0 -0.00081789132521312591 0.020409845721573189 0 -0.00083959643473466132 0.020310252169717116 0 -0.00090345953151234955 0.020420518336199081 0 -0.0007695100560332587 0.020504401469947638 0 -0.00081789132521312591 0.020409845721573189 0 -0.0010771484197344477 0.017158071197100652 0 -0.0012269009194017958 0.017610528312759395 0 -0.0011984710848880777 0.014412789350965497 0 -0.0012020563716968566 0.013914984257296507 0 -0.0016536632347769265 0.015111801081585847 0 -0.00090345953151234955 0.020420518336199081 0 -0.00083959643473466132 0.020310252169717116 0 -0.00088215444082836287 0.020152825574943779 0 -0.0008096600707593988 0.020229511105871904 0 -0.00083959643473466132 0.020310252169717116 0 -0.00088215444082836287 0.020152825574943779 0 -0.0008096600707593988 0.020229511105871904 0 -0.00083959643473466132 0.020310252169717116 0 -0.00076289488259216501 0.020320117571333986 0 -0.00081789132521312591 0.020409845721573189 0 -0.00083959643473466132 0.020310252169717116 0 -0.00076289488259216501 0.020320117571333986 0 -0.00076289488259216501 0.020320117571333986 0 -0.00066292411457209027 0.020319762673979249 0 -0.00070409132217331483 0.020426356240674445 0 -0.00081789132521312591 0.020409845721573189 0 -0.00076289488259216501 0.020320117571333986 0 -0.00070409132217331483 0.020426356240674445 0 -0.0008096600707593988 0.020229511105871904 0 -0.00076289488259216501 0.020320117571333986 0 -0.00074119840603428864 0.020222131866339279 0 -0.00076289488259216501 0.020320117571333986 0 -0.00066292411457209027 0.020319762673979249 0 -0.00074119840603428864 0.020222131866339279 0 -0.00066292411457209027 0.020319762673979249 0 -0.00070409132217331483 0.020426356240674445 0 -0.00059658696410367794 0.020434478724816418 0 -0.0007695100560332587 0.020504401469947638 0 -0.00070409132217331483 0.020426356240674445 0 -0.00061616507910254006 0.020541009033268477 0 -0.00070409132217331483 0.020426356240674445 0 -0.00061616507910254006 0.020541009033268477 0 -0.00059658696410367794 0.020434478724816418 0 -0.00048207725733364623 0.01347846916863857 0 -0.00050158098742340081 0.01346066606744464 0 -0.00047573818754725438 0.013478671877133743 0 -0.00050158098742340081 0.01346066606744464 0 -0.00053129784029829212 0.013446958429134048 0 -0.00047573818754725438 0.013478671877133743 0 -0.00048207725733364623 0.01347846916863857 0 -0.00047573818754725438 0.013478671877133743 0 -0.00047292699992443636 0.013501815211235238 0 -0.00048207725733364623 0.01347846916863857 0 -0.00048249083022207639 0.01346892557621162 0 -0.00047292699992443636 0.013501815211235238 0 -0.00048207725733364623 0.01347846916863857 0 -0.00048249083022207639 0.01346892557621162 0 -0.00050158098742340081 0.01346066606744464 0 -0.00048249083022207639 0.01346892557621162 0 -0.00050158098742340081 0.01346066606744464 0 -0.00051989672063961596 0.013423491224759328 0 -0.00050158098742340081 0.01346066606744464 0 -0.00053129784029829212 0.013446958429134048 0 -0.00051989672063961596 0.013423491224759328 0 -0.00053129784029829212 0.013446958429134048 0 -0.00053590861537625015 0.0134540368414566 0 -0.00047573818754725438 0.013478671877133743 0 -0.00053590861537625015 0.0134540368414566 0 -0.00047573818754725438 0.013478671877133743 0 -0.00057431540543450763 0.013450131848853516 0 -0.00053129784029829212 0.013446958429134048 0 -0.00056671923722171203 0.013429050298425869 0 -0.00053590861537625015 0.0134540368414566 0 -0.00053129784029829212 0.013446958429134048 0 -0.00056671923722171203 0.013429050298425869 0 -0.00056685128366136507 0.013402484409750335 0 -0.00056671923722171203 0.013429050298425869 0 -0.00053590861537625015 0.0134540368414566 0 -0.00057431540543450763 0.013450131848853516 0 0.00033546131604508827 0.0067627378256305817 0 0.00062401826210698157 0.0064310741076970815 0 -0.00013297024191351488 0.0061246934894824438 0 8.8276620091317276e-05 0.010269009037891961 0 -7.7390939417948626e-05 0.0080423474692297749 0 0.00033546131604508827 0.0067627378256305817 0 -0.00020961112738184963 0.006193304202679174 0 -0.00011383891051679811 0.0067255399368984104 0 0.00011951147414539322 0.0060441609442319737 0 -7.7390939417948626e-05 0.0080423474692297749 0 0.00080373668379101284 0.0068482073370457917 0 0.00033546131604508827 0.0067627378256305817 0 0.00062401826210698157 0.0064310741076970815 0 -0.00048454140034375864 0.013454403274509757 0 -0.00047573818754725438 0.013478671877133743 0 -0.00047292699992443636 0.013501815211235238 0 -0.00048454140034375864 0.013454403274509757 0 -0.00049072874101134263 0.013511216376887172 0 -0.00047292699992443636 0.013501815211235238 0 0.001580091107085412 0.006838756932601016 0 0.00080373668379101284 0.0068482073370457917 0 0.00062401826210698157 0.0064310741076970815 0 0.00063714144119641548 0.0095593760619454779 0 8.8276620091317276e-05 0.010269009037891961 0 -0.00048454140034375864 0.013454403274509757 0 -0.00053713359532626666 0.013497818931213282 0 -0.00049072874101134263 0.013511216376887172 0 -0.00053713359532626666 0.013497818931213282 0 -0.00049072874101134263 0.013511216376887172 0 -0.00050170967387391579 0.013540599352480387 0 -0.00049072874101134263 0.013511216376887172 0 -0.00047436445767382566 0.013554432869048479 0 -0.00050170967387391579 0.013540599352480387 0 -0.00047436445767382566 0.013554432869048479 0 -0.00050170967387391579 0.013540599352480387 0 -0.00045770789708194162 0.013640664825740388 0 -0.00048249083022207639 0.01346892557621162 0 -0.00047292699992443636 0.013501815211235238 0 -0.0004735584158908297 0.013523635023893851 0 -0.00047436445767382566 0.013554432869048479 0 -0.00047292699992443636 0.013501815211235238 0 -0.0004735584158908297 0.013523635023893851 0 -0.00049072874101134263 0.013511216376887172 0 -0.00047436445767382566 0.013554432869048479 0 -0.00047292699992443636 0.013501815211235238 0 -0.00043523007011955485 0.01352875767166392 0 -0.00045770789708194162 0.013640664825740388 0 -0.00047382376127091464 0.013558901605810084 0 -0.00047436445767382566 0.013554432869048479 0 -0.00045770789708194162 0.013640664825740388 0 -0.00047382376127091464 0.013558901605810084 0 -0.00047436445767382566 0.013554432869048479 0 -0.0004735584158908297 0.013523635023893851 0 -0.00047382376127091464 0.013558901605810084 0 -0.0004735584158908297 0.013523635023893851 0 -0.00047382376127091464 0.013558901605810084 0 -0.00046247843942377325 0.013521694167470382 0 -0.00043523007011955485 0.01352875767166392 0 -0.00047382376127091464 0.013558901605810084 0 -0.00046247843942377325 0.013521694167470382 0 -0.00043523007011955485 0.01352875767166392 0 -0.00046247843942377325 0.013521694167470382 0 -0.00044904762033601508 0.013514899394954146 0 -0.0004735584158908297 0.013523635023893851 0 -0.00046247843942377325 0.013521694167470382 0 -0.00047237467477958118 0.01350667611782605 0 -0.00046247843942377325 0.013521694167470382 0 -0.00047237467477958118 0.01350667611782605 0 -0.0004411533897044708 0.013505032254488222 0 -0.0004735584158908297 0.013523635023893851 0 -0.00047237467477958118 0.01350667611782605 0 -0.00050555316887867185 0.013515863558806072 0 -0.00047237467477958118 0.01350667611782605 0 -0.00050555316887867185 0.013515863558806072 0 -0.00050074428490393726 0.013461999523701902 0 -0.00048249083022207639 0.01346892557621162 0 -0.0004735584158908297 0.013523635023893851 0 -0.00049438504191395794 0.013411398748496584 0 -0.00047163207439288182 0.013512107640022329 0 -0.00052642078849670336 0.01344631522027785 0 -0.00048249083022207639 0.01346892557621162 0 -0.00049438504191395794 0.013411398748496584 0 -0.00051989672063961596 0.013423491224759328 0 -0.00052642078849670336 0.01344631522027785 0 -0.00051223433317296597 0.013637665446385061 0 -0.00049438504191395794 0.013411398748496584 0 -0.00051989672063961596 0.013423491224759328 0 -0.00058450994608442346 0.013315228365858351 0 -0.00053129784029829212 0.013446958429134048 0 -0.00056685128366136507 0.013402484409750335 0 -0.00051989672063961596 0.013423491224759328 0 -0.00056685128366136507 0.013402484409750335 0 -0.00051989672063961596 0.013423491224759328 0 -0.00058450994608442346 0.013315228365858351 0 -0.00050555316887867185 0.013515863558806072 0 -0.00053875129872032568 0.013472854684887564 0 -0.00057380999118771914 0.013492935323643804 0 -0.00050555316887867185 0.013515863558806072 0 -0.00053875129872032568 0.013472854684887564 0 -0.00050074428490393726 0.013461999523701902 0 -0.00062486738909268437 0.013443842667362406 0 -0.00057380999118771914 0.013492935323643804 0 -0.00058501479572340884 0.013419779204832265 0 -0.00062486738909268437 0.013443842667362406 0 -0.00057380999118771914 0.013492935323643804 0 -0.00067033081394943803 0.013451683736905667 0 -0.00053875129872032568 0.013472854684887564 0 -0.00057380999118771914 0.013492935323643804 0 -0.00058501479572340884 0.013419779204832265 0 -0.00051223433317296597 0.013637665446385061 0 -0.00072531101685316055 0.010059455835961332 0 -0.00062486738909268437 0.013443842667362406 0 -0.00070832858109769789 0.013384362811333509 0 -0.00058501479572340884 0.013419779204832265 0 -0.00062486738909268437 0.013443842667362406 0 -0.00067033081394943803 0.013451683736905667 0 -0.00070832858109769789 0.013384362811333509 0 -0.00072531101685316055 0.010059455835961332 0 -0.00067738794519070706 0.010479958879552968 0 -0.00070395474123940082 0.0065327102484607873 0 -0.00081275117651822355 0.0064895212988863929 0 -0.00078555249082270921 0.0064132655835020353 0 -0.00072531101685316055 0.010059455835961332 0 -0.0010389228685280805 0.0075444830295463752 0 -0.00071515332989095174 0.0065091412070465236 0 -0.00078276204202140924 0.0065511459194809891 0 -0.00081275117651822355 0.0064895212988863929 0 -0.00071515332989095174 0.0065091412070465236 0 -0.00071906123616189148 0.0066001484265093766 0 -0.00078276204202140924 0.0065511459194809891 0 -0.00071906123616189148 0.0066001484265093766 0 -0.000798788668727601 0.0066251469281976925 0 -0.00078276204202140924 0.0065511459194809891 0 -0.00072531101685316055 0.010059455835961332 0 -0.0005328807644169217 0.010221816215814935 0 -0.00071515332989095174 0.0065091412070465236 0 -0.00071906123616189148 0.0066001484265093766 0 -0.00060659589779434237 0.0066432617755064968 0 -0.00071906123616189148 0.0066001484265093766 0 -0.00060659589779434237 0.0066432617755064968 0 -0.00069816124199708436 0.0066754404388505916 0 -0.00071906123616189148 0.0066001484265093766 0 -0.00069816124199708436 0.0066754404388505916 0 -0.000798788668727601 0.0066251469281976925 0 -0.00058450994608442346 0.013315228365858351 0 -0.00074465596406578639 0.013239176367517452 0 -0.00065544801780501353 0.013377082643493772 0 -0.00058450994608442346 0.013315228365858351 0 -0.00065544801780501353 0.013377082643493772 0 -0.00060044485211192193 0.013399887776314135 0 -0.00056685128366136507 0.013402484409750335 0 -0.00058450994608442346 0.013315228365858351 0 -0.00060044485211192193 0.013399887776314135 0 -0.00056671923722171203 0.013429050298425869 0 -0.00056685128366136507 0.013402484409750335 0 -0.00060044485211192193 0.013399887776314135 0 -0.0005328807644169217 0.010221816215814935 0 -7.7390939417948626e-05 0.0080423474692297749 0 -0.00065544801780501353 0.013377082643493772 0 -0.00060044485211192193 0.013399887776314135 0 -0.00057431540543450763 0.013450131848853516 0 -0.00056671923722171203 0.013429050298425869 0 -0.00060044485211192193 0.013399887776314135 0 -0.00057431540543450763 0.013450131848853516 0 -0.00060659589779434237 0.0066432617755064968 0 -0.00048579090929531791 0.0068008016017597466 0 -0.00050299179062562763 0.0067925278355823373 0 -0.00020961112738184963 0.006193304202679174 0 -0.00025433542321176355 0.0061785702491233933 0 -0.00034132775926327372 0.0065013567922655828 0 -7.7390939417948626e-05 0.0080423474692297749 0 -0.00039378259664784557 0.0074015933215494786 0 -0.00039378259664784557 0.0074015933215494786 0 -0.00065448740526457313 0.0070315710935466708 0 -0.00060659589779434237 0.0066432617755064968 0 -0.00050299179062562763 0.0067925278355823373 0 -0.00058049633358794525 0.006752588697337269 0 -0.00058049633358794525 0.006752588697337269 0 -0.00069816124199708436 0.0066754404388505916 0 -0.00080114118452035831 0.0067648492888183606 0 -0.00051209977582497893 0.0067954314064743873 0 -0.00058049633358794525 0.006752588697337269 0 -0.00080114118452035831 0.0067648492888183606 0 -0.00039378259664784557 0.0074015933215494786 0 -0.00086414029133449744 0.0064354026914041221 0 -0.00060659589779434237 0.0066432617755064968 0 -0.00058049633358794525 0.006752588697337269 0 -0.00069816124199708436 0.0066754404388505916 0 -0.00025433542321176355 0.0061785702491233933 0 -0.00074297704304290434 0.0065541288201775233 0 -0.00097387768542395137 0.0063735725728942989 0 -0.00069816124199708436 0.0066754404388505916 0 -0.00080114118452035831 0.0067648492888183606 0 -0.000798788668727601 0.0066251469281976925 0 -0.00025433542321176355 0.0061785702491233933 0 -0.00074297704304290434 0.0065541288201775233 0 -0.00034132775926327372 0.0065013567922655828 0 -0.00020961112738184963 0.006193304202679174 0 -0.00034132775926327372 0.0065013567922655828 0 -0.00011383891051679811 0.0067255399368984104 0 -0.00074297704304290434 0.0065541288201775233 0 -0.00034132775926327372 0.0065013567922655828 0 -0.00045185906962210613 0.0068616901267765738 0 -0.00034132775926327372 0.0065013567922655828 0 -0.00045185906962210613 0.0068616901267765738 0 -0.00011383891051679811 0.0067255399368984104 0 -0.0013015688862387151 0.0065756115394778976 0 -0.0011297569819832271 0.0067138575096306746 0 -0.0012975750834239941 0.0068139542257823925 0 -0.00097387768542395137 0.0063735725728942989 0 -0.0013015688862387151 0.0065756115394778976 0 -0.0011297569819832271 0.0067138575096306746 0 -0.00074297704304290434 0.0065541288201775233 0 -0.00097387768542395137 0.0063735725728942989 0 -0.0011297569819832271 0.0067138575096306746 0 -0.00080114118452035831 0.0067648492888183606 0 -0.00094065339970369696 0.0065996243130777522 0 -0.000798788668727601 0.0066251469281976925 0 -0.00086414029133449744 0.0064354026914041221 0 -0.0011751034975554266 0.006658606379002621 0 -0.00080114118452035831 0.0067648492888183606 0 -0.00094065339970369696 0.0065996243130777522 0 -0.0010629155410965829 0.0067157021567531448 0 -0.00094065339970369696 0.0065996243130777522 0 -0.0010655850983895601 0.0065027396623442233 0 -0.0010629155410965829 0.0067157021567531448 0 -0.00094065339970369696 0.0065996243130777522 0 -0.00086531513437353928 0.0065367711424118222 0 -0.00096268877393918396 0.0065026948322858009 0 -0.00094065339970369696 0.0065996243130777522 0 -0.00096268877393918396 0.0065026948322858009 0 -0.0010655850983895601 0.0065027396623442233 0 -0.00094065339970369696 0.0065996243130777522 0 -0.000798788668727601 0.0066251469281976925 0 -0.00086531513437353928 0.0065367711424118222 0 -0.000798788668727601 0.0066251469281976925 0 -0.00086531513437353928 0.0065367711424118222 0 -0.00078276204202140924 0.0065511459194809891 0 -0.0015410889370237682 0.0043115815055787708 0 -0.00067738794519070706 0.010479958879552968 0 -0.00090419507038956787 0.006456847268607996 0 -0.001000978383155655 0.0064006384251927102 0 -0.00078555249082270921 0.0064132655835020353 0 -0.00086531513437353928 0.0065367711424118222 0 -0.00078276204202140924 0.0065511459194809891 0 -0.00081275117651822355 0.0064895212988863929 0 -0.00086531513437353928 0.0065367711424118222 0 -0.00090419507038956787 0.006456847268607996 0 -0.00096268877393918396 0.0065026948322858009 0 -0.00086531513437353928 0.0065367711424118222 0 -0.00081275117651822355 0.0064895212988863929 0 -0.00090419507038956787 0.006456847268607996 0 -0.00081275117651822355 0.0064895212988863929 0 -0.00090419507038956787 0.006456847268607996 0 -0.00078555249082270921 0.0064132655835020353 0 -0.00096268877393918396 0.0065026948322858009 0 -0.001000978383155655 0.0064006384251927102 0 -0.0010655850983895601 0.0065027396623442233 0 -0.00090419507038956787 0.006456847268607996 0 -0.00096268877393918396 0.0065026948322858009 0 -0.001000978383155655 0.0064006384251927102 0 -0.0025727958199310433 0.0021041156189276471 0 -0.0019515039236808547 0.0019763150774072804 0 -0.0020559154061495742 0.0022089511288741598 0 -0.0015410889370237682 0.0043115815055787708 0 -0.0022705950257857475 0.0017048501615497616 0 -0.001000978383155655 0.0064006384251927102 0 -0.0011920527403632211 0.0064849611094873636 0 -0.0010655850983895601 0.0065027396623442233 0 -0.0029214321191282974 0.0020527463444265171 0 -0.0021309282684612574 0.001895637519356265 0 -0.0021701941488353714 0.0015237125003007756 0 -0.0015410889370237682 0.0043115815055787708 0 -0.0016883243196291805 0.0038929779097202971 0 -0.0021309282684612574 0.001895637519356265 0 -0.0021701941488353714 0.0015237125003007756 0 -0.0012689654149088774 0.0017522595121872825 0 -0.0019515039236808547 0.0019763150774072804 0 -0.0018310299164240116 0.0022431642559105191 0 -0.0020559154061495742 0.0022089511288741598 0 -0.0019515039236808547 0.0019763150774072804 0 -0.0014962149517222544 0.002117332400648713 0 -0.0018310299164240116 0.0022431642559105191 0 -0.0011920527403632211 0.0064849611094873636 0 -0.0013256028578111131 0.006549464602031296 0 -0.0011918859400168781 0.0065970903909068762 0 -0.0016883243196291805 0.0038929779097202971 0 -0.0015143521390191422 0.0044830760159391475 0 -0.0011920527403632211 0.0064849611094873636 0 -0.0010655850983895601 0.0065027396623442233 0 -0.0011918859400168781 0.0065970903909068762 0 -0.00035343758356735623 0.0016039864936790542 0 -0.0012689654149088774 0.0017522595121872825 0 -0.00072676019121783802 0.0012105113826032111 0 -0.00047094501531844601 0.0021322212635243041 0 -0.00035343758356735623 0.0016039864936790542 0 -0.0012201747634467731 0.0017975030694058428 0 -0.00042482698513177721 0.0016174215751134813 0 -0.0011790007236783492 0.0017942045324939255 0 -0.0019515039236808547 0.0019763150774072804 0 -0.0012201747634467731 0.0017975030694058428 0 -0.0014962149517222544 0.002117332400648713 0 -0.0022705950257857475 0.0017048501615497616 0 -0.0011790007236783492 0.0017942045324939255 0 -0.0021701941488353714 0.0015237125003007756 0 -0.0012689654149088774 0.0017522595121872825 0 -0.0013383672577987481 0.00096814567967331536 0 -0.0012689654149088774 0.0017522595121872825 0 -0.00072676019121783802 0.0012105113826032111 0 -0.0013383672577987481 0.00096814567967331536 0 -0.00045648808982415794 0.00039667255601411554 0 -0.00072676019121783802 0.0012105113826032111 0 -0.0013383672577987481 0.00096814567967331536 0 -0.00085560963421394244 -0.0011909788034336264 0 -0.0015143521390191422 0.0044830760159391475 0 -0.0013494121543620658 0.0065183871897189676 0 -0.0013256028578111131 0.006549464602031296 0 -0.0013212784651794483 0.0065938483030818403 0 -0.0013256028578111131 0.006549464602031296 0 -0.0013212784651794483 0.0065938483030818403 0 -0.0012969766974382025 0.0066327145247211021 0 -0.0013212784651794483 0.0065938483030818403 0 -0.0012969766974382025 0.0066327145247211021 0 -0.0013017521045399169 0.0066696739319367588 0 -0.0013494121543620658 0.0065183871897189676 0 -0.0013212784651794483 0.0065938483030818403 0 -0.0013244681157133704 0.0065817077585181077 0 -0.0010655850983895601 0.0065027396623442233 0 -0.0010629155410965829 0.0067157021567531448 0 -0.0011918859400168781 0.0065970903909068762 0 -0.0013256028578111131 0.006549464602031296 0 -0.0011918859400168781 0.0065970903909068762 0 -0.0012969766974382025 0.0066327145247211021 0 -0.0011751034975554266 0.006658606379002621 0 -0.0012858934032039177 0.0066311009432960472 0 -0.0010629155410965829 0.0067157021567531448 0 -0.0011918859400168781 0.0065970903909068762 0 -0.0012969766974382025 0.0066327145247211021 0 -0.0013015688862387151 0.0065756115394778976 0 -0.0012969766974382025 0.0066327145247211021 0 -0.0013164012486475169 0.0066928892416195139 0 -0.0012969766974382025 0.0066327145247211021 0 -0.0013164012486475169 0.0066928892416195139 0 -0.0013017521045399169 0.0066696739319367588 0 -0.0013015688862387151 0.0065756115394778976 0 -0.0013164012486475169 0.0066928892416195139 0 -0.0012975750834239941 0.0068139542257823925 0 -0.0013164012486475169 0.0066928892416195139 0 -0.0013069060160521607 0.0068006020400433907 0 -0.0012975750834239941 0.0068139542257823925 0 -0.0013164012486475169 0.0066928892416195139 0 -0.0013069060160521607 0.0068006020400433907 0 -0.0013017521045399169 0.0066696739319367588 0 -0.0013069060160521607 0.0068006020400433907 0 -0.0013017521045399169 0.0066696739319367588 0 -0.001250357167762817 0.0067061676611906351 0 -0.0013069060160521607 0.0068006020400433907 0 -0.0013209706770495808 0.006984879825315567 0 -0.0012975750834239941 0.0068139542257823925 0 -0.0013212784651794483 0.0065938483030818403 0 -0.0013244681157133704 0.0065817077585181077 0 -0.0013017521045399169 0.0066696739319367588 0 -0.0013017521045399169 0.0066696739319367588 0 -0.0012601055308004005 0.0066259135362046256 0 -0.001250357167762817 0.0067061676611906351 0 -0.00030809277579928743 -0.0017122382609328279 0 -0.0004099145800483848 -0.0020038417638420006 0 -0.0013244681157133704 0.0065817077585181077 0 -0.0013017521045399169 0.0066696739319367588 0 -0.0012601055308004005 0.0066259135362046256 0 -0.0004099145800483848 -0.0020038417638420006 0 -0.0006985040511194152 -0.0029551597556396834 0 0.001085136923315819 -0.011356512102434184 0 0.00037970034183825921 -0.010815920503757287 0 0.00019180331452830362 -0.011633712844072563 0 -0.0012601055308004005 0.0066259135362046256 0 -0.001250357167762817 0.0067061676611906351 0 -0.0011605941413575351 0.0065758720892600039 0 -0.001250357167762817 0.0067061676611906351 0 -0.0011605941413575351 0.0065758720892600039 0 -0.0011985933334653449 0.0066280021183091602 0 -0.0013069060160521607 0.0068006020400433907 0 -0.0012649331800420177 0.0067674402162153438 0 -0.0013209706770495808 0.006984879825315567 0 -0.0013069060160521607 0.0068006020400433907 0 -0.001250357167762817 0.0067061676611906351 0 -0.0012649331800420177 0.0067674402162153438 0 -0.0012238403529779035 0.0066116527842178426 0 -0.0011985933334653449 0.0066280021183091602 0 -0.0012649331800420177 0.0067674402162153438 0 -0.001250357167762817 0.0067061676611906351 0 -0.0011985933334653449 0.0066280021183091602 0 -0.0012649331800420177 0.0067674402162153438 0 -0.0012986882374351012 0.0066306270639526835 0 -0.0012649331800420177 0.0067674402162153438 0 -0.0013320679201738082 0.006784229711757077 0 -0.0012649331800420177 0.0067674402162153438 0 -0.0013320679201738082 0.006784229711757077 0 -0.0013209706770495808 0.006984879825315567 0 -0.0013320679201738082 0.006784229711757077 0 -0.0014490952244950671 0.0067745823520403963 0 -0.0013209706770495808 0.006984879825315567 0 -0.0012986882374351012 0.0066306270639526835 0 -0.0013320679201738082 0.006784229711757077 0 -0.0014490952244950671 0.0067745823520403963 0 -0.0014490952244950671 0.0067745823520403963 0 -0.0013209706770495808 0.006984879825315567 0 -0.0013867467929165127 0.0072704423225983267 0 -0.0013209706770495808 0.006984879825315567 0 -0.0013867467929165127 0.0072704423225983267 0 -0.0012620647073731609 0.0069806355496320081 0 -0.0021705216453353545 0.0085264923353438968 0 -0.0013867467929165127 0.0072704423225983267 0 -0.00075942496818493346 0.0078944435955320587 0 -0.0017668296987523337 0.0076140301023648492 0 -0.0014565664826996249 0.007296556093803537 0 -0.00075076642311274714 0.0090196945315236376 0 -0.0021705216453353545 0.0085264923353438968 0 -0.00075942496818493346 0.0078944435955320587 0 -0.00075076642311274714 0.0090196945315236376 0 -0.00075942496818493346 0.0078944435955320587 0 -9.0329768183859156e-05 0.0080948053559382616 0 -0.0010350547585730146 0.0093289219879689068 0 -0.00026336491408304502 0.008439938333987821 0 -0.00075942496818493346 0.0078944435955320587 0 -9.0329768183859156e-05 0.0080948053559382616 0 -0.00042628382513705489 0.007437405099804905 0 0.00039716087128912486 0.0078371295635857041 0 -9.0329768183859156e-05 0.0080948053559382616 0 -0.00042628382513705489 0.007437405099804905 0 -0.0013867467929165127 0.0072704423225983267 0 -0.00075942496818493346 0.0078944435955320587 0 -0.00042628382513705489 0.007437405099804905 0 -0.00042628382513705489 0.007437405099804905 0 -0.00045185906962210613 0.0068616901267765738 0 -0.00094499218791723946 0.006965979348039544 0 -0.0013867467929165127 0.0072704423225983267 0 -0.00042628382513705489 0.007437405099804905 0 -0.00094499218791723946 0.006965979348039544 0 -8.5731203701883116e-06 0.0072147011012958125 0 -0.00042628382513705489 0.007437405099804905 0 -0.00045185906962210613 0.0068616901267765738 0 -8.5731203701883116e-06 0.0072147011012958125 0 -0.00045185906962210613 0.0068616901267765738 0 -0.00011383891051679811 0.0067255399368984104 0 -0.00074297704304290434 0.0065541288201775233 0 -0.00045185906962210613 0.0068616901267765738 0 -0.00094499218791723946 0.006965979348039544 0 -0.00094499218791723946 0.006965979348039544 0 -0.0011297569819832271 0.0067138575096306746 0 -0.0012620647073731609 0.0069806355496320081 0 -0.00074297704304290434 0.0065541288201775233 0 -0.00094499218791723946 0.006965979348039544 0 -0.0011297569819832271 0.0067138575096306746 0 -0.0011297569819832271 0.0067138575096306746 0 -0.0012975750834239941 0.0068139542257823925 0 -0.0012620647073731609 0.0069806355496320081 0 -0.0013209706770495808 0.006984879825315567 0 -0.0012975750834239941 0.0068139542257823925 0 -0.0012620647073731609 0.0069806355496320081 0 -0.0013867467929165127 0.0072704423225983267 0 -0.00094499218791723946 0.006965979348039544 0 -0.0012620647073731609 0.0069806355496320081 0 -5.2230203845746469e-05 0.044904013487066671 0 9.4709238400741631e-08 0.045000672686596584 0 -5.651324185047186e-08 0.044999366265302883 0 2.7785978888098464e-05 0.044920533043234151 0 -5.2230203845746469e-05 0.044904013487066671 0 -5.651324185047186e-08 0.044999366265302883 0 6.7636627051977658e-05 0.044871006253356931 0 2.7785978888098464e-05 0.044920533043234151 0 -5.2230203845746469e-05 0.044904013487066671 0 6.7636627051977658e-05 0.044871006253356931 0 0.00011131177342492223 0.044781737636695282 0 -5.2230203845746469e-05 0.044904013487066671 0 6.7636627051977658e-05 0.044871006253356931 0 2.7785978888098464e-05 0.044920533043234151 0 0.00014059581221281827 0.044817975585985222 0 0.00059409255738070339 0.040548788728267872 0 0.0005013911859360798 0.040336555189298594 0 0.00014059581221281827 0.044817975585985222 0 0.00014470094104253003 0.044868918406337964 0 -8.6025097508300957e-05 0.044543742556455643 0 0.0010464563437261203 0.036181170235697516 0 0.0010348390610842022 0.036141222480024097 0 0.0010393884477768445 0.036157348595546056 0 0.00014470094104253003 0.044868918406337964 0 0.00011851336844278063 0.044853301831317097 0 0.00011131177342492223 0.044781737636695282 0 6.7636627051977658e-05 0.044871006253356931 0 0.00014059581221281827 0.044817975585985222 0 0.00011851336844278063 0.044853301831317097 0 0.00014059581221281827 0.044817975585985222 0 0.00014470094104253003 0.044868918406337964 0 0.00011851336844278063 0.044853301831317097 0 6.7636627051977658e-05 0.044871006253356931 0 0.00011851336844278063 0.044853301831317097 0 0.00011131177342492223 0.044781737636695282 0 0.00011131177342492223 0.044781737636695282 0 0.00029296559606339131 0.044584148498382291 0 -1.8661130377557041e-05 0.044444694251328458 0 0.00014470094104253003 0.044868918406337964 0 0.00011131177342492223 0.044781737636695282 0 0.00029296559606339131 0.044584148498382291 0 0.0010464563437261203 0.036181170235697516 0 0.0010449437807054202 0.036218305754771911 0 0.0010296273255381622 0.036149414566150964 0 0.00059409255738070339 0.040548788728267872 0 0.00062391973112202969 0.040216161210093998 0 0.00040621428200291457 0.03587525869828323 0 0.0005674009303417068 0.035618681308360982 0 0.00072168760733354732 0.03626762411626086 0 0.00040621428200291457 0.03587525869828323 0 0.0005674009303417068 0.035618681308360982 0 0.00022239126555375748 0.0355832676516828 0 0.00062391973112202969 0.040216161210093998 0 0.00074574396642548824 0.039793324199634328 0 0.00072402582401915304 0.04444766046181603 0 0.00050128730187464139 0.043764601364425976 0 0.0002965710463674442 0.04404262798401043 0 0.00062391973112202969 0.040216161210093998 0 9.4744125868642989e-06 0.045676498008418054 0 0.00072402582401915304 0.04444766046181603 0 -1.8661130377557041e-05 0.044444694251328458 0 0.0002965710463674442 0.04404262798401043 0 -1.8661130377557041e-05 0.044444694251328458 0 -5.2230203845746469e-05 0.044904013487066671 0 -0.00030467999104456925 0.044001304309514377 0 0.00011131177342492223 0.044781737636695282 0 -1.8661130377557041e-05 0.044444694251328458 0 -5.2230203845746469e-05 0.044904013487066671 0 -7.0922223860484237e-05 0.044871861792785357 0 -0.00013943005107520275 0.044498767196623677 0 -5.2230203845746469e-05 0.044904013487066671 0 9.4709238400741631e-08 0.045000672686596584 0 -7.2327080464005593e-06 0.0449958447328715 0 9.4709238400741631e-08 0.045000672686596584 0 -3.3672193290279926e-06 0.044965082686437785 0 -7.0178687356772428e-07 0.044996258848209084 0 9.4709238400741631e-08 0.045000672686596584 0 -7.2327080464005593e-06 0.0449958447328715 0 -3.3672193290279926e-06 0.044965082686437785 0 -1.8661130377557041e-05 0.044444694251328458 0 -0.00030467999104456925 0.044001304309514377 0 4.3748451544766295e-05 0.043728429126652743 0 -1.8661130377557041e-05 0.044444694251328458 0 4.3748451544766295e-05 0.043728429126652743 0 0.0002965710463674442 0.04404262798401043 0 4.3748451544766295e-05 0.043728429126652743 0 0.00018046433203080763 0.043567228379666423 0 0.0002963286645157849 0.043708530690109215 0 -0.00030467999104456925 0.044001304309514377 0 4.3748451544766295e-05 0.043728429126652743 0 -0.00015438526921215026 0.043139631539978116 0 4.3748451544766295e-05 0.043728429126652743 0 3.1158380918716195e-05 0.043365726160498323 0 -0.00015438526921215026 0.043139631539978116 0 4.3748451544766295e-05 0.043728429126652743 0 3.1158380918716195e-05 0.043365726160498323 0 0.00018046433203080763 0.043567228379666423 0 -0.00013943005107520275 0.044498767196623677 0 -8.1679157882592134e-05 0.04406900979819818 0 3.1158380918716195e-05 0.043365726160498323 0 -0.00015438526921215026 0.043139631539978116 0 -0.00021414509919902424 0.043217602722108325 0 3.1158380918716195e-05 0.043365726160498323 0 -0.00021414509919902424 0.043217602722108325 0 0.00029421749828598088 0.043399275931490566 0 -0.00021414509919902424 0.043217602722108325 0 3.5992825832280722e-07 0.042230027804041823 0 0.00029421749828598088 0.043399275931490566 0 -0.00021414509919902424 0.043217602722108325 0 3.5992825832280722e-07 0.042230027804041823 0 -3.7787962547774438e-07 0.044029872305519475 0 -3.3672193290279926e-06 0.044965082686437785 0 -7.0178687356772428e-07 0.044996258848209084 0 1.1298895699394164e-06 0.044041678641624039 0 -8.1679157882592134e-05 0.04406900979819818 0 -2.4654898311775525e-08 0.044035579542715565 0 -0.00015438526921215026 0.043139631539978116 0 -0.00021414509919902424 0.043217602722108325 0 -3.7787962547774438e-07 0.044029872305519475 0 2.5137573321314034e-06 0.040195251149895084 0 0.00081785481087514114 0.037307487978208535 0 -0.00011869464320059946 0.037409979387624116 0 2.9056159180243277e-07 0.040199687239820134 0 0.00061400657675770329 0.039630054897852318 0 1.3202913324876127e-06 0.040205888161201131 0 -7.9472087762629277e-05 0.041497746370973962 0 0.00051603023937405455 0.041882728877868841 0 -1.1460443767447909e-06 0.042218485892647706 0 1.3202913324876127e-06 0.040205888161201131 0 -7.9472087762629277e-05 0.041497746370973962 0 -1.8217121957019543e-08 0.042224313526247975 0 8.9027090992000054e-05 0.042636604530964531 0 -1.1460443767447909e-06 0.042218485892647706 0 -7.9472087762629277e-05 0.041497746370973962 0 -0.00015937894723023181 0.041819905317847565 0 -7.9472087762629277e-05 0.041497746370973962 0 -0.00015937894723023181 0.041819905317847565 0 0.00051603023937405455 0.041882728877868841 0 -0.00015937894723023181 0.041819905317847565 0 0.00051603023937405455 0.041882728877868841 0 0.00079237093841806811 0.043374251695579132 0 0.00081785481087514114 0.037307487978208535 0 0.00072168760733354732 0.03626762411626086 0 -0.00011546440718585596 0.036586138756144665 0 0.00061400657675770329 0.039630054897852318 0 0.00074574396642548824 0.039793324199634328 0 -0.00015937894723023181 0.041819905317847565 0 0.00050128730187464139 0.043764601364425976 0 0.00079237093841806811 0.043374251695579132 0 0.00029421749828598088 0.043399275931490566 0 0.00018046433203080763 0.043567228379666423 0 0.0002963286645157849 0.043708530690109215 0 0.00029421749828598088 0.043399275931490566 0 0.0002963286645157849 0.043708530690109215 0 0.00050128730187464139 0.043764601364425976 0 8.9027090992000054e-05 0.042636604530964531 0 0.00046442358043720388 0.043706537054644064 0 3.1158380918716195e-05 0.043365726160498323 0 0.00029421749828598088 0.043399275931490566 0 0.00018046433203080763 0.043567228379666423 0 4.3748451544766295e-05 0.043728429126652743 0 0.0002963286645157849 0.043708530690109215 0 0.0002965710463674442 0.04404262798401043 0 0.0002963286645157849 0.043708530690109215 0 0.00050128730187464139 0.043764601364425976 0 0.0002965710463674442 0.04404262798401043 0 0.00040621428200291457 0.03587525869828323 0 0.00072168760733354732 0.03626762411626086 0 9.6724172868377237e-05 0.036091503364848586 0 0.00072402582401915304 0.04444766046181603 0 0.00050128730187464139 0.043764601364425976 0 0.00079237093841806811 0.043374251695579132 0 0.00072168760733354732 0.03626762411626086 0 9.6724172868377237e-05 0.036091503364848586 0 -0.00011546440718585596 0.036586138756144665 0 9.6724172868377237e-05 0.036091503364848586 0 -0.00022252297991069052 0.03626170040932896 0 -0.00011546440718585596 0.036586138756144665 0 9.6724172868377237e-05 0.036091503364848586 0 -0.0002945154246827425 0.036015133493371876 0 -0.00022252297991069052 0.03626170040932896 0 -0.0002945154246827425 0.036015133493371876 0 -0.00022252297991069052 0.03626170040932896 0 -0.00036738645002749702 0.036243912269224292 0 -0.00022252297991069052 0.03626170040932896 0 -0.00036077051278175684 0.036302897288014141 0 -0.00036738645002749702 0.036243912269224292 0 -0.00011546440718585596 0.036586138756144665 0 -0.00037697004411623624 0.036430100354976409 0 -0.00036077051278175684 0.036302897288014141 0 -0.00022252297991069052 0.03626170040932896 0 -0.00011546440718585596 0.036586138756144665 0 -0.00036077051278175684 0.036302897288014141 0 0.00081785481087514114 0.037307487978208535 0 -0.00011546440718585596 0.036586138756144665 0 -0.00011869464320059946 0.037409979387624116 0 -0.00011546440718585596 0.036586138756144665 0 -0.00011869464320059946 0.037409979387624116 0 -0.00037697004411623624 0.036430100354976409 0 -0.00011869464320059946 0.037409979387624116 0 -1.087946340373652e-06 0.037684840412383423 0 -0.00037697004411623624 0.036430100354976409 0 2.5137573321314034e-06 0.040195251149895084 0 -0.00011869464320059946 0.037409979387624116 0 -1.087946340373652e-06 0.037684840412383423 0 -1.5551183889083227e-06 0.035167685908938817 0 -7.084757270675437e-05 0.035610839079965186 0 0.00027983669587467906 0.034710912996566333 0 -1.5551183889083227e-06 0.035167685908938817 0 -0.00037697004411623624 0.036430100354976409 0 -7.084757270675437e-05 0.035610839079965186 0 -1.087946340373652e-06 0.037684840412383423 0 -1.5551183889083227e-06 0.035167685908938817 0 -0.00037697004411623624 0.036430100354976409 0 -0.00037697004411623624 0.036430100354976409 0 -7.084757270675437e-05 0.035610839079965186 0 -0.00022896943137292236 0.036064787865971802 0 -7.084757270675437e-05 0.035610839079965186 0 -0.00022896943137292236 0.036064787865971802 0 0.00035244081153719598 0.035799948832904847 0 -0.00090255064442948732 0.032997802703623055 0 0.003132447787041704 0.031842664214666493 0 0.0033170281281650446 0.030213350115197393 0 -0.00022896943137292236 0.036064787865971802 0 -0.00027968912937537718 0.036343792996839007 0 0.00035244081153719598 0.035799948832904847 0 -0.00037969255685888143 0.035405313423659573 0 0.002062915891935327 0.030615339935630651 0 -0.00037969255685888143 0.035405313423659573 0 0.0033483102873695229 0.028017199912869377 0 -0.00022896943137292236 0.036064787865971802 0 -0.00036077051278175684 0.036302897288014141 0 -0.00027968912937537718 0.036343792996839007 0 -0.00037697004411623624 0.036430100354976409 0 -0.00022896943137292236 0.036064787865971802 0 -0.00036077051278175684 0.036302897288014141 0 0.00017919065024827471 0.035510715001767022 0 -0.00037969255685888143 0.035405313423659573 0 0.00036759717895582509 0.035081729349972147 0 0.00093896992825337239 0.034534950106012284 0 0.00083498447445735664 0.035088868516788316 0 -0.0002945154246827425 0.036015133493371876 0 -0.00036738645002749702 0.036243912269224292 0 -0.00052143897969518798 0.036345476526008662 0 -0.00036077051278175684 0.036302897288014141 0 -0.00036738645002749702 0.036243912269224292 0 -0.00027968912937537718 0.036343792996839007 0 -0.00047410189486920255 0.036062099583205845 0 -0.00037969255685888143 0.035405313423659573 0 0.00093896992825337239 0.034534950106012284 0 0.0013617224951914051 0.034729707890447201 0 0.0017871979154726204 0.034398768030352342 0 0.00093896992825337239 0.034534950106012284 0 0.0017871979154726204 0.034398768030352342 0 0.0018106520089822599 0.034198421751848486 0 0.00093896992825337239 0.034534950106012284 0 0.0013617224951914051 0.034729707890447201 0 0.00083498447445735664 0.035088868516788316 0 0.0012439922969352073 0.035217827355130182 0 0.0016019917235013652 0.035627846058829328 0 0.0016886977839182611 0.035048587579581514 0 0.0012439922969352073 0.035217827355130182 0 0.00076151938572245734 0.035558130045298016 0 0.0016019917235013652 0.035627846058829328 0 0.0013617224951914051 0.034729707890447201 0 0.0012439922969352073 0.035217827355130182 0 0.0016886977839182611 0.035048587579581514 0 0.0013617224951914051 0.034729707890447201 0 0.0012439922969352073 0.035217827355130182 0 0.00083498447445735664 0.035088868516788316 0 0.0010138991504267246 0.036107093662608614 0 0.0010130385919218602 0.03608373471648299 0 0.0010124988300043664 0.036054525197048999 0 0.00093443861681347606 0.036292455045515086 0 0.0013271930776243487 0.032125337616324932 0 0.0010138991504267246 0.036107093662608614 0 0.0010130385919218602 0.03608373471648299 0 0.0010188287106813756 0.036114057216791812 0 0.00036759717895582509 0.035081729349972147 0 0.00076151938572245734 0.035558130045298016 0 0.00083498447445735664 0.035088868516788316 0 0.0012439922969352073 0.035217827355130182 0 0.00076151938572245734 0.035558130045298016 0 0.00083498447445735664 0.035088868516788316 0 0.00036759717895582509 0.035081729349972147 0 0.00022239126555375748 0.0355832676516828 0 0.00015362278882512096 0.035512499862159833 0 0.00036759717895582509 0.035081729349972147 0 0.00076151938572245734 0.035558130045298016 0 0.00015362278882512096 0.035512499862159833 0 0.00017919065024827471 0.035510715001767022 0 0.00017488344250176174 0.035570070523308787 0 0.00040621428200291457 0.03587525869828323 0 9.6724172868377237e-05 0.036091503364848586 0 0.00022239126555375748 0.0355832676516828 0 9.6724172868377237e-05 0.036091503364848586 0 -0.0002945154246827425 0.036015133493371876 0 0.00022239126555375748 0.0355832676516828 0 0.00062391973112202969 0.040216161210093998 0 0.00058245020070479044 0.03532624328621807 0 0.0005674009303417068 0.035618681308360982 0 0.00022239126555375748 0.0355832676516828 0 0.00015362278882512096 0.035512499862159833 0 0.0010449437807054202 0.036218305754771911 0 0.0010233413656345288 0.036163563846357348 0 0.0010296273255381622 0.036149414566150964 0 0.0010138991504267246 0.036107093662608614 0 0.0010233413656345288 0.036163563846357348 0 0.0010188287106813756 0.036114057216791812 0 0.00093443861681347606 0.036292455045515086 0 0.00058245020070479044 0.03532624328621807 0 0.0010233413656345288 0.036163563846357348 0 0.0010296273255381622 0.036149414566150964 0 0.0010188287106813756 0.036114057216791812 0 0.0010296273255381622 0.036149414566150964 0 0.0010263006379860613 0.036105797888831531 0 0.0010188287106813756 0.036114057216791812 0 0.0010464563437261203 0.036181170235697516 0 0.0010296273255381622 0.036149414566150964 0 0.0010348390610842022 0.036141222480024097 0 0.0010296273255381622 0.036149414566150964 0 0.0010348390610842022 0.036141222480024097 0 0.0010263006379860613 0.036105797888831531 0 0.0010348390610842022 0.036141222480024097 0 0.0010263006379860613 0.036105797888831531 0 0.0010346455508617321 0.036118782004805478 0 0.0010263006379860613 0.036105797888831531 0 0.0010163823168990178 0.036078794971207799 0 0.0010209823509784389 0.036064588330091567 0 0.0010163823168990178 0.036078794971207799 0 0.001010033471063857 0.036058914882252477 0 0.0010096017721132188 0.036044702224698084 0 0.0010163823168990178 0.036078794971207799 0 0.0010096017721132188 0.036044702224698084 0 0.0010209823509784389 0.036064588330091567 0 0.0010973686239437626 0.032148904514488284 0 0.0010280424569148923 0.033137784200215209 0 0.0010163823168990178 0.036078794971207799 0 0.0010130385919218602 0.03608373471648299 0 0.001010033471063857 0.036058914882252477 0 0.0010130385919218602 0.03608373471648299 0 0.001010033471063857 0.036058914882252477 0 0.0010124988300043664 0.036054525197048999 0 0.0010263006379860613 0.036105797888831531 0 0.0010163823168990178 0.036078794971207799 0 0.0010188287106813756 0.036114057216791812 0 0.0010163823168990178 0.036078794971207799 0 0.0010130385919218602 0.03608373471648299 0 0.0010188287106813756 0.036114057216791812 0 0.00075566494146946399 0.024989819704098176 0 0.00084211458866949318 0.024888683117592375 0 0.0015075408626149208 0.028552711459781353 0 0.0017143888853327887 0.02826234419075481 0 0.0014367538744030741 0.028194163363792411 0 0.0013142353282700153 0.028378427242983666 0 0.0015075408626149208 0.028552711459781353 0 0.0014367538744030741 0.028194163363792411 0 0.0013142353282700153 0.028378427242983666 0 0.0011833798011031281 0.028504183687641044 0 0.0012181633839640315 0.028204475216315722 0 0.0013142353282700153 0.028378427242983666 0 0.0012665409099975483 0.028656282284398708 0 0.0015075408626149208 0.028552711459781353 0 0.0013142353282700153 0.028378427242983666 0 0.0011833798011031281 0.028504183687641044 0 0.0012665409099975483 0.028656282284398708 0 0.0012665409099975483 0.028656282284398708 0 0.0015075408626149208 0.028552711459781353 0 0.0013054122709229296 0.028825670416832965 0 0.00075566494146946399 0.024989819704098176 0 0.0009047073505419178 0.02445576468158539 0 0.0011833798011031281 0.028504183687641044 0 0.0012665409099975483 0.028656282284398708 0 0.001147953610223679 0.028802848551316953 0 0.0012665409099975483 0.028656282284398708 0 0.0013054122709229296 0.028825670416832965 0 0.001147953610223679 0.028802848551316953 0 8.7922376238761259e-05 0.021269671662473406 0 9.0413362730523518e-05 0.021225745999033478 0 0.00013713973328183265 0.021256660817523171 0 8.7922376238761259e-05 0.021269671662473406 0 4.0748435114871749e-05 0.021215203648890978 0 9.0413362730523518e-05 0.021225745999033478 0 8.7922376238761259e-05 0.021269671662473406 0 4.0748435114871749e-05 0.021215203648890978 0 4.9183381957408613e-05 0.021247185663567258 0 4.0748435114871749e-05 0.021215203648890978 0 2.0994631449374552e-05 0.021232830319057299 0 -2.3232176897906294e-05 0.021181957146159676 0 4.0748435114871749e-05 0.021215203648890978 0 -2.3232176897906294e-05 0.021181957146159676 0 -7.6988303928952554e-06 0.021168374860229988 0 8.7922376238761259e-05 0.021269671662473406 0 4.9183381957408613e-05 0.021247185663567258 0 5.3700993956285724e-05 0.021271874621507213 0 4.0748435114871749e-05 0.021215203648890978 0 2.0994631449374552e-05 0.021232830319057299 0 4.9183381957408613e-05 0.021247185663567258 0 2.0994631449374552e-05 0.021232830319057299 0 4.9183381957408613e-05 0.021247185663567258 0 5.3700993956285724e-05 0.021271874621507213 0 0.00084211458866949318 0.024888683117592375 0 0.0010051262955799718 0.023756583530700121 0 5.3700993956285724e-05 0.021271874621507213 0 3.0346094861124669e-05 0.021254031213434915 0 3.8000969170448012e-05 0.021283368113893454 0 0.0017143888853327887 0.02826234419075481 0 0.0019190491448728923 0.027951813067695438 0 0.0016101720255910145 0.028038327380862885 0 2.0994631449374552e-05 0.021232830319057299 0 3.0346094861124669e-05 0.021254031213434915 0 1.6918911202314028e-05 0.021234272314600251 0 2.0994631449374552e-05 0.021232830319057299 0 1.6918911202314028e-05 0.021234272314600251 0 6.2916530715743654e-06 0.021205955548793107 0 2.0994631449374552e-05 0.021232830319057299 0 5.3700993956285724e-05 0.021271874621507213 0 3.0346094861124669e-05 0.021254031213434915 0 3.0346094861124669e-05 0.021254031213434915 0 3.8000969170448012e-05 0.021283368113893454 0 1.6918911202314028e-05 0.021234272314600251 0 0.00094726052505842329 0.021556308601149356 0 0.00049411774489493932 0.021622437403701261 0 0.00054793164468206715 0.021336666659183146 0 0.00094726052505842329 0.021556308601149356 0 0.00077430038198299505 0.02181224060416178 0 0.00049411774489493932 0.021622437403701261 0 0.0010051262955799718 0.023756583530700121 0 3.6201144215001006e-05 0.021160559815213975 0 0.0010051262955799718 0.023756583530700121 0 0.0012668199279974009 0.021639868603539274 0 0.00095628541116694952 0.021587652359315968 0 0.00077430038198299505 0.02181224060416178 0 0.0010405986989327645 0.02183641861626668 0 0.0010051262955799718 0.023756583530700121 0 0.0019333857089942051 0.024924998051235263 0 0.0019190491448728923 0.027951813067695438 0 0.0016101720255910145 0.028038327380862885 0 0.0015453733193425893 0.027764193194384626 0 0.00095628541116694952 0.021587652359315968 0 0.0010405986989327645 0.02183641861626668 0 0.0015467817696634386 0.021956828573102365 0 0.0014319979006695552 0.028019570944773194 0 0.0016101720255910145 0.028038327380862885 0 0.0015453733193425893 0.027764193194384626 0 0.0014319979006695552 0.028019570944773194 0 0.0013419629254597465 0.027942709063474406 0 0.0015453733193425893 0.027764193194384626 0 0.0017143888853327887 0.02826234419075481 0 0.0016101720255910145 0.028038327380862885 0 0.0014367538744030741 0.028194163363792411 0 0.0014319979006695552 0.028019570944773194 0 0.0016101720255910145 0.028038327380862885 0 0.0014367538744030741 0.028194163363792411 0 0.0010973686239437626 0.032148904514488284 0 0.0013271930776243487 0.032125337616324932 0 0.0013142353282700153 0.028378427242983666 0 0.0014367538744030741 0.028194163363792411 0 0.0012181633839640315 0.028204475216315722 0 0.0012158006662964921 0.028552092455779114 0 0.0013271930776243487 0.032125337616324932 0 0.0014319979006695552 0.028019570944773194 0 0.0014367538744030741 0.028194163363792411 0 0.0011951449163425186 0.028195120060516762 0 0.0013271930776243487 0.032125337616324932 0 0.0014174989620162389 0.031851830943287071 0 0.0011951449163425186 0.028195120060516762 0 0.0013419629254597465 0.027942709063474406 0 0.0012315101545516197 0.027904366287488231 0 0.0013419629254597465 0.027942709063474406 0 0.0012963588176063737 0.027837696930568076 0 0.0015453733193425893 0.027764193194384626 0 0.0014319979006695552 0.028019570944773194 0 0.0011951449163425186 0.028195120060516762 0 0.0013419629254597465 0.027942709063474406 0 0.0013419629254597465 0.027942709063474406 0 0.0012315101545516197 0.027904366287488231 0 0.0012963588176063737 0.027837696930568076 0 0.0012315101545516197 0.027904366287488231 0 0.0012963588176063737 0.027837696930568076 0 0.0012714983687463137 0.027616493459012022 0 0.0013617224951914051 0.034729707890447201 0 0.0016886977839182611 0.035048587579581514 0 0.0017871979154726204 0.034398768030352342 0 0.0014174989620162389 0.031851830943287071 0 0.0019017473802157314 0.028553564586680572 0 0.0012963588176063737 0.027837696930568076 0 0.0012714983687463137 0.027616493459012022 0 0.001569728307927717 0.027766141175892631 0 0.0010289570024492002 0.027797516297531466 0 0.0019333857089942051 0.024924998051235263 0 0.0035664479110778056 0.023423662028119272 0 0.0027156642968878477 0.022882549559586851 0 0.0029350540277160524 0.023450455411790774 0 0.0019017473802157314 0.028553564586680572 0 0.0019333857089942051 0.024924998051235263 0 0.0027156642968878477 0.022882549559586851 0 0.0029350540277160524 0.023450455411790774 0 0.0022059880417762542 0.023399464822007755 0 0.0033483102873695229 0.028017199912869377 0 0.0030913510509985786 0.023415466129837061 0 0.0029350540277160524 0.023450455411790774 0 0.0035387860732137275 0.023658976263585815 0 0.0021995908782374992 0.023992878676021481 0 0.0029350540277160524 0.023450455411790774 0 0.0021995908782374992 0.023992878676021481 0 0.0022059880417762542 0.023399464822007755 0 0.00555477216811932 0.023790033521734168 0 0.0054785008856651869 0.024529021870855653 0 0.0032932585000629445 0.024228853907052556 0 0.0019017473802157314 0.028553564586680572 0 0.0033483102873695229 0.028017199912869377 0 0.0035664479110778056 0.023423662028119272 0 0.0029350540277160524 0.023450455411790774 0 0.0035387860732137275 0.023658976263585815 0 0.0033483102873695229 0.028017199912869377 0 0.002062915891935327 0.030615339935630651 0 0.00041395433385638629 0.030718832907192045 0 0.00033898771691046677 0.031230145715324269 0 -0.00011679500187094109 0.031079146454204603 0 0.002062915891935327 0.030615339935630651 0 0.00022391099938241121 0.033449631840201388 0 -7.084757270675437e-05 0.035610839079965186 0 0.00035244081153719598 0.035799948832904847 0 0.00027983669587467906 0.034710912996566333 0 0.0054785008856651869 0.024529021870855653 0 0.0041505826319274686 0.02540500574828912 0 0.0032932585000629445 0.024228853907052556 0 0.002062915891935327 0.030615339935630651 0 0.0023565588482616774 0.027879449307497001 0 0.00033898771691046677 0.031230145715324269 0 -0.00011679500187094109 0.031079146454204603 0 -0.00015639855784371084 0.031245380967950966 0 -0.00015639855784371084 0.031245380967950966 0 1.1666881253026415e-06 0.032649716753401038 0 -1.08024556090733e-06 0.030501474998193431 0 -0.00011679500187094109 0.031079146454204603 0 -0.00015639855784371084 0.031245380967950966 0 1.7392521814547269e-05 0.030583693677005752 0 0.00033898771691046677 0.031230145715324269 0 -0.00015639855784371084 0.031245380967950966 0 1.1666881253026415e-06 0.032649716753401038 0 0.00022391099938241121 0.033449631840201388 0 2.294826280147313e-07 0.032652534154693588 0 -1.5551183889083227e-06 0.035167685908938817 0 0.00027983669587467906 0.034710912996566333 0 2.827476397848452e-06 0.032657575530713835 0 2.4764070254387241e-07 0.028349031679187162 0 0.0011203491425118017 0.028582693026742163 0 4.6099318882285568e-06 0.02834328141371828 0 0.0026713086123482314 0.026525026416379147 0 0.00064522877170718402 0.024451679463884535 0 1.074415098568134e-06 0.028350069061656831 0 -1.08024556090733e-06 0.030501474998193431 0 1.7392521814547269e-05 0.030583693677005752 0 -0.00015639855784371084 0.031245380967950966 0 -1.08024556090733e-06 0.030501474998193431 0 1.7392521814547269e-05 0.030583693677005752 0 0.0023565588482616774 0.027879449307497001 0 0.0011203491425118017 0.028582693026742163 0 0.0041505826319274686 0.02540500574828912 0 0.0026713086123482314 0.026525026416379147 0 0.0032932585000629445 0.024228853907052556 0 0.0026713086123482314 0.026525026416379147 0 0.0032932585000629445 0.024228853907052556 0 0.00064522877170718402 0.024451679463884535 0 0.0015042170753296032 0.023653338680610255 0 0.0021995908782374992 0.023992878676021481 0 0.00064522877170718402 0.024451679463884535 0 0.0015042170753296032 0.023653338680610255 0 0.00095154762555861626 0.023518674379450814 0 0.00064522877170718402 0.024451679463884535 0 0.0030913510509985786 0.023415466129837061 0 0.00053092680236283051 0.024688546159699339 0 0.0015042170753296032 0.023653338680610255 0 0.00095154762555861626 0.023518674379450814 0 0.0014749987924474704 0.023050590515895926 0 0.0015042170753296032 0.023653338680610255 0 0.0021995908782374992 0.023992878676021481 0 0.0022059880417762542 0.023399464822007755 0 0.0010405986989327645 0.02183641861626668 0 0.0015467817696634386 0.021956828573102365 0 0.00093659090503500706 0.02202596237347846 0 0.0027156642968878477 0.022882549559586851 0 0.0022059880417762542 0.023399464822007755 0 0.0014749987924474704 0.023050590515895926 0 0.0019333857089942051 0.024924998051235263 0 0.0013001772939983576 0.022245239349227466 0 0.0015042170753296032 0.023653338680610255 0 0.0022059880417762542 0.023399464822007755 0 0.0014749987924474704 0.023050590515895926 0 0.00095154762555861626 0.023518674379450814 0 0.0014749987924474704 0.023050590515895926 0 0.00029543407614518474 0.02312574850573625 0 0.0013001772939983576 0.022245239349227466 0 0.00028796447826095556 0.022643874378921423 0 0.00077430038198299505 0.02181224060416178 0 0.00093659090503500706 0.02202596237347846 0 0.00039026594724161933 0.022116195019066743 0 0.00077430038198299505 0.02181224060416178 0 0.0010405986989327645 0.02183641861626668 0 0.00093659090503500706 0.02202596237347846 0 0.00077430038198299505 0.02181224060416178 0 0.00039026594724161933 0.022116195019066743 0 0.00049411774489493932 0.021622437403701261 0 0.00039026594724161933 0.022116195019066743 0 -1.0964653318512677e-05 0.021854421389761996 0 -0.00024383937250027006 0.022506560924540592 0 0.00028796447826095556 0.022643874378921423 0 -0.00024940732052086407 0.022547148369693456 0 0.00039026594724161933 0.022116195019066743 0 -1.0964653318512677e-05 0.021854421389761996 0 0.00014741679029401002 0.021509380372344081 0 0.00029543407614518474 0.02312574850573625 0 -5.9865579573865575e-05 0.023831140440896421 0 -0.00024383937250027006 0.022506560924540592 0 0.00095154762555861626 0.023518674379450814 0 0.00029543407614518474 0.02312574850573625 0 0.00064522877170718402 0.024451679463884535 0 0.00029543407614518474 0.02312574850573625 0 0.00064522877170718402 0.024451679463884535 0 -5.9865579573865575e-05 0.023831140440896421 0 0.00064522877170718402 0.024451679463884535 0 -5.9865579573865575e-05 0.023831140440896421 0 9.6209179975236557e-06 0.025947420443233522 0 -5.9865579573865575e-05 0.023831140440896421 0 9.6209179975236557e-06 0.025947420443233522 0 -0.00021060832552578565 0.024079563971179652 0 -1.6748303641883999e-06 0.025815046532478382 0 9.6209179975236557e-06 0.025947420443233522 0 -0.00021060832552578565 0.024079563971179652 0 4.6099318882285568e-06 0.02834328141371828 0 -1.6748303641883999e-06 0.025815046532478382 0 9.6209179975236557e-06 0.025947420443233522 0 4.6099318882285568e-06 0.02834328141371828 0 0.00064522877170718402 0.024451679463884535 0 9.6209179975236557e-06 0.025947420443233522 0 -1.0174184884580003e-07 0.023281140530921163 0 -0.00021060832552578565 0.024079563971179652 0 -0.00024786622954660114 0.022276855366347801 0 -1.6748303641883999e-06 0.025815046532478382 0 -1.0174184884580003e-07 0.023281140530921163 0 -0.00021060832552578565 0.024079563971179652 0 -5.9865579573865575e-05 0.023831140440896421 0 -0.00021060832552578565 0.024079563971179652 0 -0.00032142398452286524 0.022994003270968719 0 -0.00021060832552578565 0.024079563971179652 0 -0.00032142398452286524 0.022994003270968719 0 -0.00024786622954660114 0.022276855366347801 0 -0.00024191113390534028 0.021465148647965823 0 -0.00032142398452286524 0.022994003270968719 0 -0.00024786622954660114 0.022276855366347801 0 -0.00079914379048614897 0.021925220248240847 0 -0.00032142398452286524 0.022994003270968719 0 -0.00048823215460167197 0.022190542086055514 0 -0.00053919437574970078 0.021739192901872682 0 -0.00031216498275786855 0.022767343227608816 0 -5.9865579573865575e-05 0.023831140440896421 0 -0.00032142398452286524 0.022994003270968719 0 -0.00024383937250027006 0.022506560924540592 0 -0.00032142398452286524 0.022994003270968719 0 -0.00048823215460167197 0.022190542086055514 0 -0.00024383937250027006 0.022506560924540592 0 -1.0964653318512677e-05 0.021854421389761996 0 -0.00024383937250027006 0.022506560924540592 0 -0.00049302546709601477 0.021539950225619064 0 -0.00048823215460167197 0.022190542086055514 0 -0.00024383937250027006 0.022506560924540592 0 -0.00049302546709601477 0.021539950225619064 0 -0.00079914379048614897 0.021925220248240847 0 -0.00048823215460167197 0.022190542086055514 0 -0.00049302546709601477 0.021539950225619064 0 -0.00045743403320263281 0.02088265125815375 0 -0.00049302546709601477 0.021539950225619064 0 -0.00033576062182438576 0.021066386157888323 0 -0.00045743403320263281 0.02088265125815375 0 -0.00032819589616367548 0.021056223512440499 0 -0.00033576062182438576 0.021066386157888323 0 -0.00033576062182438576 0.021066386157888323 0 -0.00012235793359961008 0.02119588099736245 0 -0.00024868181703056001 0.021094740641930274 0 -0.00033576062182438576 0.021066386157888323 0 -0.00018839478461025696 0.021404715870617846 0 -0.00012235793359961008 0.02119588099736245 0 -0.00049302546709601477 0.021539950225619064 0 -0.00033576062182438576 0.021066386157888323 0 -0.00018839478461025696 0.021404715870617846 0 -1.0964653318512677e-05 0.021854421389761996 0 -0.00049302546709601477 0.021539950225619064 0 -0.00018839478461025696 0.021404715870617846 0 -0.00018839478461025696 0.021404715870617846 0 0.00014741679029401002 0.021509380372344081 0 -0.00012235793359961008 0.02119588099736245 0 -1.0964653318512677e-05 0.021854421389761996 0 -0.00018839478461025696 0.021404715870617846 0 0.00014741679029401002 0.021509380372344081 0 0.00014741679029401002 0.021509380372344081 0 0.00049411774489493932 0.021622437403701261 0 0.00054793164468206715 0.021336666659183146 0 0.00039026594724161933 0.022116195019066743 0 0.00014741679029401002 0.021509380372344081 0 0.00049411774489493932 0.021622437403701261 0 1.6918911202314028e-05 0.021234272314600251 0 6.8978926775420908e-05 0.021178967231271818 0 6.2916530715743654e-06 0.021205955548793107 0 0.00014741679029401002 0.021509380372344081 0 0.00054793164468206715 0.021336666659183146 0 6.8978926775420908e-05 0.021178967231271818 0 3.6201144215001006e-05 0.021160559815213975 0 0.00018826625418370845 0.021242573900175761 0 0.00014741679029401002 0.021509380372344081 0 6.8978926775420908e-05 0.021178967231271818 0 -0.00012235793359961008 0.02119588099736245 0 6.8978926775420908e-05 0.021178967231271818 0 -0.00012235793359961008 0.02119588099736245 0 -0.0001072901720741169 0.021135156369172955 0 6.8978926775420908e-05 0.021178967231271818 0 -0.0001072901720741169 0.021135156369172955 0 -7.1925169629397185e-05 0.021149323465048643 0 -0.0001072901720741169 0.021135156369172955 0 -7.1925169629397185e-05 0.021149323465048643 0 -0.00017236759581600527 0.021112445019749626 0 6.8978926775420908e-05 0.021178967231271818 0 -7.1925169629397185e-05 0.021149323465048643 0 6.2916530715743654e-06 0.021205955548793107 0 -7.1925169629397185e-05 0.021149323465048643 0 6.2916530715743654e-06 0.021205955548793107 0 -2.3232176897906294e-05 0.021181957146159676 0 2.0994631449374552e-05 0.021232830319057299 0 6.2916530715743654e-06 0.021205955548793107 0 -2.3232176897906294e-05 0.021181957146159676 0 -7.1925169629397185e-05 0.021149323465048643 0 -2.3232176897906294e-05 0.021181957146159676 0 -9.3981934579649625e-05 0.021140907387540681 0 -2.3232176897906294e-05 0.021181957146159676 0 -9.3981934579649625e-05 0.021140907387540681 0 -6.361575172102235e-05 0.02114518853883315 0 -7.1925169629397185e-05 0.021149323465048643 0 -0.00018066164852587898 0.021112018440078505 0 -0.00017236759581600527 0.021112445019749626 0 -7.1925169629397185e-05 0.021149323465048643 0 -9.3981934579649625e-05 0.021140907387540681 0 -0.00018066164852587898 0.021112018440078505 0 -0.00018066164852587898 0.021112018440078505 0 -0.00025569966080796051 0.021092902404512639 0 -0.00028335408890165366 0.02109144862723087 0 -0.00018066164852587898 0.021112018440078505 0 -0.00025569966080796051 0.021092902404512639 0 -0.00017236759581600527 0.021112445019749626 0 -0.00025569966080796051 0.021092902404512639 0 -0.00029855966268044936 0.021078357131570181 0 -0.00028335408890165366 0.02109144862723087 0 -0.00032819589616367548 0.021056223512440499 0 -0.00025569966080796051 0.021092902404512639 0 -0.00029855966268044936 0.021078357131570181 0 -0.00032819589616367548 0.021056223512440499 0 -0.00025569966080796051 0.021092902404512639 0 -0.00024868181703056001 0.021094740641930274 0 -0.00032819589616367548 0.021056223512440499 0 -0.00033576062182438576 0.021066386157888323 0 -0.00024868181703056001 0.021094740641930274 0 -0.00012235793359961008 0.02119588099736245 0 -0.0001072901720741169 0.021135156369172955 0 -0.00024868181703056001 0.021094740641930274 0 -0.0001072901720741169 0.021135156369172955 0 -0.00024868181703056001 0.021094740641930274 0 -0.00017236759581600527 0.021112445019749626 0 -0.00025569966080796051 0.021092902404512639 0 -0.00024868181703056001 0.021094740641930274 0 -0.00017236759581600527 0.021112445019749626 0 -0.00028512072019827047 0.021085276889449295 0 -0.00021298728842259162 0.021074414120156447 0 -0.00021911336461447555 0.021098282519523642 0 -0.00028512072019827047 0.021085276889449295 0 -0.00021298728842259162 0.021074414120156447 0 -0.0002881439534052188 0.021055326081639111 0 -0.00028512072019827047 0.021085276889449295 0 -0.0002881439534052188 0.021055326081639111 0 -0.00035082262563098981 0.021068030172940459 0 -0.00045713581966581759 0.021071585374274487 0 -0.00035082262563098981 0.021068030172940459 0 -0.00034248813369578307 0.021090679263985581 0 -0.00028512072019827047 0.021085276889449295 0 -0.00035082262563098981 0.021068030172940459 0 -0.00034248813369578307 0.021090679263985581 0 -0.00031869270652382884 0.021080787196022563 0 -0.00029855966268044936 0.021078357131570181 0 -0.00028335408890165366 0.02109144862723087 0 -0.00031869270652382884 0.021080787196022563 0 -0.00034248813369578307 0.021090679263985581 0 -0.00028335408890165366 0.02109144862723087 0 -0.00028512072019827047 0.021085276889449295 0 -0.00034248813369578307 0.021090679263985581 0 -0.00028335408890165366 0.02109144862723087 0 -0.00018066164852587898 0.021112018440078505 0 -0.00028335408890165366 0.02109144862723087 0 -0.00021911336461447555 0.021098282519523642 0 -0.00028512072019827047 0.021085276889449295 0 -0.00028335408890165366 0.02109144862723087 0 -0.00021911336461447555 0.021098282519523642 0 -0.00018066164852587898 0.021112018440078505 0 -0.00021911336461447555 0.021098282519523642 0 -0.00013904274004603143 0.021111881017297565 0 -9.3981934579649625e-05 0.021140907387540681 0 -0.00018066164852587898 0.021112018440078505 0 -0.00013904274004603143 0.021111881017297565 0 -0.00013904274004603143 0.021111881017297565 0 -6.361575172102235e-05 0.02114518853883315 0 -5.7465523301282413e-05 0.021115781317764443 0 -2.3232176897906294e-05 0.021181957146159676 0 -6.361575172102235e-05 0.02114518853883315 0 -7.6988303928952554e-06 0.021168374860229988 0 -9.3981934579649625e-05 0.021140907387540681 0 -0.00013904274004603143 0.021111881017297565 0 -6.361575172102235e-05 0.02114518853883315 0 -6.361575172102235e-05 0.02114518853883315 0 -5.7465523301282413e-05 0.021115781317764443 0 -7.6988303928952554e-06 0.021168374860229988 0 -0.00013904274004603143 0.021111881017297565 0 -5.7465523301282413e-05 0.021115781317764443 0 -0.00012989055099676771 0.02107606451290879 0 -5.7465523301282413e-05 0.021115781317764443 0 -0.00012989055099676771 0.02107606451290879 0 -4.6402789691787724e-05 0.021071923896779469 0 -0.00021298728842259162 0.021074414120156447 0 -0.00013904274004603143 0.021111881017297565 0 -0.00012989055099676771 0.02107606451290879 0 -0.00021298728842259162 0.021074414120156447 0 -0.00021911336461447555 0.021098282519523642 0 -0.00013904274004603143 0.021111881017297565 0 -0.00021298728842259162 0.021074414120156447 0 -0.00012989055099676771 0.02107606451290879 0 -0.0001831192458964614 0.021045817715157979 0 -0.0001831192458964614 0.021045817715157979 0 -0.00014319561356583224 0.021022189879223888 0 -0.00024719289828625845 0.021007232902442753 0 -0.00021298728842259162 0.021074414120156447 0 -0.0001831192458964614 0.021045817715157979 0 -0.00024719289828625845 0.021007232902442753 0 -0.00012989055099676771 0.02107606451290879 0 -0.0001831192458964614 0.021045817715157979 0 -0.00014319561356583224 0.021022189879223888 0 -0.00012989055099676771 0.02107606451290879 0 -0.00014319561356583224 0.021022189879223888 0 -4.6402789691787724e-05 0.021071923896779469 0 -0.00014319561356583224 0.021022189879223888 0 -4.6402789691787724e-05 0.021071923896779469 0 -7.1389101493901164e-05 0.020987440671980363 0 -4.6402789691787724e-05 0.021071923896779469 0 -7.1389101493901164e-05 0.020987440671980363 0 1.8366355587750912e-05 0.021005777696621417 0 -7.1389101493901164e-05 0.020987440671980363 0 -0.00020224492946758582 0.02092602764810747 0 -6.7619010260391174e-05 0.020899314582896105 0 -7.1389101493901164e-05 0.020987440671980363 0 -6.7619010260391174e-05 0.020899314582896105 0 1.8366355587750912e-05 0.021005777696621417 0 -0.00014319561356583224 0.021022189879223888 0 -0.00020224492946758582 0.02092602764810747 0 -0.00024719289828625845 0.021007232902442753 0 -0.00014319561356583224 0.021022189879223888 0 -7.1389101493901164e-05 0.020987440671980363 0 -0.00020224492946758582 0.02092602764810747 0 -0.00020224492946758582 0.02092602764810747 0 -0.0003348749717461533 0.020930333572216318 0 -0.00024719289828625845 0.021007232902442753 0 -0.00020224492946758582 0.02092602764810747 0 -0.0003348749717461533 0.020930333572216318 0 -0.00033089430303455733 0.020818402549421439 0 -0.00021298728842259162 0.021074414120156447 0 -0.0002881439534052188 0.021055326081639111 0 -0.00024719289828625845 0.021007232902442753 0 -0.0003348749717461533 0.020930333572216318 0 -0.00024719289828625845 0.021007232902442753 0 -0.00034471433980281542 0.021014705984535073 0 -0.0002881439534052188 0.021055326081639111 0 -0.00024719289828625845 0.021007232902442753 0 -0.00034471433980281542 0.021014705984535073 0 -0.00045713581966581759 0.021071585374274487 0 -0.00035082262563098981 0.021068030172940459 0 -0.00042239246339079959 0.021031369265443144 0 -0.00035082262563098981 0.021068030172940459 0 -0.00042239246339079959 0.021031369265443144 0 -0.00034471433980281542 0.021014705984535073 0 -0.0002881439534052188 0.021055326081639111 0 -0.00035082262563098981 0.021068030172940459 0 -0.00034471433980281542 0.021014705984535073 0 -0.00042239246339079959 0.021031369265443144 0 -0.00034471433980281542 0.021014705984535073 0 -0.00043484840510800166 0.020954467667218056 0 -0.0003348749717461533 0.020930333572216318 0 -0.00034471433980281542 0.021014705984535073 0 -0.00043484840510800166 0.020954467667218056 0 -0.0003348749717461533 0.020930333572216318 0 -0.00043484840510800166 0.020954467667218056 0 -0.00044695754974593491 0.02084101441507628 0 -0.00056087640992099036 0.02087192437450594 0 -0.00043484840510800166 0.020954467667218056 0 -0.00044695754974593491 0.02084101441507628 0 -0.00044695754974593491 0.02084101441507628 0 -0.00033089430303455733 0.020818402549421439 0 -0.00049904502293001394 0.020675890682000327 0 -0.0003348749717461533 0.020930333572216318 0 -0.00044695754974593491 0.02084101441507628 0 -0.00033089430303455733 0.020818402549421439 0 -0.00056212960713574638 0.020752332412805392 0 -0.00044695754974593491 0.02084101441507628 0 -0.00049904502293001394 0.020675890682000327 0 -0.00033089430303455733 0.020818402549421439 0 -0.00032080367762681678 0.020676810255644901 0 -0.00020306150450552775 0.020831632265806484 0 -0.00033089430303455733 0.020818402549421439 0 -0.00032080367762681678 0.020676810255644901 0 -0.00049904502293001394 0.020675890682000327 0 -0.00032080367762681678 0.020676810255644901 0 -0.00049904502293001394 0.020675890682000327 0 -0.00045404243283715326 0.020528835533830746 0 -0.00061616507910254006 0.020541009033268477 0 -0.00045404243283715326 0.020528835533830746 0 -0.00059658696410367794 0.020434478724816418 0 -0.00045404243283715326 0.020528835533830746 0 -0.00059658696410367794 0.020434478724816418 0 -0.00054005218918996302 0.020352216647113102 0 -0.00061616507910254006 0.020541009033268477 0 -0.00049904502293001394 0.020675890682000327 0 -0.00045404243283715326 0.020528835533830746 0 -0.00032080367762681678 0.020676810255644901 0 -0.00045404243283715326 0.020528835533830746 0 -0.00026100404862672755 0.020527646675635801 0 -0.00045404243283715326 0.020528835533830746 0 -0.00040912203982816463 0.020400139356894508 0 -0.00026100404862672755 0.020527646675635801 0 -0.00045404243283715326 0.020528835533830746 0 -0.00040912203982816463 0.020400139356894508 0 -0.00054005218918996302 0.020352216647113102 0 -0.00040912203982816463 0.020400139356894508 0 -0.00026100404862672755 0.020527646675635801 0 -0.00030476406661695594 0.02026732715939317 0 -0.00040912203982816463 0.020400139356894508 0 -0.00030476406661695594 0.02026732715939317 0 -0.00047280792986909275 0.020245720725819101 0 -0.00040912203982816463 0.020400139356894508 0 -0.00054005218918996302 0.020352216647113102 0 -0.00047280792986909275 0.020245720725819101 0 -0.00066292411457209027 0.020319762673979249 0 -0.00054005218918996302 0.020352216647113102 0 -0.00065290931083679491 0.02013799341113616 0 -0.00066292411457209027 0.020319762673979249 0 -0.00059658696410367794 0.020434478724816418 0 -0.00054005218918996302 0.020352216647113102 0 -6.4090293687234882e-05 0.020611724965085142 0 9.3834394012055021e-05 0.020418827862552114 0 -7.8512542803599157e-05 0.020297514334176172 0 -0.00026100404862672755 0.020527646675635801 0 -0.00030476406661695594 0.02026732715939317 0 -7.8512542803599157e-05 0.020297514334176172 0 -0.00026100404862672755 0.020527646675635801 0 -6.4090293687234882e-05 0.020611724965085142 0 -7.8512542803599157e-05 0.020297514334176172 0 -0.00026100404862672755 0.020527646675635801 0 -6.4090293687234882e-05 0.020611724965085142 0 -0.00016442973444397998 0.020740909146192685 0 -0.00032080367762681678 0.020676810255644901 0 -0.00026100404862672755 0.020527646675635801 0 -0.00016442973444397998 0.020740909146192685 0 -6.4090293687234882e-05 0.020611724965085142 0 9.1704881114925286e-05 0.020782423748528348 0 9.3834394012055021e-05 0.020418827862552114 0 -6.4090293687234882e-05 0.020611724965085142 0 -2.3945450853710287e-05 0.02080347303557966 0 9.1704881114925286e-05 0.020782423748528348 0 -2.3945450853710287e-05 0.02080347303557966 0 -0.00016442973444397998 0.020740909146192685 0 -6.7619010260391174e-05 0.020899314582896105 0 -6.4090293687234882e-05 0.020611724965085142 0 -2.3945450853710287e-05 0.02080347303557966 0 -0.00016442973444397998 0.020740909146192685 0 -0.00032080367762681678 0.020676810255644901 0 -0.00016442973444397998 0.020740909146192685 0 -0.00020306150450552775 0.020831632265806484 0 -0.00016442973444397998 0.020740909146192685 0 -0.00020306150450552775 0.020831632265806484 0 -6.7619010260391174e-05 0.020899314582896105 0 -0.00020224492946758582 0.02092602764810747 0 -0.00020306150450552775 0.020831632265806484 0 -6.7619010260391174e-05 0.020899314582896105 0 -0.00020224492946758582 0.02092602764810747 0 -0.00033089430303455733 0.020818402549421439 0 -0.00020306150450552775 0.020831632265806484 0 -2.3945450853710287e-05 0.02080347303557966 0 -6.7619010260391174e-05 0.020899314582896105 0 6.6786809447706962e-05 0.020894114906614226 0 -6.7619010260391174e-05 0.020899314582896105 0 6.6786809447706962e-05 0.020894114906614226 0 1.8366355587750912e-05 0.021005777696621417 0 6.6786809447706962e-05 0.020894114906614226 0 0.00010346747584312978 0.020990764441267899 0 0.00014578198058360142 0.020947456691420563 0 6.6786809447706962e-05 0.020894114906614226 0 0.00010346747584312978 0.020990764441267899 0 1.8366355587750912e-05 0.021005777696621417 0 6.6786809447706962e-05 0.020894114906614226 0 0.00012655459596904795 0.020866057416378959 0 0.00014578198058360142 0.020947456691420563 0 6.6786809447706962e-05 0.020894114906614226 0 9.1704881114925286e-05 0.020782423748528348 0 0.00012655459596904795 0.020866057416378959 0 -2.3945450853710287e-05 0.02080347303557966 0 6.6786809447706962e-05 0.020894114906614226 0 9.1704881114925286e-05 0.020782423748528348 0 9.1704881114925286e-05 0.020782423748528348 0 0.00012000429861651103 0.020842993820844199 0 0.0001350339777292397 0.02084873585940596 0 0.00010076336766344361 0.020766881495147164 0 0.00011103734669505072 0.020635122624475397 0 0.00012655459596904795 0.020866057416378959 0 0.00012000429861651103 0.020842993820844199 0 0.00015777090689503712 0.020871265634295446 0 9.1704881114925286e-05 0.020782423748528348 0 0.00012655459596904795 0.020866057416378959 0 0.00012000429861651103 0.020842993820844199 0 0.00015777090689503712 0.020871265634295446 0 0.00018477080592707042 0.020863411476113869 0 0.00014522515906009891 0.02084818332593524 0 0.00012000429861651103 0.020842993820844199 0 0.00015777090689503712 0.020871265634295446 0 0.00014522515906009891 0.02084818332593524 0 0.00012000429861651103 0.020842993820844199 0 0.0001350339777292397 0.02084873585940596 0 0.00014522515906009891 0.02084818332593524 0 0.00022600676336443314 0.020911853319268404 0 0.00015777090689503712 0.020871265634295446 0 0.00018477080592707042 0.020863411476113869 0 0.00012655459596904795 0.020866057416378959 0 0.00015777090689503712 0.020871265634295446 0 0.00018961742328830672 0.020922042378672085 0 0.00022600676336443314 0.020911853319268404 0 0.00015777090689503712 0.020871265634295446 0 0.00018961742328830672 0.020922042378672085 0 0.00022600676336443314 0.020911853319268404 0 0.00018961742328830672 0.020922042378672085 0 0.00027051848975260401 0.020979096960527337 0 0.00018961742328830672 0.020922042378672085 0 0.00021681353108053613 0.020988371775270645 0 0.00027051848975260401 0.020979096960527337 0 0.00012655459596904795 0.020866057416378959 0 0.00018961742328830672 0.020922042378672085 0 0.00014578198058360142 0.020947456691420563 0 0.00018961742328830672 0.020922042378672085 0 0.00021681353108053613 0.020988371775270645 0 0.00014578198058360142 0.020947456691420563 0 0.00021681353108053613 0.020988371775270645 0 0.00014578198058360142 0.020947456691420563 0 0.00017380806345109883 0.02104141463009665 0 0.00010346747584312978 0.020990764441267899 0 0.00014578198058360142 0.020947456691420563 0 0.00017380806345109883 0.02104141463009665 0 0.00021681353108053613 0.020988371775270645 0 0.00017380806345109883 0.02104141463009665 0 0.00027041520400760956 0.021059869026841961 0 0.00021845182163719544 0.021110266550729364 0 0.00017380806345109883 0.02104141463009665 0 0.00015877402689309429 0.021153597499299986 0 0.00021845182163719544 0.021110266550729364 0 0.00017380806345109883 0.02104141463009665 0 0.00027041520400760956 0.021059869026841961 0 0.00021845182163719544 0.021110266550729364 0 0.00015877402689309429 0.021153597499299986 0 0.00026783892331274051 0.021197681095096461 0 0.00015877402689309429 0.021153597499299986 0 0.00016638128833400005 0.021204274381068117 0 0.00018542632999659199 0.021215683580368874 0 -7.1577061132782846e-05 0.020807262968244582 0 0.00065008235908574775 0.025139484259579879 0 0.00015877402689309429 0.021153597499299986 0 0.00010183285310259175 0.021144995344040025 0 9.9986013489273569e-05 0.021074384348610604 0 0.00010346747584312978 0.020990764441267899 0 0.00017380806345109883 0.02104141463009665 0 9.9986013489273569e-05 0.021074384348610604 0 0.00017380806345109883 0.02104141463009665 0 0.00015877402689309429 0.021153597499299986 0 9.9986013489273569e-05 0.021074384348610604 0 0.00010346747584312978 0.020990764441267899 0 9.9986013489273569e-05 0.021074384348610604 0 1.8366355587750912e-05 0.021005777696621417 0 -4.6402789691787724e-05 0.021071923896779469 0 1.8366355587750912e-05 0.021005777696621417 0 4.2085339321366965e-05 0.021104805151670333 0 0.00010183285310259175 0.021144995344040025 0 9.9986013489273569e-05 0.021074384348610604 0 4.2085339321366965e-05 0.021104805151670333 0 9.9986013489273569e-05 0.021074384348610604 0 1.8366355587750912e-05 0.021005777696621417 0 4.2085339321366965e-05 0.021104805151670333 0 4.2085339321366965e-05 0.021104805151670333 0 6.0533230074636004e-05 0.021173484997193719 0 1.7346318371356619e-06 0.021132086079077073 0 0.00010183285310259175 0.021144995344040025 0 4.2085339321366965e-05 0.021104805151670333 0 6.0533230074636004e-05 0.021173484997193719 0 -4.6402789691787724e-05 0.021071923896779469 0 4.2085339321366965e-05 0.021104805151670333 0 1.7346318371356619e-06 0.021132086079077073 0 -5.7465523301282413e-05 0.021115781317764443 0 -4.6402789691787724e-05 0.021071923896779469 0 1.7346318371356619e-06 0.021132086079077073 0 -5.7465523301282413e-05 0.021115781317764443 0 1.7346318371356619e-06 0.021132086079077073 0 -7.6988303928952554e-06 0.021168374860229988 0 6.0533230074636004e-05 0.021173484997193719 0 1.7346318371356619e-06 0.021132086079077073 0 -7.6988303928952554e-06 0.021168374860229988 0 4.0748435114871749e-05 0.021215203648890978 0 6.0533230074636004e-05 0.021173484997193719 0 -7.6988303928952554e-06 0.021168374860229988 0 4.0748435114871749e-05 0.021215203648890978 0 6.0533230074636004e-05 0.021173484997193719 0 9.0413362730523518e-05 0.021225745999033478 0 9.0413362730523518e-05 0.021225745999033478 0 0.00013713973328183265 0.021256660817523171 0 0.00013582200686193541 0.02120654495017768 0 6.0533230074636004e-05 0.021173484997193719 0 9.0413362730523518e-05 0.021225745999033478 0 0.00013582200686193541 0.02120654495017768 0 0.0013054122709229296 0.028825670416832965 0 0.0011045545483803852 0.029083696667963597 0 0.001147953610223679 0.028802848551316953 0 0.0009047073505419178 0.02445576468158539 0 0.00096924343602182602 0.028908095413214211 0 0.00013713973328183265 0.021256660817523171 0 0.00013582200686193541 0.02120654495017768 0 0.00017880918554543184 0.021248868930960924 0 0.00015877402689309429 0.021153597499299986 0 0.00016638128833400005 0.021204274381068117 0 0.00013582200686193541 0.02120654495017768 0 0.00016638128833400005 0.021204274381068117 0 0.00013582200686193541 0.02120654495017768 0 0.00017880918554543184 0.021248868930960924 0 0.00010183285310259175 0.021144995344040025 0 6.0533230074636004e-05 0.021173484997193719 0 0.00013582200686193541 0.02120654495017768 0 0.00015877402689309429 0.021153597499299986 0 0.00010183285310259175 0.021144995344040025 0 0.00013582200686193541 0.02120654495017768 0 0.0010278480885978945 0.03607117971391622 0 0.0010178863305089214 0.036015431443435858 0 0.0010254245560711772 0.036029257428685388 0 0.0010278480885978945 0.03607117971391622 0 0.0010335862981507352 0.036094773853998514 0 0.0010254245560711772 0.036029257428685388 0 0.00096924343602182602 0.028908095413214211 0 0.00065008235908574775 0.025139484259579879 0 0.00096924343602182602 0.028908095413214211 0 0.0012200822931133792 0.033268556208418301 0 0.00016638128833400005 0.021204274381068117 0 0.00017880918554543184 0.021248868930960924 0 0.00018542632999659199 0.021215683580368874 0 0.0010178863305089214 0.036015431443435858 0 0.0010096017721132188 0.036044702224698084 0 0.0010209823509784389 0.036064588330091567 0 0.00096924343602182602 0.028908095413214211 0 0.0010280424569148923 0.033137784200215209 0 0.0010263006379860613 0.036105797888831531 0 0.0010278480885978945 0.03607117971391622 0 0.0010209823509784389 0.036064588330091567 0 0.0010278480885978945 0.03607117971391622 0 0.0010178863305089214 0.036015431443435858 0 0.0010209823509784389 0.036064588330091567 0 0.0010263006379860613 0.036105797888831531 0 0.0010278480885978945 0.03607117971391622 0 0.0010346455508617321 0.036118782004805478 0 0.0010348390610842022 0.036141222480024097 0 0.0010346455508617321 0.036118782004805478 0 0.0010393884477768445 0.036157348595546056 0 0.0010346455508617321 0.036118782004805478 0 0.0010335862981507352 0.036094773853998514 0 0.0010342064475564281 0.036153732602069895 0 0.0010278480885978945 0.03607117971391622 0 0.0010346455508617321 0.036118782004805478 0 0.0010335862981507352 0.036094773853998514 0 0.0010075907032538454 0.036821348378174787 0 0.0013898183153775764 0.037057509594156525 0 0.0018392554785279299 0.036816239979937659 0 0.0010075907032538454 0.036821348378174787 0 0.0013898183153775764 0.037057509594156525 0 0.0011069122672149735 0.037208916472830582 0 0.0010075907032538454 0.036821348378174787 0 0.00044440460648225436 0.036968619436752143 0 0.00019347269707255976 0.03683723124077122 0 0.0011256563127121204 0.036424898667782278 0 0.00033695253035853607 0.03991757721129343 0 0.0010075907032538454 0.036821348378174787 0 0.00076623082478893768 0.037137012549875101 0 0.00044440460648225436 0.036968619436752143 0 0.0010075907032538454 0.036821348378174787 0 0.00076623082478893768 0.037137012549875101 0 0.0011069122672149735 0.037208916472830582 0 0.00076623082478893768 0.037137012549875101 0 0.00048300786675701347 0.037344261495310858 0 0.00044440460648225436 0.036968619436752143 0 0.00076623082478893768 0.037137012549875101 0 0.00080124346191966678 0.037380342762507394 0 0.00048300786675701347 0.037344261495310858 0 0.00076623082478893768 0.037137012549875101 0 0.00080124346191966678 0.037380342762507394 0 0.0011069122672149735 0.037208916472830582 0 0.00080124346191966678 0.037380342762507394 0 0.0010662658575391311 0.037641925741451025 0 0.00061963566460984741 0.037647732556248162 0 0.00080124346191966678 0.037380342762507394 0 0.00061963566460984741 0.037647732556248162 0 0.00048300786675701347 0.037344261495310858 0 0.0013898183153775764 0.037057509594156525 0 0.0011069122672149735 0.037208916472830582 0 0.0014264664688849499 0.037406749709692405 0 0.00080124346191966678 0.037380342762507394 0 0.0011069122672149735 0.037208916472830582 0 0.0010662658575391311 0.037641925741451025 0 0.0011069122672149735 0.037208916472830582 0 0.0014264664688849499 0.037406749709692405 0 0.0010662658575391311 0.037641925741451025 0 0.0015628793382621246 0.034136124464318074 0 0.0011158747660928094 0.033915856464859999 0 0.00094437123819082454 0.029673445374376238 0 0.00088854655183394447 0.02956261278518273 0 0.0010878165781942734 0.029413403590482719 0 0.0014264664688849499 0.037406749709692405 0 0.001606436137480454 0.037156046900401266 0 0.0014968905578728008 0.037799070987711673 0 0.00094437123819082454 0.029673445374376238 0 0.00088854655183394447 0.02956261278518273 0 0.00081936187421517454 0.029786113933440151 0 0.0013898183153775764 0.037057509594156525 0 0.0014264664688849499 0.037406749709692405 0 0.0015870209705513164 0.037181865457409286 0 0.00074855662783500929 0.037008870874274409 0 0.0015628793382621246 0.034136124464318074 0 0.00088854655183394447 0.02956261278518273 0 0.0009788907483711533 0.029424032773173969 0 0.0010878165781942734 0.029413403590482719 0 0.0013898183153775764 0.037057509594156525 0 0.0015870209705513164 0.037181865457409286 0 0.0018392554785279299 0.036816239979937659 0 0.0011256563127121204 0.036424898667782278 0 0.0012200822931133792 0.033268556208418301 0 0.0015628793382621246 0.034136124464318074 0 0.0012200822931133792 0.033268556208418301 0 0.0014145590247067348 0.028969251563571594 0 0.00098250714393042279 0.029561728989075952 0 0.0013425289220411897 0.029573925679798715 0 0.0012200822931133792 0.033268556208418301 0 0.00065008235908574775 0.025139484259579879 0 0.00021845182163719544 0.021110266550729364 0 0.00026783892331274051 0.021197681095096461 0 0.00027041520400760956 0.021059869026841961 0 0.00094437123819082454 0.029673445374376238 0 0.0010878165781942734 0.029413403590482719 0 0.0010388707977650963 0.029748658710669701 0 0.00065008235908574775 0.025139484259579879 0 0.00066785214363148 0.025489378238706239 0 0.0010388707977650963 0.029748658710669701 0 0.0010434218587978372 0.029756676755674248 0 0.0010685056651875411 0.029676796445402786 0 0.00094437123819082454 0.029673445374376238 0 0.0010388707977650963 0.029748658710669701 0 0.0010434218587978372 0.029756676755674248 0 0.00081936187421517454 0.029786113933440151 0 0.0010434218587978372 0.029756676755674248 0 0.00074627645822668027 0.030260005979935209 0 0.00094437123819082454 0.029673445374376238 0 0.00081936187421517454 0.029786113933440151 0 0.0010434218587978372 0.029756676755674248 0 0.001265177844366981 0.028780128001929656 0 0.0011952464822031525 0.032974604597368382 0 0.0011158747660928094 0.033915856464859999 0 0.0011952464822031525 0.032974604597368382 0 0.0010434218587978372 0.029756676755674248 0 0.0010685056651875411 0.029676796445402786 0 0.0011670440444088747 0.029636478944023714 0 0.0010685056651875411 0.029676796445402786 0 0.0011013953515003746 0.029624798644129851 0 0.0010265888085456108 0.029575461953190246 0 0.0010685056651875411 0.029676796445402786 0 0.0011013953515003746 0.029624798644129851 0 0.0011670440444088747 0.029636478944023714 0 0.0011013953515003746 0.029624798644129851 0 0.0011200619601433905 0.029586965773964344 0 0.0011670440444088747 0.029636478944023714 0 0.0010388707977650963 0.029748658710669701 0 0.0010685056651875411 0.029676796445402786 0 0.0010265888085456108 0.029575461953190246 0 0.00021681353108053613 0.020988371775270645 0 0.00027041520400760956 0.021059869026841961 0 0.00027051848975260401 0.020979096960527337 0 0.00066785214363148 0.025489378238706239 0 0.00055452702612984663 0.025022719930227658 0 0.0011055889661767601 0.029504882601527612 0 0.0011318615159833646 0.02943101428490931 0 0.00118302972123442 0.029576063869952412 0 0.0010265888085456108 0.029575461953190246 0 0.0011200619601433905 0.029586965773964344 0 0.0011055889661767601 0.029504882601527612 0 0.00084875254437945052 0.032389886804580353 0 0.00096187387198842593 0.033086118847302462 0 0.0011013953515003746 0.029624798644129851 0 0.0010265888085456108 0.029575461953190246 0 0.0011200619601433905 0.029586965773964344 0 0.0011200619601433905 0.029586965773964344 0 0.00118302972123442 0.029576063869952412 0 0.0011670440444088747 0.029636478944023714 0 0.0011200619601433905 0.029586965773964344 0 0.0011055889661767601 0.029504882601527612 0 0.00118302972123442 0.029576063869952412 0 0.0011055889661767601 0.029504882601527612 0 0.0011318615159833646 0.02943101428490931 0 0.0010614022151418632 0.02934925317223366 0 0.0010265888085456108 0.029575461953190246 0 0.0011055889661767601 0.029504882601527612 0 0.0010614022151418632 0.02934925317223366 0 0.00084875254437945052 0.032389886804580353 0 0.001069174116118129 0.035391020844878045 0 0.00056975254469449586 0.04297595317449894 0 -4.766927153456345e-05 0.042689932623682682 0 0.00025648602984221989 0.043265151492359322 0 0.0018555369562229104 0.033725280976282183 0 0.00036020883139267583 0.039934722227124478 0 0.00096350808655210605 0.035566862390315028 0 0.00082608199116479531 0.035340879200084115 0 0.0013370488761832897 0.035583984425563292 0 0.00084875254437945052 0.032389886804580353 0 0.0018555369562229104 0.033725280976282183 0 0.0011318615159833646 0.02943101428490931 0 0.0011018805507418388 0.029374687782349695 0 0.0010614022151418632 0.02934925317223366 0 0.0018555369562229104 0.033725280976282183 0 0.0014294848457860564 0.026250678700213394 0 0.00022600676336443314 0.020911853319268404 0 0.00027051848975260401 0.020979096960527337 0 0.00029042138578813247 0.020928588778191339 0 0.00055452702612984663 0.025022719930227658 0 0.0014294848457860564 0.026250678700213394 0 1.107988749303953e-05 0.040650161144643392 0 -0.0005542877291403143 0.044011121152884955 0 -0.00060438683370425119 0.04239509063292541 0 -0.0012765491873918469 0.043220991852868221 0 -0.00065930056347667844 0.043052823999337478 0 -0.00060438683370425119 0.04239509063292541 0 -0.00035128785199947546 0.042830753013723723 0 -0.00065930056347667844 0.043052823999337478 0 -0.00035128785199947546 0.042830753013723723 0 -0.00011778728699171804 0.043173987011314481 0 -0.00065930056347667844 0.043052823999337478 0 -0.00035128785199947546 0.042830753013723723 0 -2.1710501056490231e-05 0.042648360260463099 0 -0.00011778728699171804 0.043173987011314481 0 0.00036020883139267583 0.039934722227124478 0 -0.0001890077805044956 0.043472020959591094 0 0.00036020883139267583 0.039934722227124478 0 0.001069174116118129 0.035391020844878045 0 0.00096350808655210605 0.035566862390315028 0 0.0013370488761832897 0.035583984425563292 0 0.0012615344147054433 0.036039047445206578 0 1.107988749303953e-05 0.040650161144643392 0 0.00036020883139267583 0.039934722227124478 0 -0.00060438683370425119 0.04239509063292541 0 -0.00035128785199947546 0.042830753013723723 0 -2.1710501056490231e-05 0.042648360260463099 0 -0.00065567716271508968 0.038747835047652925 0 0.00097016590953422218 0.039456311484676515 0 0.000554387993536212 0.038283432605475932 0 1.107988749303953e-05 0.040650161144643392 0 0.0010252897226980711 0.036355164419600509 0 0.00089124706799489201 0.03908534228239393 0 0.0012527966792890502 0.03864039988312435 0 0.0010495902918386203 0.038566038507714541 0 -0.00065567716271508968 0.038747835047652925 0 0.000554387993536212 0.038283432605475932 0 0.00082028478574901751 0.036966424748211962 0 0.00055075301391548938 0.03265417169151609 0 0.0013721526494076515 0.03394588055774455 0 0.0013208484278094024 0.034260244668643296 0 0.00097016590953422218 0.039456311484676515 0 0.000554387993536212 0.038283432605475932 0 0.0012689185526893931 0.037683278954592593 0 0.000554387993536212 0.038283432605475932 0 0.0012689185526893931 0.037683278954592593 0 0.00082028478574901751 0.036966424748211962 0 0.00096187387198842593 0.033086118847302462 0 0.0011952464822031525 0.032974604597368382 0 0.00098208776662551847 0.034228935682304201 0 0.00089958986805278624 0.034049491354013584 0 0.001048490962216208 0.033874344771420581 0 0.001069174116118129 0.035391020844878045 0 0.00096187387198842593 0.033086118847302462 0 0.00087180492568227975 0.034567992883053282 0 0.00080570741359815975 0.034972869234397665 0 0.0012955091098830708 0.035237639114628828 0 0.001069174116118129 0.035391020844878045 0 0.0010252897226980711 0.036355164419600509 0 0.0012527966792890502 0.03864039988312435 0 0.0013189046015959392 0.038562372854893869 0 0.0011854821784542456 0.038512538523339454 0 0.00080570741359815975 0.034972869234397665 0 0.0012955091098830708 0.035237639114628828 0 0.0010640234710774139 0.035515530458705202 0 0.0010252897226980711 0.036355164419600509 0 0.0011386753894286616 0.035768321494252457 0 0.00096187387198842593 0.033086118847302462 0 0.0011386753894286616 0.035768321494252457 0 0.0012527966792890502 0.03864039988312435 0 0.0010495902918386203 0.038566038507714541 0 0.0011854821784542456 0.038512538523339454 0 0.00089124706799489201 0.03908534228239393 0 0.0007062571475422388 0.038575670172312837 0 0.00011949204753352575 0.038761272822222567 0 0.00089124706799489201 0.03908534228239393 0 0.0010495902918386203 0.038566038507714541 0 0.0007062571475422388 0.038575670172312837 0 1.107988749303953e-05 0.040650161144643392 0 -0.00030067086355321354 0.042403658276327624 0 0.00092214349809294704 0.038247319973771197 0 0.0012227556238722762 0.037996911638605649 0 0.00075509165764130074 0.037952520223744068 0 0.0007062571475422388 0.038575670172312837 0 0.00092214349809294704 0.038247319973771197 0 0.0005312387103985815 0.038281476704274842 0 0.0010495902918386203 0.038566038507714541 0 0.0007062571475422388 0.038575670172312837 0 0.00092214349809294704 0.038247319973771197 0 0.00092214349809294704 0.038247319973771197 0 0.0005312387103985815 0.038281476704274842 0 0.00075509165764130074 0.037952520223744068 0 0.0014968905578728008 0.037799070987711673 0 0.0013903653026875497 0.038385884641798207 0 0.0012227556238722762 0.037996911638605649 0 0.0011386753894286616 0.035768321494252457 0 0.0011952464822031525 0.032974604597368382 0 0.0012950400312256806 0.038487040441438747 0 0.0013903653026875497 0.038385884641798207 0 0.001200584090666074 0.038326180813771669 0 0.0011386753894286616 0.035768321494252457 0 0.0016934049443712322 0.038023869821182832 0 0.0013189046015959392 0.038562372854893869 0 0.001200584090666074 0.038326180813771669 0 0.0011854821784542456 0.038512538523339454 0 0.0010495902918386203 0.038566038507714541 0 0.00092214349809294704 0.038247319973771197 0 0.001200584090666074 0.038326180813771669 0 0.0010495902918386203 0.038566038507714541 0 0.001200584090666074 0.038326180813771669 0 0.0011854821784542456 0.038512538523339454 0 0.00092214349809294704 0.038247319973771197 0 0.001200584090666074 0.038326180813771669 0 0.0012227556238722762 0.037996911638605649 0 0.0013903653026875497 0.038385884641798207 0 0.001200584090666074 0.038326180813771669 0 0.0012227556238722762 0.037996911638605649 0 0.0012227556238722762 0.037996911638605649 0 0.0010662658575391311 0.037641925741451025 0 0.00075509165764130074 0.037952520223744068 0 0.0014968905578728008 0.037799070987711673 0 0.0012227556238722762 0.037996911638605649 0 0.0010662658575391311 0.037641925741451025 0 0.0014264664688849499 0.037406749709692405 0 0.0014968905578728008 0.037799070987711673 0 0.0010662658575391311 0.037641925741451025 0 0.0010662658575391311 0.037641925741451025 0 0.00075509165764130074 0.037952520223744068 0 0.00061963566460984741 0.037647732556248162 0 0.0005312387103985815 0.038281476704274842 0 0.00075509165764130074 0.037952520223744068 0 0.00015509602409145555 0.037876737436603775 0 0.00075509165764130074 0.037952520223744068 0 0.00061963566460984741 0.037647732556248162 0 0.00015509602409145555 0.037876737436603775 0 6.9809270299127558e-05 0.044852885207638603 0 3.3745005281509357e-05 0.044885262106445847 0 3.9429562243207109e-05 0.044843072003291087 0 3.3745005281509357e-05 0.044885262106445847 0 9.8039665697276926e-06 0.044889979366382407 0 3.9429562243207109e-05 0.044843072003291087 0 3.3745005281509357e-05 0.044885262106445847 0 4.4096554510211964e-05 0.044884186797568143 0 2.2360001822215524e-05 0.044903835228971414 0 6.9809270299127558e-05 0.044852885207638603 0 3.3745005281509357e-05 0.044885262106445847 0 4.4096554510211964e-05 0.044884186797568143 0 0.00014089051876579385 0.041273799895364865 0 -0.00030067086355321354 0.042403658276327624 0 0.0005312387103985815 0.038281476704274842 0 0.00015509602409145555 0.037876737436603775 0 0.00011949204753352575 0.038761272822222567 0 0.0007062571475422388 0.038575670172312837 0 0.0005312387103985815 0.038281476704274842 0 0.00011949204753352575 0.038761272822222567 0 -0.00048729771156450879 0.044690775702080715 0 -0.00023511653152781309 0.044619096258346723 0 -0.00020373777691634092 0.044824161827721608 0 -0.00048729771156450879 0.044690775702080715 0 -0.00023511653152781309 0.044619096258346723 0 -0.00048475978268308189 0.044394424851578212 0 -0.00030067086355321354 0.042403658276327624 0 4.8870236611656217e-05 0.045067251452702455 0 -0.00012318089709224673 0.044848165856912696 0 -0.00043183375849143921 0.044266789936312334 0 -7.3392843389472387e-05 0.044982602051609151 0 -0.00013586419896172023 0.044851160120923689 0 -0.00022201549621106678 0.044865924899395303 0 -7.3392843389472387e-05 0.044982602051609151 0 -0.00013586419896172023 0.044851160120923689 0 -5.3578181566736934e-05 0.044885739472063056 0 -0.00013586419896172023 0.044851160120923689 0 -0.00022201549621106678 0.044865924899395303 0 -0.00021636153557231183 0.044755791202349508 0 -0.00043183375849143921 0.044266789936312334 0 -0.00033541568850690268 0.04477747804190331 0 0.00020846722553721924 0.042569126624930974 0 -0.00059817584154332423 0.042842925257346828 0 -0.00025153721263281129 0.043134003430486262 0 0.00020846722553721924 0.042569126624930974 0 -0.00058716133175817659 0.042230771226980768 0 -0.00059817584154332423 0.042842925257346828 0 -0.00030067086355321354 0.042403658276327624 0 -0.00043183375849143921 0.044266789936312334 0 -0.00043183375849143921 0.044266789936312334 0 -0.0005542877291403143 0.044011121152884955 0 -1.3888871490795969e-05 0.04496108404243071 0 3.5847413149584807e-08 0.044999949930749579 0 1.9722412648203221e-05 0.044912965658817305 0 -1.3888871490795969e-05 0.04496108404243071 0 -5.3578181566736934e-05 0.044885739472063056 0 1.9722412648203221e-05 0.044912965658817305 0 -7.3392843389472387e-05 0.044982602051609151 0 -1.3888871490795969e-05 0.04496108404243071 0 -5.3578181566736934e-05 0.044885739472063056 0 -0.00012318089709224673 0.044848165856912696 0 -4.6901977976748762e-05 0.04490987875184449 0 -7.3392843389472387e-05 0.044982602051609151 0 -1.3888871490795969e-05 0.04496108404243071 0 -9.3283920350835695e-06 0.04500523727545206 0 -0.00023511653152781309 0.044619096258346723 0 -4.866279019590957e-05 0.044838139558815007 0 -0.00020373777691634092 0.044824161827721608 0 -1.3888871490795969e-05 0.04496108404243071 0 3.5847413149584807e-08 0.044999949930749579 0 -9.3283920350835695e-06 0.04500523727545206 0 3.5847413149584807e-08 0.044999949930749579 0 -2.4830150953484077e-08 0.045000039253398134 0 -9.3283920350835695e-06 0.04500523727545206 0 -2.357253805154623e-05 0.044927143503564276 0 5.5684937360279001e-08 0.044999738268683913 0 -4.866279019590957e-05 0.044838139558815007 0 -2.2095247174725727e-10 0.044999973836657541 0 -4.6901977976748762e-05 0.04490987875184449 0 -9.5104127406370802e-05 0.04487042952235068 0 4.8870236611656217e-05 0.045067251452702455 0 -2.357253805154623e-05 0.044927143503564276 0 2.2360001822215524e-05 0.044903835228971414 0 5.1465202599084002e-06 0.044907206358473437 0 -2.357253805154623e-05 0.044927143503564276 0 -4.866279019590957e-05 0.044838139558815007 0 -0.00020373777691634092 0.044824161827721608 0 -2.357253805154623e-05 0.044927143503564276 0 5.1465202599084002e-06 0.044907206358473437 0 -1.2564445995279042e-05 0.044934053113458487 0 3.3745005281509357e-05 0.044885262106445847 0 2.2360001822215524e-05 0.044903835228971414 0 5.1465202599084002e-06 0.044907206358473437 0 3.3745005281509357e-05 0.044885262106445847 0 5.1465202599084002e-06 0.044907206358473437 0 9.8039665697276926e-06 0.044889979366382407 0 5.1465202599084002e-06 0.044907206358473437 0 9.8039665697276926e-06 0.044889979366382407 0 -1.2564445995279042e-05 0.044934053113458487 0 9.8039665697276926e-06 0.044889979366382407 0 -7.7738016724933731e-06 0.044907306861440954 0 1.0538463947957029e-05 0.044860135171972446 0 9.8039665697276926e-06 0.044889979366382407 0 -1.2564445995279042e-05 0.044934053113458487 0 -7.7738016724933731e-06 0.044907306861440954 0 5.5684937360279001e-08 0.044999738268683913 0 -1.1779730554003065e-05 0.044977629212429371 0 -6.0135355559380022e-08 0.045000039407831295 0 5.5684937360279001e-08 0.044999738268683913 0 -1.2564445995279042e-05 0.044934053113458487 0 -1.1779730554003065e-05 0.044977629212429371 0 -2.357253805154623e-05 0.044927143503564276 0 5.5684937360279001e-08 0.044999738268683913 0 -1.2564445995279042e-05 0.044934053113458487 0 -1.2564445995279042e-05 0.044934053113458487 0 -7.7738016724933731e-06 0.044907306861440954 0 -1.1779730554003065e-05 0.044977629212429371 0 -9.0397178083441326e-05 0.045065003222744981 0 -0.00024092702063205869 0.044382177951657893 0 -1.1779730554003065e-05 0.044977629212429371 0 -6.0135355559380022e-08 0.045000039407831295 0 -2.3709925760834226e-05 0.045003061731871803 0 -2.8217273192398052e-10 0.04499999997167544 0 1.0102559625815597e-06 0.044997845374932975 0 1.2230535343030326e-06 0.04499703551302537 0 -7.7738016724933731e-06 0.044907306861440954 0 -1.1779730554003065e-05 0.044977629212429371 0 -2.8688767303810385e-05 0.044856207093753868 0 -6.9504150406393835e-08 0.044999679128282455 0 -0.00024092702063205869 0.044382177951657893 0 -2.8217273192398052e-10 0.04499999997167544 0 1.2230535343030326e-06 0.04499703551302537 0 1.8041678780033732e-09 0.044999985886971128 0 1.0102559625815597e-06 0.044997845374932975 0 1.2230535343030326e-06 0.04499703551302537 0 3.4524613573655721e-06 0.044992632905420334 0 1.2230535343030326e-06 0.04499703551302537 0 3.4524613573655721e-06 0.044992632905420334 0 1.8041678780033732e-09 0.044999985886971128 0 -0.00073900208818670349 0.043341645729480016 0 -0.00039861723060647151 0.042624070986376966 0 -6.0128000134918583e-05 0.043143113511033095 0 -0.00024092702063205869 0.044382177951657893 0 0.00013411321294241291 0.044348344457131622 0 -2.8688767303810385e-05 0.044856207093753868 0 2.7526727768554378e-05 0.044796348159988848 0 1.0538463947957029e-05 0.044860135171972446 0 -0.00024092702063205869 0.044382177951657893 0 -0.00012945679214826762 0.044149866589902449 0 -7.7738016724933731e-06 0.044907306861440954 0 -2.8688767303810385e-05 0.044856207093753868 0 1.0538463947957029e-05 0.044860135171972446 0 9.8039665697276926e-06 0.044889979366382407 0 1.0538463947957029e-05 0.044860135171972446 0 3.9429562243207109e-05 0.044843072003291087 0 2.7526727768554378e-05 0.044796348159988848 0 1.0538463947957029e-05 0.044860135171972446 0 3.9429562243207109e-05 0.044843072003291087 0 6.9809270299127558e-05 0.044852885207638603 0 3.9429562243207109e-05 0.044843072003291087 0 9.7927025678705635e-05 0.044737858636194124 0 2.7526727768554378e-05 0.044796348159988848 0 3.9429562243207109e-05 0.044843072003291087 0 9.7927025678705635e-05 0.044737858636194124 0 0.00015509602409145555 0.037876737436603775 0 0.00048300786675701347 0.037344261495310858 0 0.0001899864467335309 0.037044503664936189 0 0.00061963566460984741 0.037647732556248162 0 0.00015509602409145555 0.037876737436603775 0 0.00048300786675701347 0.037344261495310858 0 0.00014089051876579385 0.041273799895364865 0 0.00032558866165939256 0.040722705703279911 0 0.00081936129232759746 0.038551106153861453 0 0.00032558866165939256 0.040722705703279911 0 0.00048300786675701347 0.037344261495310858 0 0.00044440460648225436 0.036968619436752143 0 0.0001899864467335309 0.037044503664936189 0 0.00032558866165939256 0.040722705703279911 0 0.00033695253035853607 0.03991757721129343 0 0.00044440460648225436 0.036968619436752143 0 0.00019001037197967932 0.03706201404499275 0 0.00019347269707255976 0.03683723124077122 0 -0.00039861723060647151 0.042624070986376966 0 -6.0128000134918583e-05 0.043143113511033095 0 0.00062438658773976885 0.042662157392608147 0 -6.0128000134918583e-05 0.043143113511033095 0 0.0006200578325411682 0.042935741883738471 0 0.00062438658773976885 0.042662157392608147 0 -0.00012945679214826762 0.044149866589902449 0 0.00032558866165939256 0.040722705703279911 0 0.00013411321294241291 0.044348344457131622 0 0.00033695253035853607 0.03991757721129343 0 -0.00010871928185121928 0.043728034976127483 0 -8.6025097508300957e-05 0.044543742556455643 0 0.00044908287801340781 0.044356036452756077 0 0.00071214161225042246 0.043807470118986731 0 -0.00010871928185121928 0.043728034976127483 0 0.00044908287801340781 0.044356036452756077 0 0.00033695253035853607 0.03991757721129343 0 0.0005013911859360798 0.040336555189298594 0 0.0010346455508617321 0.036118782004805478 0 0.0010342064475564281 0.036153732602069895 0 0.0010393884477768445 0.036157348595546056 0 0.00014059581221281827 0.044817975585985222 0 -8.6025097508300957e-05 0.044543742556455643 0 0.00044908287801340781 0.044356036452756077 0 0.00015397653922059955 0.044807018177319545 0 0.00027053019510262432 0.044652625926195851 0 2.7785978888098464e-05 0.044920533043234151 0 6.0394923347651706e-05 0.044966788656519589 0 -5.651324185047186e-08 0.044999366265302883 0 2.7785978888098464e-05 0.044920533043234151 0 0.00014059581221281827 0.044817975585985222 0 6.0394923347651706e-05 0.044966788656519589 0 0.00013411321294241291 0.044348344457131622 0 -8.049824596313034e-08 0.04500013926163067 0 4.1632719035688904e-05 0.044999934398107587 0 6.0394923347651706e-05 0.044966788656519589 0 -5.651324185047186e-08 0.044999366265302883 0 0.00013411321294241291 0.044348344457131622 0 0.00027053019510262432 0.044652625926195851 0 4.7856658031812103e-06 0.044911349106246827 0 -1.3820694966531848e-10 0.044999910861133953 0 4.3192247720118939e-07 0.044951599363503625 0 -1.3820694966531848e-10 0.044999910861133953 0 4.1931964441315732e-06 0.044927413552520001 0 5.9872290097545186e-09 0.044999911289083948 0 4.7856658031812103e-06 0.044911349106246827 0 -1.3820694966531848e-10 0.044999910861133953 0 4.1931964441315732e-06 0.044927413552520001 0 4.7856658031812103e-06 0.044911349106246827 0 6.869749374770851e-06 0.044869943376619197 0 4.1931964441315732e-06 0.044927413552520001 0 6.869749374770851e-06 0.044869943376619197 0 9.6147338883512719e-06 0.044818947497358097 0 8.3511015774592499e-06 0.044839261496127415 0 4.7856658031812103e-06 0.044911349106246827 0 6.869749374770851e-06 0.044869943376619197 0 8.3511015774592499e-06 0.044839261496127415 0 4.7856658031812103e-06 0.044911349106246827 0 8.3511015774592499e-06 0.044839261496127415 0 6.39432829508714e-06 0.044876134776375726 0 8.3511015774592499e-06 0.044839261496127415 0 6.39432829508714e-06 0.044876134776375726 0 1.2824764210216245e-05 0.04478962197367465 0 6.561360816991002e-06 0.044776738225855067 0 -0.00012556457818654597 0.045563261453091537 0 -3.6248367480549851e-05 0.044868211071862889 0 -4.4942022698542364e-05 0.04485618059923923 0 -3.7414884074731036e-05 0.044827131298559683 0 -3.6248367480549851e-05 0.044868211071862889 0 -4.4942022698542364e-05 0.04485618059923923 0 -1.519902753586782e-05 0.044916636229598267 0 -1.519902753586782e-05 0.044916636229598267 0 4.3192247720118939e-07 0.044951599363503625 0 1.1602898496653112e-06 0.044965650698349013 0 -3.6248367480549851e-05 0.044868211071862889 0 -1.519902753586782e-05 0.044916636229598267 0 4.3192247720118939e-07 0.044951599363503625 0 6.561360816991002e-06 0.044776738225855067 0 -7.3846653464323824e-06 0.044962772449540847 0 4.7856658031812103e-06 0.044911349106246827 0 6.39432829508714e-06 0.044876134776375726 0 4.3192247720118939e-07 0.044951599363503625 0 -1.3820694966531848e-10 0.044999910861133953 0 4.3192247720118939e-07 0.044951599363503625 0 1.8236115921532125e-09 0.044999902308563017 0 4.3192247720118939e-07 0.044951599363503625 0 1.8236115921532125e-09 0.044999902308563017 0 1.1602898496653112e-06 0.044965650698349013 0 1.1602898496653112e-06 0.044965650698349013 0 -6.9406708396581839e-07 0.044953896423031658 0 1.5270686271147456e-08 0.044999995273994703 0 1.8236115921532125e-09 0.044999902308563017 0 1.1602898496653112e-06 0.044965650698349013 0 1.5270686271147456e-08 0.044999995273994703 0 -1.519902753586782e-05 0.044916636229598267 0 1.1602898496653112e-06 0.044965650698349013 0 -6.9406708396581839e-07 0.044953896423031658 0 -6.9406708396581839e-07 0.044953896423031658 0 3.6036192443622769e-06 0.044983819282859737 0 3.6722285055720642e-06 0.044979418018148545 0 -6.9406708396581839e-07 0.044953896423031658 0 1.5270686271147456e-08 0.044999995273994703 0 3.6036192443622769e-06 0.044983819282859737 0 1.5270686271147456e-08 0.044999995273994703 0 3.6036192443622769e-06 0.044983819282859737 0 -1.8274196468583303e-08 0.044999841666275443 0 3.6036192443622769e-06 0.044983819282859737 0 1.9722412648203221e-05 0.044912965658817305 0 -1.8274196468583303e-08 0.044999841666275443 0 1.3073685462230743e-05 0.044887591722122505 0 -6.0717068956322187e-05 0.044759650253497797 0 3.6036192443622769e-06 0.044983819282859737 0 1.9722412648203221e-05 0.044912965658817305 0 3.6722285055720642e-06 0.044979418018148545 0 -5.3578181566736934e-05 0.044885739472063056 0 1.9722412648203221e-05 0.044912965658817305 0 -0.00013086041904907705 0.044699840319667505 0 1.9722412648203221e-05 0.044912965658817305 0 -0.00013086041904907705 0.044699840319667505 0 -0.0001085073567429904 0.044525821242824538 0 3.5847413149584807e-08 0.044999949930749579 0 1.9722412648203221e-05 0.044912965658817305 0 -1.8274196468583303e-08 0.044999841666275443 0 -0.00023139676377603548 0.044552467221283296 0 -0.00021636153557231183 0.044755791202349508 0 -0.00013086041904907705 0.044699840319667505 0 -0.00038839302202925999 0.044509651348196934 0 -0.0005542877291403143 0.044011121152884955 0 -0.00023139676377603548 0.044552467221283296 0 -0.00019751455018615627 0.0444437103284364 0 -0.00018579368048070687 0.044461731958371338 0 -0.00021921306859737117 0.044883371678398155 0 -0.00039829054119736279 0.044730768691222743 0 -0.00021636153557231183 0.044755791202349508 0 -0.00023139676377603548 0.044552467221283296 0 -0.00039829054119736279 0.044730768691222743 0 -0.00021636153557231183 0.044755791202349508 0 -0.00013586419896172023 0.044851160120923689 0 -0.00021636153557231183 0.044755791202349508 0 -0.00013086041904907705 0.044699840319667505 0 -0.00013586419896172023 0.044851160120923689 0 -5.3578181566736934e-05 0.044885739472063056 0 -0.00013086041904907705 0.044699840319667505 0 -0.00023139676377603548 0.044552467221283296 0 -0.00013086041904907705 0.044699840319667505 0 -0.00019800684937421894 0.044507161212321435 0 -0.00013086041904907705 0.044699840319667505 0 -0.0001085073567429904 0.044525821242824538 0 -0.00019800684937421894 0.044507161212321435 0 -0.00023139676377603548 0.044552467221283296 0 -0.00019800684937421894 0.044507161212321435 0 -0.00017534869085633864 0.044425836029688533 0 -0.00023139676377603548 0.044552467221283296 0 -0.00017534869085633864 0.044425836029688533 0 -0.00018579368048070687 0.044461731958371338 0 -0.00019800684937421894 0.044507161212321435 0 -0.00022983393732179424 0.044511036603747563 0 -0.00017534869085633864 0.044425836029688533 0 -6.9406708396581839e-07 0.044953896423031658 0 3.6722285055720642e-06 0.044979418018148545 0 -4.9540143487535347e-05 0.044928364149849208 0 -6.0717068956322187e-05 0.044759650253497797 0 -0.00012614715183872357 0.044723176329712268 0 -0.0001085073567429904 0.044525821242824538 0 -0.00019800684937421894 0.044507161212321435 0 -0.00022983393732179424 0.044511036603747563 0 -4.4942022698542364e-05 0.04485618059923923 0 -6.9406708396581839e-07 0.044953896423031658 0 -4.9540143487535347e-05 0.044928364149849208 0 -4.4942022698542364e-05 0.04485618059923923 0 -1.519902753586782e-05 0.044916636229598267 0 -6.9406708396581839e-07 0.044953896423031658 0 -4.4942022698542364e-05 0.04485618059923923 0 -4.9540143487535347e-05 0.044928364149849208 0 -6.5207837306632978e-05 0.044767879303492422 0 -0.00012614715183872357 0.044723176329712268 0 -6.9039877577321821e-05 0.044772240088336974 0 5.2478891479444066e-05 0.044666467258876429 0 -7.1650299167698894e-05 0.044504503035430666 0 -6.5207837306632978e-05 0.044767879303492422 0 -0.00022983393732179424 0.044511036603747563 0 -7.1650299167698894e-05 0.044504503035430666 0 -6.5207837306632978e-05 0.044767879303492422 0 5.2478891479444066e-05 0.044666467258876429 0 0.00011675503074252786 0.044518730586515148 0 0.00020816097621463819 0.044668803185427791 0 5.2478891479444066e-05 0.044666467258876429 0 0.00011675503074252786 0.044518730586515148 0 -7.1650299167698894e-05 0.044504503035430666 0 0.00011675503074252786 0.044518730586515148 0 -4.8945812643143444e-05 0.044208935728479136 0 0.00040382075723593557 0.0443842718755523 0 0.00011675503074252786 0.044518730586515148 0 -7.1650299167698894e-05 0.044504503035430666 0 -4.8945812643143444e-05 0.044208935728479136 0 -7.1650299167698894e-05 0.044504503035430666 0 -0.00017534869085633864 0.044425836029688533 0 -4.8945812643143444e-05 0.044208935728479136 0 -0.00022983393732179424 0.044511036603747563 0 -7.1650299167698894e-05 0.044504503035430666 0 -0.00017534869085633864 0.044425836029688533 0 -0.00017534869085633864 0.044425836029688533 0 -4.8945812643143444e-05 0.044208935728479136 0 -0.00014407689437278653 0.044396988145623664 0 -0.00017534869085633864 0.044425836029688533 0 -0.00018579368048070687 0.044461731958371338 0 -0.00014407689437278653 0.044396988145623664 0 -4.8945812643143444e-05 0.044208935728479136 0 -0.00021030966058497105 0.043637891226025349 0 0.00020197399447321841 0.043738966480000439 0 -4.8945812643143444e-05 0.044208935728479136 0 -0.00021030966058497105 0.043637891226025349 0 -0.00069147599282327887 0.043714210284254124 0 -9.051900821102983e-05 0.044228094300184852 0 -0.00042891493652062301 0.044027714025333009 0 -0.00021030966058497105 0.043637891226025349 0 -0.00011778728699171804 0.043173987011314481 0 0.00020197399447321841 0.043738966480000439 0 -0.00011778728699171804 0.043173987011314481 0 0.00025648602984221989 0.043265151492359322 0 0.00020197399447321841 0.043738966480000439 0 -4.766927153456345e-05 0.042689932623682682 0 -0.00011778728699171804 0.043173987011314481 0 0.00025648602984221989 0.043265151492359322 0 -0.00021030966058497105 0.043637891226025349 0 -0.00011778728699171804 0.043173987011314481 0 -0.00065930056347667844 0.043052823999337478 0 -0.0012765491873918469 0.043220991852868221 0 -0.00065930056347667844 0.043052823999337478 0 -0.00069147599282327887 0.043714210284254124 0 -0.00019751455018615627 0.0444437103284364 0 -0.00018579368048070687 0.044461731958371338 0 -0.00014407689437278653 0.044396988145623664 0 -0.0005542877291403143 0.044011121152884955 0 -0.00042891493652062301 0.044027714025333009 0 -0.00021030966058497105 0.043637891226025349 0 -0.00065930056347667844 0.043052823999337478 0 -0.00069147599282327887 0.043714210284254124 0 0.00032145487962541519 0.032917533682379159 0 0.00030929861047374193 0.032945142647501355 0 0.00031384495535568847 0.033083068153126359 0 0.00022600676336443314 0.020911853319268404 0 0.00029042138578813247 0.020928588778191339 0 0.00023391508387373208 0.020865173110012306 0 0.0014294848457860564 0.026250678700213394 0 0.0022208649049278817 0.021190034968282583 0 0.0046894243419872772 0.022271159466919824 0 0.0052502163987644245 0.023022328652646567 0 0.0040369449549536741 0.022393558062788137 0 0.0046894243419872772 0.022271159466919824 0 0.0052502163987644245 0.023022328652646567 0 0.0052893854292158909 0.022734359269634217 0 0.0014294848457860564 0.026250678700213394 0 0.0013193392754642685 0.029966806250261081 0 0.00056975254469449586 0.04297595317449894 0 0.00025648602984221989 0.043265151492359322 0 0.00069933912510518196 0.04346340219432316 0 0.0018555369562229104 0.033725280976282183 0 0.001112441715429686 0.03676623559611162 0 0.0016371901667280695 0.031086157913096647 0 0.0001700986392444632 0.030439696489749812 0 0.00033075205354206235 0.029012773915489488 0 0.0018555369562229104 0.033725280976282183 0 0.0013193392754642685 0.029966806250261081 0 0.0012996632026818218 0.03344546427755965 0 0.0012561233074011603 0.033434762748652015 0 0.001246515325365715 0.033430354834899742 0 0.0013193392754642685 0.029966806250261081 0 0.001112441715429686 0.03676623559611162 0 0.00025648602984221989 0.043265151492359322 0 0.00020197399447321841 0.043738966480000439 0 0.00069933912510518196 0.04346340219432316 0 0.00020197399447321841 0.043738966480000439 0 0.00069933912510518196 0.04346340219432316 0 0.00040382075723593557 0.0443842718755523 0 -4.8945812643143444e-05 0.044208935728479136 0 0.00020197399447321841 0.043738966480000439 0 0.00040382075723593557 0.0443842718755523 0 0.001112441715429686 0.03676623559611162 0 0.0010409424456454815 0.040288404171325787 0 0.00030929861047374193 0.032945142647501355 0 0.00029400634898440494 0.033081283174647827 0 0.00031384495535568847 0.033083068153126359 0 0.0046894243419872772 0.022271159466919824 0 0.0052893854292158909 0.022734359269634217 0 0.0045163960447466974 0.021367914254654237 0 0.0015768615551550031 0.036436328241378969 0 0.0010138311143140363 0.035217657520961024 0 0.0017552140878606449 0.034760445515474546 0 0.001112441715429686 0.03676623559611162 0 0.00053643260169223444 0.033785336721781932 0 0.0013193392754642685 0.029966806250261081 0 0.0025403815717018404 0.02686356998566438 0 0.0046894243419872772 0.022271159466919824 0 0.0045163960447466974 0.021367914254654237 0 0.004277057649814767 0.021907032565541822 0 0.0010138311143140363 0.035217657520961024 0 0.0011030897612888918 0.034450157328585335 0 0.00053575065898938876 0.034035052208376729 0 0.00029400634898440494 0.033081283174647827 0 0.00031384495535568847 0.033083068153126359 0 0.00023927604931009647 0.033194879651119245 0 0.00053643260169223444 0.033785336721781932 0 0.00042898052634884795 0.033671954917461104 0 0.0010138311143140363 0.035217657520961024 0 0.0011030897612888918 0.034450157328585335 0 0.0017552140878606449 0.034760445515474546 0 0.0011030897612888918 0.034450157328585335 0 0.0017552140878606449 0.034760445515474546 0 0.0012124695020270077 0.033926275076224158 0 0.0011030897612888918 0.034450157328585335 0 0.0012124695020270077 0.033926275076224158 0 0.00053575065898938876 0.034035052208376729 0 0.00011675503074252786 0.044518730586515148 0 0.00040382075723593557 0.0443842718755523 0 0.00020816097621463819 0.044668803185427791 0 0.0017552140878606449 0.034760445515474546 0 0.0012124695020270077 0.033926275076224158 0 0.0018228818675702231 0.033209922940463835 0 0.0010409424456454815 0.040288404171325787 0 0.0010579609594528038 0.038689644406779043 0 0.0012124695020270077 0.033926275076224158 0 0.00084213516701319379 0.033229976607164612 0 0.0018228818675702231 0.033209922940463835 0 0.0012124695020270077 0.033926275076224158 0 0.00084213516701319379 0.033229976607164612 0 0.00053575065898938876 0.034035052208376729 0 0.00084213516701319379 0.033229976607164612 0 0.00095567875022447082 0.032501323288439514 0 0.00014923302613204382 0.032862475398715993 0 0.00084213516701319379 0.033229976607164612 0 0.00095567875022447082 0.032501323288439514 0 0.0018228818675702231 0.033209922940463835 0 0.00095567875022447082 0.032501323288439514 0 0.00091141972054606325 0.03185453102705145 0 0.0014558797938486346 0.031983593949697756 0 0.0018701673352107821 0.032046735348017295 0 0.0014558797938486346 0.031983593949697756 0 0.0018228818675702231 0.033209922940463835 0 0.00084311457196072689 0.038889298752376102 0 0.0013107666587847588 0.035089784319735161 0 0.00095567875022447082 0.032501323288439514 0 0.0014558797938486346 0.031983593949697756 0 0.0018228818675702231 0.033209922940463835 0 0.00014048008631683143 0.044807334167475787 0 0.00020816097621463819 0.044668803185427791 0 5.6728916399067208e-05 0.044760278855927337 0 0.00084311457196072689 0.038889298752376102 0 0.0010579609594528038 0.038689644406779043 0 5.2478891479444066e-05 0.044666467258876429 0 0.00020816097621463819 0.044668803185427791 0 5.6728916399067208e-05 0.044760278855927337 0 5.2478891479444066e-05 0.044666467258876429 0 5.6728916399067208e-05 0.044760278855927337 0 -6.5207837306632978e-05 0.044767879303492422 0 5.6728916399067208e-05 0.044760278855927337 0 -6.5207837306632978e-05 0.044767879303492422 0 -3.7414884074731036e-05 0.044827131298559683 0 -4.4942022698542364e-05 0.04485618059923923 0 -6.5207837306632978e-05 0.044767879303492422 0 -3.7414884074731036e-05 0.044827131298559683 0 0.00084311457196072689 0.038889298752376102 0 -0.00012556457818654597 0.045563261453091537 0 0.00014048008631683143 0.044807334167475787 0 5.6728916399067208e-05 0.044760278855927337 0 -3.7414884074731036e-05 0.044827131298559683 0 3.4347258014622561e-05 0.044704250516329633 0 1.2824764210216245e-05 0.04478962197367465 0 1.4550427725967605e-05 0.044776273523437077 0 3.4347258014622561e-05 0.044704250516329633 0 1.4550427725967605e-05 0.044776273523437077 0 2.4109078483289148e-05 0.044724160420514927 0 8.3511015774592499e-06 0.044839261496127415 0 1.2824764210216245e-05 0.04478962197367465 0 1.4550427725967605e-05 0.044776273523437077 0 9.6147338883512719e-06 0.044818947497358097 0 1.4550427725967605e-05 0.044776273523437077 0 9.8869898340966504e-06 0.044772746397003384 0 9.6147338883512719e-06 0.044818947497358097 0 8.3511015774592499e-06 0.044839261496127415 0 1.4550427725967605e-05 0.044776273523437077 0 1.4550427725967605e-05 0.044776273523437077 0 2.4109078483289148e-05 0.044724160420514927 0 9.8869898340966504e-06 0.044772746397003384 0 0.0020783654210062537 0.031000510300334742 0 0.0012948546400979187 0.03149861386720261 0 0.00088763262646947608 0.030490655020331336 0 0.0012948546400979187 0.03149861386720261 0 0.0006220009928452311 0.031422169340415147 0 0.00088763262646947608 0.030490655020331336 0 0.00076424252625260523 0.030729633627850677 0 0.0011779359174388219 0.029265009614754704 0 0.00091141972054606325 0.03185453102705145 0 0.0012948546400979187 0.03149861386720261 0 0.0006220009928452311 0.031422169340415147 0 0.00091141972054606325 0.03185453102705145 0 0.0014558797938486346 0.031983593949697756 0 0.0012948546400979187 0.03149861386720261 0 0.0018051438408206244 0.032075086411768081 0 0.0014558797938486346 0.031983593949697756 0 0.0012948546400979187 0.03149861386720261 0 0.00084311457196072689 0.038889298752376102 0 0.0010772508469737735 0.037732180340794584 0 0.0018051438408206244 0.032075086411768081 0 0.0020783654210062537 0.031000510300334742 0 0.0012948546400979187 0.03149861386720261 0 -0.00053608048280415633 0.030593351510411305 0 0.00096496971548030877 0.02999947170962915 0 -4.9309833531969634e-05 0.02874982746000768 0 0.00076424252625260523 0.030729633627850677 0 0.00026200179634811445 0.032009317075796087 0 0.00091141972054606325 0.03185453102705145 0 0.0006220009928452311 0.031422169340415147 0 0.00021225981524807761 0.032084133789657659 0 -0.00053608048280415633 0.030593351510411305 0 0.00096496971548030877 0.02999947170962915 0 0.00021225981524807761 0.032084133789657659 0 0.00096496971548030877 0.02999947170962915 0 -4.9309833531969634e-05 0.02874982746000768 0 0.0014833659395977225 0.028048812727442099 0 -0.00053608048280415633 0.030593351510411305 0 -4.9309833531969634e-05 0.02874982746000768 0 -0.0015605078718612354 0.029038871346784418 0 -4.9309833531969634e-05 0.02874982746000768 0 -0.0015605078718612354 0.029038871346784418 0 -0.0010577727812724382 0.027751488215556279 0 -0.0015605078718612354 0.029038871346784418 0 -0.0033075055342020915 0.028656009892480731 0 -0.0021109124937933525 0.030620783864358202 0 -0.0015605078718612354 0.029038871346784418 0 -0.0033075055342020915 0.028656009892480731 0 -0.0021110297424218392 0.028060692099848666 0 0.0013966132406454683 0.016263638665079606 0 0.0011255732808865611 0.016682960945748882 0 0.0021508157206532631 0.017433956773877678 0 -0.00056092831607043592 0.022122176349639054 0 -1.8311782816926385e-05 0.024081558087638063 0 -0.00056092831607043592 0.022122176349639054 0 0.0020278754650897702 0.016192452906868129 0 0.0011255732808865611 0.016682960945748882 0 0.0012350704607045871 0.017537799564305255 0 0.0021508157206532631 0.017433956773877678 0 -0.00053608048280415633 0.030593351510411305 0 -0.0015605078718612354 0.029038871346784418 0 -0.0021109124937933525 0.030620783864358202 0 0.0021508157206532631 0.017433956773877678 0 0.0016996783477905098 0.018441521442093801 0 0.0029460229434996382 0.018694263421344382 0 -1.8311782816926385e-05 0.024081558087638063 0 0.0010925184095660586 0.02557576643014314 0 0.0012350704607045871 0.017537799564305255 0 0.0021508157206532631 0.017433956773877678 0 0.0016996783477905098 0.018441521442093801 0 0.0012350704607045871 0.017537799564305255 0 0.0016996783477905098 0.018441521442093801 0 0.00080354674617914758 0.018031857809129553 0 0.0016996783477905098 0.018441521442093801 0 0.00093213688168437576 0.018906316576457003 0 0.00080354674617914758 0.018031857809129553 0 0.0016996783477905098 0.018441521442093801 0 0.0016609886311820525 0.019623173098062642 0 0.00093213688168437576 0.018906316576457003 0 0.0016996783477905098 0.018441521442093801 0 0.0023514804620192848 0.01928576296998025 0 0.0016609886311820525 0.019623173098062642 0 0.0016996783477905098 0.018441521442093801 0 0.0023514804620192848 0.01928576296998025 0 0.0029460229434996382 0.018694263421344382 0 -0.00075600632413546699 0.032558801056007246 0 0.00014923302613204382 0.032862475398715993 0 0.00014118248696597306 0.033208295676406763 0 0.0010925184095660586 0.02557576643014314 0 0.0019140714248192751 0.026663485945023855 0 -0.00075600632413546699 0.032558801056007246 0 0.00021225981524807761 0.032084133789657659 0 0.00014923302613204382 0.032862475398715993 0 0.0023514804620192848 0.01928576296998025 0 0.0029460229434996382 0.018694263421344382 0 0.0029663299289534291 0.019711153542535415 0 -0.00053608048280415633 0.030593351510411305 0 -0.0021109124937933525 0.030620783864358202 0 -0.00075600632413546699 0.032558801056007246 0 -0.00053608048280415633 0.030593351510411305 0 -0.00075600632413546699 0.032558801056007246 0 0.00021225981524807761 0.032084133789657659 0 0.00095567875022447082 0.032501323288439514 0 0.00091141972054606325 0.03185453102705145 0 0.00021225981524807761 0.032084133789657659 0 0.00095567875022447082 0.032501323288439514 0 0.00021225981524807761 0.032084133789657659 0 0.00014923302613204382 0.032862475398715993 0 0.00084213516701319379 0.033229976607164612 0 0.00014923302613204382 0.032862475398715993 0 0.00053575065898938876 0.034035052208376729 0 0.00014108095578342482 0.032910144450762305 0 0.00042898052634884795 0.033671954917461104 0 0.00014923302613204382 0.032862475398715993 0 0.00014118248696597306 0.033208295676406763 0 0.00023927604931009647 0.033194879651119245 0 0.0029460229434996382 0.018694263421344382 0 0.0037452007938362864 0.020023520124372376 0 0.0029663299289534291 0.019711153542535415 0 0.0037452007938362864 0.020023520124372376 0 0.0029663299289534291 0.019711153542535415 0 0.0031130031378155177 0.020411001955084291 0 0.0029663299289534291 0.019711153542535415 0 0.0031130031378155177 0.020411001955084291 0 0.0026043824698310579 0.020275853972908039 0 0.0037452007938362864 0.020023520124372376 0 0.0031130031378155177 0.020411001955084291 0 0.003428477159464152 0.021018481396152658 0 0.0031130031378155177 0.020411001955084291 0 0.0026561262159769533 0.020886881731921693 0 0.0026043824698310579 0.020275853972908039 0 0.0031130031378155177 0.020411001955084291 0 0.003428477159464152 0.021018481396152658 0 0.0026561262159769533 0.020886881731921693 0 0.0025403815717018404 0.02686356998566438 0 0.0019140714248192751 0.026663485945023855 0 0.0045163960447466974 0.021367914254654237 0 0.0037452007938362864 0.020023520124372376 0 0.0038893210620463492 0.02100074678766508 0 0.00031384495535568847 0.033083068153126359 0 0.00014118248696597306 0.033208295676406763 0 0.00023927604931009647 0.033194879651119245 0 0.0037452007938362864 0.020023520124372376 0 0.003428477159464152 0.021018481396152658 0 0.0038893210620463492 0.02100074678766508 0 0.0045163960447466974 0.021367914254654237 0 0.004277057649814767 0.021907032565541822 0 0.0038670686089999355 0.021595179433164632 0 0.0045163960447466974 0.021367914254654237 0 0.0038893210620463492 0.02100074678766508 0 0.0038670686089999355 0.021595179433164632 0 0.0038670686089999355 0.021595179433164632 0 0.0028403650628641653 0.021770436813112651 0 0.0040369449549536741 0.022393558062788137 0 0.004277057649814767 0.021907032565541822 0 0.0038670686089999355 0.021595179433164632 0 0.0040369449549536741 0.022393558062788137 0 0.003428477159464152 0.021018481396152658 0 0.0038893210620463492 0.02100074678766508 0 0.0038670686089999355 0.021595179433164632 0 0.003428477159464152 0.021018481396152658 0 0.0038670686089999355 0.021595179433164632 0 0.0028403650628641653 0.021770436813112651 0 0.003428477159464152 0.021018481396152658 0 0.0028403650628641653 0.021770436813112651 0 0.0026561262159769533 0.020886881731921693 0 0.0015097810146960816 0.021345322815310572 0 0.0022208649049278817 0.021190034968282583 0 0.00017938202021750078 0.020832569455330099 0 0.00018477080592707042 0.020863411476113869 0 0.00023391508387373208 0.020865173110012306 0 0.00017938202021750078 0.020832569455330099 0 0.00018477080592707042 0.020863411476113869 0 0.00014522515906009891 0.02084818332593524 0 0.00022600676336443314 0.020911853319268404 0 0.00018477080592707042 0.020863411476113869 0 0.00023391508387373208 0.020865173110012306 0 0.0046894243419872772 0.022271159466919824 0 0.004277057649814767 0.021907032565541822 0 0.0040369449549536741 0.022393558062788137 0 0.0001350339777292397 0.02084873585940596 0 0.00014522515906009891 0.02084818332593524 0 0.00013074317148199609 0.020832903075160565 0 0.0015097810146960816 0.021345322815310572 0 0.00093068285483169811 0.021038386083031053 0 0.0028403650628641653 0.021770436813112651 0 0.0016541217075417992 0.021160310883097729 0 0.0026561262159769533 0.020886881731921693 0 0.00017938202021750078 0.020832569455330099 0 0.00014522515906009891 0.02084818332593524 0 0.00015031831908390161 0.02081998146931098 0 0.00014522515906009891 0.02084818332593524 0 0.00015031831908390161 0.02081998146931098 0 0.00013074317148199609 0.020832903075160565 0 0.0016541217075417992 0.021160310883097729 0 0.0013167904077262113 0.020285659617494192 0 0.00041915277612106406 0.020570760633548946 0 0.00093068285483169811 0.021038386083031053 0 0.00021526065265157528 0.020268517776544519 0 0.0016541217075417992 0.021160310883097729 0 0.0013167904077262113 0.020285659617494192 0 0.0019004774085224047 0.020348195298221759 0 0.0016541217075417992 0.021160310883097729 0 0.0026561262159769533 0.020886881731921693 0 0.0019004774085224047 0.020348195298221759 0 0.0026561262159769533 0.020886881731921693 0 0.0019004774085224047 0.020348195298221759 0 0.0026043824698310579 0.020275853972908039 0 0.0019004774085224047 0.020348195298221759 0 0.0026043824698310579 0.020275853972908039 0 0.0016609886311820525 0.019623173098062642 0 0.0023514804620192848 0.01928576296998025 0 0.0029663299289534291 0.019711153542535415 0 0.0026043824698310579 0.020275853972908039 0 0.0023514804620192848 0.01928576296998025 0 0.0026043824698310579 0.020275853972908039 0 0.0016609886311820525 0.019623173098062642 0 0.0013167904077262113 0.020285659617494192 0 0.0016609886311820525 0.019623173098062642 0 0.00090980355332253757 0.019738533105714048 0 0.0013167904077262113 0.020285659617494192 0 0.0019004774085224047 0.020348195298221759 0 0.0016609886311820525 0.019623173098062642 0 0.0016609886311820525 0.019623173098062642 0 0.00090980355332253757 0.019738533105714048 0 0.00093213688168437576 0.018906316576457003 0 0.00019408046099465536 0.019169740942522665 0 0.00090980355332253757 0.019738533105714048 0 0.00093213688168437576 0.018906316576457003 0 0.00018019184585164026 0.019192576413469806 0 0.00021526065265157528 0.020268517776544519 0 0.00019408046099465536 0.019169740942522665 0 0.00090980355332253757 0.019738533105714048 0 0.00041915277612106406 0.020570760633548946 0 0.00019408046099465536 0.019169740942522665 0 1.823428074803851e-06 0.019440847718451615 0 0.00013066407837263863 0.019731343770617145 0 1.823428074803851e-06 0.019440847718451615 0 -0.00026840072750907427 0.019750295427977082 0 -0.0003968175212491196 0.019287297558562351 0 0.00019408046099465536 0.019169740942522665 0 1.823428074803851e-06 0.019440847718451615 0 -0.0003968175212491196 0.019287297558562351 0 1.823428074803851e-06 0.019440847718451615 0 -0.00026840072750907427 0.019750295427977082 0 6.244958192654265e-05 0.019692755991267043 0 -0.00026840072750907427 0.019750295427977082 0 6.244958192654265e-05 0.019692755991267043 0 -9.8593278734974185e-05 0.019970112238243489 0 0.0013167904077262113 0.020285659617494192 0 0.00090980355332253757 0.019738533105714048 0 0.00041915277612106406 0.020570760633548946 0 1.823428074803851e-06 0.019440847718451615 0 6.244958192654265e-05 0.019692755991267043 0 0.00013066407837263863 0.019731343770617145 0 0.00011123363037180323 0.020160941700229973 0 0.00021526065265157528 0.020268517776544519 0 6.244958192654265e-05 0.019692755991267043 0 0.00010068169159678836 0.019721658123637069 0 -9.8593278734974185e-05 0.019970112238243489 0 0.00010068169159678836 0.019721658123637069 0 7.7750830642944095e-05 0.020107116798746705 0 -9.8593278734974185e-05 0.019970112238243489 0 0.00015031831908390161 0.02081998146931098 0 0.00012589222803238519 0.020802120172143394 0 0.00013074317148199609 0.020832903075160565 0 0.00021526065265157528 0.020268517776544519 0 9.564130192700899e-05 0.020458339752230829 0 -9.8593278734974185e-05 0.019970112238243489 0 -0.00030476406661695594 0.02026732715939317 0 -0.00044447103378963997 0.020059924295412795 0 -0.00026840072750907427 0.019750295427977082 0 -9.8593278734974185e-05 0.019970112238243489 0 -0.00044447103378963997 0.020059924295412795 0 -9.8593278734974185e-05 0.019970112238243489 0 -0.00030476406661695594 0.02026732715939317 0 -7.8512542803599157e-05 0.020297514334176172 0 9.3834394012055021e-05 0.020418827862552114 0 7.7750830642944095e-05 0.020107116798746705 0 -7.8512542803599157e-05 0.020297514334176172 0 7.7750830642944095e-05 0.020107116798746705 0 -9.8593278734974185e-05 0.019970112238243489 0 -7.8512542803599157e-05 0.020297514334176172 0 0.00011103734669505072 0.020635122624475397 0 9.564130192700899e-05 0.020458339752230829 0 -0.00054005218918996302 0.020352216647113102 0 -0.00065290931083679491 0.02013799341113616 0 -0.00047280792986909275 0.020245720725819101 0 -0.00065290931083679491 0.02013799341113616 0 -0.00047280792986909275 0.020245720725819101 0 -0.00044447103378963997 0.020059924295412795 0 -0.00030476406661695594 0.02026732715939317 0 -0.00047280792986909275 0.020245720725819101 0 -0.00044447103378963997 0.020059924295412795 0 -0.00044447103378963997 0.020059924295412795 0 -0.00073327017687284792 0.019954777738276776 0 -0.00073968662774623957 0.019772022610450787 0 -0.00065290931083679491 0.02013799341113616 0 -0.00044447103378963997 0.020059924295412795 0 -0.00073327017687284792 0.019954777738276776 0 -0.00073327017687284792 0.019954777738276776 0 -0.00073968662774623957 0.019772022610450787 0 -0.00084095252260595705 0.019901366854110709 0 -0.00073968662774623957 0.019772022610450787 0 -0.0014002104443627508 0.019487915727510016 0 -0.0020781679518447468 0.020045200316132453 0 -0.00069704423720775449 0.020258461785422788 0 -0.0017190058547596474 0.018316365282333356 0 -0.00026840072750907427 0.019750295427977082 0 -0.00044447103378963997 0.020059924295412795 0 -0.00073968662774623957 0.019772022610450787 0 -0.00026840072750907427 0.019750295427977082 0 -0.00073968662774623957 0.019772022610450787 0 -0.0003968175212491196 0.019287297558562351 0 -0.00073968662774623957 0.019772022610450787 0 -0.0003968175212491196 0.019287297558562351 0 -0.0011010981930574307 0.019189789187773663 0 -0.0003968175212491196 0.019287297558562351 0 -0.0011010981930574307 0.019189789187773663 0 -0.00075408688053945738 0.018818623872739797 0 -0.00073968662774623957 0.019772022610450787 0 -0.0014002104443627508 0.019487915727510016 0 -0.0011010981930574307 0.019189789187773663 0 -0.0011010981930574307 0.019189789187773663 0 -0.0011963407781918254 0.018618635444586012 0 -0.0016999838394436276 0.018978176281049031 0 -0.0014002104443627508 0.019487915727510016 0 -0.0011010981930574307 0.019189789187773663 0 -0.0016999838394436276 0.018978176281049031 0 -0.0011963407781918254 0.018618635444586012 0 -0.0014950015023204916 0.017864964168148197 0 -0.0016999838394436276 0.018978176281049031 0 -0.0015621641562428281 0.017948535939677844 0 -0.0014950015023204916 0.017864964168148197 0 -0.0016512661999588392 0.018276134593003514 0 -0.0014644892078817663 0.017818552420057591 0 -0.0017319333909520654 0.018801507993339423 0 -0.0011010981930574307 0.019189789187773663 0 -0.0011963407781918254 0.018618635444586012 0 -0.00075408688053945738 0.018818623872739797 0 -0.0015621641562428281 0.017948535939677844 0 -0.0014950015023204916 0.017864964168148197 0 -0.0014178135858054957 0.016862219126214113 0 -0.0011963407781918254 0.018618635444586012 0 -0.0014950015023204916 0.017864964168148197 0 -0.00095554500504003883 0.018203762083612789 0 -0.0014950015023204916 0.017864964168148197 0 -0.0010143570272002711 0.017569961885595127 0 -0.00095554500504003883 0.018203762083612789 0 -0.00054021030467501802 0.017823389280694289 0 -0.00095554500504003883 0.018203762083612789 0 -0.00028737064262350829 0.018545629681863161 0 -0.00054021030467501802 0.017823389280694289 0 -0.0010143570272002711 0.017569961885595127 0 -0.00095554500504003883 0.018203762083612789 0 -0.0003968175212491196 0.019287297558562351 0 -0.00075408688053945738 0.018818623872739797 0 -0.00028737064262350829 0.018545629681863161 0 -0.00095554500504003883 0.018203762083612789 0 -0.00075408688053945738 0.018818623872739797 0 -0.00028737064262350829 0.018545629681863161 0 -0.0011963407781918254 0.018618635444586012 0 -0.00095554500504003883 0.018203762083612789 0 -0.00075408688053945738 0.018818623872739797 0 0.00019408046099465536 0.019169740942522665 0 -0.0003968175212491196 0.019287297558562351 0 -0.00028737064262350829 0.018545629681863161 0 0.00019408046099465536 0.019169740942522665 0 -0.00028737064262350829 0.018545629681863161 0 0.00032690453333047656 0.01849288670946269 0 0.00093213688168437576 0.018906316576457003 0 0.00032690453333047656 0.01849288670946269 0 0.00080354674617914758 0.018031857809129553 0 0.00019408046099465536 0.019169740942522665 0 0.00093213688168437576 0.018906316576457003 0 0.00032690453333047656 0.01849288670946269 0 0.00080354674617914758 0.018031857809129553 0 8.7794690140273048e-05 0.017810641490243452 0 0.00043497559187338552 0.017122891750625119 0 0.00032690453333047656 0.01849288670946269 0 0.00080354674617914758 0.018031857809129553 0 8.7794690140273048e-05 0.017810641490243452 0 -0.00054021030467501802 0.017823389280694289 0 -0.00028737064262350829 0.018545629681863161 0 8.7794690140273048e-05 0.017810641490243452 0 -0.00028737064262350829 0.018545629681863161 0 0.00032690453333047656 0.01849288670946269 0 8.7794690140273048e-05 0.017810641490243452 0 -0.00054021030467501802 0.017823389280694289 0 8.7794690140273048e-05 0.017810641490243452 0 -0.00060724435699998291 0.017020958993790591 0 8.7794690140273048e-05 0.017810641490243452 0 0.00043497559187338552 0.017122891750625119 0 -0.00060724435699998291 0.017020958993790591 0 0.00043497559187338552 0.017122891750625119 0 -5.0317379860155212e-05 0.016426978623250571 0 -0.00060724435699998291 0.017020958993790591 0 0.0011255732808865611 0.016682960945748882 0 0.0012350704607045871 0.017537799564305255 0 0.00043497559187338552 0.017122891750625119 0 0.0012350704607045871 0.017537799564305255 0 0.00080354674617914758 0.018031857809129553 0 0.00043497559187338552 0.017122891750625119 0 0.001387987823416836 0.016208982556578173 0 0.0011255732808865611 0.016682960945748882 0 0.00054848344980726056 0.01604735736456165 0 0.0011255732808865611 0.016682960945748882 0 0.00043497559187338552 0.017122891750625119 0 0.0005065674715259076 0.016568310273172161 0 0.0011255732808865611 0.016682960945748882 0 0.0005065674715259076 0.016568310273172161 0 0.00054848344980726056 0.01604735736456165 0 0.0005065674715259076 0.016568310273172161 0 0.00054848344980726056 0.01604735736456165 0 -5.0317379860155212e-05 0.016426978623250571 0 0.00054848344980726056 0.01604735736456165 0 -5.0317379860155212e-05 0.016426978623250571 0 -5.4435019513911486e-05 0.015524189293294695 0 0.00043497559187338552 0.017122891750625119 0 0.0005065674715259076 0.016568310273172161 0 -5.0317379860155212e-05 0.016426978623250571 0 -5.0317379860155212e-05 0.016426978623250571 0 -0.00060724435699998291 0.017020958993790591 0 -0.00088100689573769912 0.015260930553447238 0 -0.0012110129717463169 0.01572922182564258 0 -0.00091767566899519785 0.015260827484263054 0 -0.0014178135858054957 0.016862219126214113 0 -0.00060724435699998291 0.017020958993790591 0 -0.00088100689573769912 0.015260930553447238 0 -0.0010784231015577154 0.014649161747777792 0 -0.00091303800304466339 0.014872343430970377 0 -0.00094754470181969603 0.014555984250285044 0 -0.0010784231015577154 0.014649161747777792 0 -0.00091303800304466339 0.014872343430970377 0 -0.00088100689573769912 0.015260930553447238 0 -0.0013156035045290104 0.016095845268071479 0 -0.0012110129717463169 0.01572922182564258 0 -0.0014950015023204916 0.017864964168148197 0 -0.0010143570272002711 0.017569961885595127 0 -0.0014178135858054957 0.016862219126214113 0 -0.001058426079647855 0.014251688661095776 0 -0.0010784231015577154 0.014649161747777792 0 -0.00094754470181969603 0.014555984250285044 0 -0.00054021030467501802 0.017823389280694289 0 -0.0010143570272002711 0.017569961885595127 0 -0.00060724435699998291 0.017020958993790591 0 -0.0010143570272002711 0.017569961885595127 0 -0.0014178135858054957 0.016862219126214113 0 -0.00060724435699998291 0.017020958993790591 0 -0.00081804850231081592 0.014899285874885109 0 -0.00039757290802345949 0.014967774522452112 0 -0.00061892837840662345 0.014676996154886213 0 -0.00081804850231081592 0.014899285874885109 0 -0.00088100689573769912 0.015260930553447238 0 -0.00039757290802345949 0.014967774522452112 0 -0.00081804850231081592 0.014899285874885109 0 -0.00092382579842862852 0.014810464111519419 0 -0.00086075063806307554 0.014741527014902747 0 -0.00081804850231081592 0.014899285874885109 0 -0.0009285501466006112 0.014905643620071964 0 -0.00088100689573769912 0.015260930553447238 0 -0.00081804850231081592 0.014899285874885109 0 -0.00092382579842862852 0.014810464111519419 0 -0.0009285501466006112 0.014905643620071964 0 -0.00092382579842862852 0.014810464111519419 0 -0.0009285501466006112 0.014905643620071964 0 -0.00092642877722585396 0.014779754765249196 0 -0.0009285501466006112 0.014905643620071964 0 -0.00091303800304466339 0.014872343430970377 0 -0.00088100689573769912 0.015260930553447238 0 -0.00088100689573769912 0.015260930553447238 0 -5.4435019513911486e-05 0.015524189293294695 0 -0.00039757290802345949 0.014967774522452112 0 -5.0317379860155212e-05 0.016426978623250571 0 -0.00088100689573769912 0.015260930553447238 0 -5.4435019513911486e-05 0.015524189293294695 0 0.001387987823416836 0.016208982556578173 0 0.00054848344980726056 0.01604735736456165 0 0.00054072972225395867 0.015101621595765485 0 0.00054848344980726056 0.01604735736456165 0 -5.4435019513911486e-05 0.015524189293294695 0 0.00054072972225395867 0.015101621595765485 0 -0.00056092831607043592 0.022122176349639054 0 -0.00034520528497664532 0.018875866576128709 0 -0.00034520528497664532 0.018875866576128709 0 -0.0010995305397754809 0.018495272598763827 0 -5.4435019513911486e-05 0.015524189293294695 0 0.00054072972225395867 0.015101621595765485 0 -0.00039757290802345949 0.014967774522452112 0 0.00054072972225395867 0.015101621595765485 0 -0.00039757290802345949 0.014967774522452112 0 -0.00014634549660408165 0.014484446501029683 0 -0.00039757290802345949 0.014967774522452112 0 -0.00014634549660408165 0.014484446501029683 0 -0.00061892837840662345 0.014676996154886213 0 -0.0020620622985908412 0.022297062289745987 0 -0.0013557785008829477 0.021859564931552767 0 -0.00091582403469701065 0.022758416365208894 0 -0.0013306239762450073 0.023310386239963087 0 -0.0020620622985908412 0.022297062289745987 0 -0.00091582403469701065 0.022758416365208894 0 -0.0013557785008829477 0.021859564931552767 0 -0.0018948507996689287 0.021223196899925238 0 -0.0011149735653535966 0.021037577860442976 0 -0.0020620622985908412 0.022297062289745987 0 -0.0013557785008829477 0.021859564931552767 0 -0.0018948507996689287 0.021223196899925238 0 -0.0010995305397754809 0.018495272598763827 0 -0.0014672073129298031 0.017380368793100117 0 -0.0020620622985908412 0.022297062289745987 0 -0.0027667641857834408 0.02117095962248022 0 -0.0018948507996689287 0.021223196899925238 0 -0.00014634549660408165 0.014484446501029683 0 -0.00055734310148983148 0.014300115104584826 0 -0.00052814787461860722 0.014085228863890865 0 -0.00014634549660408165 0.014484446501029683 0 -0.00055734310148983148 0.014300115104584826 0 -0.0005063936541456522 0.014470106401717538 0 -0.00072279237626572527 0.014373457633880997 0 -0.0014672073129298031 0.017380368793100117 0 -0.0012185084280762672 0.014800694349616972 0 -0.0016004781585402697 0.016310103808714213 0 -0.00055734310148983148 0.014300115104584826 0 -0.00077181676358380538 0.014328504440133234 0 -0.00052814787461860722 0.014085228863890865 0 -0.0014006456771120783 0.014785400146944761 0 -0.0018638297400617111 0.015060433462452581 0 -0.0015710686595475608 0.015045542439106592 0 -0.0012010006962474592 0.014953502300911648 0 -0.0011577087586194866 0.014967191955459308 0 -0.0015800310652849931 0.015516881872622757 0 -0.0012010006962474592 0.014953502300911648 0 -0.001614722493335895 0.015462874991260664 0 -0.0015800310652849931 0.015516881872622757 0 -0.00055734310148983148 0.014300115104584826 0 -0.00067351432292495853 0.01446191871718413 0 -0.00077181676358380538 0.014328504440133234 0 -0.00067351432292495853 0.01446191871718413 0 -0.00078507713816387326 0.014494823324442295 0 -0.00077181676358380538 0.014328504440133234 0 -0.00055734310148983148 0.014300115104584826 0 -0.0005063936541456522 0.014470106401717538 0 -0.00067351432292495853 0.01446191871718413 0 -0.00014634549660408165 0.014484446501029683 0 -0.0005063936541456522 0.014470106401717538 0 -0.00061892837840662345 0.014676996154886213 0 -0.0005063936541456522 0.014470106401717538 0 -0.00067351432292495853 0.01446191871718413 0 -0.00061892837840662345 0.014676996154886213 0 -0.00067351432292495853 0.01446191871718413 0 -0.00061892837840662345 0.014676996154886213 0 -0.00079187058169325061 0.014599745387971623 0 -0.00067351432292495853 0.01446191871718413 0 -0.00079187058169325061 0.014599745387971623 0 -0.00078507713816387326 0.014494823324442295 0 -0.00061892837840662345 0.014676996154886213 0 -0.00086075063806307554 0.014741527014902747 0 -0.00079187058169325061 0.014599745387971623 0 -0.00081804850231081592 0.014899285874885109 0 -0.00061892837840662345 0.014676996154886213 0 -0.00086075063806307554 0.014741527014902747 0 -0.00092382579842862852 0.014810464111519419 0 -0.00096314628726186632 0.014737884221149886 0 -0.00092642877722585396 0.014779754765249196 0 -0.00096314628726186632 0.014737884221149886 0 -0.00086075063806307554 0.014741527014902747 0 -0.00090359254685786871 0.014678337087436088 0 -0.00092382579842862852 0.014810464111519419 0 -0.00096314628726186632 0.014737884221149886 0 -0.00086075063806307554 0.014741527014902747 0 -0.00096314628726186632 0.014737884221149886 0 -0.00090359254685786871 0.014678337087436088 0 -0.001003237369027671 0.014698007417062993 0 -0.00096314628726186632 0.014737884221149886 0 -0.0009778776522707199 0.014696347270681994 0 -0.001003237369027671 0.014698007417062993 0 -0.00086075063806307554 0.014741527014902747 0 -0.00090359254685786871 0.014678337087436088 0 -0.00079187058169325061 0.014599745387971623 0 -0.00090359254685786871 0.014678337087436088 0 -0.00079187058169325061 0.014599745387971623 0 -0.00085409698699441062 0.014562826230495473 0 -0.00085409698699441062 0.014562826230495473 0 -0.001003237369027671 0.014698007417062993 0 -0.00077181676358380538 0.014328504440133234 0 -0.0010836234729351729 0.014770964085364425 0 -0.00072279237626572527 0.014373457633880997 0 -0.00079187058169325061 0.014599745387971623 0 -0.00078507713816387326 0.014494823324442295 0 -0.00085409698699441062 0.014562826230495473 0 -0.0009778776522707199 0.014696347270681994 0 -0.001003237369027671 0.014698007417062993 0 -0.0011577087586194866 0.014967191955459308 0 -0.0009778776522707199 0.014696347270681994 0 -0.0010565447179245093 0.014761307361680274 0 -0.0011883708976496749 0.01478174509762017 0 -0.0010645655487968059 0.014745736603711696 0 -0.0012185084280762672 0.014800694349616972 0 -0.00090359254685786871 0.014678337087436088 0 -0.00085409698699441062 0.014562826230495473 0 -0.001003237369027671 0.014698007417062993 0 -0.0010565447179245093 0.014761307361680274 0 -0.0011538329499457488 0.014806769144771676 0 -0.0010653848883948813 0.014808907052420916 0 -0.0010565447179245093 0.014761307361680274 0 -0.0011538329499457488 0.014806769144771676 0 -0.0011883708976496749 0.01478174509762017 0 -0.0009778776522707199 0.014696347270681994 0 -0.0011883708976496749 0.01478174509762017 0 -0.0014006456771120783 0.014785400146944761 0 -0.0011538329499457488 0.014806769144771676 0 -0.0011883708976496749 0.01478174509762017 0 -0.0012399849403150946 0.014840391137163797 0 -0.0011538329499457488 0.014806769144771676 0 -0.0012399849403150946 0.014840391137163797 0 -0.0011392087235599195 0.014879906609806683 0 -0.0011883708976496749 0.01478174509762017 0 -0.0012399849403150946 0.014840391137163797 0 -0.0013015350623077034 0.014817545618825621 0 -0.0011538329499457488 0.014806769144771676 0 -0.0011392087235599195 0.014879906609806683 0 -0.0010653848883948813 0.014808907052420916 0 -0.00078507713816387326 0.014494823324442295 0 -0.00085409698699441062 0.014562826230495473 0 -0.00077181676358380538 0.014328504440133234 0 -0.001003237369027671 0.014698007417062993 0 -0.0012010006962474592 0.014953502300911648 0 -0.0011577087586194866 0.014967191955459308 0 -0.0011883708976496749 0.01478174509762017 0 -0.0013015350623077034 0.014817545618825621 0 -0.0014006456771120783 0.014785400146944761 0 -0.0012399849403150946 0.014840391137163797 0 -0.0013015350623077034 0.014817545618825621 0 -0.0013267327111971142 0.014857763130820345 0 -0.0013015350623077034 0.014817545618825621 0 -0.0014006456771120783 0.014785400146944761 0 -0.0013267327111971142 0.014857763130820345 0 -0.0014006456771120783 0.014785400146944761 0 -0.001393497950329618 0.014933386263209409 0 -0.0015710686595475608 0.015045542439106592 0 -0.0013267327111971142 0.014857763130820345 0 -0.001393497950329618 0.014933386263209409 0 -0.0012376560806427845 0.014934400580056958 0 -0.0014006456771120783 0.014785400146944761 0 -0.0013267327111971142 0.014857763130820345 0 -0.001393497950329618 0.014933386263209409 0 -0.001393497950329618 0.014933386263209409 0 -0.0012376560806427845 0.014934400580056958 0 -0.0013133254463254262 0.015059878118638965 0 -0.0011392087235599195 0.014879906609806683 0 -0.0012376560806427845 0.014934400580056958 0 -0.0011043561124096976 0.015040749501241787 0 -0.0012399849403150946 0.014840391137163797 0 -0.0013267327111971142 0.014857763130820345 0 -0.0012376560806427845 0.014934400580056958 0 -0.0012399849403150946 0.014840391137163797 0 -0.0011392087235599195 0.014879906609806683 0 -0.0012376560806427845 0.014934400580056958 0 -0.0013133254463254262 0.015059878118638965 0 -0.0012672517940480977 0.015247321047174018 0 -0.0011043561124096976 0.015040749501241787 0 -0.0012376560806427845 0.014934400580056958 0 -0.0013133254463254262 0.015059878118638965 0 -0.0011043561124096976 0.015040749501241787 0 -0.001393497950329618 0.014933386263209409 0 -0.0013133254463254262 0.015059878118638965 0 -0.0014535420885667557 0.015040117389180471 0 -0.0013133254463254262 0.015059878118638965 0 -0.0014663690910661814 0.015160819815835199 0 -0.0012672517940480977 0.015247321047174018 0 -0.001393497950329618 0.014933386263209409 0 -0.0014535420885667557 0.015040117389180471 0 -0.0015710686595475608 0.015045542439106592 0 -0.0014535420885667557 0.015040117389180471 0 -0.0014663690910661814 0.015160819815835199 0 -0.0015710686595475608 0.015045542439106592 0 -0.0013133254463254262 0.015059878118638965 0 -0.0014535420885667557 0.015040117389180471 0 -0.0014663690910661814 0.015160819815835199 0 -0.0014663690910661814 0.015160819815835199 0 -0.0012672517940480977 0.015247321047174018 0 -0.0016132003251739628 0.015335601186400257 0 -0.0014663690910661814 0.015160819815835199 0 -0.001629218817681387 0.015176460557288532 0 -0.0016132003251739628 0.015335601186400257 0 -0.0014672073129298031 0.017380368793100117 0 -0.0016004781585402697 0.016310103808714213 0 -0.0018638297400617111 0.015060433462452581 0 -0.0017235159933570814 0.01510113723044652 0 -0.0015710686595475608 0.015045542439106592 0 -0.0017235159933570814 0.01510113723044652 0 -0.001629218817681387 0.015176460557288532 0 -0.0017384278642796722 0.01520342026038103 0 -0.0018638297400617111 0.015060433462452581 0 -0.0017235159933570814 0.01510113723044652 0 -0.0017384278642796722 0.01520342026038103 0 -0.0014663690910661814 0.015160819815835199 0 -0.0015710686595475608 0.015045542439106592 0 -0.001629218817681387 0.015176460557288532 0 -0.0017235159933570814 0.01510113723044652 0 -0.0015710686595475608 0.015045542439106592 0 -0.001629218817681387 0.015176460557288532 0 -0.0018638297400617111 0.015060433462452581 0 -0.0018163953336914516 0.01532103681754873 0 -0.0017384278642796722 0.01520342026038103 0 -0.001629218817681387 0.015176460557288532 0 -0.0016132003251739628 0.015335601186400257 0 -0.0017384278642796722 0.01520342026038103 0 -0.0016132003251739628 0.015335601186400257 0 -0.0018163953336914516 0.01532103681754873 0 -0.0017384278642796722 0.01520342026038103 0 -0.0018638297400617111 0.015060433462452581 0 -0.0018163953336914516 0.01532103681754873 0 -0.001951336258440083 0.015352600327895044 0 -0.001789890050992525 0.015626752290267661 0 -0.0019510812576244375 0.016131135622415908 0 -0.0024204064355953965 0.015598353542871793 0 -0.001951336258440083 0.015352600327895044 0 -0.001789890050992525 0.015626752290267661 0 -0.0024204064355953965 0.015598353542871793 0 -0.0018163953336914516 0.01532103681754873 0 -0.001951336258440083 0.015352600327895044 0 -0.001789890050992525 0.015626752290267661 0 -0.0016132003251739628 0.015335601186400257 0 -0.0018163953336914516 0.01532103681754873 0 -0.001789890050992525 0.015626752290267661 0 -0.0016132003251739628 0.015335601186400257 0 -0.001789890050992525 0.015626752290267661 0 -0.0012660035367846134 0.015605247694475731 0 -0.001789890050992525 0.015626752290267661 0 -0.0012660035367846134 0.015605247694475731 0 -0.0013585940065217723 0.01618927335181166 0 -0.0012672517940480977 0.015247321047174018 0 -0.0012660035367846134 0.015605247694475731 0 -0.00094095112511333829 0.015327340705967637 0 -0.0012672517940480977 0.015247321047174018 0 -0.0016132003251739628 0.015335601186400257 0 -0.0012660035367846134 0.015605247694475731 0 -0.001789890050992525 0.015626752290267661 0 -0.0013585940065217723 0.01618927335181166 0 -0.0019510812576244375 0.016131135622415908 0 -0.0011701562294976998 0.017811496949465138 0 -0.0011747828601181348 0.017483693108668048 0 -0.0012636264579039326 0.017182412802752921 0 -0.0011747828601181348 0.017483693108668048 0 -0.00099426444691662385 0.017664206625400379 0 -0.0011079650231989664 0.017475326262821743 0 -0.0011701562294976998 0.017811496949465138 0 -0.0011747828601181348 0.017483693108668048 0 -0.00099426444691662385 0.017664206625400379 0 -0.0015708768072691161 0.016670136135268448 0 -0.0012148471657614809 0.017306502973587594 0 -0.0011747828601181348 0.017483693108668048 0 -0.0012636264579039326 0.017182412802752921 0 -0.0012286495909322036 0.01735750247224414 0 -0.0013585940065217723 0.01618927335181166 0 -0.0012636264579039326 0.017182412802752921 0 -0.0010947989183730758 0.017249206863177716 0 -0.0013585940065217723 0.01618927335181166 0 -0.0019510812576244375 0.016131135622415908 0 -0.0012636264579039326 0.017182412802752921 0 -0.0008310052328512834 0.017864560506598477 0 -0.00070384604022879832 0.017926122074655094 0 -0.00082008184231868687 0.017739075478266371 0 -0.0008310052328512834 0.017864560506598477 0 -0.00070384604022879832 0.017926122074655094 0 -0.00075392376439794022 0.017949166467692637 0 -0.00070384604022879832 0.017926122074655094 0 -0.00082008184231868687 0.017739075478266371 0 -0.00063071253077768121 0.017854918898005629 0 -0.0008310052328512834 0.017864560506598477 0 -0.00082008184231868687 0.017739075478266371 0 -0.00099426444691662385 0.017664206625400379 0 -0.0008310052328512834 0.017864560506598477 0 -0.00099426444691662385 0.017664206625400379 0 -0.000945203045610621 0.017861434621357763 0 -0.0015708768072691161 0.016670136135268448 0 -0.0020546078364550098 0.018807367518558174 0 -0.0011701562294976998 0.017811496949465138 0 -0.00099426444691662385 0.017664206625400379 0 -0.000945203045610621 0.017861434621357763 0 -0.0011701562294976998 0.017811496949465138 0 -0.00091235351896939911 0.017979875721317835 0 -0.00092722911327747324 0.018114815363135129 0 -0.0011701562294976998 0.017811496949465138 0 -0.000945203045610621 0.017861434621357763 0 -0.00091235351896939911 0.017979875721317835 0 -0.0008310052328512834 0.017864560506598477 0 -0.000945203045610621 0.017861434621357763 0 -0.00085623581295985927 0.017917913997616622 0 -0.000945203045610621 0.017861434621357763 0 -0.00091235351896939911 0.017979875721317835 0 -0.00085623581295985927 0.017917913997616622 0 -0.0010260667866634477 0.018723170260130536 0 -0.0020546078364550098 0.018807367518558174 0 -0.00091235351896939911 0.017979875721317835 0 -0.00085623581295985927 0.017917913997616622 0 -0.00075392376439794022 0.017949166467692637 0 -0.0014144543113912482 0.019402430427305304 0 -0.0015286488639052469 0.019714268538639047 0 -0.0023788673587691552 0.020489726129813066 0 -0.00091235351896939911 0.017979875721317835 0 -0.00075392376439794022 0.017949166467692637 0 -0.00092722911327747324 0.018114815363135129 0 -0.0008310052328512834 0.017864560506598477 0 -0.00085623581295985927 0.017917913997616622 0 -0.00075392376439794022 0.017949166467692637 0 -0.0014144543113912482 0.019402430427305304 0 -0.0015286488639052469 0.019714268538639047 0 -0.00073739089836770974 0.018784267684503749 0 -0.0013617731307564382 0.019589269374094859 0 -0.0010087797173148475 0.019849344034568554 0 -0.00096766642071843833 0.019550902241783019 0 -0.0013617731307564382 0.019589269374094859 0 -0.0014134035360932628 0.020133995237611998 0 -0.0010087797173148475 0.019849344034568554 0 -0.0014134035360932628 0.020133995237611998 0 -0.0020483167706892872 0.020201573078305092 0 -0.0011149735653535966 0.021037577860442976 0 -0.0014134035360932628 0.020133995237611998 0 -0.0009351660501925776 0.020293104981466616 0 -0.0010087797173148475 0.019849344034568554 0 -0.0014134035360932628 0.020133995237611998 0 -0.0011149735653535966 0.021037577860442976 0 -0.0009351660501925776 0.020293104981466616 0 -0.0013617731307564382 0.019589269374094859 0 -0.0014134035360932628 0.020133995237611998 0 -0.0020483167706892872 0.020201573078305092 0 -0.001588504198573399 0.019782405048041893 0 -0.0020546078364550098 0.018807367518558174 0 -0.0014672073129298031 0.017380368793100117 0 -0.0020546078364550098 0.018807367518558174 0 -0.0011907417582939059 0.016940611958585022 0 -0.0011214185175369288 0.017050777765073358 0 -0.002451318436513993 0.018522228625465802 0 -0.0027667641857834408 0.02117095962248022 0 -0.001979685677518917 0.020212723421579225 0 -0.0018948507996689287 0.021223196899925238 0 -0.0016004781585402697 0.016310103808714213 0 -0.0020546078364550098 0.018807367518558174 0 -0.0018638297400617111 0.015060433462452581 0 -0.001951336258440083 0.015352600327895044 0 -0.0024204064355953965 0.015598353542871793 0 -0.0020546078364550098 0.018807367518558174 0 -0.001009533077119467 0.021409529692519115 0 -0.001979685677518917 0.020212723421579225 0 -0.0018948507996689287 0.021223196899925238 0 -0.0011149735653535966 0.021037577860442976 0 -0.0011149735653535966 0.021037577860442976 0 -0.00018158752787409809 0.02098892090147118 0 -0.00028366841020703771 0.021519582362759537 0 -0.0011149735653535966 0.021037577860442976 0 -0.00018158752787409809 0.02098892090147118 0 -0.00046698547696103236 0.020504411778715315 0 -0.0011149735653535966 0.021037577860442976 0 -0.0009351660501925776 0.020293104981466616 0 -0.00046698547696103236 0.020504411778715315 0 -0.00018158752787409809 0.02098892090147118 0 0.00023909052630696702 0.020495632358900742 0 0.00044696780711388185 0.021705284902409836 0 -0.00018158752787409809 0.02098892090147118 0 0.00023909052630696702 0.020495632358900742 0 -0.00046698547696103236 0.020504411778715315 0 0.00023909052630696702 0.020495632358900742 0 -4.9601156077579397e-05 0.020051052193370032 0 0.00049831973262806845 0.01971273543634583 0 0.00023909052630696702 0.020495632358900742 0 -4.9601156077579397e-05 0.020051052193370032 0 -0.00046698547696103236 0.020504411778715315 0 -0.0009351660501925776 0.020293104981466616 0 -0.00046698547696103236 0.020504411778715315 0 -0.00057648922780368739 0.019979142064301229 0 -4.9601156077579397e-05 0.020051052193370032 0 -0.00057648922780368739 0.019979142064301229 0 -0.00021877247878936866 0.01961321643962215 0 -4.9601156077579397e-05 0.020051052193370032 0 -0.00046698547696103236 0.020504411778715315 0 -0.00057648922780368739 0.019979142064301229 0 -0.0009351660501925776 0.020293104981466616 0 -0.00057648922780368739 0.019979142064301229 0 -0.0010087797173148475 0.019849344034568554 0 -0.00057648922780368739 0.019979142064301229 0 -0.0010087797173148475 0.019849344034568554 0 -0.00067553581596440228 0.019558484078250563 0 -0.0010087797173148475 0.019849344034568554 0 -0.00067553581596440228 0.019558484078250563 0 -0.00096766642071843833 0.019550902241783019 0 -0.0013617731307564382 0.019589269374094859 0 -0.00096766642071843833 0.019550902241783019 0 -0.00082861629918288984 0.0192968176100538 0 -0.00067553581596440228 0.019558484078250563 0 -0.00096766642071843833 0.019550902241783019 0 -0.00082861629918288984 0.0192968176100538 0 -0.0013617731307564382 0.019589269374094859 0 -0.00082861629918288984 0.0192968176100538 0 -0.00073739089836770974 0.018784267684503749 0 -0.001588504198573399 0.019782405048041893 0 -0.00074563736186326651 0.018827509308186295 0 -0.00082861629918288984 0.0192968176100538 0 -0.00040168338938112674 0.019205715757660752 0 -0.00073739089836770974 0.018784267684503749 0 -0.00067553581596440228 0.019558484078250563 0 -0.00082861629918288984 0.0192968176100538 0 -0.00040168338938112674 0.019205715757660752 0 -0.00067553581596440228 0.019558484078250563 0 -0.00040168338938112674 0.019205715757660752 0 -0.00021877247878936866 0.01961321643962215 0 -0.00057648922780368739 0.019979142064301229 0 -0.00067553581596440228 0.019558484078250563 0 -0.00021877247878936866 0.01961321643962215 0 0.00049831973262806845 0.01971273543634583 0 0.00015770593935744023 0.019300784222333365 0 0.0008190278221039143 0.019159138945009601 0 -0.00021877247878936866 0.01961321643962215 0 0.00049831973262806845 0.01971273543634583 0 0.00015770593935744023 0.019300784222333365 0 -4.9601156077579397e-05 0.020051052193370032 0 -0.00021877247878936866 0.01961321643962215 0 0.00049831973262806845 0.01971273543634583 0 -0.00040168338938112674 0.019205715757660752 0 0.00015770593935744023 0.019300784222333365 0 -0.00012325364202951929 0.01872168048266485 0 -0.00040168338938112674 0.019205715757660752 0 -0.00021877247878936866 0.01961321643962215 0 0.00015770593935744023 0.019300784222333365 0 -0.00012325364202951929 0.01872168048266485 0 0.0008190278221039143 0.019159138945009601 0 -0.00022729820797141417 0.017799642471041655 0 0.00015770593935744023 0.019300784222333365 0 -0.00012325364202951929 0.01872168048266485 0 0.0008190278221039143 0.019159138945009601 0 0.0008190278221039143 0.019159138945009601 0 0.00080995867337983079 0.019189525414612243 0 0.00058922526721903561 0.019203407866464559 0 0.00075716411106963412 0.019076181614346367 0 0.0001774335662294153 0.018518696125489915 0 -0.00012325364202951929 0.01872168048266485 0 -0.00043106819205010818 0.018157438665979905 0 -0.00022729820797141417 0.017799642471041655 0 -0.0014144543113912482 0.019402430427305304 0 -0.00043106819205010818 0.018157438665979905 0 -0.00073739089836770974 0.018784267684503749 0 -0.0010260667866634477 0.018723170260130536 0 -0.00047240587984880196 0.018142113195669073 0 -0.00070384604022879832 0.017926122074655094 0 -0.00075392376439794022 0.017949166467692637 0 -0.00043106819205010818 0.018157438665979905 0 -0.00043106819205010818 0.018157438665979905 0 -0.00063071253077768121 0.017854918898005629 0 -0.00022729820797141417 0.017799642471041655 0 -0.00070384604022879832 0.017926122074655094 0 -0.00043106819205010818 0.018157438665979905 0 -0.00063071253077768121 0.017854918898005629 0 -0.00040168338938112674 0.019205715757660752 0 -0.00012325364202951929 0.01872168048266485 0 -0.00073739089836770974 0.018784267684503749 0 -0.00012325364202951929 0.01872168048266485 0 -0.00043106819205010818 0.018157438665979905 0 -0.00073739089836770974 0.018784267684503749 0 0.00096886854252880184 0.019272596373689926 0 0.001103154811607263 0.019298618572574339 0 0.0011572068473292921 0.019563434825515237 0 0.00069285364073369213 0.020433161207681214 0 0.0011078548355830361 0.019596643211213828 0 0.00021636376820167175 0.021550135962540413 0 0.0015562354528113637 0.021271687963380598 0 0.0011572068473292921 0.019563434825515237 0 0.00096886854252880184 0.019272596373689926 0 0.0008190278221039143 0.019159138945009601 0 0.00080995867337983079 0.019189525414612243 0 0.00096886854252880184 0.019272596373689926 0 0.0008190278221039143 0.019159138945009601 0 0.001103154811607263 0.019298618572574339 0 0.00069285364073369213 0.020433161207681214 0 0.0004119901607833055 0.021580366362239162 0 0.00049831973262806845 0.01971273543634583 0 0.001103154811607263 0.019298618572574339 0 0.00091000508549244805 0.02035834511123661 0 0.00049831973262806845 0.01971273543634583 0 0.0008190278221039143 0.019159138945009601 0 0.001103154811607263 0.019298618572574339 0 0.00021636376820167175 0.021550135962540413 0 0.0007271369413391083 0.022368851673414538 0 -7.214517181906136e-05 0.022819808173843863 0 0.00021636376820167175 0.021550135962540413 0 0.0007271369413391083 0.022368851673414538 0 0.0015562354528113637 0.021271687963380598 0 0.0007271369413391083 0.022368851673414538 0 -7.214517181906136e-05 0.022819808173843863 0 0.0001098761623943375 0.023078357066433526 0 0.00071158888166946842 0.02243258159642101 0 0.00056870836192821886 0.023688538355079277 0 0.00023909052630696702 0.020495632358900742 0 0.00049831973262806845 0.01971273543634583 0 0.00091000508549244805 0.02035834511123661 0 0.0004119901607833055 0.021580366362239162 0 0.00013903077928975762 0.02253903098723849 0 -7.214517181906136e-05 0.022819808173843863 0 0.0001098761623943375 0.023078357066433526 0 -0.00013482624467649773 0.023390849613846937 0 0.00023909052630696702 0.020495632358900742 0 0.00091000508549244805 0.02035834511123661 0 0.00044696780711388185 0.021705284902409836 0 0.0007271369413391083 0.022368851673414538 0 0.00057023259700692268 0.024277246212513696 0 0.0012427589740364644 0.02401813532472279 0 0.0007271369413391083 0.022368851673414538 0 0.0001098761623943375 0.023078357066433526 0 0.00052211173259634873 0.023134296846458919 0 0.0001098761623943375 0.023078357066433526 0 0.00052211173259634873 0.023134296846458919 0 3.2921772275836087e-05 0.023460081479986149 0 0.00057023259700692268 0.024277246212513696 0 0.0010219258918053643 0.024900875650694713 0 0.0012427589740364644 0.02401813532472279 0 0.00057023259700692268 0.024277246212513696 0 0.0005048979496546425 0.025749563146633257 0 0.0010219258918053643 0.024900875650694713 0 0.00052211173259634873 0.023134296846458919 0 0.00054989214159723227 0.024822115087340973 0 3.2921772275836087e-05 0.023460081479986149 0 0.00056870836192821886 0.023688538355079277 0 0.00050162725562250205 0.025327777979435376 0 0.0005048979496546425 0.025749563146633257 0 0.0013246510108380553 0.025571674191212045 0 0.0010219258918053643 0.024900875650694713 0 0.0005048979496546425 0.025749563146633257 0 0.00095127944123605938 0.026553697068884295 0 0.0013246510108380553 0.025571674191212045 0 0.00054989214159723227 0.024822115087340973 0 -0.0011280486857973776 0.02510932513661774 0 3.2921772275836087e-05 0.023460081479986149 0 0.00054989214159723227 0.024822115087340973 0 -0.0011280486857973776 0.02510932513661774 0 -0.00032169368050648147 0.025915153890540207 0 -0.0005147267975424666 0.023971327016377084 0 -7.7543935326954599e-05 0.023553037103362158 0 0.0001098761623943375 0.023078357066433526 0 3.2921772275836087e-05 0.023460081479986149 0 -0.00013482624467649773 0.023390849613846937 0 -0.00017427436266125417 0.023210692368613544 0 3.2921772275836087e-05 0.023460081479986149 0 -0.00013482624467649773 0.023390849613846937 0 0.00044696780711388185 0.021705284902409836 0 -0.00028366841020703771 0.021519582362759537 0 -0.00065123779399773544 0.022046257310987853 0 -0.00018158752787409809 0.02098892090147118 0 0.00044696780711388185 0.021705284902409836 0 -0.00028366841020703771 0.021519582362759537 0 -0.0013557785008829477 0.021859564931552767 0 -0.0011149735653535966 0.021037577860442976 0 -0.00065123779399773544 0.022046257310987853 0 -0.0011149735653535966 0.021037577860442976 0 -0.00028366841020703771 0.021519582362759537 0 -0.00065123779399773544 0.022046257310987853 0 -0.00065123779399773544 0.022046257310987853 0 -0.00091582403469701065 0.022758416365208894 0 -0.00018407104488789175 0.023115166423588688 0 -0.0013557785008829477 0.021859564931552767 0 -0.00065123779399773544 0.022046257310987853 0 -0.00091582403469701065 0.022758416365208894 0 0.00044696780711388185 0.021705284902409836 0 -0.00065123779399773544 0.022046257310987853 0 -0.00018407104488789175 0.023115166423588688 0 0.00013903077928975762 0.02253903098723849 0 -0.00015294813883544171 0.023099883260024379 0 -0.00017427436266125417 0.023210692368613544 0 -0.00013482624467649773 0.023390849613846937 0 -0.00018407104488789175 0.023115166423588688 0 -0.0005147267975424666 0.023971327016377084 0 -0.0016522278842802554 0.026006845845634077 0 -0.00017427436266125417 0.023210692368613544 0 -0.00018407104488789175 0.023115166423588688 0 -0.0002079391252665701 0.023300000036097328 0 -0.0011280486857973776 0.02510932513661774 0 -0.002246961624004333 0.02694643014583236 0 -0.00095002935598102669 0.02652216200198626 0 -0.00018407104488789175 0.023115166423588688 0 -0.0002079391252665701 0.023300000036097328 0 -0.00058259983306726431 0.023188778561807295 0 -0.002246961624004333 0.02694643014583236 0 -0.0010577727812724382 0.027751488215556279 0 -0.00095002935598102669 0.02652216200198626 0 -0.0013306239762450073 0.023310386239963087 0 -0.00091582403469701065 0.022758416365208894 0 -0.00058259983306726431 0.023188778561807295 0 -0.0013306239762450073 0.023310386239963087 0 -0.00058259983306726431 0.023188778561807295 0 -0.00069943124615251052 0.023490836853633179 0 -0.00091582403469701065 0.022758416365208894 0 -0.00018407104488789175 0.023115166423588688 0 -0.00058259983306726431 0.023188778561807295 0 -0.0002079391252665701 0.023300000036097328 0 -0.00058259983306726431 0.023188778561807295 0 -0.00069943124615251052 0.023490836853633179 0 -0.00071205697832968937 0.024186043444707733 0 -0.0013306239762450073 0.023310386239963087 0 -0.00069943124615251052 0.023490836853633179 0 -0.00056092831607043592 0.022122176349639054 0 -0.0016522278842802554 0.026006845845634077 0 -0.00071205697832968937 0.024186043444707733 0 -0.0002079391252665701 0.023300000036097328 0 -0.00069943124615251052 0.023490836853633179 0 -0.0015605078718612354 0.029038871346784418 0 -0.0021110297424218392 0.028060692099848666 0 -0.0010577727812724382 0.027751488215556279 0 -0.0033075055342020915 0.028656009892480731 0 -0.002246961624004333 0.02694643014583236 0 -0.0021110297424218392 0.028060692099848666 0 -0.002246961624004333 0.02694643014583236 0 -0.0021110297424218392 0.028060692099848666 0 -0.0010577727812724382 0.027751488215556279 0 -0.0010577727812724382 0.027751488215556279 0 0.00027040438104872721 0.027225569829196616 0 -0.00095002935598102669 0.02652216200198626 0 -4.9309833531969634e-05 0.02874982746000768 0 -0.0010577727812724382 0.027751488215556279 0 0.00027040438104872721 0.027225569829196616 0 -4.9309833531969634e-05 0.02874982746000768 0 0.00027040438104872721 0.027225569829196616 0 0.0014833659395977225 0.028048812727442099 0 0.00027040438104872721 0.027225569829196616 0 0.00095127944123605938 0.026553697068884295 0 0.0014833659395977225 0.028048812727442099 0 0.00050162725562250205 0.025327777979435376 0 0.00029241562647207173 0.027112428530107698 0 0.00054989214159723227 0.024822115087340973 0 0.00027040438104872721 0.027225569829196616 0 -0.00032169368050648147 0.025915153890540207 0 0.0005048979496546425 0.025749563146633257 0 0.00027040438104872721 0.027225569829196616 0 0.00095127944123605938 0.026553697068884295 0 -0.0011280486857973776 0.02510932513661774 0 -0.00032169368050648147 0.025915153890540207 0 -0.00095002935598102669 0.02652216200198626 0 0.00027040438104872721 0.027225569829196616 0 -0.00032169368050648147 0.025915153890540207 0 -0.00095002935598102669 0.02652216200198626 0 0.0011390700088821425 0.029057220526333218 0 0.0016910320648549722 0.030080513234599728 0 0.0026481014419150544 0.029442488952936462 0 0.0011390700088821425 0.029057220526333218 0 0.0026481014419150544 0.029442488952936462 0 0.0021761639140819322 0.028047097795855937 0 0.00095127944123605938 0.026553697068884295 0 0.0018157817331362564 0.026545789298123911 0 0.0014833659395977225 0.028048812727442099 0 0.0014858713330400878 0.027795530724573542 0 0.0011779359174388219 0.029265009614754704 0 0.0011390700088821425 0.029057220526333218 0 0.00088763262646947608 0.030490655020331336 0 0.0016910320648549722 0.030080513234599728 0 0.0020783654210062537 0.031000510300334742 0 0.00088763262646947608 0.030490655020331336 0 0.0016910320648549722 0.030080513234599728 0 0.0020783654210062537 0.031000510300334742 0 0.0016910320648549722 0.030080513234599728 0 0.0026481014419150544 0.029442488952936462 0 0.0010772508469737735 0.037732180340794584 0 0.0013288470713695196 0.03707369370674108 0 2.4109078483289148e-05 0.044724160420514927 0 9.8869898340966504e-06 0.044772746397003384 0 5.4014628061571244e-06 0.044714746307255103 0 9.8869898340966504e-06 0.044772746397003384 0 2.014905601495036e-06 0.044781966140055279 0 7.2330845935466325e-06 0.044849250811575071 0 9.8869898340966504e-06 0.044772746397003384 0 2.014905601495036e-06 0.044781966140055279 0 5.4014628061571244e-06 0.044714746307255103 0 0.0026481014419150544 0.029442488952936462 0 0.0033759419414724477 0.026693839818320669 0 0.0021761639140819322 0.028047097795855937 0 0.0013288470713695196 0.03707369370674108 0 0.0016649829581364833 0.035665141391761288 0 2.014905601495036e-06 0.044781966140055279 0 5.4014628061571244e-06 0.044714746307255103 0 -1.6261595630841042e-05 0.044686589043116523 0 2.014905601495036e-06 0.044781966140055279 0 -1.2321468880101571e-05 0.0447752571636496 0 -1.6261595630841042e-05 0.044686589043116523 0 -1.2321468880101571e-05 0.0447752571636496 0 -1.6261595630841042e-05 0.044686589043116523 0 -2.7742115833213067e-05 0.04472211541576547 0 0.0022124411385186921 0.025233898981211846 0 0.0015570736589114135 0.024771044053758812 0 0.0019318532759927812 0.024166531897610512 0 0.0033759419414724477 0.026693839818320669 0 0.0016840828626928607 0.026846051076541196 0 0.0026866437417370466 0.024077471060295258 0 0.001980066014140529 0.026006931754657257 0 0.0026300151965156153 0.024202145010512415 0 0.0033759419414724477 0.026693839818320669 0 0.0016840828626928607 0.026846051076541196 0 0.0021761639140819322 0.028047097795855937 0 0.0011390700088821425 0.029057220526333218 0 0.0016840828626928607 0.026846051076541196 0 0.0021761639140819322 0.028047097795855937 0 0.0014858713330400878 0.027795530724573542 0 0.001980066014140529 0.026006931754657257 0 0.0018157817331362564 0.026545789298123911 0 0.0022124411385186921 0.025233898981211846 0 0.0013246510108380553 0.025571674191212045 0 0.00095127944123605938 0.026553697068884295 0 0.0018157817331362564 0.026545789298123911 0 0.0013246510108380553 0.025571674191212045 0 0.0013246510108380553 0.025571674191212045 0 0.0015570736589114135 0.024771044053758812 0 0.0010219258918053643 0.024900875650694713 0 0.0022124411385186921 0.025233898981211846 0 0.0013246510108380553 0.025571674191212045 0 0.0015570736589114135 0.024771044053758812 0 0.0015570736589114135 0.024771044053758812 0 0.0010219258918053643 0.024900875650694713 0 0.0012427589740364644 0.02401813532472279 0 0.0015570736589114135 0.024771044053758812 0 0.0012427589740364644 0.02401813532472279 0 0.0019318532759927812 0.024166531897610512 0 0.0012427589740364644 0.02401813532472279 0 0.0019318532759927812 0.024166531897610512 0 0.001584239859806653 0.023283381691180598 0 0.0022124411385186921 0.025233898981211846 0 0.0019318532759927812 0.024166531897610512 0 0.0026866437417370466 0.024077471060295258 0 0.0019318532759927812 0.024166531897610512 0 0.0026866437417370466 0.024077471060295258 0 0.0022391367655760245 0.023163403557277504 0 0.0026866437417370466 0.024077471060295258 0 0.0022391367655760245 0.023163403557277504 0 0.0029725320792295109 0.022751817915755972 0 0.0019318532759927812 0.024166531897610512 0 0.0022391367655760245 0.023163403557277504 0 0.001584239859806653 0.023283381691180598 0 0.0022391367655760245 0.023163403557277504 0 0.001709715616812043 0.022406533452289216 0 0.0024198973734692784 0.022003073860078871 0 0.0022391367655760245 0.023163403557277504 0 0.0024198973734692784 0.022003073860078871 0 0.0029725320792295109 0.022751817915755972 0 0.0007271369413391083 0.022368851673414538 0 0.0012427589740364644 0.02401813532472279 0 0.001584239859806653 0.023283381691180598 0 0.0022391367655760245 0.023163403557277504 0 0.001584239859806653 0.023283381691180598 0 0.001709715616812043 0.022406533452289216 0 0.0007271369413391083 0.022368851673414538 0 0.001584239859806653 0.023283381691180598 0 0.001709715616812043 0.022406533452289216 0 0.0007271369413391083 0.022368851673414538 0 0.001709715616812043 0.022406533452289216 0 0.0015562354528113637 0.021271687963380598 0 0.001709715616812043 0.022406533452289216 0 0.0024198973734692784 0.022003073860078871 0 0.0015562354528113637 0.021271687963380598 0 0.0024198973734692784 0.022003073860078871 0 0.0024604947585769423 0.021121954257320677 0 0.0015562354528113637 0.021271687963380598 0 0.0024198973734692784 0.022003073860078871 0 0.0024604947585769423 0.021121954257320677 0 0.0036173506979754345 0.021400320199705055 0 0.0024604947585769423 0.021121954257320677 0 0.0015562354528113637 0.021271687963380598 0 0.0024307097213272016 0.019985764890131281 0 0.0024604947585769423 0.021121954257320677 0 0.0036173506979754345 0.021400320199705055 0 0.0024307097213272016 0.019985764890131281 0 0.0015562354528113637 0.021271687963380598 0 0.0024307097213272016 0.019985764890131281 0 0.0011572068473292921 0.019563434825515237 0 -0.00011149791305133222 0.044631601326601655 0 -0.00011220040347249672 0.044723169538574498 0 -0.00021568646481866764 0.044575860542592646 0 0.0017576710376497242 0.032994683006348668 0 0.0015863877047329691 0.032327945575061481 0 0.0017576710376497242 0.032994683006348668 0 0.0018055731628703294 0.034072926234779297 0 0.0024198973734692784 0.022003073860078871 0 0.0036173506979754345 0.021400320199705055 0 0.0029725320792295109 0.022751817915755972 0 -0.00011149791305133222 0.044631601326601655 0 -7.3546079377534321e-05 0.044724075892326881 0 -4.9489742521377798e-05 0.044656088611605436 0 -0.00011149791305133222 0.044631601326601655 0 -7.3546079377534321e-05 0.044724075892326881 0 -0.00011220040347249672 0.044723169538574498 0 -7.3546079377534321e-05 0.044724075892326881 0 -4.9489742521377798e-05 0.044656088611605436 0 -3.7257482904866654e-05 0.044770095314854333 0 0.0026866437417370466 0.024077471060295258 0 0.0036829540072098577 0.023428869904355078 0 0.0029725320792295109 0.022751817915755972 0 0.0036173506979754345 0.021400320199705055 0 0.0036829540072098577 0.023428869904355078 0 0.0029725320792295109 0.022751817915755972 0 0.0033759419414724477 0.026693839818320669 0 0.0026866437417370466 0.024077471060295258 0 0.0036829540072098577 0.023428869904355078 0 0.0016649829581364833 0.035665141391761288 0 0.0018055731628703294 0.034072926234779297 0 -1.6261595630841042e-05 0.044686589043116523 0 -4.9489742521377798e-05 0.044656088611605436 0 -2.7742115833213067e-05 0.04472211541576547 0 -1.2321468880101571e-05 0.0447752571636496 0 -2.7742115833213067e-05 0.04472211541576547 0 -3.7257482904866654e-05 0.044770095314854333 0 -4.9489742521377798e-05 0.044656088611605436 0 -2.7742115833213067e-05 0.04472211541576547 0 -3.7257482904866654e-05 0.044770095314854333 0 -1.2321468880101571e-05 0.0447752571636496 0 -3.7257482904866654e-05 0.044770095314854333 0 -2.4667454600319631e-05 0.044825230916905635 0 -3.7257482904866654e-05 0.044770095314854333 0 -2.9617416366279424e-05 0.044849285919040922 0 -2.4667454600319631e-05 0.044825230916905635 0 -2.9617416366279424e-05 0.044849285919040922 0 -2.0026915077927635e-05 0.044904237577097911 0 -2.4667454600319631e-05 0.044825230916905635 0 -2.9617416366279424e-05 0.044849285919040922 0 -4.6024085983420916e-05 0.04483007533574427 0 -1.9937565422609743e-05 0.044914759282699689 0 -3.7257482904866654e-05 0.044770095314854333 0 -2.9617416366279424e-05 0.044849285919040922 0 -4.6024085983420916e-05 0.04483007533574427 0 -7.3546079377534321e-05 0.044724075892326881 0 -3.7257482904866654e-05 0.044770095314854333 0 -4.6024085983420916e-05 0.04483007533574427 0 -7.3546079377534321e-05 0.044724075892326881 0 -4.6024085983420916e-05 0.04483007533574427 0 -0.00011220040347249672 0.044723169538574498 0 -4.6024085983420916e-05 0.04483007533574427 0 -0.00011220040347249672 0.044723169538574498 0 -3.6920989042649651e-05 0.044858459343776177 0 2.9497567376058827e-08 0.044999827794520185 0 -1.8449502118872216e-05 0.044922357362317443 0 -3.6920989042649651e-05 0.044858459343776177 0 -4.6024085983420916e-05 0.04483007533574427 0 -1.8449502118872216e-05 0.044922357362317443 0 -3.6920989042649651e-05 0.044858459343776177 0 -4.6024085983420916e-05 0.04483007533574427 0 -1.8449502118872216e-05 0.044922357362317443 0 -1.9937565422609743e-05 0.044914759282699689 0 -1.8449502118872216e-05 0.044922357362317443 0 -2.0157527139639928e-08 0.044999914832221176 0 -1.9937565422609743e-05 0.044914759282699689 0 2.9497567376058827e-08 0.044999827794520185 0 -1.8449502118872216e-05 0.044922357362317443 0 -2.0157527139639928e-08 0.044999914832221176 0 -2.0157527139639928e-08 0.044999914832221176 0 -1.9937565422609743e-05 0.044914759282699689 0 -2.0078752439114861e-08 0.0449998525861963 0 -2.9617416366279424e-05 0.044849285919040922 0 -1.9937565422609743e-05 0.044914759282699689 0 -2.0026915077927635e-05 0.044904237577097911 0 -1.9937565422609743e-05 0.044914759282699689 0 -2.0026915077927635e-05 0.044904237577097911 0 -2.0078752439114861e-08 0.0449998525861963 0 -6.4054565263036367e-06 0.044925770777423719 0 1.9713287385543032e-09 0.044999964064712669 0 1.3866879151252339e-06 0.044948465528355686 0 3.4288523413218477e-09 0.044999959179556563 0 -4.5180038873711812e-09 0.044999898954449995 0 1.3866879151252339e-06 0.044948465528355686 0 -4.5180038873711812e-09 0.044999898954449995 0 4.2346001493423441e-06 0.044919087456035449 0 1.3866879151252339e-06 0.044948465528355686 0 4.2346001493423441e-06 0.044919087456035449 0 5.7847339717628755e-06 0.04487661557973107 0 -6.4054565263036367e-06 0.044925770777423719 0 -1.1331184006220553e-05 0.044850016538850478 0 -1.2935386613017183e-05 0.044794325813654591 0 -1.1331184006220553e-05 0.044850016538850478 0 -1.2321468880101571e-05 0.0447752571636496 0 5.7847339717628755e-06 0.04487661557973107 0 5.5946201166524469e-06 0.044841256934845031 0 2.014905601495036e-06 0.044781966140055279 0 -1.2321468880101571e-05 0.0447752571636496 0 5.5946201166524469e-06 0.044841256934845031 0 4.2346001493423441e-06 0.044919087456035449 0 5.7847339717628755e-06 0.04487661557973107 0 5.5946201166524469e-06 0.044841256934845031 0 4.2346001493423441e-06 0.044919087456035449 0 7.2330845935466325e-06 0.044849250811575071 0 4.1931964441315732e-06 0.044927413552520001 0 4.2346001493423441e-06 0.044919087456035449 0 5.5946201166524469e-06 0.044841256934845031 0 7.2330845935466325e-06 0.044849250811575071 0 2.014905601495036e-06 0.044781966140055279 0 5.5946201166524469e-06 0.044841256934845031 0 7.2330845935466325e-06 0.044849250811575071 0 6.869749374770851e-06 0.044869943376619197 0 9.6147338883512719e-06 0.044818947497358097 0 7.2330845935466325e-06 0.044849250811575071 0 9.6147338883512719e-06 0.044818947497358097 0 9.8869898340966504e-06 0.044772746397003384 0 7.2330845935466325e-06 0.044849250811575071 0 6.869749374770851e-06 0.044869943376619197 0 7.2330845935466325e-06 0.044849250811575071 0 4.1931964441315732e-06 0.044927413552520001 0 4.2346001493423441e-06 0.044919087456035449 0 4.1931964441315732e-06 0.044927413552520001 0 5.9872290097545186e-09 0.044999911289083948 0 -4.5180038873711812e-09 0.044999898954449995 0 4.2346001493423441e-06 0.044919087456035449 0 5.9872290097545186e-09 0.044999911289083948 0 -0.00040091476419828776 0.013387976350406845 0 -0.00040225243797710724 0.013396000583378576 0 -0.00038797354570814003 0.013363325016428649 0 -0.00040046385806082388 0.013421698925586084 0 -0.00040091476419828776 0.013387976350406845 0 -0.00040225243797710724 0.013396000583378576 0 -0.00040091476419828776 0.013387976350406845 0 -0.00040202766405828542 0.013373851796049413 0 -0.00040221370873772753 0.01339100688835029 0 -0.00040091476419828776 0.013387976350406845 0 -0.00040108011854143714 0.01341711971317525 0 -0.00040221370873772753 0.01339100688835029 0 -0.00040046385806082388 0.013421698925586084 0 -0.00040091476419828776 0.013387976350406845 0 -0.00040108011854143714 0.01341711971317525 0 -0.00040108011854143714 0.01341711971317525 0 -0.00039663409901457257 0.013445549851647455 0 -0.00039627930539954965 0.013446708546688269 0 -0.00040046385806082388 0.013421698925586084 0 -0.00040108011854143714 0.01341711971317525 0 -0.00039663409901457257 0.013445549851647455 0 -0.00039663409901457257 0.013445549851647455 0 -0.0003877331992127629 0.013485059586286959 0 -0.00039627930539954965 0.013446708546688269 0 -0.00039663409901457257 0.013445549851647455 0 -0.0003877331992127629 0.013485059586286959 0 -0.00039350031743167683 0.013449904287213578 0 -0.0003877331992127629 0.013485059586286959 0 -0.00038226166315218508 0.013470610160609464 0 -0.00037666210221716398 0.013538932939793837 0 -0.0003877331992127629 0.013485059586286959 0 -0.00038213362881694708 0.013492022191092589 0 -0.00037666210221716398 0.013538932939793837 0 -0.0003877331992127629 0.013485059586286959 0 -0.00039350031743167683 0.013449904287213578 0 -0.00038226166315218508 0.013470610160609464 0 -0.00040046385806082388 0.013421698925586084 0 -0.00039350031743167683 0.013449904287213578 0 -0.00039750644161897674 0.013415809014487251 0 -0.00040046385806082388 0.013421698925586084 0 -0.00039663409901457257 0.013445549851647455 0 -0.00039350031743167683 0.013449904287213578 0 -0.00017744013264954335 0.013767280619038679 0 -0.00033508298127930196 0.013683634503534381 0 -0.00020841681743101134 0.013859480448696329 0 -0.00039350031743167683 0.013449904287213578 0 -0.00039750644161897674 0.013415809014487251 0 -0.00038226166315218508 0.013470610160609464 0 -0.0002918695681485312 0.013586370780249709 0 -0.00035770801356750257 0.013581747186703109 0 -0.00033508298127930196 0.013683634503534381 0 -0.00033822629270203195 0.013857533839819244 0 -0.0004078285027549439 0.013792903289980793 0 -0.00033508298127930196 0.013683634503534381 0 -0.00033822629270203195 0.013857533839819244 0 -0.00020841681743101134 0.013859480448696329 0 -0.00033822629270203195 0.013857533839819244 0 -0.00020841681743101134 0.013859480448696329 0 -0.00028245482545987598 0.014039052462468851 0 -0.00021553951225296845 0.013845915627362475 0 -0.00013262720002283886 0.013839973025585801 0 -0.00017744013264954335 0.013767280619038679 0 -0.00020841681743101134 0.013859480448696329 0 -0.00021404009156425146 0.013616827026964467 0 -0.00017744013264954335 0.013767280619038679 0 -0.00028731456560848636 0.013635093978850481 0 -0.00021404009156425146 0.013616827026964467 0 -0.00040046385806082388 0.013421698925586084 0 -0.00039750644161897674 0.013415809014487251 0 -0.00040225243797710724 0.013396000583378576 0 -0.00039750644161897674 0.013415809014487251 0 -0.00040225243797710724 0.013396000583378576 0 -0.00040367713098703526 0.013391987697980282 0 -0.0002918695681485312 0.013586370780249709 0 -0.00033677684377622738 0.013511334259916172 0 -0.00040225243797710724 0.013396000583378576 0 -0.00040367713098703526 0.013391987697980282 0 -0.00038797354570814003 0.013363325016428649 0 -0.00033677684377622738 0.013511334259916172 0 -0.00036587636597865743 0.013424177407646634 0 -0.00040367713098703526 0.013391987697980282 0 -0.00037114424383166467 0.013403966989940976 0 -0.00038797354570814003 0.013363325016428649 0 -0.00037114424383166467 0.013403966989940976 0 -0.00034418038753646351 0.01333893448817714 0 -0.00031481164781237023 0.013327734307246932 0 -0.00037114424383166467 0.013403966989940976 0 -0.00034418038753646351 0.01333893448817714 0 -0.00038797354570814003 0.013363325016428649 0 -0.00034418038753646351 0.01333893448817714 0 -0.00038797354570814003 0.013363325016428649 0 -0.00035805028873969551 0.013326144791123982 0 -0.00012031584593788652 0.013085902815603168 0 0.00011041102723124445 0.011887487854156163 0 -0.0011367961194423644 0.01151886864225601 0 -0.00015868289055426729 0.01306546310457137 0 -0.00069094934152580129 0.012418060963615595 0 -0.00034418038753646351 0.01333893448817714 0 -0.00029784021072540962 0.013282596691304551 0 -0.00031481164781237023 0.013327734307246932 0 -0.00029784021072540962 0.013282596691304551 0 -0.00025048940963862874 0.013238767009448545 0 -0.00031481164781237023 0.013327734307246932 0 -0.00069094934152580129 0.012418060963615595 0 -0.0011730285320426615 0.011713925234852708 0 -0.0011367961194423644 0.01151886864225601 0 -0.00088290281335528381 0.01006381397740113 0 -0.0019997859219640299 0.010115383686539336 0 -0.00034418038753646351 0.01333893448817714 0 -0.00029784021072540962 0.013282596691304551 0 -0.00035805028873969551 0.013326144791123982 0 7.4236666218645015e-05 0.010875407633028626 0 -0.0011367961194423644 0.01151886864225601 0 -0.00088290281335528381 0.01006381397740113 0 0.00015939751395985737 0.0097863880884119948 0 -0.00088290281335528381 0.01006381397740113 0 -0.00062123256361377706 0.0090806313070746908 0 -0.00088290281335528381 0.01006381397740113 0 -0.0013620539176492563 0.0091858672226607409 0 -0.00062123256361377706 0.0090806313070746908 0 -0.00088290281335528381 0.01006381397740113 0 -0.0019997859219640299 0.010115383686539336 0 -0.0013620539176492563 0.0091858672226607409 0 -0.0019997859219640299 0.010115383686539336 0 -0.0019777738727615995 0.0086744372428780112 0 -0.0013620539176492563 0.0091858672226607409 0 -0.0019777738727615995 0.0086744372428780112 0 -0.0012430553134722396 0.008544161236962472 0 -0.0017598009236103845 0.0079721360759462921 0 -0.0019777738727615995 0.0086744372428780112 0 -0.0013620539176492563 0.0091858672226607409 0 -0.0012430553134722396 0.008544161236962472 0 -0.0013620539176492563 0.0091858672226607409 0 -0.0012430553134722396 0.008544161236962472 0 -0.00062123256361377706 0.0090806313070746908 0 -0.0012430553134722396 0.008544161236962472 0 -0.00062123256361377706 0.0090806313070746908 0 -0.00042341073004254143 0.0081177322326551928 0 -0.00040091476419828776 0.013387976350406845 0 -0.00038797354570814003 0.013363325016428649 0 -0.00039407961158191562 0.013358156929963288 0 -0.00038797354570814003 0.013363325016428649 0 -0.00035805028873969551 0.013326144791123982 0 -0.00039407961158191562 0.013358156929963288 0 -0.00035805028873969551 0.013326144791123982 0 -0.00039407961158191562 0.013358156929963288 0 -0.00040036667791618931 0.013348967041001121 0 -0.0011730285320426615 0.011713925234852708 0 -0.001636611608129782 0.01118301993022453 0 -0.0019997859219640299 0.010115383686539336 0 -0.0019777738727615995 0.0086744372428780112 0 -0.0027858086042721192 0.0088391993854582771 0 -0.0019777738727615995 0.0086744372428780112 0 -0.0027858086042721192 0.0088391993854582771 0 -0.0025854246172621023 0.0083265027487264883 0 -0.0019777738727615995 0.0086744372428780112 0 -0.0025854246172621023 0.0083265027487264883 0 -0.0021687902778668245 0.0080086234676072718 0 -0.00040036667791618931 0.013348967041001121 0 -0.00040202766405828542 0.013373851796049413 0 -0.00041173622155734924 0.013371732949477843 0 -0.00040091476419828776 0.013387976350406845 0 -0.00039407961158191562 0.013358156929963288 0 -0.00040202766405828542 0.013373851796049413 0 -0.00039407961158191562 0.013358156929963288 0 -0.00040036667791618931 0.013348967041001121 0 -0.00040202766405828542 0.013373851796049413 0 -0.00090462133896674355 0.0047480470926850125 0 -0.001008742970264093 0.0047321679910036904 0 -0.00096176059174363086 0.0047739261342780916 0 -0.0014049700252161236 0.0099481230757094072 0 -0.002060825901525511 0.0063292775544425608 0 -0.001636611608129782 0.01118301993022453 0 -0.0014049700252161236 0.0099481230757094072 0 -0.00040202766405828542 0.013373851796049413 0 -0.00041173622155734924 0.013371732949477843 0 -0.00040221370873772753 0.01339100688835029 0 -0.0027858086042721192 0.0088391993854582771 0 -0.0025854246172621023 0.0083265027487264883 0 -0.0035039868604340584 0.0077375941952425743 0 -0.002060825901525511 0.0063292775544425608 0 -0.0015840334340683699 0.006996892807502984 0 -0.0025854246172621023 0.0083265027487264883 0 -0.0035039868604340584 0.0077375941952425743 0 -0.0026689091530332663 0.0078781979521412443 0 -0.0025854246172621023 0.0083265027487264883 0 -0.0026689091530332663 0.0078781979521412443 0 -0.0021687902778668245 0.0080086234676072718 0 -0.001008742970264093 0.0047321679910036904 0 -0.00099721122830122256 0.0047807782275495836 0 -0.0010292853129224226 0.0047230316954878504 0 -0.00099721122830122256 0.0047807782275495836 0 -0.0010292853129224226 0.0047230316954878504 0 -0.0010349380353053008 0.0048453357118234041 0 -0.00096176059174363086 0.0047739261342780916 0 -0.00099721122830122256 0.0047807782275495836 0 -0.00092284407665910813 0.0048390581531756027 0 -0.001008742970264093 0.0047321679910036904 0 -0.00096176059174363086 0.0047739261342780916 0 -0.00099721122830122256 0.0047807782275495836 0 -0.00099721122830122256 0.0047807782275495836 0 -0.00092284407665910813 0.0048390581531756027 0 -0.00096349464961781079 0.0048776860727838987 0 -0.00090462133896674355 0.0047480470926850125 0 -0.00096176059174363086 0.0047739261342780916 0 -0.00092284407665910813 0.0048390581531756027 0 -0.00090462133896674355 0.0047480470926850125 0 -0.00092284407665910813 0.0048390581531756027 0 -0.00077000593762621781 0.0048955914815943264 0 -0.00038768491070859926 0.0066328353092818112 0 -0.0015840334340683699 0.006996892807502984 0 -0.00047139347642693877 0.0080914895875637063 0 -0.0015840334340683699 0.006996892807502984 0 -0.00065272056010150486 0.004800441736689658 0 -0.00076353341329274166 0.0045549562542598464 0 -0.0009377149577580329 0.004661401661095162 0 -0.00011053551852034535 0.0076467540351954182 0 -0.00050620969786809608 0.0079437823638486629 0 -0.0019911589195326226 0.0076508521598545823 0 -0.0012430553134722396 0.008544161236962472 0 -0.00042341073004254143 0.0081177322326551928 0 -0.0017598009236103845 0.0079721360759462921 0 -0.00065272056010150486 0.004800441736689658 0 -0.0009377149577580329 0.004661401661095162 0 -0.001048965899331378 0.0047541155823106708 0 -0.001008742970264093 0.0047321679910036904 0 -0.001048965899331378 0.0047541155823106708 0 -0.0010292853129224226 0.0047230316954878504 0 -0.0026689091530332663 0.0078781979521412443 0 -0.0017830909727693908 0.0079775674303216269 0 -0.0021687902778668245 0.0080086234676072718 0 -0.0009377149577580329 0.004661401661095162 0 -0.001048965899331378 0.0047541155823106708 0 -0.0010292853129224226 0.0047230316954878504 0 -0.0019777738727615995 0.0086744372428780112 0 -0.0017598009236103845 0.0079721360759462921 0 -0.0021687902778668245 0.0080086234676072718 0 -0.0015840334340683699 0.006996892807502984 0 -0.0019791540508445099 0.0073766374261305433 0 -0.0010292853129224226 0.0047230316954878504 0 -0.0010106719632541586 0.0046862587958242143 0 -0.0010349380353053008 0.0048453357118234041 0 -0.0009377149577580329 0.004661401661095162 0 -0.0010292853129224226 0.0047230316954878504 0 -0.0010106719632541586 0.0046862587958242143 0 -0.00076353341329274166 0.0045549562542598464 0 -0.0015961718346005436 0.0038293727269799022 0 -0.00089964649109966217 0.0038013082833572185 0 -0.00080661064301148198 0.0045531147223491055 0 -0.0012701970341823655 0.0042727897715315235 0 -0.00076353341329274166 0.0045549562542598464 0 -0.0009377149577580329 0.004661401661095162 0 -0.0010106719632541586 0.0046862587958242143 0 -0.0015961718346005436 0.0038293727269799022 0 -0.00089964649109966217 0.0038013082833572185 0 -0.0011575400198129042 0.0033487258826654489 0 -0.0005488957226848656 0.0033335593122300815 0 -0.0011575400198129042 0.0033487258826654489 0 -0.0010834908297802893 0.0026542536345965278 0 -0.0005488957226848656 0.0033335593122300815 0 -0.00089964649109966217 0.0038013082833572185 0 -0.0011575400198129042 0.0033487258826654489 0 -0.0015961718346005436 0.0038293727269799022 0 -0.0011575400198129042 0.0033487258826654489 0 -0.0016462506569702943 0.0031410866307775851 0 -0.0011575400198129042 0.0033487258826654489 0 -0.0016462506569702943 0.0031410866307775851 0 -0.0010834908297802893 0.0026542536345965278 0 -0.0012701970341823655 0.0042727897715315235 0 -0.0016702625219160601 0.0040434958324959544 0 -0.0015961718346005436 0.0038293727269799022 0 -0.0016462506569702943 0.0031410866307775851 0 -0.0022968286342526078 0.0032236646052722306 0 -0.0016462506569702943 0.0031410866307775851 0 -0.0020735930241992059 0.0026993933908690997 0 -0.0022968286342526078 0.0032236646052722306 0 -0.0014962149517222544 0.002117332400648713 0 -0.0015112425903280886 0.0024841069342181237 0 -0.00082148635853246778 0.0025173259358201969 0 -0.0019378042150204251 0.0025077550838930609 0 -0.00089607965326056168 0.0025956853665606203 0 -0.0016462506569702943 0.0031410866307775851 0 -0.0020735930241992059 0.0026993933908690997 0 -0.0010834908297802893 0.0026542536345965278 0 -0.0012201747634467731 0.0017975030694058428 0 -0.0014962149517222544 0.002117332400648713 0 -0.00082148635853246778 0.0025173259358201969 0 -0.0014962149517222544 0.002117332400648713 0 -0.0015112425903280886 0.0024841069342181237 0 -0.0018310299164240116 0.0022431642559105191 0 -0.00047094501531844601 0.0021322212635243041 0 -0.0012201747634467731 0.0017975030694058428 0 -0.00082148635853246778 0.0025173259358201969 0 -0.00092284407665910813 0.0048390581531756027 0 -0.00089766543404655832 0.0049310002198469077 0 -0.00077000593762621781 0.0048955914815943264 0 -0.00089766543404655832 0.0049310002198469077 0 -0.00096349464961781079 0.0048776860727838987 0 -0.00095207302330569798 0.0050028717196123236 0 -0.00092284407665910813 0.0048390581531756027 0 -0.00089766543404655832 0.0049310002198469077 0 -0.00096349464961781079 0.0048776860727838987 0 -0.0016702625219160601 0.0040434958324959544 0 -0.0018105688099161374 0.0037259690357139283 0 -0.0020735930241992059 0.0026993933908690997 0 -0.0022968286342526078 0.0032236646052722306 0 -0.002953937377892023 0.0027096541007322135 0 -0.00096349464961781079 0.0048776860727838987 0 -0.0010349380353053008 0.0048453357118234041 0 -0.00095207302330569798 0.0050028717196123236 0 -0.00099721122830122256 0.0047807782275495836 0 -0.00096349464961781079 0.0048776860727838987 0 -0.0010349380353053008 0.0048453357118234041 0 -0.0015112425903280886 0.0024841069342181237 0 -0.0018310299164240116 0.0022431642559105191 0 -0.0021112098751763795 0.002453505409873635 0 -0.0019378042150204251 0.0025077550838930609 0 -0.0018105688099161374 0.0037259690357139283 0 -0.0018310299164240116 0.0022431642559105191 0 -0.0020559154061495742 0.0022089511288741598 0 -0.0021112098751763795 0.002453505409873635 0 -0.0025727958199310433 0.0021041156189276471 0 -0.0020559154061495742 0.0022089511288741598 0 -0.0021112098751763795 0.002453505409873635 0 -0.0015410889370237682 0.0043115815055787708 0 -0.0018105688099161374 0.0037259690357139283 0 -0.00080060646735197779 0.0052036210158913519 0 -0.0010063145226854441 0.0050357884485467252 0 -0.00080621491008954049 0.0051184945854428161 0 -0.0010063145226854441 0.0050357884485467252 0 -0.00085886023360725184 0.0050454573800800383 0 -0.00080621491008954049 0.0051184945854428161 0 -0.00089766543404655832 0.0049310002198469077 0 -0.00095207302330569798 0.0050028717196123236 0 -0.00085886023360725184 0.0050454573800800383 0 -0.0018105688099161374 0.0037259690357139283 0 -0.0006848219866096829 0.0047575415833733632 0 -0.0015410889370237682 0.0043115815055787708 0 -0.00059424088002581936 0.0099077797945959899 0 -0.00080060646735197779 0.0052036210158913519 0 -0.00080621491008954049 0.0051184945854428161 0 -0.00061218864073816419 0.0051282286568474873 0 -0.00085886023360725184 0.0050454573800800383 0 -0.00080621491008954049 0.0051184945854428161 0 -0.00077000593762621781 0.0048955914815943264 0 -0.00080621491008954049 0.0051184945854428161 0 -0.00061218864073816419 0.0051282286568474873 0 -0.00077000593762621781 0.0048955914815943264 0 -0.00065018620722906743 0.0077584794768715167 0 -0.0011699315887314602 0.0078763419571682217 0 -0.001053529282536145 0.0080356050278729066 0 -0.00067738794519070706 0.010479958879552968 0 -0.00059424088002581936 0.0099077797945959899 0 -0.00041743232478978694 0.013442406864353752 0 -0.00040578832986853795 0.013442384186520939 0 -0.00046538581058380208 0.013419054595179405 0 -0.00040578832986853795 0.013442384186520939 0 -0.00046538581058380208 0.013419054595179405 0 -0.00042823339831682671 0.013414018640738296 0 -0.00059424088002581936 0.0099077797945959899 0 -0.00057375851594416473 0.0089053215824797614 0 -0.00089766543404655832 0.0049310002198469077 0 -0.00085886023360725184 0.0050454573800800383 0 -0.00077000593762621781 0.0048955914815943264 0 -0.00046538581058380208 0.013419054595179405 0 -0.00042823339831682671 0.013414018640738296 0 -0.00047738110042807729 0.013327746110375205 0 -0.00058233098402900156 0.013281886127803916 0 -0.00046538581058380208 0.013419054595179405 0 -0.00047738110042807729 0.013327746110375205 0 -0.0014049700252161236 0.0099481230757094072 0 -0.00057375851594416473 0.0089053215824797614 0 -0.00040578832986853795 0.013442384186520939 0 -0.00042823339831682671 0.013414018640738296 0 -0.00040740911500699141 0.01341045730321604 0 -0.00042823339831682671 0.013414018640738296 0 -0.00040740911500699141 0.01341045730321604 0 -0.00047738110042807729 0.013327746110375205 0 -0.00040108011854143714 0.01341711971317525 0 -0.00040740911500699141 0.01341045730321604 0 -0.00039627930539954965 0.013446708546688269 0 -0.00040108011854143714 0.01341711971317525 0 -0.00040740911500699141 0.01341045730321604 0 -0.00040168953945750937 0.013395213881549059 0 -0.00048350933017498893 0.013373314947393718 0 -0.00019087206276076064 0.013301819330567708 0 -0.00040108011854143714 0.01341711971317525 0 -0.00040221370873772753 0.01339100688835029 0 -0.00040168953945750937 0.013395213881549059 0 -0.0014049700252161236 0.0099481230757094072 0 -0.00019087206276076064 0.013301819330567708 0 -0.00041173622155734924 0.013371732949477843 0 -0.00040221370873772753 0.01339100688835029 0 -0.00040168953945750937 0.013395213881549059 0 -0.0003877331992127629 0.013485059586286959 0 -0.00038213362881694708 0.013492022191092589 0 -0.00039627930539954965 0.013446708546688269 0 -0.00038213362881694708 0.013492022191092589 0 -0.00037740188288696398 0.013487702264907888 0 -0.0003723692730606379 0.013533027502607301 0 -0.00038213362881694708 0.013492022191092589 0 -0.00039627930539954965 0.013446708546688269 0 -0.00038923206471537454 0.013455749869433891 0 -0.00040740911500699141 0.01341045730321604 0 -0.00039627930539954965 0.013446708546688269 0 -0.00038923206471537454 0.013455749869433891 0 -0.00040578832986853795 0.013442384186520939 0 -0.00040740911500699141 0.01341045730321604 0 -0.00038923206471537454 0.013455749869433891 0 -0.00038923206471537454 0.013455749869433891 0 -0.00037740188288696398 0.013487702264907888 0 -0.00037669924557294407 0.01347305920469179 0 -0.00038213362881694708 0.013492022191092589 0 -0.00038923206471537454 0.013455749869433891 0 -0.00037740188288696398 0.013487702264907888 0 -0.00037669924557294407 0.01347305920469179 0 -0.00037377684780448924 0.013492690204341049 0 -0.00037157671661829848 0.013512176591907321 0 -0.00037740188288696398 0.013487702264907888 0 -0.00037669924557294407 0.01347305920469179 0 -0.00037157671661829848 0.013512176591907321 0 -0.00041743232478978694 0.013442406864353752 0 -0.00040578832986853795 0.013442384186520939 0 -0.00037669924557294407 0.01347305920469179 0 -0.00040578832986853795 0.013442384186520939 0 -0.00038923206471537454 0.013455749869433891 0 -0.00037669924557294407 0.01347305920469179 0 -0.00034942173349577572 0.01341753215764005 0 -0.00037669924557294407 0.01347305920469179 0 -0.00036804670510159502 0.013445188724448925 0 -0.00059424088002581936 0.0099077797945959899 0 -0.00055255126993643819 0.014542922210162726 0 -0.00035790727303708917 0.013411149732507028 0 -0.00034942173349577572 0.01341753215764005 0 -0.00036804670510159502 0.013445188724448925 0 -0.00067738794519070706 0.010479958879552968 0 -0.00048800540933087249 0.013799212385227138 0 -0.00035790727303708917 0.013411149732507028 0 -0.00036804670510159502 0.013445188724448925 0 -0.00037631772634811055 0.01346374174731314 0 -0.00037669924557294407 0.01347305920469179 0 -0.00036804670510159502 0.013445188724448925 0 -0.00037631772634811055 0.01346374174731314 0 -0.00037669924557294407 0.01347305920469179 0 -0.00037631772634811055 0.01346374174731314 0 -0.00037377684780448924 0.013492690204341049 0 -0.00053875129872032568 0.013472854684887564 0 -0.00058501479572340884 0.013419779204832265 0 -0.00050074428490393726 0.013461999523701902 0 -0.00048800540933087249 0.013799212385227138 0 -0.00043563252581100236 0.013432365476355809 0 -0.00037631772634811055 0.01346374174731314 0 -0.00037377684780448924 0.013492690204341049 0 -0.00037792264721769642 0.013493003785336492 0 -0.00037377684780448924 0.013492690204341049 0 -0.00037580430190771615 0.013526761969268284 0 -0.00037792264721769642 0.013493003785336492 0 -0.00037377684780448924 0.013492690204341049 0 -0.00037580430190771615 0.013526761969268284 0 -0.00037157671661829848 0.013512176591907321 0 -0.00037580430190771615 0.013526761969268284 0 -0.00037792264721769642 0.013493003785336492 0 -0.00041019333836088791 0.013529885476055383 0 -0.00037792264721769642 0.013493003785336492 0 -0.0004411533897044708 0.013505032254488222 0 -0.00041019333836088791 0.013529885476055383 0 -0.00043563252581100236 0.013432365476355809 0 -0.00044725154048724477 0.013511805728474689 0 -0.00047237467477958118 0.01350667611782605 0 -0.00050074428490393726 0.013461999523701902 0 -0.0004411533897044708 0.013505032254488222 0 -0.0004411533897044708 0.013505032254488222 0 -0.00044904762033601508 0.013514899394954146 0 -0.00045342662270166984 0.013531477787266377 0 -0.00046247843942377325 0.013521694167470382 0 -0.0004411533897044708 0.013505032254488222 0 -0.00044904762033601508 0.013514899394954146 0 -0.00040682165643417657 0.013497361552629074 0 -0.00043481985258564713 0.013540144674576024 0 -0.0004411533897044708 0.013505032254488222 0 -0.00045342662270166984 0.013531477787266377 0 -0.00041019333836088791 0.013529885476055383 0 -0.00046562528692407597 0.013548980188787573 0 -0.00041019333836088791 0.013529885476055383 0 -0.00041993574663147959 0.01360217079393071 0 -0.00037580430190771615 0.013526761969268284 0 -0.00041019333836088791 0.013529885476055383 0 -0.00038463060171298717 0.013582236256022973 0 -0.00038463060171298717 0.013582236256022973 0 -0.00041993574663147959 0.01360217079393071 0 -0.0003942279928832875 0.013662330442954 0 -0.00041019333836088791 0.013529885476055383 0 -0.00038463060171298717 0.013582236256022973 0 -0.00041993574663147959 0.01360217079393071 0 -0.00038463060171298717 0.013582236256022973 0 -0.0003942279928832875 0.013662330442954 0 -0.00037247078227873145 0.01362185108961292 0 -0.00046562528692407597 0.013548980188787573 0 -0.00041993574663147959 0.01360217079393071 0 -0.00051316148985329415 0.013623405851935425 0 -0.00041993574663147959 0.01360217079393071 0 -0.00051316148985329415 0.013623405851935425 0 -0.00046743368005446951 0.013700185277732825 0 -0.00041993574663147959 0.01360217079393071 0 -0.0003942279928832875 0.013662330442954 0 -0.00046743368005446951 0.013700185277732825 0 -0.0003942279928832875 0.013662330442954 0 -0.00042835494094727944 0.013761894275704022 0 -0.00046743368005446951 0.013700185277732825 0 -0.00042835494094727944 0.013761894275704022 0 -0.00036862735035575386 0.013716063935446296 0 -0.00040155876870775977 0.01379886126135289 0 -0.0003942279928832875 0.013662330442954 0 -0.00042835494094727944 0.013761894275704022 0 -0.00036862735035575386 0.013716063935446296 0 -0.0003942279928832875 0.013662330442954 0 -0.00037247078227873145 0.01362185108961292 0 -0.00036862735035575386 0.013716063935446296 0 -0.00037247078227873145 0.01362185108961292 0 -0.00036862735035575386 0.013716063935446296 0 -0.0003678099607967722 0.013640287632287846 0 -0.00037247078227873145 0.01362185108961292 0 -0.0003678099607967722 0.013640287632287846 0 -0.00036872954261680841 0.013583931560604801 0 -0.0003678099607967722 0.013640287632287846 0 -0.00036872954261680841 0.013583931560604801 0 -0.00036944589059760021 0.013593909084384454 0 -0.00037247078227873145 0.01362185108961292 0 -0.00036872954261680841 0.013583931560604801 0 -0.0003709438757535035 0.013559464057965553 0 -0.00036872954261680841 0.013583931560604801 0 -0.0003723692730606379 0.013533027502607301 0 -0.0003709438757535035 0.013559464057965553 0 -0.00036872954261680841 0.013583931560604801 0 -0.0003723692730606379 0.013533027502607301 0 -0.00037666210221716398 0.013538932939793837 0 -0.00038213362881694708 0.013492022191092589 0 -0.0003723692730606379 0.013533027502607301 0 -0.00037666210221716398 0.013538932939793837 0 -0.0003723692730606379 0.013533027502607301 0 -0.00037157671661829848 0.013512176591907321 0 -0.0003709438757535035 0.013559464057965553 0 -0.00037740188288696398 0.013487702264907888 0 -0.0003723692730606379 0.013533027502607301 0 -0.00037157671661829848 0.013512176591907321 0 -0.00037580430190771615 0.013526761969268284 0 -0.00037157671661829848 0.013512176591907321 0 -0.0003709438757535035 0.013559464057965553 0 -0.00037580430190771615 0.013526761969268284 0 -0.00038463060171298717 0.013582236256022973 0 -0.0003709438757535035 0.013559464057965553 0 -0.00038463060171298717 0.013582236256022973 0 -0.00037247078227873145 0.01362185108961292 0 -0.0003709438757535035 0.013559464057965553 0 -0.00073327017687284792 0.019954777738276776 0 -0.00079991283695629513 0.020049631173934421 0 -0.00084095252260595705 0.019901366854110709 0 -0.00065290931083679491 0.02013799341113616 0 -0.00073327017687284792 0.019954777738276776 0 -0.00079991283695629513 0.020049631173934421 0 -0.00066292411457209027 0.020319762673979249 0 -0.00065290931083679491 0.02013799341113616 0 -0.00074119840603428864 0.020222131866339279 0 -0.00065290931083679491 0.02013799341113616 0 -0.00079991283695629513 0.020049631173934421 0 -0.00074256889274639719 0.020137471507824359 0 -0.00065290931083679491 0.02013799341113616 0 -0.00074256889274639719 0.020137471507824359 0 -0.00074119840603428864 0.020222131866339279 0 -0.0008096600707593988 0.020229511105871904 0 -0.00074119840603428864 0.020222131866339279 0 -0.00079490143162127646 0.020157892691697894 0 -0.00074256889274639719 0.020137471507824359 0 -0.00074119840603428864 0.020222131866339279 0 -0.00079490143162127646 0.020157892691697894 0 -0.00079991283695629513 0.020049631173934421 0 -0.00074256889274639719 0.020137471507824359 0 -0.00079490143162127646 0.020157892691697894 0 -0.0011984710848880777 0.014412789350965497 0 -0.0016536632347769265 0.015111801081585847 0 -0.0015447804869374324 0.015404132289048553 0 -0.0012054243005537495 0.014479921381084931 0 -0.0015071162076847669 0.015133932440229076 0 -0.00079991283695629513 0.020049631173934421 0 -0.00079490143162127646 0.020157892691697894 0 -0.00088215444082836287 0.020152825574943779 0 -0.0008096600707593988 0.020229511105871904 0 -0.00079490143162127646 0.020157892691697894 0 -0.00088215444082836287 0.020152825574943779 0 -0.0015071162076847669 0.015133932440229076 0 -0.0011908327111904129 0.016337248514845023 0 -0.0012934637847055368 0.015259810350679536 0 -0.00098456756350976705 0.015382365037005638 0 -0.0015840732590141386 0.015506523853196934 0 -0.0016536632347769265 0.015111801081585847 0 -0.0015447804869374324 0.015404132289048553 0 -0.0021571879248662757 0.016561654401984306 0 -0.00079991283695629513 0.020049631173934421 0 -0.00088215444082836287 0.020152825574943779 0 -0.00084095252260595705 0.019901366854110709 0 -0.0013778745094071303 0.014958624186681306 0 -0.0012934637847055368 0.015259810350679536 0 -0.0015840732590141386 0.015506523853196934 0 -0.0013778745094071303 0.014958624186681306 0 -0.0012934637847055368 0.015259810350679536 0 -0.0011123900041378734 0.015064470010692407 0 -0.0015447804869374324 0.015404132289048553 0 -0.0019615174827802479 0.016522320528940312 0 -0.0021571879248662757 0.016561654401984306 0 -0.0012269009194017958 0.017610528312759395 0 -0.0017190058547596474 0.018316365282333356 0 -0.00098456756350976705 0.015382365037005638 0 -0.0011123900041378734 0.015064470010692407 0 -0.00079563255108627102 0.014907605962307316 0 -0.00076441474973833461 0.013972844103302084 0 -0.00064453909915229083 0.014299243597488919 0 -0.0012934637847055368 0.015259810350679536 0 -0.00098456756350976705 0.015382365037005638 0 -0.0011123900041378734 0.015064470010692407 0 -0.0011984710848880777 0.014412789350965497 0 -0.0013778745094071303 0.014958624186681306 0 -0.0010731546227315681 0.014771980809758951 0 -0.0013778745094071303 0.014958624186681306 0 -0.0011123900041378734 0.015064470010692407 0 -0.0010731546227315681 0.014771980809758951 0 -0.00091294149073382978 0.01453369145043948 0 -0.0010731546227315681 0.014771980809758951 0 -0.00079563255108627102 0.014907605962307316 0 -0.0011123900041378734 0.015064470010692407 0 -0.0010731546227315681 0.014771980809758951 0 -0.00079563255108627102 0.014907605962307316 0 -0.00043523007011955485 0.01352875767166392 0 -0.00044904762033601508 0.013514899394954146 0 -0.00045842657716036145 0.013522841376321719 0 -0.00050608423198509299 0.013912723223423927 0 -0.00064453909915229083 0.014299243597488919 0 -0.00044904762033601508 0.013514899394954146 0 -0.00045342662270166984 0.013531477787266377 0 -0.00045842657716036145 0.013522841376321719 0 -0.00045342662270166984 0.013531477787266377 0 -0.00047003375714386244 0.013541244811366596 0 -0.00045842657716036145 0.013522841376321719 0 -0.00046562528692407597 0.013548980188787573 0 -0.00064122809015087579 0.013558309496626758 0 -0.00051316148985329415 0.013623405851935425 0 -0.00040682165643417657 0.013497361552629074 0 -0.00076441474973833461 0.013972844103302084 0 -0.00064122809015087579 0.013558309496626758 0 -0.00051316148985329415 0.013623405851935425 0 -0.00058026034766784187 0.013718246247291937 0 -0.00051316148985329415 0.013623405851935425 0 -0.00058026034766784187 0.013718246247291937 0 -0.00046743368005446951 0.013700185277732825 0 -0.00058026034766784187 0.013718246247291937 0 -0.00046743368005446951 0.013700185277732825 0 -0.00054396411088841593 0.013860157420411183 0 -0.00042835494094727944 0.013761894275704022 0 -0.00046743368005446951 0.013700185277732825 0 -0.00054396411088841593 0.013860157420411183 0 -0.00054396411088841593 0.013860157420411183 0 -0.00073664062792233554 0.013843428648139221 0 -0.00067393547591007336 0.013983718513966587 0 -0.00058026034766784187 0.013718246247291937 0 -0.00054396411088841593 0.013860157420411183 0 -0.00073664062792233554 0.013843428648139221 0 -0.00064122809015087579 0.013558309496626758 0 -0.00058026034766784187 0.013718246247291937 0 -0.00073664062792233554 0.013843428648139221 0 -0.00070636068557458674 0.013728364365821652 0 -0.00073664062792233554 0.013843428648139221 0 -0.00078156408455519867 0.013792721187084266 0 -0.00076441474973833461 0.013972844103302084 0 -0.00069118003549555171 0.013695518908740895 0 -0.00070636068557458674 0.013728364365821652 0 -0.0008416849813827319 0.01374460688360978 0 -0.00078156408455519867 0.013792721187084266 0 -0.00076441474973833461 0.013972844103302084 0 -0.0011908327111904129 0.016337248514845023 0 -0.0011908327111904129 0.016337248514845023 0 -0.0017190058547596474 0.018316365282333356 0 -0.0008416849813827319 0.01374460688360978 0 -0.00078156408455519867 0.013792721187084266 0 -0.00087870295302164281 0.013839785920212845 0 -0.00073664062792233554 0.013843428648139221 0 -0.00078156408455519867 0.013792721187084266 0 -0.00083267316345173742 0.013913409670388831 0 -0.00073664062792233554 0.013843428648139221 0 -0.00083267316345173742 0.013913409670388831 0 -0.00078358557827799065 0.014016730534437607 0 -0.00083267316345173742 0.013913409670388831 0 -0.00088969730149308414 0.013907656638659661 0 -0.00089718596050854184 0.013954689814869697 0 -0.00078156408455519867 0.013792721187084266 0 -0.00083267316345173742 0.013913409670388831 0 -0.00087870295302164281 0.013839785920212845 0 -0.00083267316345173742 0.013913409670388831 0 -0.00087870295302164281 0.013839785920212845 0 -0.00088969730149308414 0.013907656638659661 0 -0.00087870295302164281 0.013839785920212845 0 -0.00088969730149308414 0.013907656638659661 0 -0.00095311057437800811 0.013929018001507169 0 -0.0017319333909520654 0.018801507993339423 0 -0.0017190058547596474 0.018316365282333356 0 -0.0014002104443627508 0.019487915727510016 0 -0.0016999838394436276 0.018978176281049031 0 -0.0020781679518447468 0.020045200316132453 0 -0.0016756456448836382 0.018285528747357654 0 -0.0016512661999588392 0.018276134593003514 0 -0.0016962158447114198 0.018289275639716048 0 -0.00095311057437800811 0.013929018001507169 0 -0.00089718596050854184 0.013954689814869697 0 -0.00092204572023425041 0.014019629331987046 0 -0.00088969730149308414 0.013907656638659661 0 -0.00095311057437800811 0.013929018001507169 0 -0.00089718596050854184 0.013954689814869697 0 -0.0016973592878784442 0.018286270891435818 0 -0.0016756456448836382 0.018285528747357654 0 -0.0016962158447114198 0.018289275639716048 0 -0.0011908327111904129 0.016337248514845023 0 -0.0013123557544364273 0.016044514116857193 0 -0.0008416849813827319 0.01374460688360978 0 -0.00087870295302164281 0.013839785920212845 0 -0.00095311057437800811 0.013929018001507169 0 -0.001058426079647855 0.014251688661095776 0 -0.00095796950472043963 0.014346136713342655 0 -0.00094754470181969603 0.014555984250285044 0 -0.00095796950472043963 0.014346136713342655 0 -0.00090952762588984292 0.014264013990030511 0 -0.00097268623738618987 0.014268994682401274 0 -0.001058426079647855 0.014251688661095776 0 -0.00095796950472043963 0.014346136713342655 0 -0.00097268623738618987 0.014268994682401274 0 -0.00090952762588984292 0.014264013990030511 0 -0.00083921739375048411 0.01428809043868475 0 -0.00086444974948200683 0.014399727460151446 0 -0.00095796950472043963 0.014346136713342655 0 -0.00090952762588984292 0.014264013990030511 0 -0.00086444974948200683 0.014399727460151446 0 -0.00090952762588984292 0.014264013990030511 0 -0.00097299926343765591 0.01421390933351342 0 -0.00091640773333739195 0.014144605510659108 0 -0.00090952762588984292 0.014264013990030511 0 -0.00091640773333739195 0.014144605510659108 0 -0.0008268618636600092 0.014170635601343339 0 -0.001058426079647855 0.014251688661095776 0 -0.00097299926343765591 0.01421390933351342 0 -0.00097647672350627908 0.014118554581344709 0 -0.00090952762588984292 0.014264013990030511 0 -0.00097299926343765591 0.01421390933351342 0 -0.00097268623738618987 0.014268994682401274 0 -0.001058426079647855 0.014251688661095776 0 -0.00097299926343765591 0.01421390933351342 0 -0.00097268623738618987 0.014268994682401274 0 -0.0015621641562428281 0.017948535939677844 0 -0.0016756456448836382 0.018285528747357654 0 -0.0016512661999588392 0.018276134593003514 0 -0.001058426079647855 0.014251688661095776 0 -0.00095311057437800811 0.013929018001507169 0 -0.00097647672350627908 0.014118554581344709 0 -0.0013156035045290104 0.016095845268071479 0 -0.0013123557544364273 0.016044514116857193 0 -0.00097299926343765591 0.01421390933351342 0 -0.00097647672350627908 0.014118554581344709 0 -0.00091640773333739195 0.014144605510659108 0 -0.00095311057437800811 0.013929018001507169 0 -0.00097647672350627908 0.014118554581344709 0 -0.00092204572023425041 0.014019629331987046 0 -0.00089718596050854184 0.013954689814869697 0 -0.00092204572023425041 0.014019629331987046 0 -0.00087474488753872274 0.014037742072491017 0 -0.00092204572023425041 0.014019629331987046 0 -0.00087474488753872274 0.014037742072491017 0 -0.00092362059594969356 0.014075513969613544 0 -0.00087474488753872274 0.014037742072491017 0 -0.00092362059594969356 0.014075513969613544 0 -0.00091640773333739195 0.014144605510659108 0 -0.00087474488753872274 0.014037742072491017 0 -0.00091640773333739195 0.014144605510659108 0 -0.0008268618636600092 0.014170635601343339 0 -0.00097647672350627908 0.014118554581344709 0 -0.00092362059594969356 0.014075513969613544 0 -0.00091640773333739195 0.014144605510659108 0 -0.00097647672350627908 0.014118554581344709 0 -0.00092204572023425041 0.014019629331987046 0 -0.00092362059594969356 0.014075513969613544 0 -0.00087474488753872274 0.014037742072491017 0 -0.00078358557827799065 0.014016730534437607 0 -0.0008268618636600092 0.014170635601343339 0 -0.00083267316345173742 0.013913409670388831 0 -0.00087474488753872274 0.014037742072491017 0 -0.00078358557827799065 0.014016730534437607 0 -0.00083267316345173742 0.013913409670388831 0 -0.00089718596050854184 0.013954689814869697 0 -0.00087474488753872274 0.014037742072491017 0 -0.00078358557827799065 0.014016730534437607 0 -0.0008268618636600092 0.014170635601343339 0 -0.00070789038167268551 0.014137728738278775 0 -0.0008268618636600092 0.014170635601343339 0 -0.00075956068215766591 0.014317330295815884 0 -0.00070789038167268551 0.014137728738278775 0 -0.00090952762588984292 0.014264013990030511 0 -0.0008268618636600092 0.014170635601343339 0 -0.00083921739375048411 0.01428809043868475 0 -0.0008268618636600092 0.014170635601343339 0 -0.00083921739375048411 0.01428809043868475 0 -0.00075956068215766591 0.014317330295815884 0 -0.00083921739375048411 0.01428809043868475 0 -0.00075956068215766591 0.014317330295815884 0 -0.00086444974948200683 0.014399727460151446 0 -0.00075956068215766591 0.014317330295815884 0 -0.00062901992316772301 0.014274869701403665 0 -0.00070789038167268551 0.014137728738278775 0 -0.00062901992316772301 0.014274869701403665 0 -0.00070789038167268551 0.014137728738278775 0 -0.00058920965340473813 0.014071091166050017 0 -0.00078358557827799065 0.014016730534437607 0 -0.00070789038167268551 0.014137728738278775 0 -0.00067393547591007336 0.013983718513966587 0 -0.00054396411088841593 0.013860157420411183 0 -0.00067393547591007336 0.013983718513966587 0 -0.00058920965340473813 0.014071091166050017 0 -0.00070789038167268551 0.014137728738278775 0 -0.00067393547591007336 0.013983718513966587 0 -0.00058920965340473813 0.014071091166050017 0 -0.00073664062792233554 0.013843428648139221 0 -0.00078358557827799065 0.014016730534437607 0 -0.00067393547591007336 0.013983718513966587 0 -0.00054396411088841593 0.013860157420411183 0 -0.00058920965340473813 0.014071091166050017 0 -0.0004758484976169823 0.013980977132201717 0 -0.00042835494094727944 0.013761894275704022 0 -0.00054396411088841593 0.013860157420411183 0 -0.00045897448069675298 0.01386954918279701 0 -0.00054396411088841593 0.013860157420411183 0 -0.00045897448069675298 0.01386954918279701 0 -0.0004758484976169823 0.013980977132201717 0 -0.0004758484976169823 0.013980977132201717 0 -0.00048499378809470893 0.014246832034390448 0 -0.0003082651819385648 0.014301725503887839 0 -0.00058920965340473813 0.014071091166050017 0 -0.0004758484976169823 0.013980977132201717 0 -0.00048499378809470893 0.014246832034390448 0 -0.00062901992316772301 0.014274869701403665 0 -0.00058920965340473813 0.014071091166050017 0 -0.00048499378809470893 0.014246832034390448 0 -0.00048499378809470893 0.014246832034390448 0 -0.00054022849702607028 0.014412212021838686 0 -0.00038764913179384965 0.014446755237143795 0 -0.00062901992316772301 0.014274869701403665 0 -0.00048499378809470893 0.014246832034390448 0 -0.00054022849702607028 0.014412212021838686 0 -0.00054022849702607028 0.014412212021838686 0 -0.00047636929382633352 0.014559066499700997 0 -0.00038764913179384965 0.014446755237143795 0 -0.00054022849702607028 0.014412212021838686 0 -0.00047636929382633352 0.014559066499700997 0 -0.00059451899183237051 0.014514896945936497 0 -0.00059451899183237051 0.014514896945936497 0 -0.00066409045409065927 0.014638431533881672 0 -0.00069337788860443375 0.014451695228757161 0 -0.00047636929382633352 0.014559066499700997 0 -0.00059451899183237051 0.014514896945936497 0 -0.00066409045409065927 0.014638431533881672 0 -0.00062901992316772301 0.014274869701403665 0 -0.00054022849702607028 0.014412212021838686 0 -0.00069337788860443375 0.014451695228757161 0 -0.00054022849702607028 0.014412212021838686 0 -0.00059451899183237051 0.014514896945936497 0 -0.00069337788860443375 0.014451695228757161 0 -0.00075956068215766591 0.014317330295815884 0 -0.00062901992316772301 0.014274869701403665 0 -0.00069337788860443375 0.014451695228757161 0 -0.00075956068215766591 0.014317330295815884 0 -0.00069337788860443375 0.014451695228757161 0 -0.00079878757687438129 0.014524862241844507 0 -0.00075956068215766591 0.014317330295815884 0 -0.00079878757687438129 0.014524862241844507 0 -0.00086444974948200683 0.014399727460151446 0 -0.00066409045409065927 0.014638431533881672 0 -0.00069337788860443375 0.014451695228757161 0 -0.00079878757687438129 0.014524862241844507 0 -0.00066409045409065927 0.014638431533881672 0 -0.00079878757687438129 0.014524862241844507 0 -0.00082936109831946154 0.014706801061934517 0 -0.00091303800304466339 0.014872343430970377 0 -0.00082936109831946154 0.014706801061934517 0 -0.00094754470181969603 0.014555984250285044 0 -0.00079878757687438129 0.014524862241844507 0 -0.00082936109831946154 0.014706801061934517 0 -0.00094754470181969603 0.014555984250285044 0 -0.00079878757687438129 0.014524862241844507 0 -0.00094754470181969603 0.014555984250285044 0 -0.00086444974948200683 0.014399727460151446 0 -0.00095796950472043963 0.014346136713342655 0 -0.00094754470181969603 0.014555984250285044 0 -0.00086444974948200683 0.014399727460151446 0 -0.00035770801356750257 0.013581747186703109 0 -0.00049746308273959053 0.013557799300436194 0 -0.00038226166315218508 0.013470610160609464 0 -0.0003699877545258332 0.013556546004928569 0 -0.00037666210221716398 0.013538932939793837 0 -0.00036872954261680841 0.013583931560604801 0 -0.00037666210221716398 0.013538932939793837 0 -0.00036944589059760021 0.013593909084384454 0 -0.0003699877545258332 0.013556546004928569 0 -0.00037666210221716398 0.013538932939793837 0 -0.00036944589059760021 0.013593909084384454 0 -0.0003699877545258332 0.013556546004928569 0 -0.00036944589059760021 0.013593909084384454 0 -0.00036560014115282624 0.013662205713423008 0 -0.0003678099607967722 0.013640287632287846 0 -0.00036944589059760021 0.013593909084384454 0 -0.00036560014115282624 0.013662205713423008 0 -0.0003699877545258332 0.013556546004928569 0 -0.00036560014115282624 0.013662205713423008 0 -0.00035470586709119987 0.013699725937511341 0 -0.00036862735035575386 0.013716063935446296 0 -0.0003678099607967722 0.013640287632287846 0 -0.00036560014115282624 0.013662205713423008 0 -0.00036862735035575386 0.013716063935446296 0 -0.00036560014115282624 0.013662205713423008 0 -0.00035627544934240034 0.013780884552588185 0 -0.00036560014115282624 0.013662205713423008 0 -0.00035627544934240034 0.013780884552588185 0 -0.00035470586709119987 0.013699725937511341 0 -0.00045897448069675298 0.01386954918279701 0 -0.00040155876870775977 0.01379886126135289 0 -0.00040799648327896013 0.013887228008039014 0 -0.00042835494094727944 0.013761894275704022 0 -0.00045897448069675298 0.01386954918279701 0 -0.00040155876870775977 0.01379886126135289 0 -0.00036862735035575386 0.013716063935446296 0 -0.00040155876870775977 0.01379886126135289 0 -0.00035627544934240034 0.013780884552588185 0 -0.00040155876870775977 0.01379886126135289 0 -0.00035627544934240034 0.013780884552588185 0 -0.00040799648327896013 0.013887228008039014 0 -0.00035627544934240034 0.013780884552588185 0 -0.00031311046431001715 0.013865076823150947 0 -0.00040799648327896013 0.013887228008039014 0 -0.00048810931754687066 0.013738512458918859 0 -0.00036915065880514146 0.013842137148783819 0 -0.00042233413517340243 0.01378993917603806 0 -0.00048810931754687066 0.013738512458918859 0 -0.00045897448069675298 0.01386954918279701 0 -0.0004758484976169823 0.013980977132201717 0 -0.00040799648327896013 0.013887228008039014 0 -0.00047231222525786337 0.013991589498701919 0 -0.00035814904053272858 0.014160546589848128 0 -0.0003540374583322964 0.013911156655503949 0 -0.00040799648327896013 0.013887228008039014 0 -0.00039444730548567547 0.014031653581860449 0 -0.0004758484976169823 0.013980977132201717 0 -0.00040799648327896013 0.013887228008039014 0 -0.00039444730548567547 0.014031653581860449 0 -0.00049746308273959053 0.013557799300436194 0 -0.00048810931754687066 0.013738512458918859 0 -0.00057338007194531143 0.013598591097512068 0 -0.00077603201195812466 0.013527042294034742 0 -0.00068233338855646936 0.013721364227231693 0 -0.0003540374583322964 0.013911156655503949 0 -0.00039444730548567547 0.014031653581860449 0 -0.00028492639819706301 0.014067858615067106 0 -0.00048810931754687066 0.013738512458918859 0 -0.00049412216989513328 0.013892720498736759 0 -0.00035814904053272858 0.014160546589848128 0 -0.00028198687722685617 0.014308656942371557 0 -0.00039444730548567547 0.014031653581860449 0 -0.00028492639819706301 0.014067858615067106 0 -0.00030957357109734026 0.014137348129915831 0 -0.00048499378809470893 0.014246832034390448 0 -0.0003082651819385648 0.014301725503887839 0 -0.00038764913179384965 0.014446755237143795 0 -0.0003082651819385648 0.014301725503887839 0 -0.00038764913179384965 0.014446755237143795 0 -0.00024540562871964495 0.014492591992550454 0 -0.00047636929382633352 0.014559066499700997 0 -0.00038764913179384965 0.014446755237143795 0 -0.0003297498232272579 0.014545264151075552 0 -0.00047636929382633352 0.014559066499700997 0 -0.0003297498232272579 0.014545264151075552 0 -0.00039455098279084455 0.014607933909967929 0 -0.00038764913179384965 0.014446755237143795 0 -0.0003297498232272579 0.014545264151075552 0 -0.00024540562871964495 0.014492591992550454 0 -0.00028198687722685617 0.014308656942371557 0 -0.00021672624078793799 0.014434199489339343 0 -0.00028492639819706301 0.014067858615067106 0 -0.00030957357109734026 0.014137348129915831 0 -0.00022389381083941004 0.014205114812125308 0 -0.00024540562871964495 0.014492591992550454 0 -0.00022382946134740837 0.014606915431330421 0 -0.00027016619946040518 0.014582005695445665 0 -0.0003297498232272579 0.014545264151075552 0 -0.00024540562871964495 0.014492591992550454 0 -0.00027016619946040518 0.014582005695445665 0 -0.00049412216989513328 0.013892720498736759 0 -0.00042041355023989939 0.014057751829955145 0 -0.00060126213609718493 0.013946002094881962 0 -0.00053882988761613402 0.0138604085463605 0 -0.00058625011998659864 0.013772262221110391 0 -0.00068233338855646936 0.013721364227231693 0 -0.00060126213609718493 0.013946002094881962 0 -0.00058625011998659864 0.013772262221110391 0 -0.00030957357109734026 0.014137348129915831 0 -0.00022389381083941004 0.014205114812125308 0 -0.00023557762201749599 0.014238177221460438 0 -0.00060126213609718493 0.013946002094881962 0 -0.00053882988761613402 0.0138604085463605 0 -0.00051907650887486579 0.013951199359466027 0 -0.00057338007194531143 0.013598591097512068 0 -0.00058625011998659864 0.013772262221110391 0 -0.00050510057052055731 0.013763865102137278 0 -0.00057338007194531143 0.013598591097512068 0 -0.00068233338855646936 0.013721364227231693 0 -0.00058625011998659864 0.013772262221110391 0 -0.00053882988761613402 0.0138604085463605 0 -0.00058625011998659864 0.013772262221110391 0 -0.00050510057052055731 0.013763865102137278 0 -0.00033508298127930196 0.013683634503534381 0 -0.00050510057052055731 0.013763865102137278 0 -0.0004078285027549439 0.013792903289980793 0 -0.00033508298127930196 0.013683634503534381 0 -0.00057338007194531143 0.013598591097512068 0 -0.00050510057052055731 0.013763865102137278 0 -0.00033822629270203195 0.013857533839819244 0 -0.0004078285027549439 0.013792903289980793 0 -0.00045682289703487575 0.013885242891418018 0 -0.00050510057052055731 0.013763865102137278 0 -0.0004078285027549439 0.013792903289980793 0 -0.00045682289703487575 0.013885242891418018 0 -0.00053882988761613402 0.0138604085463605 0 -0.00050510057052055731 0.013763865102137278 0 -0.00045682289703487575 0.013885242891418018 0 -0.00045682289703487575 0.013885242891418018 0 -0.00051907650887486579 0.013951199359466027 0 -0.00046463669251841196 0.013988482210088259 0 -0.00053882988761613402 0.0138604085463605 0 -0.00045682289703487575 0.013885242891418018 0 -0.00051907650887486579 0.013951199359466027 0 -0.00033822629270203195 0.013857533839819244 0 -0.00045682289703487575 0.013885242891418018 0 -0.00039236838396191021 0.014011099912827063 0 -0.00045682289703487575 0.013885242891418018 0 -0.00039236838396191021 0.014011099912827063 0 -0.00046463669251841196 0.013988482210088259 0 -0.00060126213609718493 0.013946002094881962 0 -0.00049082437744185138 0.014133090162215322 0 -0.00049622552215058068 0.014277451219589956 0 -0.00039236838396191021 0.014011099912827063 0 -0.00044877550677899854 0.014066153061453087 0 -0.00046463669251841196 0.013988482210088259 0 -0.00060126213609718493 0.013946002094881962 0 -0.00050813883615727633 0.014035970274157194 0 -0.00049082437744185138 0.014133090162215322 0 -0.00051907650887486579 0.013951199359466027 0 -0.00046463669251841196 0.013988482210088259 0 -0.00050813883615727633 0.014035970274157194 0 -0.00044877550677899854 0.014066153061453087 0 -0.00046463669251841196 0.013988482210088259 0 -0.00050813883615727633 0.014035970274157194 0 -0.00044877550677899854 0.014066153061453087 0 -0.00050813883615727633 0.014035970274157194 0 -0.00049082437744185138 0.014133090162215322 0 -0.00044877550677899854 0.014066153061453087 0 -0.00049082437744185138 0.014133090162215322 0 -0.00038831570954091601 0.014146891532034429 0 -0.00049082437744185138 0.014133090162215322 0 -0.00038831570954091601 0.014146891532034429 0 -0.00043625409029613788 0.01421358322893965 0 -0.00039236838396191021 0.014011099912827063 0 -0.00044877550677899854 0.014066153061453087 0 -0.00038831570954091601 0.014146891532034429 0 -0.00034675124054730437 0.014280912498867173 0 -0.00043625409029613788 0.01421358322893965 0 -0.00049622552215058068 0.014277451219589956 0 -0.00038831570954091601 0.014146891532034429 0 -0.00034675124054730437 0.014280912498867173 0 -0.00043625409029613788 0.01421358322893965 0 -0.00049082437744185138 0.014133090162215322 0 -0.00043625409029613788 0.01421358322893965 0 -0.00049622552215058068 0.014277451219589956 0 -0.00025271685465025524 0.014622055608950878 0 -0.00026334610834816835 0.014609221717858478 0 -0.00024605563703176611 0.014611207571641645 0 -0.00024605563703176611 0.014611207571641645 0 -0.00023747508577302484 0.014614519030493732 0 -0.00025422750245259341 0.014567628649300233 0 -0.00025271685465025524 0.014622055608950878 0 -0.00024605563703176611 0.014611207571641645 0 -0.00023970012395330977 0.014620237889735566 0 -0.00026334610834816835 0.014609221717858478 0 -0.00024605563703176611 0.014611207571641645 0 -0.00025422750245259341 0.014567628649300233 0 -0.0002880033527127048 0.014414360470171842 0 -0.00027479284424153903 0.014447939146831044 0 -0.00026334610834816835 0.014609221717858478 0 -0.00030946911303043249 0.014490623247798373 0 -0.00025422750245259341 0.014567628649300233 0 -0.00034675124054730437 0.014280912498867173 0 -0.00049622552215058068 0.014277451219589956 0 -0.00030946911303043249 0.014490623247798373 0 -0.00025813897304871109 0.014639357054089532 0 -0.00026334610834816835 0.014609221717858478 0 -0.00030946911303043249 0.014490623247798373 0 -0.0002880033527127048 0.014414360470171842 0 -0.00031294499380905534 0.014477413588397462 0 -0.00023747508577302484 0.014614519030493732 0 -0.000243399012870757 0.014637283358679237 0 -0.00024438627381669802 0.014674737745038115 0 -0.00023747508577302484 0.014614519030493732 0 -0.00023970012395330977 0.014620237889735566 0 -0.000243399012870757 0.014637283358679237 0 -0.00024605563703176611 0.014611207571641645 0 -0.00023747508577302484 0.014614519030493732 0 -0.00023970012395330977 0.014620237889735566 0 -0.00025271685465025524 0.014622055608950878 0 -0.00023970012395330977 0.014620237889735566 0 -0.00023754108459785774 0.014620802600744724 0 -0.00023970012395330977 0.014620237889735566 0 -0.00023754108459785774 0.014620802600744724 0 -0.000243399012870757 0.014637283358679237 0 -0.00023754108459785774 0.014620802600744724 0 -0.000243399012870757 0.014637283358679237 0 -0.00023995992096977254 0.014622530121050191 0 -0.000243399012870757 0.014637283358679237 0 -0.00023995992096977254 0.014622530121050191 0 -0.00025580752551364051 0.014623909955301476 0 -0.00042041355023989939 0.014057751829955145 0 -0.0002880033527127048 0.014414360470171842 0 -0.00023754108459785774 0.014620802600744724 0 -0.00023995992096977254 0.014622530121050191 0 -0.00022382946134740837 0.014606915431330421 0 -0.00022389381083941004 0.014205114812125308 0 -0.00016514577265064624 0.014338268453559498 0 -0.00023557762201749599 0.014238177221460438 0 -0.00025271685465025524 0.014622055608950878 0 -0.00023754108459785774 0.014620802600744724 0 -0.00022382946134740837 0.014606915431330421 0 -0.0002880033527127048 0.014414360470171842 0 -0.00021672624078793799 0.014434199489339343 0 -0.00023995992096977254 0.014622530121050191 0 -0.00022382946134740837 0.014606915431330421 0 -0.00025580752551364051 0.014623909955301476 0 -0.00060126213609718493 0.013946002094881962 0 -0.00051907650887486579 0.013951199359466027 0 -0.00050813883615727633 0.014035970274157194 0 -0.00022382946134740837 0.014606915431330421 0 -0.00027016619946040518 0.014582005695445665 0 -0.00025580752551364051 0.014623909955301476 0 -0.00027016619946040518 0.014582005695445665 0 -0.00025580752551364051 0.014623909955301476 0 -0.00032153832396071428 0.014625383272603255 0 -0.0003297498232272579 0.014545264151075552 0 -0.00027016619946040518 0.014582005695445665 0 -0.00032153832396071428 0.014625383272603255 0 -0.00025580752551364051 0.014623909955301476 0 -0.00032153832396071428 0.014625383272603255 0 -0.00029872528633784255 0.014676578962493164 0 -0.00039455098279084455 0.014607933909967929 0 -0.00032153832396071428 0.014625383272603255 0 -0.00044531904741201725 0.014684952071473795 0 -0.00032153832396071428 0.014625383272603255 0 -0.00029872528633784255 0.014676578962493164 0 -0.00044531904741201725 0.014684952071473795 0 -0.0003297498232272579 0.014545264151075552 0 -0.00039455098279084455 0.014607933909967929 0 -0.00032153832396071428 0.014625383272603255 0 -0.00029872528633784255 0.014676578962493164 0 -0.00037458515422420842 0.014750772602733882 0 -0.00044531904741201725 0.014684952071473795 0 -0.000243399012870757 0.014637283358679237 0 -0.00029872528633784255 0.014676578962493164 0 -0.00024438627381669802 0.014674737745038115 0 -0.000243399012870757 0.014637283358679237 0 -0.00025580752551364051 0.014623909955301476 0 -0.00029872528633784255 0.014676578962493164 0 -0.00025721183683759502 0.014685775075531976 0 -0.00037372204664853133 0.014709876369174439 0 -0.00024438627381669802 0.014674737745038115 0 -0.00036488901892274962 0.014676317719119314 0 -0.00027216516519530583 0.014806701568875716 0 -0.00029872528633784255 0.014676578962493164 0 -0.00024438627381669802 0.014674737745038115 0 -0.00037458515422420842 0.014750772602733882 0 -0.00036488901892274962 0.014676317719119314 0 -0.00027216516519530583 0.014806701568875716 0 -0.0004164076399213539 0.014816589493972836 0 -0.00024438627381669802 0.014674737745038115 0 -0.00027216516519530583 0.014806701568875716 0 -0.00021138961909726028 0.014726953059786069 0 -0.00021138961909726028 0.014726953059786069 0 -0.00020900467814701963 0.014653328421079893 0 -0.00023212091792581779 0.014623632337689232 0 -0.00024438627381669802 0.014674737745038115 0 -0.00021138961909726028 0.014726953059786069 0 -0.00023212091792581779 0.014623632337689232 0 -0.00020900467814701963 0.014653328421079893 0 -0.00024680277584128544 0.014569688449762638 0 -0.00019654689999841826 0.01462457968549743 0 -0.00020900467814701963 0.014653328421079893 0 -0.00024680277584128544 0.014569688449762638 0 -0.00023212091792581779 0.014623632337689232 0 -0.00024680277584128544 0.014569688449762638 0 -0.00025422750245259341 0.014567628649300233 0 -0.00023212091792581779 0.014623632337689232 0 -0.00024680277584128544 0.014569688449762638 0 -0.00030946911303043249 0.014490623247798373 0 -0.00024090631972735962 0.014486871004462498 0 -0.00024680277584128544 0.014569688449762638 0 -0.00030946911303043249 0.014490623247798373 0 -0.00025422750245259341 0.014567628649300233 0 -0.00023747508577302484 0.014614519030493732 0 -0.00024438627381669802 0.014674737745038115 0 -0.00023212091792581779 0.014623632337689232 0 -0.00023747508577302484 0.014614519030493732 0 -0.00025422750245259341 0.014567628649300233 0 -0.00023212091792581779 0.014623632337689232 0 -0.0009285501466006112 0.014905643620071964 0 -0.00092642877722585396 0.014779754765249196 0 -0.00082974053748611739 0.014770914896818326 0 -0.00091303800304466339 0.014872343430970377 0 -0.00082936109831946154 0.014706801061934517 0 -0.00082974053748611739 0.014770914896818326 0 -0.0009285501466006112 0.014905643620071964 0 -0.00091303800304466339 0.014872343430970377 0 -0.00082974053748611739 0.014770914896818326 0 -0.00066409045409065927 0.014638431533881672 0 -0.00082936109831946154 0.014706801061934517 0 -0.00082974053748611739 0.014770914896818326 0 -0.00080418194000867621 0.0147542447922549 0 -0.00059946922391055832 0.01472680993632583 0 -0.00082974053748611739 0.014770914896818326 0 -0.00078316822909383504 0.014743727942415959 0 -0.00061217226992947473 0.014653732485344901 0 -0.00092642877722585396 0.014779754765249196 0 -0.00082974053748611739 0.014770914896818326 0 -0.00078316822909383504 0.014743727942415959 0 -0.00066409045409065927 0.014638431533881672 0 -0.00082974053748611739 0.014770914896818326 0 -0.00058200306358520133 0.014786917029732869 0 -0.00066409045409065927 0.014638431533881672 0 -0.00058200306358520133 0.014786917029732869 0 -0.00044531904741201725 0.014684952071473795 0 -0.00047636929382633352 0.014559066499700997 0 -0.00066409045409065927 0.014638431533881672 0 -0.00044531904741201725 0.014684952071473795 0 -0.00047636929382633352 0.014559066499700997 0 -0.00039455098279084455 0.014607933909967929 0 -0.00044531904741201725 0.014684952071473795 0 -0.00037372204664853133 0.014709876369174439 0 -0.00059946922391055832 0.01472680993632583 0 -0.00037458515422420842 0.014750772602733882 0 -0.00058200306358520133 0.014786917029732869 0 -0.00044531904741201725 0.014684952071473795 0 -0.00036488901892274962 0.014676317719119314 0 -0.00061217226992947473 0.014653732485344901 0 -0.00058071879626096713 0.014782048798006197 0 -0.00036488901892274962 0.014676317719119314 0 -0.0004164076399213539 0.014816589493972836 0 -0.00058071879626096713 0.014782048798006197 0 -0.0004164076399213539 0.014816589493972836 0 -0.00059884870552804129 0.014937282709752283 0 -0.00058071879626096713 0.014782048798006197 0 -0.00059884870552804129 0.014937282709752283 0 -0.00058071879626096713 0.014782048798006197 0 -0.00073732549945981242 0.014807800222525326 0 -0.00078316822909383504 0.014743727942415959 0 -0.00061217226992947473 0.014653732485344901 0 -0.00058071879626096713 0.014782048798006197 0 -0.00078316822909383504 0.014743727942415959 0 -0.00058071879626096713 0.014782048798006197 0 -0.00073732549945981242 0.014807800222525326 0 -0.00078316822909383504 0.014743727942415959 0 -0.00073732549945981242 0.014807800222525326 0 -0.00088273422649284101 0.014762035864801208 0 -0.00073732549945981242 0.014807800222525326 0 -0.00084329920685712447 0.014864493293503247 0 -0.00088273422649284101 0.014762035864801208 0 -0.00059884870552804129 0.014937282709752283 0 -0.00073732549945981242 0.014807800222525326 0 -0.00084329920685712447 0.014864493293503247 0 -0.00059884870552804129 0.014937282709752283 0 -0.00084329920685712447 0.014864493293503247 0 -0.00082688818667150368 0.015060586928498295 0 -0.00084329920685712447 0.014864493293503247 0 -0.001036440673036518 0.014888385996768894 0 -0.00096875192456389008 0.014775304583828334 0 -0.001036440673036518 0.014888385996768894 0 -0.0011043561124096976 0.015040749501241787 0 -0.00082688818667150368 0.015060586928498295 0 -0.00084329920685712447 0.014864493293503247 0 -0.001036440673036518 0.014888385996768894 0 -0.00082688818667150368 0.015060586928498295 0 -0.0011392087235599195 0.014879906609806683 0 -0.001036440673036518 0.014888385996768894 0 -0.0011043561124096976 0.015040749501241787 0 -0.001036440673036518 0.014888385996768894 0 -0.0010653848883948813 0.014808907052420916 0 -0.00096875192456389008 0.014775304583828334 0 -0.0011392087235599195 0.014879906609806683 0 -0.001036440673036518 0.014888385996768894 0 -0.0010653848883948813 0.014808907052420916 0 -0.0010565447179245093 0.014761307361680274 0 -0.0010653848883948813 0.014808907052420916 0 -0.00096875192456389008 0.014775304583828334 0 -0.0010565447179245093 0.014761307361680274 0 -0.00098219586587554872 0.014736465338462531 0 -0.00096875192456389008 0.014775304583828334 0 -0.00096875192456389008 0.014775304583828334 0 -0.00088273422649284101 0.014762035864801208 0 -0.00095429815756819907 0.014740262912835689 0 -0.00092642877722585396 0.014779754765249196 0 -0.00078316822909383504 0.014743727942415959 0 -0.00088273422649284101 0.014762035864801208 0 -0.0009778776522707199 0.014696347270681994 0 -0.0010565447179245093 0.014761307361680274 0 -0.00098219586587554872 0.014736465338462531 0 -0.0009778776522707199 0.014696347270681994 0 -0.00098219586587554872 0.014736465338462531 0 -0.00095429815756819907 0.014740262912835689 0 -0.00098219586587554872 0.014736465338462531 0 -0.00096875192456389008 0.014775304583828334 0 -0.00095429815756819907 0.014740262912835689 0 -0.00084329920685712447 0.014864493293503247 0 -0.00096875192456389008 0.014775304583828334 0 -0.00088273422649284101 0.014762035864801208 0 -0.00092642877722585396 0.014779754765249196 0 -0.00088273422649284101 0.014762035864801208 0 -0.00095429815756819907 0.014740262912835689 0 -0.00096314628726186632 0.014737884221149886 0 -0.00092642877722585396 0.014779754765249196 0 -0.00095429815756819907 0.014740262912835689 0 -0.00096314628726186632 0.014737884221149886 0 -0.0009778776522707199 0.014696347270681994 0 -0.00095429815756819907 0.014740262912835689 0 -0.0012660035367846134 0.015605247694475731 0 -0.00094095112511333829 0.015327340705967637 0 -0.00072083243333566501 0.015662509212696588 0 -0.00094095112511333829 0.015327340705967637 0 -0.0011043561124096976 0.015040749501241787 0 -0.00082688818667150368 0.015060586928498295 0 -0.0012672517940480977 0.015247321047174018 0 -0.00094095112511333829 0.015327340705967637 0 -0.0011043561124096976 0.015040749501241787 0 -0.00094095112511333829 0.015327340705967637 0 -0.00082688818667150368 0.015060586928498295 0 -0.00060830422378281091 0.015273544651646294 0 -0.00059884870552804129 0.014937282709752283 0 -0.00082688818667150368 0.015060586928498295 0 -0.00060830422378281091 0.015273544651646294 0 -0.00094095112511333829 0.015327340705967637 0 -0.00060830422378281091 0.015273544651646294 0 -0.00072083243333566501 0.015662509212696588 0 -0.00060830422378281091 0.015273544651646294 0 -0.00038468513146859475 0.015004694422611759 0 -0.00042186153099357305 0.01530689121500217 0 -0.00059884870552804129 0.014937282709752283 0 -0.00060830422378281091 0.015273544651646294 0 -0.00038468513146859475 0.015004694422611759 0 -0.0004164076399213539 0.014816589493972836 0 -0.00059884870552804129 0.014937282709752283 0 -0.00038468513146859475 0.015004694422611759 0 -0.00038468513146859475 0.015004694422611759 0 -0.00042186153099357305 0.01530689121500217 0 -0.0002239216890358391 0.015003984543526562 0 -0.00042186153099357305 0.01530689121500217 0 -0.00044823461266938576 0.015583415524411292 0 -0.00027744392975151492 0.0152736856837822 0 -0.00044823461266938576 0.015583415524411292 0 -0.00027744392975151492 0.0152736856837822 0 -0.00023142777852499271 0.015604706804169607 0 -0.00042186153099357305 0.01530689121500217 0 -0.00044823461266938576 0.015583415524411292 0 -0.00055867174743164712 0.015535170855220718 0 -0.00044823461266938576 0.015583415524411292 0 -0.00055867174743164712 0.015535170855220718 0 -0.00062920346316145098 0.015693818257750007 0 -0.00055867174743164712 0.015535170855220718 0 -0.00067084013019046531 0.015600187671271939 0 -0.00062920346316145098 0.015693818257750007 0 -0.00055867174743164712 0.015535170855220718 0 -0.00061421717166355698 0.015484441298085738 0 -0.00067084013019046531 0.015600187671271939 0 -0.00042186153099357305 0.01530689121500217 0 -0.00055867174743164712 0.015535170855220718 0 -0.00061421717166355698 0.015484441298085738 0 -0.00060830422378281091 0.015273544651646294 0 -0.00042186153099357305 0.01530689121500217 0 -0.00061421717166355698 0.015484441298085738 0 -0.00061421717166355698 0.015484441298085738 0 -0.00067084013019046531 0.015600187671271939 0 -0.00072083243333566501 0.015662509212696588 0 -0.00060830422378281091 0.015273544651646294 0 -0.00061421717166355698 0.015484441298085738 0 -0.00072083243333566501 0.015662509212696588 0 -0.00067084013019046531 0.015600187671271939 0 -0.00075819627905191183 0.015703855018945286 0 -0.00062920346316145098 0.015693818257750007 0 -0.00067084013019046531 0.015600187671271939 0 -0.00075819627905191183 0.015703855018945286 0 -0.00072083243333566501 0.015662509212696588 0 -0.00099074953957718087 0.016479280734713782 0 -0.00073032719207437671 0.015738804207835404 0 -0.00075819627905191183 0.015703855018945286 0 -0.00086773763300090738 0.015729345054056005 0 -0.00072083243333566501 0.015662509212696588 0 -0.0012660035367846134 0.015605247694475731 0 -0.0013585940065217723 0.01618927335181166 0 -0.00072083243333566501 0.015662509212696588 0 -0.0013585940065217723 0.01618927335181166 0 -0.0010947989183730758 0.017249206863177716 0 -0.00072083243333566501 0.015662509212696588 0 -0.00016967755284026984 0.01481639826171147 0 -0.00013193642772539338 0.014882262734482109 0 -9.5924676645209154e-05 0.014720845715018612 0 -0.00016967755284026984 0.01481639826171147 0 -0.00016085315381076856 0.014704304634191341 0 -9.5924676645209154e-05 0.014720845715018612 0 -0.00016085315381076856 0.014704304634191341 0 -0.00012686319030402575 0.014659240797406783 0 -0.00016894809166703801 0.014647567034742083 0 -0.00016085315381076856 0.014704304634191341 0 -9.5924676645209154e-05 0.014720845715018612 0 -0.00012686319030402575 0.014659240797406783 0 -0.00016085315381076856 0.014704304634191341 0 -0.00016894809166703801 0.014647567034742083 0 -0.00019654689999841826 0.01462457968549743 0 -0.00020900467814701963 0.014653328421079893 0 -0.00016085315381076856 0.014704304634191341 0 -0.00019654689999841826 0.01462457968549743 0 -0.00021138961909726028 0.014726953059786069 0 -0.00016967755284026984 0.01481639826171147 0 -0.00016085315381076856 0.014704304634191341 0 -0.00021138961909726028 0.014726953059786069 0 -0.00020900467814701963 0.014653328421079893 0 -0.00016085315381076856 0.014704304634191341 0 -0.00027216516519530583 0.014806701568875716 0 -0.00021138961909726028 0.014726953059786069 0 -0.00016967755284026984 0.01481639826171147 0 -0.00027216516519530583 0.014806701568875716 0 -0.00016967755284026984 0.01481639826171147 0 -0.0002239216890358391 0.015003984543526562 0 -0.00027216516519530583 0.014806701568875716 0 -0.00038468513146859475 0.015004694422611759 0 -0.0002239216890358391 0.015003984543526562 0 -0.00027216516519530583 0.014806701568875716 0 -0.0004164076399213539 0.014816589493972836 0 -0.00038468513146859475 0.015004694422611759 0 -0.00016967755284026984 0.01481639826171147 0 -0.0002239216890358391 0.015003984543526562 0 -0.00013193642772539338 0.014882262734482109 0 -0.00013193642772539338 0.014882262734482109 0 -0.00011589915635644863 0.015041545195862116 0 -0.00010862620762539997 0.014791301962287335 0 -0.0002239216890358391 0.015003984543526562 0 -0.00013193642772539338 0.014882262734482109 0 -0.00011589915635644863 0.015041545195862116 0 -0.00042186153099357305 0.01530689121500217 0 -0.0002239216890358391 0.015003984543526562 0 -0.00027744392975151492 0.0152736856837822 0 -0.0002239216890358391 0.015003984543526562 0 -0.00027744392975151492 0.0152736856837822 0 -0.00011589915635644863 0.015041545195862116 0 -0.00012432067182611655 0.015091321096667455 0 -0.00012662455265960863 0.015227514980159297 0 -0.00027744392975151492 0.0152736856837822 0 -0.00011589915635644863 0.015041545195862116 0 -0.00023142777852499271 0.015604706804169607 0 -0.00011589915635644863 0.015041545195862116 0 -0.0001261274957940209 0.014853599639850175 0 -0.00010135186646312968 0.014855497703562436 0 -0.00011589915635644863 0.015041545195862116 0 -0.0001261274957940209 0.014853599639850175 0 -0.00010862620762539997 0.014791301962287335 0 -0.0001261274957940209 0.014853599639850175 0 -0.00010862620762539997 0.014791301962287335 0 -9.9454558881197601e-05 0.014764789404711466 0 -0.00013193642772539338 0.014882262734482109 0 -0.00010862620762539997 0.014791301962287335 0 -9.5924676645209154e-05 0.014720845715018612 0 -9.5924676645209154e-05 0.014720845715018612 0 -0.00010528252642177076 0.01458420035453788 0 -0.00012686319030402575 0.014659240797406783 0 -9.5924676645209154e-05 0.014720845715018612 0 3.1498767099956122e-05 0.014536777933799634 0 -0.00010528252642177076 0.01458420035453788 0 -0.00010862620762539997 0.014791301962287335 0 -9.5924676645209154e-05 0.014720845715018612 0 3.1498767099956122e-05 0.014536777933799634 0 -0.00010862620762539997 0.014791301962287335 0 3.1498767099956122e-05 0.014536777933799634 0 -9.9454558881197601e-05 0.014764789404711466 0 3.1498767099956122e-05 0.014536777933799634 0 -0.00013318375330408121 0.014394362800028478 0 -0.00011772728194296459 0.014081535955372598 0 3.1498767099956122e-05 0.014536777933799634 0 -0.00013318375330408121 0.014394362800028478 0 -0.00010528252642177076 0.01458420035453788 0 -0.00032489699274351177 0.014112460277727888 0 -0.00013318375330408121 0.014394362800028478 0 -0.00011772728194296459 0.014081535955372598 0 -0.00032489699274351177 0.014112460277727888 0 -0.00013318375330408121 0.014394362800028478 0 -0.00024722405651802397 0.014463065572881685 0 -0.00024722405651802397 0.014463065572881685 0 -0.0003643832037686489 0.014571597354580714 0 -0.00019426287643434315 0.01461759640114335 0 -0.00024722405651802397 0.014463065572881685 0 -0.00010528252642177076 0.01458420035453788 0 -0.00019426287643434315 0.01461759640114335 0 -0.00013318375330408121 0.014394362800028478 0 -0.00024722405651802397 0.014463065572881685 0 -0.00010528252642177076 0.01458420035453788 0 -0.00075338864381999766 0.014330459045270258 0 -0.00052047997464078758 0.014214992179217883 0 -0.00089726743784408736 0.013962136007994912 0 -0.00032489699274351177 0.014112460277727888 0 -0.00024722405651802397 0.014463065572881685 0 -0.00052047997464078758 0.014214992179217883 0 -0.00032489699274351177 0.014112460277727888 0 -0.00052047997464078758 0.014214992179217883 0 -0.00052354122246758318 0.013824822740590784 0 -0.00024722405651802397 0.014463065572881685 0 -0.00052047997464078758 0.014214992179217883 0 -0.0003643832037686489 0.014571597354580714 0 -0.00075338864381999766 0.014330459045270258 0 -0.00052047997464078758 0.014214992179217883 0 -0.0003643832037686489 0.014571597354580714 0 -0.00028591907541489621 0.014536915820702019 0 -0.00069602366457504575 0.014744162723626018 0 -0.00075338864381999766 0.014330459045270258 0 -0.0003643832037686489 0.014571597354580714 0 -0.00091933576256122973 0.014647572240474114 0 -0.0003643832037686489 0.014571597354580714 0 -0.0002111452314538758 0.014534121339010381 0 -0.00011504694493826905 0.014586415157253762 0 -0.0003643832037686489 0.014571597354580714 0 -0.0002111452314538758 0.014534121339010381 0 -0.00020326311901758102 0.01454662525692243 0 -0.0003643832037686489 0.014571597354580714 0 -0.00020326311901758102 0.01454662525692243 0 -0.00019426287643434315 0.01461759640114335 0 -0.0002111452314538758 0.014534121339010381 0 -0.00020326311901758102 0.01454662525692243 0 -0.00012401705806310234 0.014470992849405685 0 -0.00020326311901758102 0.01454662525692243 0 -0.00012401705806310234 0.014470992849405685 0 -0.00010114923051989545 0.014407393177549743 0 -0.0002111452314538758 0.014534121339010381 0 -0.00012401705806310234 0.014470992849405685 0 -6.2165227645572611e-05 0.014491073351155312 0 -0.00010528252642177076 0.01458420035453788 0 -0.00012686319030402575 0.014659240797406783 0 -0.00019426287643434315 0.01461759640114335 0 -0.00012686319030402575 0.014659240797406783 0 -0.00019426287643434315 0.01461759640114335 0 -0.00016894809166703801 0.014647567034742083 0 -0.00020326311901758102 0.01454662525692243 0 -0.00019426287643434315 0.01461759640114335 0 -0.00018807852215155824 0.014590237915492996 0 -0.00020326311901758102 0.01454662525692243 0 -0.00018807852215155824 0.014590237915492996 0 -0.00016301293235375689 0.014487102701138789 0 -0.00019426287643434315 0.01461759640114335 0 -0.00018807852215155824 0.014590237915492996 0 -0.00016894809166703801 0.014647567034742083 0 -0.00018807852215155824 0.014590237915492996 0 -0.00016894809166703801 0.014647567034742083 0 -0.00019654689999841826 0.01462457968549743 0 -0.00018807852215155824 0.014590237915492996 0 -0.00019654689999841826 0.01462457968549743 0 -0.00020503572125387602 0.014547495451584467 0 -0.00024680277584128544 0.014569688449762638 0 -0.00019654689999841826 0.01462457968549743 0 -0.00020503572125387602 0.014547495451584467 0 -0.00024680277584128544 0.014569688449762638 0 -0.00020503572125387602 0.014547495451584467 0 -0.00024090631972735962 0.014486871004462498 0 -0.00020503572125387602 0.014547495451584467 0 -0.00024090631972735962 0.014486871004462498 0 -0.00017806319834360495 0.014415320307527742 0 -0.00024090631972735962 0.014486871004462498 0 -0.00017806319834360495 0.014415320307527742 0 -0.00023655073003134408 0.014356973041056641 0 -0.00030946911303043249 0.014490623247798373 0 -0.00024090631972735962 0.014486871004462498 0 -0.00023655073003134408 0.014356973041056641 0 -0.00017806319834360495 0.014415320307527742 0 -0.00016301293235375689 0.014487102701138789 0 -8.6492092447381698e-05 0.01432895458381451 0 -0.00018807852215155824 0.014590237915492996 0 -0.00020503572125387602 0.014547495451584467 0 -0.00016301293235375689 0.014487102701138789 0 -0.00020503572125387602 0.014547495451584467 0 -0.00017806319834360495 0.014415320307527742 0 -0.00016301293235375689 0.014487102701138789 0 -0.00020326311901758102 0.01454662525692243 0 -0.00016301293235375689 0.014487102701138789 0 -0.00010114923051989545 0.014407393177549743 0 -0.00016301293235375689 0.014487102701138789 0 -0.00010114923051989545 0.014407393177549743 0 -8.6492092447381698e-05 0.01432895458381451 0 -8.6492092447381698e-05 0.01432895458381451 0 -1.4393662957327415e-05 0.014164764243531124 0 1.2653669758313677e-05 0.014050576526759515 0 -0.00010702719156340796 0.01431429688893387 0 -1.0082232436829455e-05 0.014167984277366411 0 -0.00010114923051989545 0.014407393177549743 0 -8.6492092447381698e-05 0.01432895458381451 0 -5.8171869804881559e-05 0.014345872483321247 0 -8.6492092447381698e-05 0.01432895458381451 0 -1.4393662957327415e-05 0.014164764243531124 0 -0.0001276686538504047 0.014187637327528672 0 -1.4393662957327415e-05 0.014164764243531124 0 6.8118066178156075e-06 0.014119753453770961 0 1.2653669758313677e-05 0.014050576526759515 0 -1.4393662957327415e-05 0.014164764243531124 0 -1.6734140225362808e-05 0.014073563926839816 0 6.8118066178156075e-06 0.014119753453770961 0 -0.00013262720002283886 0.013839973025585801 0 -0.0001690294511446088 0.013778971178752344 0 -0.00028731456560848636 0.013635093978850481 0 -0.00021404009156425146 0.013616827026964467 0 -0.00033930919944858871 0.013440403201623119 0 -1.4393662957327415e-05 0.014164764243531124 0 -1.6734140225362808e-05 0.014073563926839816 0 -0.0001276686538504047 0.014187637327528672 0 -0.00020841681743101134 0.013859480448696329 0 -0.00028245482545987598 0.014039052462468851 0 -0.0001276686538504047 0.014187637327528672 0 -0.00020841681743101134 0.013859480448696329 0 -1.6734140225362808e-05 0.014073563926839816 0 -0.0001276686538504047 0.014187637327528672 0 -0.00028245482545987598 0.014039052462468851 0 -0.00028432628234577653 0.014210511908907868 0 -0.0001276686538504047 0.014187637327528672 0 -0.00033822629270203195 0.013857533839819244 0 -0.00039236838396191021 0.014011099912827063 0 -0.00028245482545987598 0.014039052462468851 0 -0.00039236838396191021 0.014011099912827063 0 -0.00038831570954091601 0.014146891532034429 0 -0.00028245482545987598 0.014039052462468851 0 -0.00038831570954091601 0.014146891532034429 0 -0.00028245482545987598 0.014039052462468851 0 -0.00028432628234577653 0.014210511908907868 0 -0.00028432628234577653 0.014210511908907868 0 -0.00023655073003134408 0.014356973041056641 0 -0.0001276686538504047 0.014187637327528672 0 -0.00034675124054730437 0.014280912498867173 0 -0.00028432628234577653 0.014210511908907868 0 -0.00023655073003134408 0.014356973041056641 0 -0.00038831570954091601 0.014146891532034429 0 -0.00034675124054730437 0.014280912498867173 0 -0.00028432628234577653 0.014210511908907868 0 -0.00034675124054730437 0.014280912498867173 0 -0.00030946911303043249 0.014490623247798373 0 -0.00023655073003134408 0.014356973041056641 0 -0.00017806319834360495 0.014415320307527742 0 -0.00023655073003134408 0.014356973041056641 0 -0.0001276686538504047 0.014187637327528672 0 -0.00017806319834360495 0.014415320307527742 0 -8.6492092447381698e-05 0.01432895458381451 0 -0.0001276686538504047 0.014187637327528672 0 -0.00021876893990183506 0.01369795259529832 0 -0.00012199070256749659 0.013653561952746585 0 -0.00027459135905743724 0.01334619383247654 0 -0.00038179151332345349 0.013418914846526837 0 -0.00012784888665101849 0.01362697363294943 0 -0.00027459135905743724 0.01334619383247654 0 -8.3532782694338255e-05 0.013485651292624331 0 -0.00012784888665101849 0.01362697363294943 0 9.7657073866370042e-05 0.013227648542656378 0 -0.00027459135905743724 0.01334619383247654 0 -7.6083277414512853e-05 0.013373624357355099 0 2.886899665155077e-05 0.013217637260448183 0 -0.00027360355135582772 0.01334871049443863 0 6.1543321065303958e-05 0.013387080683013119 0 -8.3532782694338255e-05 0.013485651292624331 0 -7.6083277414512853e-05 0.013373624357355099 0 6.1543321065303958e-05 0.013387080683013119 0 -8.3532782694338255e-05 0.013485651292624331 0 -2.6494430278590536e-05 0.013536804777101442 0 9.7657073866370042e-05 0.013227648542656378 0 6.1543321065303958e-05 0.013387080683013119 0 -7.6083277414512853e-05 0.013373624357355099 0 -0.00027459135905743724 0.01334619383247654 0 -8.3532782694338255e-05 0.013485651292624331 0 -7.6083277414512853e-05 0.013373624357355099 0 -0.00012941672109375394 0.013330225805560725 0 -0.00027459135905743724 0.01334619383247654 0 -0.00025048940963862874 0.013238767009448545 0 -0.00012031584593788652 0.013085902815603168 0 -0.00029784021072540962 0.013282596691304551 0 -0.00025048940963862874 0.013238767009448545 0 -0.00012941672109375394 0.013330225805560725 0 -0.00012031584593788652 0.013085902815603168 0 -0.00025048940963862874 0.013238767009448545 0 -0.00027459135905743724 0.01334619383247654 0 -0.00031481164781237023 0.013327734307246932 0 -0.00038179151332345349 0.013418914846526837 0 -0.00027459135905743724 0.01334619383247654 0 -0.00025048940963862874 0.013238767009448545 0 -0.00031481164781237023 0.013327734307246932 0 -0.00037114424383166467 0.013403966989940976 0 -0.00031481164781237023 0.013327734307246932 0 -0.00038179151332345349 0.013418914846526837 0 -0.00037114424383166467 0.013403966989940976 0 -0.00033930919944858871 0.013440403201623119 0 -0.00038179151332345349 0.013418914846526837 0 -0.00028731456560848636 0.013635093978850481 0 -0.00037114424383166467 0.013403966989940976 0 -0.00033930919944858871 0.013440403201623119 0 6.8118066178156075e-06 0.014119753453770961 0 -9.7052554933154311e-05 0.013977354642011008 0 1.2653669758313677e-05 0.014050576526759515 0 -0.0001690294511446088 0.013778971178752344 0 -0.00021876893990183506 0.01369795259529832 0 -1.0082232436829455e-05 0.014167984277366411 0 -0.00017583198825879201 0.014287756745507415 0 -9.7052554933154311e-05 0.013977354642011008 0 1.2653669758313677e-05 0.014050576526759515 0 -0.00014238800653371207 0.013790686280864061 0 -0.00012401705806310234 0.014470992849405685 0 -0.00010114923051989545 0.014407393177549743 0 -2.2436237269559682e-05 0.014395843233756039 0 -0.00010114923051989545 0.014407393177549743 0 -5.8171869804881559e-05 0.014345872483321247 0 -2.2436237269559682e-05 0.014395843233756039 0 -2.2436237269559682e-05 0.014395843233756039 0 4.9737964189204391e-05 0.014339782646558297 0 4.5881583132302065e-05 0.014309207409827083 0 -5.8171869804881559e-05 0.014345872483321247 0 -2.2436237269559682e-05 0.014395843233756039 0 4.5881583132302065e-05 0.014309207409827083 0 -2.2436237269559682e-05 0.014395843233756039 0 4.9737964189204391e-05 0.014339782646558297 0 9.0777307972034161e-05 0.014337768084079704 0 4.9737964189204391e-05 0.014339782646558297 0 7.2331947515967416e-05 0.014323286361689702 0 9.0777307972034161e-05 0.014337768084079704 0 4.9737964189204391e-05 0.014339782646558297 0 4.5881583132302065e-05 0.014309207409827083 0 7.2331947515967416e-05 0.014323286361689702 0 -0.00017583198825879201 0.014287756745507415 0 0.00057445186559061559 0.012148583812604365 0 4.5881583132302065e-05 0.014309207409827083 0 7.1368473311282947e-05 0.014307142650442925 0 7.2331947515967416e-05 0.014323286361689702 0 -9.7052554933154311e-05 0.013977354642011008 0 -0.00014238800653371207 0.013790686280864061 0 -0.00012784888665101849 0.01362697363294943 0 -0.00014238800653371207 0.013790686280864061 0 -0.00012784888665101849 0.01362697363294943 0 -5.4229239976830378e-05 0.01359403896208629 0 0.0004580647563944802 0.013377154031253537 0 0.00057445186559061559 0.012148583812604365 0 -2.6494430278590536e-05 0.013536804777101442 0 -0.00012784888665101849 0.01362697363294943 0 -5.4229239976830378e-05 0.01359403896208629 0 -8.3532782694338255e-05 0.013485651292624331 0 -2.6494430278590536e-05 0.013536804777101442 0 -0.00012784888665101849 0.01362697363294943 0 4.1422468776369587e-05 0.014290761710873347 0 7.2331947515967416e-05 0.014323286361689702 0 9.0777307972034161e-05 0.014337768084079704 0 4.1422468776369587e-05 0.014290761710873347 0 7.1368473311282947e-05 0.014307142650442925 0 7.2331947515967416e-05 0.014323286361689702 0 0.00039766820530243196 0.0095560203531602789 0 0.00020130876410803865 0.012863790037945799 0 1.0158547222714725e-05 0.014227171884698287 0 5.1332934003112769e-05 0.014270326005382262 0 7.4001337337286467e-05 0.014222306274997267 0 5.1332934003112769e-05 0.014270326005382262 0 9.0777307972034161e-05 0.014337768084079704 0 7.4001337337286467e-05 0.014222306274997267 0 4.1422468776369587e-05 0.014290761710873347 0 5.1332934003112769e-05 0.014270326005382262 0 9.0777307972034161e-05 0.014337768084079704 0 9.0777307972034161e-05 0.014337768084079704 0 7.4001337337286467e-05 0.014222306274997267 0 0.00021500997619408645 0.014176842821179998 0 3.8874562138139871e-05 0.014628733420263974 0 9.2848669769964617e-05 0.013574729075005676 0 0.00044312695421875399 0.011131366673947278 0 0.00088228126641934129 0.010951344692118472 0 0.0006110723661335827 0.010846493990056414 0 0.00020130876410803865 0.012863790037945799 0 9.2848669769964617e-05 0.013574729075005676 0 0.00019148903624438703 0.010840826129926833 0 0.00044312695421875399 0.011131366673947278 0 0.0006110723661335827 0.010846493990056414 0 -5.9970083871463367e-05 0.011240760454216823 0 0.00019148903624438703 0.010840826129926833 0 0.00044312695421875399 0.011131366673947278 0 -0.00012401705806310234 0.014470992849405685 0 -2.2436237269559682e-05 0.014395843233756039 0 -6.2165227645572611e-05 0.014491073351155312 0 -2.2436237269559682e-05 0.014395843233756039 0 -6.2165227645572611e-05 0.014491073351155312 0 2.5675736329872882e-05 0.014518754764697247 0 -2.2436237269559682e-05 0.014395843233756039 0 9.0777307972034161e-05 0.014337768084079704 0 2.5675736329872882e-05 0.014518754764697247 0 -6.2165227645572611e-05 0.014491073351155312 0 2.5675736329872882e-05 0.014518754764697247 0 -0.00011504694493826905 0.014586415157253762 0 -0.0002111452314538758 0.014534121339010381 0 -6.2165227645572611e-05 0.014491073351155312 0 -0.00011504694493826905 0.014586415157253762 0 9.2848669769964617e-05 0.013574729075005676 0 -0.00069602366457504575 0.014744162723626018 0 -0.00075338864381999766 0.014330459045270258 0 -0.00091933576256122973 0.014647572240474114 0 -0.0010605472850795073 0.014380047772149327 0 -0.0012638616571291664 0.0147068409569259 0 -0.00091933576256122973 0.014647572240474114 0 -0.0010605472850795073 0.014380047772149327 0 9.2848669769964617e-05 0.013574729075005676 0 -0.00010822187482488676 0.012369824603725557 0 0.00088228126641934129 0.010951344692118472 0 0.00090784840744526725 0.010567596265626285 0 0.00086083809925326885 0.010670394724006016 0 0.00090784840744526725 0.010567596265626285 0 0.00086083809925326885 0.010670394724006016 0 0.0010966198816321614 0.010559282296961693 0 0.00090784840744526725 0.010567596265626285 0 0.0010966198816321614 0.010559282296961693 0 0.00079071084797661972 0.011006224888740779 0 0.00090784840744526725 0.010567596265626285 0 0.00079071084797661972 0.011006224888740779 0 2.4237678420467948e-05 0.011357675045625267 0 -0.00010822187482488676 0.012369824603725557 0 -0.00040932617954211539 0.012699336220493853 0 -0.00075338864381999766 0.014330459045270258 0 -0.0010605472850795073 0.014380047772149327 0 -0.00089726743784408736 0.013962136007994912 0 0.00019148903624438703 0.010840826129926833 0 0.00041617331199594881 0.010582503928017831 0 0.0006110723661335827 0.010846493990056414 0 3.8423349658366336e-05 0.01051952965305138 0 0.00019148903624438703 0.010840826129926833 0 0.00041617331199594881 0.010582503928017831 0 0.00086083809925326885 0.010670394724006016 0 0.00041617331199594881 0.010582503928017831 0 0.0006110723661335827 0.010846493990056414 0 0.00088228126641934129 0.010951344692118472 0 0.00086083809925326885 0.010670394724006016 0 0.0006110723661335827 0.010846493990056414 0 0.00086083809925326885 0.010670394724006016 0 0.00041617331199594881 0.010582503928017831 0 0.00057417816790787191 0.010307354038790994 0 0.00086083809925326885 0.010670394724006016 0 0.0010966198816321614 0.010559282296961693 0 0.00057417816790787191 0.010307354038790994 0 3.8423349658366336e-05 0.01051952965305138 0 0.00041617331199594881 0.010582503928017831 0 0.00025136804142731597 0.010271169454911529 0 0.00041617331199594881 0.010582503928017831 0 0.00057417816790787191 0.010307354038790994 0 0.00025136804142731597 0.010271169454911529 0 0.00065177796958127755 0.0087350307882056773 0 0.00055969819543743075 0.0086089328697337465 0 0.00047195287872341861 0.0086899177840095761 0 0.00057417816790787191 0.010307354038790994 0 0.00025136804142731597 0.010271169454911529 0 0.00033472806212838535 0.0096701094582527392 0 -0.00038425347338237354 -0.00048025504576702826 0 -0.000440603647992655 0.0031064263702373996 0 0.00025136804142731597 0.010271169454911529 0 0.00033472806212838535 0.0096701094582527392 0 -7.1140504766929006e-05 0.010092504043640562 0 0.00032961007099094341 0.010005890238894069 0 -0.000440603647992655 0.0031064263702373996 0 0.00057417816790787191 0.010307354038790994 0 0.00033472806212838535 0.0096701094582527392 0 0.00095701123486456553 0.0097769570515124013 0 0.0010966198816321614 0.010559282296961693 0 0.00057417816790787191 0.010307354038790994 0 0.00095701123486456553 0.0097769570515124013 0 0.00033472806212838535 0.0096701094582527392 0 0.00095701123486456553 0.0097769570515124013 0 0.0012183272436591308 0.0087357995832254426 0 0.00032961007099094341 0.010005890238894069 0 0.0013501224589344391 0.0085172217867733185 0 0.00065177796958127755 0.0087350307882056773 0 0.00055969819543743075 0.0086089328697337465 0 0.0012183272436591308 0.0087357995832254426 0 0.00079071084797661972 0.011006224888740779 0 0.00092934243462577005 0.011733318484833012 0 2.4237678420467948e-05 0.011357675045625267 0 0.00092934243462577005 0.011733318484833012 0 0.00013400323307108343 0.012983144106790532 0 2.4237678420467948e-05 0.011357675045625267 0 0.0010966198816321614 0.010559282296961693 0 0.00095701123486456553 0.0097769570515124013 0 0.0018993023457153902 0.0096517852184074635 0 0.0011179382581537817 0.01066518360351435 0 0.0013931234251087052 0.010652949873047199 0 0.0010966198816321614 0.010559282296961693 0 0.00079071084797661972 0.011006224888740779 0 0.00092934243462577005 0.011733318484833012 0 0.00095701123486456553 0.0097769570515124013 0 0.0018993023457153902 0.0096517852184074635 0 0.0012183272436591308 0.0087357995832254426 0 0.0018993023457153902 0.0096517852184074635 0 0.0012183272436591308 0.0087357995832254426 0 0.0018832990790286096 0.0088132798223187741 0 0.0018832990790286096 0.0088132798223187741 0 0.0019132695989374565 0.0080781956745417834 0 0.0024839471757640424 0.0088617606010215361 0 0.0018993023457153902 0.0096517852184074635 0 0.0018832990790286096 0.0088132798223187741 0 0.0024839471757640424 0.0088617606010215361 0 0.0013931234251087052 0.010652949873047199 0 0.0011541828120648562 0.011293664429728796 0 0.0012183272436591308 0.0087357995832254426 0 0.0018832990790286096 0.0088132798223187741 0 0.0019132695989374565 0.0080781956745417834 0 0.00063716565147514019 0.0021250471871082166 0 -0.0019623016845991795 -0.0024048459920230593 0 -0.0015770240227713731 -0.003846838939174623 0 -0.0019040468275981406 -0.0041279938530685758 0 -0.0020840262873037846 -0.0040371346335896533 0 0.0012183272436591308 0.0087357995832254426 0 0.0019132695989374565 0.0080781956745417834 0 0.00087404899460466576 0.0080302564383698261 0 -0.0015770240227713731 -0.003846838939174623 0 -0.0019040468275981406 -0.0041279938530685758 0 -0.0016307391303664826 -0.0042119797692032968 0 -0.0018879603259835947 -0.0041740217948119203 0 -0.0011285717073611181 -0.0053312503701643168 0 -0.0019040468275981406 -0.0041279938530685758 0 -0.0020895310869871427 -0.0044136184754274485 0 -0.001792517898934395 -0.0060509389517756128 0 -0.0015770240227713731 -0.003846838939174623 0 -0.0016307391303664826 -0.0042119797692032968 0 -0.0014000729601951246 -0.0039394180245000349 0 -0.0017948633356277153 -0.0090464360406188188 0 -0.0017974735980079875 -0.0088601114426206367 0 -0.0017894346618643178 -0.0091087988941504702 0 -0.0017948633356277153 -0.0090464360406188188 0 -0.0017974735980079875 -0.0088601114426206367 0 -0.001981840717637543 -0.0088046168386396485 0 -0.0023682953368490576 -0.007774978755881244 0 -0.0019623016845991795 -0.0024048459920230593 0 -0.00038425347338237354 -0.00048025504576702826 0 -0.0019623016845991795 -0.0024048459920230593 0 0.00055969819543743075 0.0086089328697337465 0 0.0012183272436591308 0.0087357995832254426 0 0.00087404899460466576 0.0080302564383698261 0 -0.0020895310869871427 -0.0044136184754274485 0 -0.0025174644576931456 -0.0053626544350687325 0 -0.001792517898934395 -0.0060509389517756128 0 -0.004454200270844178 -0.0040383585385211336 0 -0.0025704275913091446 -0.0038195287839376119 0 -0.0029509140661350425 -0.0046600761948115063 0 -0.0029509140661350425 -0.0046600761948115063 0 -0.0025174644576931456 -0.0053626544350687325 0 -0.0031976570460594501 -0.0063285634399391257 0 -0.0025704275913091446 -0.0038195287839376119 0 -0.0029509140661350425 -0.0046600761948115063 0 -0.0020895310869871427 -0.0044136184754274485 0 -0.0019623016845991795 -0.0024048459920230593 0 -0.0016393603627723376 -0.0039176819990748967 0 -0.0019040468275981406 -0.0041279938530685758 0 -0.0020840262873037846 -0.0040371346335896533 0 -0.0020895310869871427 -0.0044136184754274485 0 -0.0029509140661350425 -0.0046600761948115063 0 -0.0020895310869871427 -0.0044136184754274485 0 -0.0025174644576931456 -0.0053626544350687325 0 -0.004454200270844178 -0.0040383585385211336 0 -0.0029509140661350425 -0.0046600761948115063 0 -0.0031976570460594501 -0.0063285634399391257 0 -0.0023682953368490576 -0.007774978755881244 0 -0.0027484397503189555 -0.0073126732187528166 0 -0.0020015697922913943 -0.0091062088305922679 0 -0.0019823742669008147 -0.008885222972079089 0 -0.0019557720587821442 -0.009017624562144071 0 -0.0019823742669008147 -0.008885222972079089 0 -0.0019190071204515334 -0.0087979241118441645 0 -0.0019557720587821442 -0.009017624562144071 0 -0.0031976570460594501 -0.0063285634399391257 0 -0.001792517898934395 -0.0060509389517756128 0 -0.0017948528442992468 -0.0084326243727852832 0 -0.0019823742669008147 -0.008885222972079089 0 -0.0017948528442992468 -0.0084326243727852832 0 -0.0019190071204515334 -0.0087979241118441645 0 -0.0027484397503189555 -0.0073126732187528166 0 -0.0017872299747642363 -0.0085478712719717128 0 -0.0025174644576931456 -0.0053626544350687325 0 -0.0031976570460594501 -0.0063285634399391257 0 -0.001792517898934395 -0.0060509389517756128 0 -0.0019040468275981406 -0.0041279938530685758 0 -0.001792517898934395 -0.0060509389517756128 0 -0.00055491382897961106 -0.0065107398549435393 0 -0.0011285717073611181 -0.0053312503701643168 0 -0.00070167651478447561 -0.006296992619028885 0 -0.00055491382897961106 -0.0065107398549435393 0 -0.00043384593288513446 -0.0081169798791959971 0 6.1221732129605641e-05 -0.0080229167178206082 0 -0.00055491382897961106 -0.0065107398549435393 0 -0.0010052013412476782 -0.008359040843365707 0 -0.00043384593288513446 -0.0081169798791959971 0 -0.001792517898934395 -0.0060509389517756128 0 -0.00055491382897961106 -0.0065107398549435393 0 -0.0017948528442992468 -0.0084326243727852832 0 -0.00055491382897961106 -0.0065107398549435393 0 -0.0017948528442992468 -0.0084326243727852832 0 -0.0010052013412476782 -0.008359040843365707 0 -0.0017948528442992468 -0.0084326243727852832 0 -0.0010052013412476782 -0.008359040843365707 0 -0.001386895100351321 -0.0088987789504081736 0 -0.00043384593288513446 -0.0081169798791959971 0 -0.00083516997375844549 -0.0090596909990633412 0 4.1651453535581925e-05 -0.0080501856192334662 0 -0.0010052013412476782 -0.008359040843365707 0 -0.00043384593288513446 -0.0081169798791959971 0 -0.00083516997375844549 -0.0090596909990633412 0 -0.00053241241619415142 -0.0084624558902211735 0 -1.9479396374535236e-05 -0.0080725347688595222 0 -0.0010052013412476782 -0.008359040843365707 0 -0.00083516997375844549 -0.0090596909990633412 0 -0.001386895100351321 -0.0088987789504081736 0 -0.001386895100351321 -0.0088987789504081736 0 -0.0017485545614009004 -0.0089492605128483477 0 -0.0013825974623989849 -0.00936515002994193 0 -0.0017948528442992468 -0.0084326243727852832 0 -0.001386895100351321 -0.0088987789504081736 0 -0.0017485545614009004 -0.0089492605128483477 0 -0.0017485545614009004 -0.0089492605128483477 0 -0.0019190071204515334 -0.0087979241118441645 0 -0.0019402994073029959 -0.009049354898287296 0 -0.0017948528442992468 -0.0084326243727852832 0 -0.0017485545614009004 -0.0089492605128483477 0 -0.0019190071204515334 -0.0087979241118441645 0 -0.00087781083033004271 -0.0050424207458057294 0 -0.00052433142654522693 -0.0046513116814951043 0 -0.00031004072819256498 -0.005117284018624573 0 -0.00087781083033004271 -0.0050424207458057294 0 -0.00052433142654522693 -0.0046513116814951043 0 -0.00099417587165287718 -0.0046524493341607211 0 -0.00052433142654522693 -0.0046513116814951043 0 7.1906651301772021e-05 -0.0048452620244448632 0 0.00022724845968963907 -0.0044487890306326282 0 -0.00052433142654522693 -0.0046513116814951043 0 7.1906651301772021e-05 -0.0048452620244448632 0 -0.00031004072819256498 -0.005117284018624573 0 7.1906651301772021e-05 -0.0048452620244448632 0 -0.00031004072819256498 -0.005117284018624573 0 0.00035030870271047783 -0.004959287152880556 0 -0.00031004072819256498 -0.005117284018624573 0 0.00035030870271047783 -0.004959287152880556 0 -0.00017939269305423941 -0.0058961281271757903 0 -0.00059569227549760226 -0.0056475333982222509 0 -0.00031004072819256498 -0.005117284018624573 0 -0.00017939269305423941 -0.0058961281271757903 0 -0.00087781083033004271 -0.0050424207458057294 0 -0.00059569227549760226 -0.0056475333982222509 0 -0.00031004072819256498 -0.005117284018624573 0 -0.00087781083033004271 -0.0050424207458057294 0 -0.00059569227549760226 -0.0056475333982222509 0 -0.001235998813913708 -0.0054364229653536865 0 -4.6520994804281752e-05 -0.007984570674502596 0 2.2296803330389004e-05 -0.0079121807194675892 0 0.00012592550335393236 -0.0077824777522103403 0 -0.00023234756756422556 -0.0078714934026555255 0 2.2296803330389004e-05 -0.0079121807194675892 0 4.1651453535581925e-05 -0.0080501856192334662 0 -4.6520994804281752e-05 -0.007984570674502596 0 2.2296803330389004e-05 -0.0079121807194675892 0 4.1651453535581925e-05 -0.0080501856192334662 0 -4.6520994804281752e-05 -0.007984570674502596 0 6.1221732129605641e-05 -0.0080229167178206082 0 4.1651453535581925e-05 -0.0080501856192334662 0 -0.0014558154955117966 -0.0045952516130471389 0 -0.0011952765885322619 -0.0047539390960963024 0 -0.0013262495617671719 -0.0045155407078886186 0 -0.00043384593288513446 -0.0081169798791959971 0 6.1221732129605641e-05 -0.0080229167178206082 0 4.1651453535581925e-05 -0.0080501856192334662 0 -0.001235998813913708 -0.0054364229653536865 0 -0.0014558154955117966 -0.0045952516130471389 0 -0.0011952765885322619 -0.0047539390960963024 0 -0.00060738899901932087 -0.006724147474361405 0 -0.00070167651478447561 -0.006296992619028885 0 -0.00087781083033004271 -0.0050424207458057294 0 -0.001235998813913708 -0.0054364229653536865 0 -0.0011952765885322619 -0.0047539390960963024 0 -0.00087781083033004271 -0.0050424207458057294 0 -0.0011952765885322619 -0.0047539390960963024 0 -0.00099417587165287718 -0.0046524493341607211 0 -0.00099417587165287718 -0.0046524493341607211 0 -0.00092662627447926186 -0.0044071674203511367 0 -0.0012010494239824605 -0.0044059062495149385 0 -0.0011952765885322619 -0.0047539390960963024 0 -0.0012010494239824605 -0.0044059062495149385 0 -0.0013262495617671719 -0.0045155407078886186 0 -0.0011952765885322619 -0.0047539390960963024 0 -0.00099417587165287718 -0.0046524493341607211 0 -0.0012010494239824605 -0.0044059062495149385 0 -0.0012010494239824605 -0.0044059062495149385 0 -0.0010424822466926652 -0.0042277097666242923 0 -0.0012891639322185017 -0.0041551263141503163 0 -0.00092662627447926186 -0.0044071674203511367 0 -0.0010424822466926652 -0.0042277097666242923 0 -0.00074127657331618047 -0.004176362233096303 0 -0.00092662627447926186 -0.0044071674203511367 0 -0.0012010494239824605 -0.0044059062495149385 0 -0.0010424822466926652 -0.0042277097666242923 0 -0.0016307391303664826 -0.0042119797692032968 0 -0.0014558154955117966 -0.0045952516130471389 0 -0.0014150968855298075 -0.0043592994645506684 0 -0.0014558154955117966 -0.0045952516130471389 0 -0.0013262495617671719 -0.0045155407078886186 0 -0.0014150968855298075 -0.0043592994645506684 0 -0.0012010494239824605 -0.0044059062495149385 0 -0.0013262495617671719 -0.0045155407078886186 0 -0.0014150968855298075 -0.0043592994645506684 0 -0.0012010494239824605 -0.0044059062495149385 0 -0.0014150968855298075 -0.0043592994645506684 0 -0.0012891639322185017 -0.0041551263141503163 0 -0.0016307391303664826 -0.0042119797692032968 0 -0.0014150968855298075 -0.0043592994645506684 0 -0.0012891639322185017 -0.0041551263141503163 0 -0.0016307391303664826 -0.0042119797692032968 0 -0.0012891639322185017 -0.0041551263141503163 0 -0.0014000729601951246 -0.0039394180245000349 0 -0.0010424822466926652 -0.0042277097666242923 0 -0.0010030131607907092 -0.0040328747910826773 0 -0.00074127657331618047 -0.004176362233096303 0 -0.0010424822466926652 -0.0042277097666242923 0 -0.0012891639322185017 -0.0041551263141503163 0 -0.0010030131607907092 -0.0040328747910826773 0 -0.0012891639322185017 -0.0041551263141503163 0 -0.0010030131607907092 -0.0040328747910826773 0 -0.0011899274245555666 -0.003927662351411303 0 -0.00049428032593701776 0.0040705676763836511 0 -0.0015683324630005829 -0.0060671942379267457 0 -0.0010030131607907092 -0.0040328747910826773 0 -0.00074145380648385452 -0.0039526960879426214 0 -0.00074127657331618047 -0.004176362233096303 0 -0.00052433142654522693 -0.0046513116814951043 0 -0.00092662627447926186 -0.0044071674203511367 0 -0.00074127657331618047 -0.004176362233096303 0 -0.00052433142654522693 -0.0046513116814951043 0 -0.00099417587165287718 -0.0046524493341607211 0 -0.00092662627447926186 -0.0044071674203511367 0 -0.00052433142654522693 -0.0046513116814951043 0 -0.00074127657331618047 -0.004176362233096303 0 0.00022724845968963907 -0.0044487890306326282 0 -0.00049428032593701776 0.0040705676763836511 0 -0.00044741087537692056 0.005248381986949136 0 -0.0011543165790323265 0.014674765165772978 0 -0.0010182309209828759 0.01468327342798372 0 -0.00079967472724226012 0.014354259910209203 0 -0.0010181104236034479 0.014686626467335602 0 -0.00084030179681525896 0.014612688584319687 0 -0.0010182309209828759 0.01468327342798372 0 -0.00079967472724226012 0.014354259910209203 0 -0.00077375263417694636 0.014436016637774413 0 -0.0010182309209828759 0.01468327342798372 0 -0.0009340127812514262 0.014901714645176737 0 -0.00088425257428127594 0.014853756833451703 0 -0.00057206520742752304 -0.0035281761036080441 0 -0.00074127657331618047 -0.004176362233096303 0 0.00022724845968963907 -0.0044487890306326282 0 -0.0011543165790323265 0.014674765165772978 0 -0.0010182309209828759 0.01468327342798372 0 -0.0010180977364160155 0.014841310912156413 0 -0.0009340127812514262 0.014901714645176737 0 -0.0010180977364160155 0.014841310912156413 0 -0.00097129650325815072 0.014987736843770203 0 -0.0010180977364160155 0.014841310912156413 0 -0.0010941502311751 0.014918450741498708 0 -0.00097129650325815072 0.014987736843770203 0 -0.0010182309209828759 0.01468327342798372 0 -0.0009340127812514262 0.014901714645176737 0 -0.0010180977364160155 0.014841310912156413 0 0.0011267593177544664 0.0061450294037485803 0 0.0015305374677501719 0.0074971263694226633 0 -2.2465756288779729e-05 0.0073248374899611782 0 -0.0011543165790323265 0.014674765165772978 0 -0.0010180977364160155 0.014841310912156413 0 -0.0010941502311751 0.014918450741498708 0 -0.00049428032593701776 0.0040705676763836511 0 0.0004839542007792863 0.011950128965056279 0 0.0015305374677501719 0.0074971263694226633 0 0.00036960341793422432 0.0086569463465524851 0 -2.2465756288779729e-05 0.0073248374899611782 0 -0.0010030131607907092 -0.0040328747910826773 0 -0.00074145380648385452 -0.0039526960879426214 0 -0.00099151821296028964 -0.0037910092739228463 0 -0.00049428032593701776 0.0040705676763836511 0 1.1777062322391059e-05 0.0010900500838932224 0 -2.5095288386426507e-05 0.010939876197278922 0 0.00032027076233220652 0.012877624067305943 0 -0.00043350893694125259 0.013184820618753743 0 1.3294234395826818e-05 0.013204917129963559 0 -0.00022144078886268838 0.013370488422959577 0 0.0015305374677501719 0.0074971263694226633 0 0.00036960341793422432 0.0086569463465524851 0 0.0019247415927176796 0.0088426013354692481 0 0.0004839542007792863 0.011950128965056279 0 0.00032027076233220652 0.012877624067305943 0 -0.0010941502311751 0.014918450741498708 0 -0.0010424894386965708 0.01508989916689769 0 -0.00097129650325815072 0.014987736843770203 0 -0.0012891639322185017 -0.0041551263141503163 0 -0.0014000729601951246 -0.0039394180245000349 0 -0.0011899274245555666 -0.003927662351411303 0 -0.0014000729601951246 -0.0039394180245000349 0 -0.0011899274245555666 -0.003927662351411303 0 -0.0012153233597534451 -0.0036252186422328875 0 -0.0011899274245555666 -0.003927662351411303 0 -0.00099151821296028964 -0.0037910092739228463 0 -0.0012153233597534451 -0.0036252186422328875 0 -0.0010030131607907092 -0.0040328747910826773 0 -0.0011899274245555666 -0.003927662351411303 0 -0.00099151821296028964 -0.0037910092739228463 0 0.00036960341793422432 0.0086569463465524851 0 -2.2465756288779729e-05 0.0073248374899611782 0 -0.0011559824970899526 0.0084807424600871657 0 -0.00043350893694125259 0.013184820618753743 0 -0.00051203537577613741 0.013350075040572802 0 -0.00063240987017887265 0.013198061379062181 0 -2.5095288386426507e-05 0.010939876197278922 0 0.00012048403103584037 0.0068169912354801966 0 1.1777062322391059e-05 0.0010900500838932224 0 0.00012048403103584037 0.0068169912354801966 0 -0.0015770240227713731 -0.003846838939174623 0 -0.0014000729601951246 -0.0039394180245000349 0 -0.0012153233597534451 -0.0036252186422328875 0 0.0019132695989374565 0.0080781956745417834 0 0.003088539338746405 0.0081907765074869972 0 0.0024839471757640424 0.0088617606010215361 0 0.00063716565147514019 0.0021250471871082166 0 0.00012048403103584037 0.0068169912354801966 0 0.00012048403103584037 0.0068169912354801966 0 0.0011541828120648562 0.011293664429728796 0 0.00013400323307108343 0.012983144106790532 0 -0.00063240987017887265 0.013198061379062181 0 2.4237678420467948e-05 0.011357675045625267 0 -0.00051203537577613741 0.013350075040572802 0 0.00013400323307108343 0.012983144106790532 0 -0.00063240987017887265 0.013198061379062181 0 -0.00043350893694125259 0.013184820618753743 0 -0.00063240987017887265 0.013198061379062181 0 -0.00029582474981123646 0.013599859416585782 0 -0.00063240987017887265 0.013198061379062181 0 -0.00052354122246758318 0.013824822740590784 0 -0.00029582474981123646 0.013599859416585782 0 -0.00032489699274351177 0.014112460277727888 0 -0.00052354122246758318 0.013824822740590784 0 -0.00029582474981123646 0.013599859416585782 0 -0.00052047997464078758 0.014214992179217883 0 -0.00052354122246758318 0.013824822740590784 0 -0.00089726743784408736 0.013962136007994912 0 -0.00063240987017887265 0.013198061379062181 0 -0.00052354122246758318 0.013824822740590784 0 -0.00089726743784408736 0.013962136007994912 0 -0.00061184956877033078 0.01310346154512299 0 -0.00040932617954211539 0.012699336220493853 0 1.3294234395826818e-05 0.013204917129963559 0 -0.00022144078886268838 0.013370488422959577 0 0.00013597529948139466 0.013770925799841236 0 9.7953180109761363e-05 0.014890514015321836 0 8.0554957196110624e-05 0.014768576937535307 0 5.0155538726194821e-06 0.014841827553803255 0 0.00032027076233220652 0.012877624067305943 0 0.00011228775958892283 0.014489078073154108 0 -0.00029582474981123646 0.013599859416585782 0 -0.00022144078886268838 0.013370488422959577 0 0.00013597529948139466 0.013770925799841236 0 -0.00043350893694125259 0.013184820618753743 0 -0.00029582474981123646 0.013599859416585782 0 -0.00022144078886268838 0.013370488422959577 0 -0.00029582474981123646 0.013599859416585782 0 -0.00011772728194296459 0.014081535955372598 0 0.00013597529948139466 0.013770925799841236 0 -0.00032489699274351177 0.014112460277727888 0 -0.00029582474981123646 0.013599859416585782 0 -0.00011772728194296459 0.014081535955372598 0 3.1498767099956122e-05 0.014536777933799634 0 -0.00011772728194296459 0.014081535955372598 0 0.00013597529948139466 0.013770925799841236 0 3.7811113497100533e-05 0.014402567876191163 0 0.00011228775958892283 0.014489078073154108 0 3.1498767099956122e-05 0.014536777933799634 0 8.0554957196110624e-05 0.014768576937535307 0 -6.8226634128628379e-07 0.014798145589496905 0 3.1498767099956122e-05 0.014536777933799634 0 -7.6597600335995785e-05 0.014801172385251214 0 -6.8226634128628379e-07 0.014798145589496905 0 3.1498767099956122e-05 0.014536777933799634 0 -7.6597600335995785e-05 0.014801172385251214 0 -9.9454558881197601e-05 0.014764789404711466 0 -6.8226634128628379e-07 0.014798145589496905 0 -5.0114219642049857e-05 0.014831707724919074 0 5.0155538726194821e-06 0.014841827553803255 0 8.0554957196110624e-05 0.014768576937535307 0 -6.8226634128628379e-07 0.014798145589496905 0 5.0155538726194821e-06 0.014841827553803255 0 -7.6597600335995785e-05 0.014801172385251214 0 -5.0114219642049857e-05 0.014831707724919074 0 -7.9211180853340412e-05 0.014834614553285335 0 -7.6597600335995785e-05 0.014801172385251214 0 -6.8226634128628379e-07 0.014798145589496905 0 -5.0114219642049857e-05 0.014831707724919074 0 -5.0114219642049857e-05 0.014831707724919074 0 -7.9211180853340412e-05 0.014834614553285335 0 -8.8601478044090262e-05 0.014863633905316923 0 -5.0114219642049857e-05 0.014831707724919074 0 5.0155538726194821e-06 0.014841827553803255 0 -8.8601478044090262e-05 0.014863633905316923 0 -9.6326852600058302e-05 0.014831399378882197 0 -0.00010470928016134173 0.014826504831235295 0 -8.8601478044090262e-05 0.014863633905316923 0 -7.6597600335995785e-05 0.014801172385251214 0 -9.6326852600058302e-05 0.014831399378882197 0 -0.00011688597660662467 0.014823612562661329 0 -7.9211180853340412e-05 0.014834614553285335 0 -9.6326852600058302e-05 0.014831399378882197 0 -8.8601478044090262e-05 0.014863633905316923 0 -7.6597600335995785e-05 0.014801172385251214 0 -7.9211180853340412e-05 0.014834614553285335 0 -9.6326852600058302e-05 0.014831399378882197 0 -9.6326852600058302e-05 0.014831399378882197 0 -0.00011688597660662467 0.014823612562661329 0 -0.00010470928016134173 0.014826504831235295 0 -7.6597600335995785e-05 0.014801172385251214 0 -0.00011688597660662467 0.014823612562661329 0 -9.9454558881197601e-05 0.014764789404711466 0 -0.0001261274957940209 0.014853599639850175 0 -0.00011688597660662467 0.014823612562661329 0 -9.9454558881197601e-05 0.014764789404711466 0 -0.0001261274957940209 0.014853599639850175 0 -0.00011688597660662467 0.014823612562661329 0 -0.00010135186646312968 0.014855497703562436 0 -0.00010135186646312968 0.014855497703562436 0 -7.015407455819777e-05 0.014838276515203242 0 -0.00010470928016134173 0.014826504831235295 0 -0.00011688597660662467 0.014823612562661329 0 -0.00010135186646312968 0.014855497703562436 0 -0.00010470928016134173 0.014826504831235295 0 -0.00010135186646312968 0.014855497703562436 0 -3.1458105441737741e-05 0.014876092550973437 0 -7.015407455819777e-05 0.014838276515203242 0 -0.00011589915635644863 0.015041545195862116 0 -0.00010135186646312968 0.014855497703562436 0 -3.1458105441737741e-05 0.014876092550973437 0 -0.00027591522317234161 0.015194315284167609 0 -0.00034094959247260852 0.015407747567472084 0 -0.00027591522317234161 0.015194315284167609 0 -0.0006005363008467899 0.015548849088188925 0 -0.00034771820982492399 0.015467741057722429 0 -0.00049089731394856854 0.015433647445341373 0 -0.00043236361688007231 0.015465002021980895 0 -7.015407455819777e-05 0.014838276515203242 0 -9.3423831325982124e-05 0.014816030396423747 0 -7.5142360068502393e-06 0.014830632529803536 0 -9.3423831325982124e-05 0.014816030396423747 0 -0.00010470928016134173 0.014826504831235295 0 -8.8601478044090262e-05 0.014863633905316923 0 -7.015407455819777e-05 0.014838276515203242 0 -9.3423831325982124e-05 0.014816030396423747 0 -0.00010470928016134173 0.014826504831235295 0 -0.00027591522317234161 0.015194315284167609 0 -0.00073848613365315029 0.015183030392853425 0 -0.00045702512092914442 0.015557267737204379 0 -0.00066654501230280195 0.015253246393177664 0 -0.00078555730141281136 0.015250580247531769 0 -0.00045702512092914442 0.015557267737204379 0 -0.00055374328531415239 0.015360531367155031 0 -0.00066654501230280195 0.015253246393177664 0 -0.00027591522317234161 0.015194315284167609 0 -0.00054051956722251803 0.015265317320277083 0 -0.00045702512092914442 0.015557267737204379 0 -0.00055374328531415239 0.015360531367155031 0 -0.00045932779779673898 0.015566330804146022 0 -0.00055374328531415239 0.015360531367155031 0 -0.00066654501230280195 0.015253246393177664 0 -0.00058659073061518652 0.015107764515375224 0 -0.00055374328531415239 0.015360531367155031 0 -0.00045932779779673898 0.015566330804146022 0 -0.00030859801523019052 0.015065393430756498 0 -0.00045932779779673898 0.015566330804146022 0 -0.00072141542631556531 0.016078001127233236 0 -0.00074284496292293571 0.015802691908527348 0 -0.00046711139177997189 0.015562833429543812 0 -0.00052483368507264764 0.015563280997984846 0 -0.00045702512092914442 0.015557267737204379 0 -0.00045932779779673898 0.015566330804146022 0 -0.00073074058097897837 0.015636354810495863 0 -0.00045932779779673898 0.015566330804146022 0 -0.00073074058097897837 0.015636354810495863 0 -0.00074284496292293571 0.015802691908527348 0 -0.00030859801523019052 0.015065393430756498 0 -0.00058659073061518652 0.015107764515375224 0 -0.0005129226653990493 0.014890868722346639 0 -0.00055374328531415239 0.015360531367155031 0 -0.00030859801523019052 0.015065393430756498 0 -0.00058659073061518652 0.015107764515375224 0 -0.00058659073061518652 0.015107764515375224 0 -0.00065983395313643769 0.015000812207908398 0 -0.0005129226653990493 0.014890868722346639 0 -0.00065983395313643769 0.015000812207908398 0 -0.00073705389914198514 0.015083017157746504 0 -0.0007351347325662425 0.014881875289604982 0 -0.00058659073061518652 0.015107764515375224 0 -0.00065983395313643769 0.015000812207908398 0 -0.00073705389914198514 0.015083017157746504 0 -0.00073705389914198514 0.015083017157746504 0 -0.0008421987979929205 0.014976333969658234 0 -0.0007351347325662425 0.014881875289604982 0 -0.00066654501230280195 0.015253246393177664 0 -0.00058659073061518652 0.015107764515375224 0 -0.00073705389914198514 0.015083017157746504 0 -0.00073705389914198514 0.015083017157746504 0 -0.0008078266597566485 0.015101807465680819 0 -0.0008421987979929205 0.014976333969658234 0 -0.00073705389914198514 0.015083017157746504 0 -0.0008078266597566485 0.015101807465680819 0 -0.00075969357815284795 0.015169299323715572 0 -0.0009340127812514262 0.014901714645176737 0 -0.0008421987979929205 0.014976333969658234 0 -0.00088425257428127594 0.014853756833451703 0 -0.0009340127812514262 0.014901714645176737 0 -0.00097129650325815072 0.014987736843770203 0 -0.00086926830493740646 0.015041725153633183 0 -0.0009340127812514262 0.014901714645176737 0 -0.0008421987979929205 0.014976333969658234 0 -0.00086926830493740646 0.015041725153633183 0 -0.0008078266597566485 0.015101807465680819 0 -0.0008421987979929205 0.014976333969658234 0 -0.00086926830493740646 0.015041725153633183 0 -0.00094591997746061986 0.015005474716635389 0 -0.00073848613365315029 0.015183030392853425 0 9.7953180109761363e-05 0.014890514015321836 0 5.0155538726194821e-06 0.014841827553803255 0 -8.8601478044090262e-05 0.014863633905316923 0 -0.00097129650325815072 0.014987736843770203 0 -0.00070767507124846129 0.01513265531474477 0 -0.0006658813660415559 0.015072143062155447 0 -0.00097129650325815072 0.014987736843770203 0 -0.00086926830493740646 0.015041725153633183 0 -0.00078555730141281136 0.015250580247531769 0 -0.0010424894386965708 0.01508989916689769 0 -0.00097129650325815072 0.014987736843770203 0 -0.00070767507124846129 0.01513265531474477 0 0.00032027076233220652 0.012877624067305943 0 -0.00054051956722251803 0.015265317320277083 0 -0.00034168754959116953 0.015174746922172747 0 -0.00070767507124846129 0.01513265531474477 0 -0.0006658813660415559 0.015072143062155447 0 -0.00066654501230280195 0.015253246393177664 0 -0.00078555730141281136 0.015250580247531769 0 -0.00075969357815284795 0.015169299323715572 0 -0.00066654501230280195 0.015253246393177664 0 -0.00073705389914198514 0.015083017157746504 0 -0.00075969357815284795 0.015169299323715572 0 -0.0008078266597566485 0.015101807465680819 0 -0.00078555730141281136 0.015250580247531769 0 -0.00075969357815284795 0.015169299323715572 0 -0.0008078266597566485 0.015101807465680819 0 -0.00086926830493740646 0.015041725153633183 0 -0.00078555730141281136 0.015250580247531769 0 -0.00082933729871226042 0.016084506157034686 0 -0.00086149646026921663 0.015950815732634904 0 -0.00098184373179069058 0.016096214672911831 0 -0.00082933729871226042 0.016084506157034686 0 -0.00086149646026921663 0.015950815732634904 0 -0.00076866902915576421 0.015888767823041956 0 -0.00086773763300090738 0.015729345054056005 0 -0.00086149646026921663 0.015950815732634904 0 -0.00081220758260037117 0.015817467819672321 0 -0.00075819627905191183 0.015703855018945286 0 -0.00081220758260037117 0.015817467819672321 0 -0.00076866902915576421 0.015888767823041956 0 -0.00075819627905191183 0.015703855018945286 0 -0.00086773763300090738 0.015729345054056005 0 -0.00081220758260037117 0.015817467819672321 0 -0.00086149646026921663 0.015950815732634904 0 -0.00081220758260037117 0.015817467819672321 0 -0.00076866902915576421 0.015888767823041956 0 -0.00075819627905191183 0.015703855018945286 0 -0.00069355142081026092 0.015821751474651757 0 -0.00062920346316145098 0.015693818257750007 0 -0.00076866902915576421 0.015888767823041956 0 -0.00069355142081026092 0.015821751474651757 0 -0.00070585969736597647 0.016048770353223805 0 -0.00075819627905191183 0.015703855018945286 0 -0.00076866902915576421 0.015888767823041956 0 -0.00069355142081026092 0.015821751474651757 0 -0.00069355142081026092 0.015821751474651757 0 -0.0006166114420493266 0.015839624842806835 0 -0.00062920346316145098 0.015693818257750007 0 -0.00082933729871226042 0.016084506157034686 0 -0.00076866902915576421 0.015888767823041956 0 -0.00070585969736597647 0.016048770353223805 0 -0.00069355142081026092 0.015821751474651757 0 -0.00070585969736597647 0.016048770353223805 0 -0.0006166114420493266 0.015839624842806835 0 -0.00082933729871226042 0.016084506157034686 0 -0.00070585969736597647 0.016048770353223805 0 -0.00080345877291397095 0.016208845997762931 0 -0.00070585969736597647 0.016048770353223805 0 -0.00048088352223164485 0.016009447591142922 0 -0.00055541865721447871 0.015911631538470181 0 -0.00070585969736597647 0.016048770353223805 0 -0.00055720560505956144 0.016074017448525674 0 -0.00067997374935678566 0.016198037708830507 0 -0.00063937863212241031 0.016060720226929632 0 -0.00065539997999586395 0.015821493584575387 0 -0.00065539997999586395 0.015821493584575387 0 -0.00034094959247260852 0.015407747567472084 0 -0.00047439443367597192 0.015921627053759765 0 -0.00055541865721447871 0.015911631538470181 0 -0.00051446273429123798 0.015784202855243415 0 -0.00048088352223164485 0.016009447591142922 0 -0.00047439443367597192 0.015921627053759765 0 -0.00055541865721447871 0.015911631538470181 0 -0.00047439443367597192 0.015921627053759765 0 -0.00051446273429123798 0.015784202855243415 0 -0.00041779473860683897 0.015932224484552098 0 -0.00048088352223164485 0.016009447591142922 0 -0.00047439443367597192 0.015921627053759765 0 -0.00041678431256693242 0.015937859164111549 0 -0.00070585969736597647 0.016048770353223805 0 -0.00055541865721447871 0.015911631538470181 0 -0.0006166114420493266 0.015839624842806835 0 -0.00044823461266938576 0.015583415524411292 0 -0.00051446273429123798 0.015784202855243415 0 -0.00041779473860683897 0.015932224484552098 0 -0.00055541865721447871 0.015911631538470181 0 -0.0006166114420493266 0.015839624842806835 0 -0.00051446273429123798 0.015784202855243415 0 -0.0006166114420493266 0.015839624842806835 0 -0.00062920346316145098 0.015693818257750007 0 -0.00051446273429123798 0.015784202855243415 0 -0.00044823461266938576 0.015583415524411292 0 -0.00062920346316145098 0.015693818257750007 0 -0.00051446273429123798 0.015784202855243415 0 -0.00012662455265960863 0.015227514980159297 0 -0.00034094959247260852 0.015407747567472084 0 -0.00044823461266938576 0.015583415524411292 0 -0.00023142777852499271 0.015604706804169607 0 -0.00041779473860683897 0.015932224484552098 0 -3.1458105441737741e-05 0.014876092550973437 0 -7.015407455819777e-05 0.014838276515203242 0 -7.5142360068502393e-06 0.014830632529803536 0 -0.00065539997999586395 0.015821493584575387 0 -0.0006005363008467899 0.015548849088188925 0 -0.00094809996813272047 0.015735307963243735 0 -0.00073074058097897837 0.015636354810495863 0 -0.00084998021131542075 0.015819728255076573 0 -0.00051702528293320687 0.015462153172234401 0 -0.00049089731394856854 0.015433647445341373 0 -0.00043236361688007231 0.015465002021980895 0 -0.00034902105579481054 0.015507967625166798 0 -0.00034094959247260852 0.015407747567472084 0 -0.00073074058097897837 0.015636354810495863 0 -0.00084998021131542075 0.015819728255076573 0 -0.00074284496292293571 0.015802691908527348 0 -0.00084998021131542075 0.015819728255076573 0 -0.00088008451279611422 0.015975189346012664 0 -0.00093660550495944922 0.015930543680011015 0 -0.00084998021131542075 0.015819728255076573 0 -0.00074284496292293571 0.015802691908527348 0 -0.00088008451279611422 0.015975189346012664 0 -0.00072141542631556531 0.016078001127233236 0 -0.00088008451279611422 0.015975189346012664 0 -0.00093900374293822135 0.016127932917568404 0 -0.00088008451279611422 0.015975189346012664 0 -0.00097260464278784938 0.016111802838954851 0 -0.00093900374293822135 0.016127932917568404 0 -0.00072141542631556531 0.016078001127233236 0 -0.00074284496292293571 0.015802691908527348 0 -0.00088008451279611422 0.015975189346012664 0 -0.00088008451279611422 0.015975189346012664 0 -0.00097260464278784938 0.016111802838954851 0 -0.00093660550495944922 0.015930543680011015 0 -0.00097260464278784938 0.016111802838954851 0 -0.0010026996641874189 0.016002539935464789 0 -0.00093660550495944922 0.015930543680011015 0 -0.00094809996813272047 0.015735307963243735 0 -0.0010026996641874189 0.016002539935464789 0 -0.00093660550495944922 0.015930543680011015 0 -0.00094809996813272047 0.015735307963243735 0 -0.00084998021131542075 0.015819728255076573 0 -0.00093660550495944922 0.015930543680011015 0 -0.00065539997999586395 0.015821493584575387 0 -0.00084261726844370611 0.016102601199844174 0 -0.00067997374935678566 0.016198037708830507 0 -0.00080345877291397095 0.016208845997762931 0 -0.00088874219691297072 0.016257785800235604 0 -0.00070585969736597647 0.016048770353223805 0 -0.00067997374935678566 0.016198037708830507 0 -0.00080345877291397095 0.016208845997762931 0 -0.00084261726844370611 0.016102601199844174 0 -0.00087060220257587908 0.016203432995444644 0 -0.00097260464278784938 0.016111802838954851 0 -0.0010026996641874189 0.016002539935464789 0 -0.00088874219691297072 0.016257785800235604 0 -0.00097260464278784938 0.016111802838954851 0 -0.00088874219691297072 0.016257785800235604 0 -0.00096760734979201208 0.016202665666967951 0 -0.00088874219691297072 0.016257785800235604 0 -0.00085575248195283744 0.016343667050342452 0 -0.00083483743850748613 0.016306349966245286 0 -0.00088874219691297072 0.016257785800235604 0 -0.00085575248195283744 0.016343667050342452 0 -0.00090342525183519421 0.016290338971850608 0 -0.00085575248195283744 0.016343667050342452 0 -0.00082859189125377103 0.016433260623779998 0 -0.00081968400601055045 0.016420798168666678 0 -0.00085575248195283744 0.016343667050342452 0 -0.00083832342166025584 0.016383964434848818 0 -0.00082859189125377103 0.016433260623779998 0 -0.00085575248195283744 0.016343667050342452 0 -0.00083483743850748613 0.016306349966245286 0 -0.00083832342166025584 0.016383964434848818 0 -0.00082933729871226042 0.016084506157034686 0 -0.00080345877291397095 0.016208845997762931 0 -0.00088031902484533343 0.016256665034901134 0 -0.00080345877291397095 0.016208845997762931 0 -0.00083483743850748613 0.016306349966245286 0 -0.00088031902484533343 0.016256665034901134 0 -0.00083483743850748613 0.016306349966245286 0 -0.00088031902484533343 0.016256665034901134 0 -0.00083832342166025584 0.016383964434848818 0 -0.00080345877291397095 0.016208845997762931 0 -0.00088874219691297072 0.016257785800235604 0 -0.00083483743850748613 0.016306349966245286 0 -0.0008861577768744781 0.016167013446033836 0 -0.00090342525183519421 0.016290338971850608 0 -0.00098890482342203225 0.016156296735760068 0 -0.00085575248195283744 0.016343667050342452 0 -0.00090342525183519421 0.016290338971850608 0 -0.00081968400601055045 0.016420798168666678 0 -0.0008861577768744781 0.016167013446033836 0 -0.00090342525183519421 0.016290338971850608 0 -0.00081968400601055045 0.016420798168666678 0 -0.00090342525183519421 0.016290338971850608 0 -0.00096760734979201208 0.016202665666967951 0 -0.00098890482342203225 0.016156296735760068 0 -0.00088874219691297072 0.016257785800235604 0 -0.00090342525183519421 0.016290338971850608 0 -0.00096760734979201208 0.016202665666967951 0 -0.00096760734979201208 0.016202665666967951 0 -0.00098890482342203225 0.016156296735760068 0 -0.0010124041288010744 0.016145281065052506 0 -0.0008861577768744781 0.016167013446033836 0 -0.00098890482342203225 0.016156296735760068 0 -0.001064799844565153 0.015990196867038085 0 -0.00098890482342203225 0.016156296735760068 0 -0.0010693886851257694 0.016061547948041228 0 -0.001064799844565153 0.015990196867038085 0 -0.0010693886851257694 0.016061547948041228 0 -0.0010208717338930763 0.01612565878330096 0 -0.0011197015675660617 0.016011936322670305 0 -0.0010693886851257694 0.016061547948041228 0 -0.0010124041288010744 0.016145281065052506 0 -0.0010208717338930763 0.01612565878330096 0 -0.00098890482342203225 0.016156296735760068 0 -0.0010693886851257694 0.016061547948041228 0 -0.0010124041288010744 0.016145281065052506 0 -0.00098728080518602017 0.016153636211147626 0 -0.00093900374293822135 0.016127932917568404 0 -0.0010208717338930763 0.01612565878330096 0 -0.00096760734979201208 0.016202665666967951 0 -0.0010124041288010744 0.016145281065052506 0 -0.00098728080518602017 0.016153636211147626 0 -0.00097260464278784938 0.016111802838954851 0 -0.00096760734979201208 0.016202665666967951 0 -0.00098728080518602017 0.016153636211147626 0 -0.00097260464278784938 0.016111802838954851 0 -0.00098728080518602017 0.016153636211147626 0 -0.00093900374293822135 0.016127932917568404 0 -0.0010124041288010744 0.016145281065052506 0 -0.00098728080518602017 0.016153636211147626 0 -0.0010208717338930763 0.01612565878330096 0 -0.00072141542631556531 0.016078001127233236 0 -0.00093900374293822135 0.016127932917568404 0 -0.00097655226411837658 0.01614496905100295 0 -0.00093900374293822135 0.016127932917568404 0 -0.00097655226411837658 0.01614496905100295 0 -0.0010208717338930763 0.01612565878330096 0 -0.00056304375348091226 0.015449772163345588 0 -0.0011166945123305503 0.015215522735332552 0 -0.00025830681549014701 0.014784173013251942 0 -0.00019687391669978905 0.014555685797521371 0 -0.00041355090955521397 0.014632107594743282 0 -0.00097655226411837658 0.01614496905100295 0 -0.0010208717338930763 0.01612565878330096 0 -0.0011197015675660617 0.016011936322670305 0 -0.0016142422328591385 0.014843170568089106 0 -0.0015355546243320172 0.014988488490875418 0 -0.0016043104518303553 0.015154378629098101 0 -0.0011166945123305503 0.015215522735332552 0 -0.0014835695803250895 0.015195658305649704 0 -0.0016142422328591385 0.014843170568089106 0 -0.0015355546243320172 0.014988488490875418 0 -0.0014186094182928708 0.014867577330628391 0 -0.0015355546243320172 0.014988488490875418 0 -0.0015446617132382804 0.01506062075526138 0 -0.0016043104518303553 0.015154378629098101 0 -0.0015355546243320172 0.014988488490875418 0 -0.0015446617132382804 0.01506062075526138 0 -0.0014186094182928708 0.014867577330628391 0 -0.0015446617132382804 0.01506062075526138 0 -0.0015637743338078186 0.015105890182257057 0 -0.0016043104518303553 0.015154378629098101 0 -0.0016043104518303553 0.015154378629098101 0 -0.0014314436314014219 0.015211718652766574 0 -0.0014037698427167512 0.015379017891983556 0 -0.0015637743338078186 0.015105890182257057 0 -0.0016043104518303553 0.015154378629098101 0 -0.0014314436314014219 0.015211718652766574 0 -0.0014314436314014219 0.015211718652766574 0 -0.0014037698427167512 0.015379017891983556 0 -0.0011220893692462919 0.015592277187878355 0 -0.001690949880413319 0.015409321337068177 0 -0.0016043104518303553 0.015154378629098101 0 -0.0014037698427167512 0.015379017891983556 0 -0.0011197015675660617 0.016011936322670305 0 -0.0011404572848191944 0.015882825824222298 0 -0.0011048254292213274 0.015985137307073533 0 -0.0011166945123305503 0.015215522735332552 0 -0.0013079695610771916 0.015643808460787122 0 -0.0010693886851257694 0.016061547948041228 0 -0.0011197015675660617 0.016011936322670305 0 -0.0011048254292213274 0.015985137307073533 0 -0.0011404572848191944 0.015882825824222298 0 -0.0011048254292213274 0.015985137307073533 0 -0.001064799844565153 0.015990196867038085 0 -0.0010693886851257694 0.016061547948041228 0 -0.0011048254292213274 0.015985137307073533 0 -0.001064799844565153 0.015990196867038085 0 -0.001064799844565153 0.015990196867038085 0 -0.0011220893692462919 0.015592277187878355 0 -0.00092699087204897094 0.015851952391203461 0 -0.0011404572848191944 0.015882825824222298 0 -0.001064799844565153 0.015990196867038085 0 -0.0011220893692462919 0.015592277187878355 0 -0.0008861577768744781 0.016167013446033836 0 -0.001064799844565153 0.015990196867038085 0 -0.00092699087204897094 0.015851952391203461 0 -0.0011220893692462919 0.015592277187878355 0 -0.00079098547792797651 0.01545899998335021 0 -0.0011605388208347925 0.015200083502698971 0 -0.0013079695610771916 0.015643808460787122 0 -0.0010787280071726645 0.015566277396158941 0 -0.0014314436314014219 0.015211718652766574 0 -0.0011220893692462919 0.015592277187878355 0 -0.0011605388208347925 0.015200083502698971 0 -0.00079098547792797651 0.01545899998335021 0 -0.00092699087204897094 0.015851952391203461 0 -0.00075596452179783023 0.015925812138592444 0 -0.0011220893692462919 0.015592277187878355 0 -0.00079098547792797651 0.01545899998335021 0 -0.00092699087204897094 0.015851952391203461 0 -0.0008861577768744781 0.016167013446033836 0 -0.00092699087204897094 0.015851952391203461 0 -0.00075596452179783023 0.015925812138592444 0 -0.00084163782934394487 0.014583557290265605 0 -0.00084030179681525896 0.014612688584319687 0 -0.00099189839111255072 0.014413668820821086 0 -0.00084977686073514039 0.01445792728374003 0 -0.00077375263417694636 0.014436016637774413 0 -0.00084977686073514039 0.01445792728374003 0 -0.00079967472724226012 0.014354259910209203 0 -0.00077375263417694636 0.014436016637774413 0 -0.00086827296580769305 0.014789123708829488 0 -0.00088425257428127594 0.014853756833451703 0 -0.0007351347325662425 0.014881875289604982 0 -0.0010182309209828759 0.01468327342798372 0 -0.00086827296580769305 0.014789123708829488 0 -0.00088425257428127594 0.014853756833451703 0 -0.0008421987979929205 0.014976333969658234 0 -0.00088425257428127594 0.014853756833451703 0 -0.0007351347325662425 0.014881875289604982 0 -0.00066326718432469488 0.014718890318299189 0 -0.00086827296580769305 0.014789123708829488 0 -0.0007351347325662425 0.014881875289604982 0 -0.00065983395313643769 0.015000812207908398 0 -0.0007351347325662425 0.014881875289604982 0 -0.0005129226653990493 0.014890868722346639 0 -0.00066326718432469488 0.014718890318299189 0 -0.0007351347325662425 0.014881875289604982 0 -0.0005129226653990493 0.014890868722346639 0 -0.00030859801523019052 0.015065393430756498 0 -0.00025830681549014701 0.014784173013251942 0 -0.0005129226653990493 0.014890868722346639 0 -0.00052483368507264764 0.015563280997984846 0 -0.00056304375348091226 0.015449772163345588 0 -0.00025830681549014701 0.014784173013251942 0 -0.0005129226653990493 0.014890868722346639 0 -0.00041355090955521397 0.014632107594743282 0 -0.00066326718432469488 0.014718890318299189 0 -0.0005129226653990493 0.014890868722346639 0 -0.00041355090955521397 0.014632107594743282 0 -0.00084163782934394487 0.014583557290265605 0 -0.0007982462558748729 0.014548435427456645 0 -0.00099189839111255072 0.014413668820821086 0 -0.0013216113624595189 0.014584332581345158 0 -0.0011637259421676638 0.014723481938201754 0 -0.0016142422328591385 0.014843170568089106 0 -0.0013216113624595189 0.014584332581345158 0 -0.0014186094182928708 0.014867577330628391 0 -0.0011166945123305503 0.015215522735332552 0 -0.0007982462558748729 0.014548435427456645 0 -0.0013216113624595189 0.014584332581345158 0 -0.0011637259421676638 0.014723481938201754 0 -0.0014186094182928708 0.014867577330628391 0 -0.0015446617132382804 0.01506062075526138 0 -0.0014186094182928708 0.014867577330628391 0 -0.0012492162308225957 0.015040289481955139 0 -0.0011637259421676638 0.014723481938201754 0 -0.00087484758585153557 0.014669578981769394 0 -0.0012492162308225957 0.015040289481955139 0 -0.0011637259421676638 0.014723481938201754 0 -0.0014186094182928708 0.014867577330628391 0 -0.0012492162308225957 0.015040289481955139 0 -0.00045275801923070144 0.0048898372348107049 0 -0.0018943753670975887 0.0053671615943487582 0 -1.880448708851391e-05 -0.0050230404619907151 0 -0.00054785419718441654 -0.0035797077114398559 0 -0.0022975389139187983 -0.0033853106406238607 0 0.00012491011679666595 -0.0044225429928278388 0 -1.880448708851391e-05 -0.0050230404619907151 0 -0.00054785419718441654 -0.0035797077114398559 0 -0.00099189839111255072 0.014413668820821086 0 -0.00084977686073514039 0.01445792728374003 0 -0.00087484758585153557 0.014669578981769394 0 -0.00099189839111255072 0.014413668820821086 0 -0.0011637259421676638 0.014723481938201754 0 -0.00087484758585153557 0.014669578981769394 0 -0.00044741087537692056 0.005248381986949136 0 -0.00045275801923070144 0.0048898372348107049 0 -0.00084977686073514039 0.01445792728374003 0 -0.00079967472724226012 0.014354259910209203 0 -0.00087484758585153557 0.014669578981769394 0 0.00022724845968963907 -0.0044487890306326282 0 -1.880448708851391e-05 -0.0050230404619907151 0 0.00022285739560949945 -0.004886438680378676 0 7.1906651301772021e-05 -0.0048452620244448632 0 0.00022724845968963907 -0.0044487890306326282 0 0.00022285739560949945 -0.004886438680378676 0 7.1906651301772021e-05 -0.0048452620244448632 0 0.00022285739560949945 -0.004886438680378676 0 0.00035030870271047783 -0.004959287152880556 0 0.00012491011679666595 -0.0044225429928278388 0 0.00035030870271047783 -0.004959287152880556 0 0.00024176193463242639 -0.0044749668344379323 0 0.00012491011679666595 -0.0044225429928278388 0 0.00022285739560949945 -0.004886438680378676 0 0.00035030870271047783 -0.004959287152880556 0 0.00012491011679666595 -0.0044225429928278388 0 -1.880448708851391e-05 -0.0050230404619907151 0 0.00022285739560949945 -0.004886438680378676 0 0.00012491011679666595 -0.0044225429928278388 0 0.00041786164204735842 -0.0026249583989451696 0 0.00060031037002831057 -0.0022636568623705571 0 0.00012491011679666595 -0.0044225429928278388 0 0.00018996032296189627 -0.0043863721853882971 0 0.00016556084409840994 -0.0042867678636430307 0 0.00035030870271047783 -0.004959287152880556 0 0.00024176193463242639 -0.0044749668344379323 0 0.00046700630159983377 -0.0042610602197393124 0 0.00016351054577445665 -0.0043270544690348677 0 0.00035270310909582374 -0.0033020973657591399 0 0.00012491011679666595 -0.0044225429928278388 0 0.00024176193463242639 -0.0044749668344379323 0 0.00018996032296189627 -0.0043863721853882971 0 0.00018996032296189627 -0.0043863721853882971 0 0.00028756624801532551 -0.0042991351518118608 0 0.00016556084409840994 -0.0042867678636430307 0 0.00024176193463242639 -0.0044749668344379323 0 0.00028756624801532551 -0.0042991351518118608 0 0.00046700630159983377 -0.0042610602197393124 0 0.00024176193463242639 -0.0044749668344379323 0 0.00018996032296189627 -0.0043863721853882971 0 0.00028756624801532551 -0.0042991351518118608 0 0.00035270310909582374 -0.0033020973657591399 0 0.0003638064960090434 -0.0028306396020062446 0 0.00028756624801532551 -0.0042991351518118608 0 0.00033057265612680009 -0.0041122756484706889 0 0.00046700630159983377 -0.0042610602197393124 0 0.00016556084409840994 -0.0042867678636430307 0 0.00033057265612680009 -0.0041122756484706889 0 0.0002228299801577042 -0.0039295467240579455 0 0.00060031037002831057 -0.0022636568623705571 0 0.00036569003684021773 -0.0018041395252570316 0 0.00047511273217087886 -0.0015851196050084065 0 0.00028756624801532551 -0.0042991351518118608 0 0.00016556084409840994 -0.0042867678636430307 0 0.00033057265612680009 -0.0041122756484706889 0 0.00040071702904693931 -0.0024862579641365553 0 -0.00040539619828892671 -0.00087836156128955165 0 0.00041786164204735842 -0.0026249583989451696 0 0.00060031037002831057 -0.0022636568623705571 0 0.00036569003684021773 -0.0018041395252570316 0 0.00041786164204735842 -0.0026249583989451696 0 0.00036569003684021773 -0.0018041395252570316 0 9.3601102310735744e-05 -0.0016735357082703056 0 0.00041786164204735842 -0.0026249583989451696 0 -0.0010677518029558583 -0.0018352364214465199 0 -0.00090263393450403873 -2.2986783366585734e-05 0 0.00041786164204735842 -0.0026249583989451696 0 -0.0010677518029558583 -0.0018352364214465199 0 -0.00054785419718441654 -0.0035797077114398559 0 0.00012491011679666595 -0.0044225429928278388 0 0.00041786164204735842 -0.0026249583989451696 0 -0.00054785419718441654 -0.0035797077114398559 0 -0.0010677518029558583 -0.0018352364214465199 0 -0.00054785419718441654 -0.0035797077114398559 0 -0.0022975389139187983 -0.0033853106406238607 0 -0.0015446617132382804 0.01506062075526138 0 -0.0012492162308225957 0.015040289481955139 0 -0.001486730416374571 0.015157961902943337 0 -0.0018943753670975887 0.0053671615943487582 0 -0.0018676058082273041 0.010027595811292925 0 -0.0022975389139187983 -0.0033853106406238607 0 -0.0027215823408459827 -0.0003132676949711312 0 -0.004842313080200179 -0.00085656144345251997 0 -0.0010677518029558583 -0.0018352364214465199 0 -0.0022975389139187983 -0.0033853106406238607 0 -0.0027215823408459827 -0.0003132676949711312 0 -0.0010677518029558583 -0.0018352364214465199 0 -0.0027215823408459827 -0.0003132676949711312 0 -0.00090263393450403873 -2.2986783366585734e-05 0 -0.001183536516718175 0.00055581920657780297 0 -0.00040539619828892671 -0.00087836156128955165 0 -0.0027215823408459827 -0.0003132676949711312 0 -0.0025041303259935631 0.002602835256648812 0 -0.00090263393450403873 -2.2986783366585734e-05 0 0.0001403304852200694 -0.001396007330571629 0 0.00020698594750324399 -0.0014712885547366052 0 9.3601102310735744e-05 -0.0016735357082703056 0 -0.0027215823408459827 -0.0003132676949711312 0 -0.0047371680447701242 0.0018284436050270551 0 -0.004842313080200179 -0.00085656144345251997 0 -0.0027215823408459827 -0.0003132676949711312 0 -0.0047371680447701242 0.0018284436050270551 0 -0.0025041303259935631 0.002602835256648812 0 -0.0047371680447701242 0.0018284436050270551 0 -0.0025041303259935631 0.002602835256648812 0 -0.004597192174578134 0.0046113639437207815 0 -0.0035865766959676687 0.0070979023970381928 0 -0.0026669493637407156 0.010511566351923846 0 -0.001183536516718175 0.00055581920657780297 0 -0.0012841831664809559 0.0022357896570164271 0 0.0001403304852200694 -0.001396007330571629 0 0.00019548937237626223 -0.0013893467422105025 0 0.00020698594750324399 -0.0014712885547366052 0 0.0001403304852200694 -0.001396007330571629 0 0.00019548937237626223 -0.0013893467422105025 0 0.0001974484915098752 -0.0013968895762100709 0 0.00019548937237626223 -0.0013893467422105025 0 0.00020698594750324399 -0.0014712885547366052 0 0.00023023208145561569 -0.0013715433800792947 0 0.00020698594750324399 -0.0014712885547366052 0 0.00023023208145561569 -0.0013715433800792947 0 0.00047511273217087886 -0.0015851196050084065 0 0.00028657601589399074 -0.0016137858439749006 0 0.00015689266599857958 -0.0021989811502624384 0 0.0002228299801577042 -0.0039295467240579455 0 0.00026490548950526836 -0.0036433573805531457 0 0.00038491004693487707 -0.0037851376292520936 0 0.0003638064960090434 -0.0028306396020062446 0 0.00015689266599857958 -0.0021989811502624384 0 0.00023023208145561569 -0.0013715433800792947 0 0.00047511273217087886 -0.0015851196050084065 0 0.00038326953585815835 -0.001355757867708345 0 0.00033057265612680009 -0.0041122756484706889 0 0.0002228299801577042 -0.0039295467240579455 0 0.00049689331326172807 -0.0039472482668564722 0 0.00036569003684021773 -0.0018041395252570316 0 0.00020698594750324399 -0.0014712885547366052 0 9.3601102310735744e-05 -0.0016735357082703056 0 0.00036569003684021773 -0.0018041395252570316 0 0.00020698594750324399 -0.0014712885547366052 0 0.00047511273217087886 -0.0015851196050084065 0 -0.0010323399421061556 0.01476328095284183 0 -0.00087065744047944572 0.014312648521193773 0 -0.00059601500223237236 0.014918097358561743 0 -0.00092662555520936637 0.015083680303704144 0 -0.0010323399421061556 0.01476328095284183 0 -0.00059601500223237236 0.014918097358561743 0 -0.00079098547792797651 0.01545899998335021 0 -0.00092662555520936637 0.015083680303704144 0 -0.0011605388208347925 0.015200083502698971 0 -0.00079098547792797651 0.01545899998335021 0 -0.00092662555520936637 0.015083680303704144 0 -0.00059601500223237236 0.014918097358561743 0 -0.00092662555520936637 0.015083680303704144 0 -0.0011605388208347925 0.015200083502698971 0 -0.0011719456587235358 0.014968677445392872 0 -0.0011605388208347925 0.015200083502698971 0 -0.0011719456587235358 0.014968677445392872 0 -0.001375332971568973 0.015025004562412176 0 -0.0011719456587235358 0.014968677445392872 0 -0.0010323399421061556 0.01476328095284183 0 -0.0013622732782178461 0.014763454473354977 0 -0.0010323399421061556 0.01476328095284183 0 -0.0013622732782178461 0.014763454473354977 0 -0.0011586924343017038 0.014469084596827192 0 -0.0011719456587235358 0.014968677445392872 0 -0.0013622732782178461 0.014763454473354977 0 -0.001375332971568973 0.015025004562412176 0 -0.00092662555520936637 0.015083680303704144 0 -0.0011719456587235358 0.014968677445392872 0 -0.0010323399421061556 0.01476328095284183 0 -0.0013622732782178461 0.014763454473354977 0 -0.0015173784757464039 0.014624815257644013 0 -0.0014135441747051307 0.014509446928475824 0 -0.0013622732782178461 0.014763454473354977 0 -0.0015173784757464039 0.014624815257644013 0 -0.0015642981307158472 0.014766279713840065 0 -0.0015173784757464039 0.014624815257644013 0 -0.0015642981307158472 0.014766279713840065 0 -0.0016701893972454194 0.014613178367487526 0 -0.0013622732782178461 0.014763454473354977 0 -0.0015642981307158472 0.014766279713840065 0 -0.0015404004540447874 0.014916944894294565 0 -0.0013622732782178461 0.014763454473354977 0 -0.001375332971568973 0.015025004562412176 0 -0.0015404004540447874 0.014916944894294565 0 -0.0014314436314014219 0.015211718652766574 0 -0.0011605388208347925 0.015200083502698971 0 -0.001375332971568973 0.015025004562412176 0 -0.0014314436314014219 0.015211718652766574 0 -0.001375332971568973 0.015025004562412176 0 -0.0015122110606828002 0.015046148030554105 0 -0.0015637743338078186 0.015105890182257057 0 -0.0014314436314014219 0.015211718652766574 0 -0.0015122110606828002 0.015046148030554105 0 -0.0015122110606828002 0.015046148030554105 0 -0.0015404004540447874 0.014916944894294565 0 -0.0016134831794918634 0.014961785786937123 0 -0.001375332971568973 0.015025004562412176 0 -0.0015122110606828002 0.015046148030554105 0 -0.0015404004540447874 0.014916944894294565 0 -0.0014721445110289205 0.017149375869758229 0 -0.0018676058082273041 0.010027595811292925 0 -0.0015446617132382804 0.01506062075526138 0 -0.0016134831794918634 0.014961785786937123 0 -0.0018431867223009373 0.014753634021910066 0 -0.0015637743338078186 0.015105890182257057 0 -0.0015122110606828002 0.015046148030554105 0 -0.0016134831794918634 0.014961785786937123 0 -0.0015446617132382804 0.01506062075526138 0 -0.0015637743338078186 0.015105890182257057 0 -0.0016134831794918634 0.014961785786937123 0 -0.0016134831794918634 0.014961785786937123 0 -0.0016936027519923516 0.014771994534191377 0 -0.0018431867223009373 0.014753634021910066 0 -0.0015642981307158472 0.014766279713840065 0 -0.0015404004540447874 0.014916944894294565 0 -0.0016936027519923516 0.014771994534191377 0 -0.0015404004540447874 0.014916944894294565 0 -0.0016134831794918634 0.014961785786937123 0 -0.0016936027519923516 0.014771994534191377 0 -0.0015642981307158472 0.014766279713840065 0 -0.0016936027519923516 0.014771994534191377 0 -0.0016701893972454194 0.014613178367487526 0 -0.0016936027519923516 0.014771994534191377 0 -0.001751118772220272 0.014647267532389896 0 -0.0016701893972454194 0.014613178367487526 0 -0.001751118772220272 0.014647267532389896 0 -0.0018282270467926728 0.014681826916469413 0 -0.001805858374121651 0.014513801935144705 0 -0.0016936027519923516 0.014771994534191377 0 -0.0018282270467926728 0.014681826916469413 0 -0.0018431867223009373 0.014753634021910066 0 -0.0025473998083098545 0.011365133633840846 0 -0.0018676058082273041 0.010027595811292925 0 -0.0016936027519923516 0.014771994534191377 0 -0.001751118772220272 0.014647267532389896 0 -0.0018282270467926728 0.014681826916469413 0 -0.0035865766959676687 0.0070979023970381928 0 -0.0018676058082273041 0.010027595811292925 0 -0.0020528572025307443 0.014218359318233563 0 -0.0018282270467926728 0.014681826916469413 0 -0.001805858374121651 0.014513801935144705 0 -0.0020528572025307443 0.014218359318233563 0 -0.0018282270467926728 0.014681826916469413 0 -0.0018803569310208682 0.014739087727294771 0 -0.001751118772220272 0.014647267532389896 0 -0.001805858374121651 0.014513801935144705 0 -0.0016701893972454194 0.014613178367487526 0 -0.001805858374121651 0.014513801935144705 0 -0.0016701893972454194 0.014613178367487526 0 -0.0017512036803078431 0.014387977129220591 0 -0.0016701893972454194 0.014613178367487526 0 -0.0017512036803078431 0.014387977129220591 0 -0.0015828960268005549 0.014457619146412659 0 -0.0017512036803078431 0.014387977129220591 0 -0.0016443984689402682 0.014278330692274662 0 -0.0017862172831315396 0.01411350074853019 0 -0.0017512036803078431 0.014387977129220591 0 -0.0016443984689402682 0.014278330692274662 0 -0.0015828960268005549 0.014457619146412659 0 -0.0020528572025307443 0.014218359318233563 0 -0.001805858374121651 0.014513801935144705 0 -0.0017512036803078431 0.014387977129220591 0 -0.0020528572025307443 0.014218359318233563 0 -0.0017512036803078431 0.014387977129220591 0 -0.0017862172831315396 0.01411350074853019 0 -0.001378265295789215 0.015068536150534101 0 -0.0026669493637407156 0.010511566351923846 0 -0.0020528572025307443 0.014218359318233563 0 -0.0017862172831315396 0.01411350074853019 0 -0.0021481195635537046 0.013452905614692763 0 -0.0017862172831315396 0.01411350074853019 0 -0.0018838945231537591 0.013825160886443262 0 -0.0021927071962107719 0.01369994542110888 0 -0.0017194375692394816 0.013946866858917269 0 -0.0017862172831315396 0.01411350074853019 0 -0.0018838945231537591 0.013825160886443262 0 -0.0017194375692394816 0.013946866858917269 0 -0.0017862172831315396 0.01411350074853019 0 -0.0016293523852182917 0.014101427648772936 0 -0.0016443984689402682 0.014278330692274662 0 -0.0017862172831315396 0.01411350074853019 0 -0.0016293523852182917 0.014101427648772936 0 -0.0016443984689402682 0.014278330692274662 0 -0.0016293523852182917 0.014101427648772936 0 -0.0014689053482735527 0.014229785451390106 0 -0.0017194375692394816 0.013946866858917269 0 -0.0016293523852182917 0.014101427648772936 0 -0.0015223282800300186 0.013932290353773883 0 -0.0016293523852182917 0.014101427648772936 0 -0.0015223282800300186 0.013932290353773883 0 -0.0014689053482735527 0.014229785451390106 0 -0.0015223282800300186 0.013932290353773883 0 -0.0013355386968578887 0.014033423657874236 0 -0.0014689053482735527 0.014229785451390106 0 -0.0013355386968578887 0.014033423657874236 0 -0.0014689053482735527 0.014229785451390106 0 -0.001218541021814529 0.014221296405456026 0 -0.0014689053482735527 0.014229785451390106 0 -0.0013132645521012035 0.014358418824687136 0 -0.001218541021814529 0.014221296405456026 0 -0.0014689053482735527 0.014229785451390106 0 -0.0013132645521012035 0.014358418824687136 0 -0.0014135441747051307 0.014509446928475824 0 -0.0016443984689402682 0.014278330692274662 0 -0.0014689053482735527 0.014229785451390106 0 -0.0015828960268005549 0.014457619146412659 0 -0.0014689053482735527 0.014229785451390106 0 -0.0015828960268005549 0.014457619146412659 0 -0.0014135441747051307 0.014509446928475824 0 -0.0015173784757464039 0.014624815257644013 0 -0.0016701893972454194 0.014613178367487526 0 -0.0015828960268005549 0.014457619146412659 0 -0.0015173784757464039 0.014624815257644013 0 -0.0015828960268005549 0.014457619146412659 0 -0.0014135441747051307 0.014509446928475824 0 -0.0010323399421061556 0.01476328095284183 0 -0.0011586924343017038 0.014469084596827192 0 -0.00087065744047944572 0.014312648521193773 0 -0.0011586924343017038 0.014469084596827192 0 -0.001218541021814529 0.014221296405456026 0 -0.00087065744047944572 0.014312648521193773 0 -0.0013622732782178461 0.014763454473354977 0 -0.0014135441747051307 0.014509446928475824 0 -0.0011586924343017038 0.014469084596827192 0 -0.0013132645521012035 0.014358418824687136 0 -0.0011586924343017038 0.014469084596827192 0 -0.001218541021814529 0.014221296405456026 0 -0.0013132645521012035 0.014358418824687136 0 -0.0014135441747051307 0.014509446928475824 0 -0.0011586924343017038 0.014469084596827192 0 -0.0011748601490563432 0.01404691676571638 0 -0.00087065744047944572 0.014312648521193773 0 -0.0011560578972457235 0.013863047251508944 0 -0.001218541021814529 0.014221296405456026 0 -0.0011748601490563432 0.01404691676571638 0 -0.00087065744047944572 0.014312648521193773 0 -0.0013355386968578887 0.014033423657874236 0 -0.0011748601490563432 0.01404691676571638 0 -0.0013086741417030017 0.01381987329526501 0 -0.0013355386968578887 0.014033423657874236 0 -0.001218541021814529 0.014221296405456026 0 -0.0011748601490563432 0.01404691676571638 0 -0.00090363006617708258 0.01492538671710548 0 -0.0011560578972457235 0.013863047251508944 0 -0.00060986126784548164 0.014313728862539822 0 -0.00088086775230217002 0.0146104395275068 0 -0.0011473823010023992 0.013920054601920159 0 -0.00088086775230217002 0.0146104395275068 0 -0.00060974709444001473 0.015224410946045024 0 0.00061440492779069684 0.014293005622016233 0 0.00023319418550610789 0.017975019015445078 0 0.0011463244272846475 0.020102627110734742 0 0.00078117294586213049 0.020118479125792264 0 0.00089075785314977592 0.020297930902993602 0 -0.00033160986395549489 0.014836787379650208 0 -0.00044746762692139962 0.014681251089765059 0 -0.0002075066399697744 0.014841879470157551 0 -0.00033160986395549489 0.014836787379650208 0 -0.00043256515140696687 0.014763523897777261 0 -0.00044746762692139962 0.014681251089765059 0 -0.00086089324926988853 0.014540739125019459 0 -0.00046531666524073393 0.014581432842548012 0 -0.0011560578972457235 0.013863047251508944 0 -0.0011622635093780219 0.013578369288248059 0 -0.00060986126784548164 0.014313728862539822 0 -0.00033160986395549489 0.014836787379650208 0 -0.00049769893927447718 0.014839434795151618 0 -0.00026460503174789566 0.014966636663603842 0 -0.0011748601490563432 0.01404691676571638 0 -0.0011560578972457235 0.013863047251508944 0 -0.0013086741417030017 0.01381987329526501 0 -0.0011560578972457235 0.013863047251508944 0 -0.0012379751865454667 0.013704984858090664 0 -0.0011622635093780219 0.013578369288248059 0 -0.0011560578972457235 0.013863047251508944 0 -0.0012379751865454667 0.013704984858090664 0 -0.0013086741417030017 0.01381987329526501 0 -0.0012379751865454667 0.013704984858090664 0 -0.0011622635093780219 0.013578369288248059 0 -0.0012995986668428035 0.013553930638853259 0 -0.0012379751865454667 0.013704984858090664 0 -0.0012995986668428035 0.013553930638853259 0 -0.0013086741417030017 0.01381987329526501 0 -0.00049769893927447718 0.014839434795151618 0 -0.00044746762692139962 0.014681251089765059 0 -0.00086973975691795379 0.014535267230585548 0 -0.00033160986395549489 0.014836787379650208 0 -0.00043256515140696687 0.014763523897777261 0 -0.00049769893927447718 0.014839434795151618 0 -0.00043256515140696687 0.014763523897777261 0 -0.00049769893927447718 0.014839434795151618 0 -0.00044746762692139962 0.014681251089765059 0 -0.00086089324926988853 0.014540739125019459 0 -0.00057761866506146706 0.011624046722339651 0 -0.0011622635093780219 0.013578369288248059 0 -0.0012995986668428035 0.013553930638853259 0 -0.0015097648434819952 0.013240847194611062 0 -0.0015771346602577324 0.013179303004624675 0 -0.0016790918732742458 0.01300890609550953 0 -0.0016382592949475423 0.012824811901503259 0 -0.0013729068250502364 0.013724945861217872 0 -0.00057761866506146706 0.011624046722339651 0 -0.0015771346602577324 0.013179303004624675 0 -0.0012995986668428035 0.013553930638853259 0 -0.0016382592949475423 0.012824811901503259 0 -0.0015771346602577324 0.013179303004624675 0 -0.0017175950259022423 0.01313565083597844 0 -0.0016790918732742458 0.01300890609550953 0 -0.0015771346602577324 0.013179303004624675 0 -0.0015162544433168356 0.013366585057540117 0 -0.0016387363660882216 0.013303760484027222 0 -0.0015771346602577324 0.013179303004624675 0 -0.0016387363660882216 0.013303760484027222 0 -0.0017175950259022423 0.01313565083597844 0 -0.0016387363660882216 0.013303760484027222 0 -0.0015484650750492224 0.01349056688334376 0 -0.0017006786198602852 0.013419016049593793 0 -0.0015162544433168356 0.013366585057540117 0 -0.0016387363660882216 0.013303760484027222 0 -0.0015484650750492224 0.01349056688334376 0 -0.0015162544433168356 0.013366585057540117 0 -0.0015484650750492224 0.01349056688334376 0 -0.0012995986668428035 0.013553930638853259 0 -0.0015771346602577324 0.013179303004624675 0 -0.0015162544433168356 0.013366585057540117 0 -0.0012995986668428035 0.013553930638853259 0 -0.0012995986668428035 0.013553930638853259 0 -0.0013086741417030017 0.01381987329526501 0 -0.0015071008412321939 0.013690786127588691 0 -0.0015484650750492224 0.01349056688334376 0 -0.0012995986668428035 0.013553930638853259 0 -0.0015071008412321939 0.013690786127588691 0 -0.0015223282800300186 0.013932290353773883 0 -0.0013355386968578887 0.014033423657874236 0 -0.0013086741417030017 0.01381987329526501 0 -0.0015223282800300186 0.013932290353773883 0 -0.0013086741417030017 0.01381987329526501 0 -0.0015071008412321939 0.013690786127588691 0 -0.0015223282800300186 0.013932290353773883 0 -0.0015071008412321939 0.013690786127588691 0 -0.001733779061075921 0.013721954264724516 0 -0.0017194375692394816 0.013946866858917269 0 -0.0015223282800300186 0.013932290353773883 0 -0.001733779061075921 0.013721954264724516 0 -0.0015071008412321939 0.013690786127588691 0 -0.001662065087924113 0.013561876202764113 0 -0.001733779061075921 0.013721954264724516 0 -0.0015484650750492224 0.01349056688334376 0 -0.0015071008412321939 0.013690786127588691 0 -0.001662065087924113 0.013561876202764113 0 -0.0015484650750492224 0.01349056688334376 0 -0.001662065087924113 0.013561876202764113 0 -0.0017006786198602852 0.013419016049593793 0 -0.001662065087924113 0.013561876202764113 0 -0.0018304518744652973 0.013476620913953 0 -0.0017006786198602852 0.013419016049593793 0 -0.0018304518744652973 0.013476620913953 0 -0.001733779061075921 0.013721954264724516 0 -0.0019831788066880882 0.013597108887825044 0 -0.001662065087924113 0.013561876202764113 0 -0.0018304518744652973 0.013476620913953 0 -0.001733779061075921 0.013721954264724516 0 -0.001733779061075921 0.013721954264724516 0 -0.0018838945231537591 0.013825160886443262 0 -0.0019831788066880882 0.013597108887825044 0 -0.0017194375692394816 0.013946866858917269 0 -0.001733779061075921 0.013721954264724516 0 -0.0018838945231537591 0.013825160886443262 0 -0.0018838945231537591 0.013825160886443262 0 -0.0019831788066880882 0.013597108887825044 0 -0.0021927071962107719 0.01369994542110888 0 -0.0019831788066880882 0.013597108887825044 0 -0.0021391194019039395 0.013493421303439191 0 -0.0021927071962107719 0.01369994542110888 0 -0.0018304518744652973 0.013476620913953 0 -0.0019831788066880882 0.013597108887825044 0 -0.0020472173748433756 0.013383611627014196 0 -0.0019831788066880882 0.013597108887825044 0 -0.0021391194019039395 0.013493421303439191 0 -0.0020472173748433756 0.013383611627014196 0 -0.0021391194019039395 0.013493421303439191 0 -0.0020472173748433756 0.013383611627014196 0 -0.0022333565807888204 0.013330367733025442 0 -0.0020543983580547358 0.013103824573807168 0 -0.0022333565807888204 0.013330367733025442 0 -0.0022677023589035496 0.012624833944901343 0 -0.0020472173748433756 0.013383611627014196 0 -0.0020543983580547358 0.013103824573807168 0 -0.0022333565807888204 0.013330367733025442 0 -0.0019334150489559001 0.013276147545693512 0 -0.0020472173748433756 0.013383611627014196 0 -0.0020543983580547358 0.013103824573807168 0 -0.0019334150489559001 0.013276147545693512 0 -0.0018724117484429036 0.013103904657053654 0 -0.0020543983580547358 0.013103824573807168 0 -0.0018304518744652973 0.013476620913953 0 -0.0019334150489559001 0.013276147545693512 0 -0.0020472173748433756 0.013383611627014196 0 -0.0018304518744652973 0.013476620913953 0 -0.0019334150489559001 0.013276147545693512 0 -0.0017926303057230421 0.013280441901068736 0 -0.0018304518744652973 0.013476620913953 0 -0.0017006786198602852 0.013419016049593793 0 -0.0017926303057230421 0.013280441901068736 0 -0.0016387363660882216 0.013303760484027222 0 -0.0017006786198602852 0.013419016049593793 0 -0.0017926303057230421 0.013280441901068736 0 -0.0017926303057230421 0.013280441901068736 0 -0.0018724117484429036 0.013103904657053654 0 -0.0017175950259022423 0.01313565083597844 0 -0.0016387363660882216 0.013303760484027222 0 -0.0017926303057230421 0.013280441901068736 0 -0.0017175950259022423 0.01313565083597844 0 -0.0019334150489559001 0.013276147545693512 0 -0.0017926303057230421 0.013280441901068736 0 -0.0018724117484429036 0.013103904657053654 0 -0.0018724117484429036 0.013103904657053654 0 -0.0017175950259022423 0.01313565083597844 0 -0.0017962032731436315 0.012939574497671379 0 -0.0017175950259022423 0.01313565083597844 0 -0.0016790918732742458 0.01300890609550953 0 -0.0017962032731436315 0.012939574497671379 0 -0.0016790918732742458 0.01300890609550953 0 -0.0017962032731436315 0.012939574497671379 0 -0.0016382592949475423 0.012824811901503259 0 -0.0017962032731436315 0.012939574497671379 0 -0.0019680331087491626 0.012894989787806557 0 -0.0018044456555280028 0.012707501662747931 0 -0.0018724117484429036 0.013103904657053654 0 -0.0017962032731436315 0.012939574497671379 0 -0.0019680331087491626 0.012894989787806557 0 -0.0019680331087491626 0.012894989787806557 0 -0.0020543983580547358 0.013103824573807168 0 -0.0022677023589035496 0.012624833944901343 0 -0.0018724117484429036 0.013103904657053654 0 -0.0019680331087491626 0.012894989787806557 0 -0.0020543983580547358 0.013103824573807168 0 0.0010556436906409717 0.0069195141945467328 0 -0.00069400182378144169 0.0057239117780564395 0 -0.00051613992209168056 0.0049703650360352764 0 -0.00062396989082120244 0.0096606174184723607 0 -0.00035693368501954958 0.0054304453364166323 0 0.0010556436906409717 0.0069195141945467328 0 0.0012300442483037424 0.0069573975535314574 0 -0.00051613992209168056 0.0049703650360352764 0 -0.00034428349808047901 0.0066141467942038481 0 -0.0003453611764818281 0.006573117135807922 0 -0.00045894689194690767 0.0065082360028209324 0 -0.00096167128463300877 0.0094887617954934698 0 -0.00043385161717235507 0.0056559292742372185 0 -0.0019680331087491626 0.012894989787806557 0 -0.0018044456555280028 0.012707501662747931 0 -0.0022677023589035496 0.012624833944901343 0 -0.0017962032731436315 0.012939574497671379 0 -0.0018044456555280028 0.012707501662747931 0 -0.0016382592949475423 0.012824811901503259 0 -0.00096167128463300877 0.0094887617954934698 0 -0.00057761866506146706 0.011624046722339651 0 -0.00062396989082120244 0.0096606174184723607 0 -0.00096167128463300877 0.0094887617954934698 0 -0.0011966015472675148 0.010313608519808143 0 -0.00091814425862310608 0.010370262428679935 0 -0.00063220615756460498 0.010683957368612922 0 -0.00062396989082120244 0.0096606174184723607 0 -0.00057761866506146706 0.011624046722339651 0 -0.0003453611764818281 0.006573117135807922 0 -0.00027235419543870243 0.0065778259968469642 0 -0.00029377774044790991 0.0065908963333283751 0 -0.00036825422440771007 0.0065194725861004417 0 -0.0003516430691448673 0.006604565079571998 0 -0.0003453611764818281 0.006573117135807922 0 -0.00033920408211422765 0.0066205241913791036 0 -0.00029377774044790991 0.0065908963333283751 0 -0.00041215072653226042 0.0066176301002573512 0 -0.00033920408211422765 0.0066205241913791036 0 -0.00039740888277406021 0.0067094317045776012 0 -0.0003453611764818281 0.006573117135807922 0 -0.00041215072653226042 0.0066176301002573512 0 -0.00033920408211422765 0.0066205241913791036 0 -0.00051467233776302359 0.0065778929459285665 0 -0.00034428349808047901 0.0066141467942038481 0 -0.00041215072653226042 0.0066176301002573512 0 -0.00044746762692139962 0.014681251089765059 0 -0.00089885485014997639 0.014492987266586555 0 -0.00086973975691795379 0.014535267230585548 0 0.00061440492779069684 0.014293005622016233 0 -0.00096167128463300877 0.0094887617954934698 0 -0.00034428349808047901 0.0066141467942038481 0 -0.0003453611764818281 0.006573117135807922 0 -0.00041215072653226042 0.0066176301002573512 0 -0.00051467233776302359 0.0065778929459285665 0 -0.00041215072653226042 0.0066176301002573512 0 -0.00068649390541091263 0.0066972707562901876 0 -0.00041215072653226042 0.0066176301002573512 0 -0.00068649390541091263 0.0066972707562901876 0 -0.00039740888277406021 0.0067094317045776012 0 0.0011463244272846475 0.020102627110734742 0 0.0010213343192635635 0.020462474828877811 0 0.00089075785314977592 0.020297930902993602 0 0.00061440492779069684 0.014293005622016233 0 0.00014759554101865494 0.013395123357260357 0 0.00015960366026800436 -0.001548792573743729 0 0.00020337897112546188 -0.0014288263223767735 0 0.00021540582367475216 -0.0014997488522180166 0 0.00015960366026800436 -0.001548792573743729 0 0.00021540582367475216 -0.0014997488522180166 0 0.00018208176660735169 -0.0015754527452754308 0 0.00015960366026800436 -0.001548792573743729 0 0.00017577038813946071 -0.0014493438202236465 0 0.00020337897112546188 -0.0014288263223767735 0 -5.8440535948563297e-05 -0.0020963386003472048 0 5.4679346865791823e-05 -0.0017172349494782837 0 0.00012839226644817091 -0.0021188109963528709 0 0.00015960366026800436 -0.001548792573743729 0 6.5339659408083264e-05 -0.001508399222853955 0 5.4679346865791823e-05 -0.0017172349494782837 0 1.540170098913348e-05 -0.0017520914528819692 0 3.8232777347666016e-05 -0.0017459655166532681 0 0.00015960366026800436 -0.001548792573743729 0 6.5339659408083264e-05 -0.001508399222853955 0 0.00017577038813946071 -0.0014493438202236465 0 6.5339659408083264e-05 -0.001508399222853955 0 0.00015408903298715049 -0.0014206634677319618 0 0.00017577038813946071 -0.0014493438202236465 0 6.5339659408083264e-05 -0.001508399222853955 0 0.00010233584658505156 -0.001369989890118422 0 0.00015408903298715049 -0.0014206634677319618 0 1.540170098913348e-05 -0.0017520914528819692 0 0.00015689266599857958 -0.0021989811502624384 0 -5.8440535948563297e-05 -0.0020963386003472048 0 -0.00010090286234885011 -0.0024185117133860355 0 8.0587405639341011e-05 -0.0022588184580789542 0 0.00023023208145561569 -0.0013715433800792947 0 0.00010233584658505156 -0.001369989890118422 0 0.00015408903298715049 -0.0014206634677319618 0 0.00023023208145561569 -0.0013715433800792947 0 0.00015408903298715049 -0.0014206634677319618 0 0.00017577038813946071 -0.0014493438202236465 0 0.00019548937237626223 -0.0013893467422105025 0 0.00023023208145561569 -0.0013715433800792947 0 0.00017577038813946071 -0.0014493438202236465 0 0.00019548937237626223 -0.0013893467422105025 0 0.00017577038813946071 -0.0014493438202236465 0 0.00020337897112546188 -0.0014288263223767735 0 0.0001403304852200694 -0.001396007330571629 0 0.0001974484915098752 -0.0013968895762100709 0 0.00023547829690054545 -0.0013827783518977469 0 0.00019548937237626223 -0.0013893467422105025 0 0.0001974484915098752 -0.0013968895762100709 0 0.00020337897112546188 -0.0014288263223767735 0 0.0001974484915098752 -0.0013968895762100709 0 0.0002257593264528511 -0.0014262909798884425 0 0.00020337897112546188 -0.0014288263223767735 0 0.0001974484915098752 -0.0013968895762100709 0 0.0002257593264528511 -0.0014262909798884425 0 0.00023547829690054545 -0.0013827783518977469 0 -0.0013666939642773947 0.0052142095790343205 0 -0.0014804030950759555 0.0053837218675339303 0 -0.0012505858375245669 0.0057756005967907866 0 -0.0025041303259935631 0.002602835256648812 0 -0.004597192174578134 0.0046113639437207815 0 -0.0037918128015720569 0.0046084582924728248 0 -0.0026669493637407156 0.010511566351923846 0 -0.002855146885284477 0.011920099418214968 0 -0.0021391194019039395 0.013493421303439191 0 -0.0021927071962107719 0.01369994542110888 0 -0.0022629272451140702 0.013393055991023663 0 -0.002707991949355777 0.009999300495885129 0 -0.002592108766351802 0.010197836755358583 0 -0.0026981812718522595 0.010353342516172178 0 -0.004597192174578134 0.0046113639437207815 0 -0.0037918128015720569 0.0046084582924728248 0 -0.0042137537936798621 0.0052537078773355009 0 -0.0012841831664809559 0.0022357896570164271 0 -0.0025886996683686858 0.0085450566018082756 0 -0.0025886996683686858 0.0085450566018082756 0 -0.002855146885284477 0.011920099418214968 0 -0.0026669493637407156 0.010511566351923846 0 -0.0025886996683686858 0.0085450566018082756 0 -0.0012841831664809559 0.0022357896570164271 0 -0.00070369545254965417 0.0052940358009144831 0 -0.002855146885284477 0.011920099418214968 0 -0.0022586419025391095 0.01308370038315919 0 -0.0022333565807888204 0.013330367733025442 0 -0.0022908994467219427 0.013407147820854141 0 -0.0022677023589035496 0.012624833944901343 0 0.0002257593264528511 -0.0014262909798884425 0 0.00023547829690054545 -0.0013827783518977469 0 0.00026898997290928929 -0.001458833846547671 0 -0.0023239923023246865 0.012789275140937381 0 -0.0024406741711943975 0.012722450497349 0 -0.0022677023589035496 0.012624833944901343 0 -0.00234569616525234 0.012811831713071898 0 -0.0023239923023246865 0.012789275140937381 0 -0.0024406741711943975 0.012722450497349 0 -0.0021391194019039395 0.013493421303439191 0 -0.0022333565807888204 0.013330367733025442 0 -0.0022629272451140702 0.013393055991023663 0 -0.0028831459860635717 0.012062525887727119 0 -0.002855146885284477 0.011920099418214968 0 -0.0025886996683686858 0.0085450566018082756 0 -0.00070369545254965417 0.0052940358009144831 0 0.00026898997290928929 -0.001458833846547671 0 0.00021540582367475216 -0.0014997488522180166 0 0.00025001343680090295 -0.0015871402958233171 0 0.0002257593264528511 -0.0014262909798884425 0 0.00020337897112546188 -0.0014288263223767735 0 0.00021540582367475216 -0.0014997488522180166 0 0.0002257593264528511 -0.0014262909798884425 0 0.00026898997290928929 -0.001458833846547671 0 0.00021540582367475216 -0.0014997488522180166 0 0.0019293340893132853 -0.0013698969238332558 0 0.0023168807182994411 -0.0012780790603169625 0 0.0021079476701235207 -0.002327976177871584 0 -0.00070369545254965417 0.0052940358009144831 0 0.00031761832991317803 -0.00016224542070520206 0 0.00049315051304296817 0.0046795461457159234 0 -0.00080391500591677086 0.0025024150165917124 0 6.0297387868112752e-05 0.0026738507790064442 0 0.00021540582367475216 -0.0014997488522180166 0 0.00025001343680090295 -0.0015871402958233171 0 0.00018208176660735169 -0.0015754527452754308 0 0.00031761832991317803 -0.00016224542070520206 0 -0.00068457247510494111 0.0052455893429605611 0 -0.00062396989082120244 0.0096606174184723607 0 -0.00068457247510494111 0.0052455893429605611 0 -0.0018044456555280028 0.012707501662747931 0 -0.0022677023589035496 0.012624833944901343 0 -0.0026156423076561801 0.012387731640413138 0 0.0010321411263965585 0.0068741066695110009 0 -0.0015691195354323897 0.0063297317073453445 0 -0.00069400182378144169 0.0057239117780564395 0 -0.00070369545254965417 0.0052940358009144831 0 -0.00068457247510494111 0.0052455893429605611 0 -0.0024406741711943975 0.012722450497349 0 -0.0022677023589035496 0.012624833944901343 0 -0.0026156423076561801 0.012387731640413138 0 -0.00051613992209168056 0.0049703650360352764 0 -0.0019299306747583209 0.0046804389390346724 0 -0.0022751790305385374 0.003021830091675452 0 -0.0015691195354323897 0.0063297317073453445 0 -0.00069400182378144169 0.0057239117780564395 0 -0.0019299306747583209 0.0046804389390346724 0 -0.0003453611764818281 0.006573117135807922 0 -0.00045894689194690767 0.0065082360028209324 0 -0.0004859384745993984 0.0063576230635011156 0 -0.00069400182378144169 0.0057239117780564395 0 -0.00051613992209168056 0.0049703650360352764 0 -0.0019299306747583209 0.0046804389390346724 0 -0.00068457247510494111 0.0052455893429605611 0 -8.9603774606603919e-05 0.00039262218268800456 0 0.0021079476701235207 -0.002327976177871584 0 0.0014189081250114764 -0.0024010348862822982 0 0.0018720171517253605 -0.003249622855243653 0 0.0019293340893132853 -0.0013698969238332558 0 0.0021079476701235207 -0.002327976177871584 0 0.0014189081250114764 -0.0024010348862822982 0 0.00031761832991317803 -0.00016224542070520206 0 0.0013131551670147832 -0.002856333600176141 0 0.0014846875633258204 -0.0025534301088140326 0 0.0012521314506540172 -0.0029706848217266675 0 0.00092104928094897563 -0.0026843986519348899 0 0.0012521314506540172 -0.0029706848217266675 0 0.00097717721210063857 -0.0030449839143331238 0 0.00092104928094897563 -0.0026843986519348899 0 0.00025001343680090295 -0.0015871402958233171 0 0.00010114053471886151 -0.0016834043073920752 0 0.00018208176660735169 -0.0015754527452754308 0 0.00031761832991317803 -0.00016224542070520206 0 0.00054418369190253164 -0.0023869267010683298 0 0.00015960366026800436 -0.001548792573743729 0 0.00010114053471886151 -0.0016834043073920752 0 0.00018208176660735169 -0.0015754527452754308 0 0.00010114053471886151 -0.0016834043073920752 0 5.4679346865791823e-05 -0.0017172349494782837 0 0.00013240221499350257 -0.001653612971729692 0 0.00015960366026800436 -0.001548792573743729 0 0.00010114053471886151 -0.0016834043073920752 0 5.4679346865791823e-05 -0.0017172349494782837 0 0.00097717721210063857 -0.0030449839143331238 0 0.00092104928094897563 -0.0026843986519348899 0 0.00067751425056112864 -0.0031116192499155292 0 0.00054418369190253164 -0.0023869267010683298 0 0.00040183302813092428 -0.0019818078676412921 0 0.00092104928094897563 -0.0026843986519348899 0 0.00067751425056112864 -0.0031116192499155292 0 0.00031650793288872758 -0.0028212696682216659 0 0.00067751425056112864 -0.0031116192499155292 0 0.00031650793288872758 -0.0028212696682216659 0 0.00010737416888288532 -0.0032388811138124962 0 0.00013240221499350257 -0.001653612971729692 0 0.00045371753074569232 -0.0016044268643038771 0 0.00027216630741681565 -0.0017843519616076377 0 -0.00034851558537389495 -0.0029814137362871411 0 -0.00031397966884638462 -0.0033911953513552015 0 0.00010737416888288532 -0.0032388811138124962 0 0.00031650793288872758 -0.0028212696682216659 0 -0.00034851558537389495 -0.0029814137362871411 0 0.00010737416888288532 -0.0032388811138124962 0 0.00040183302813092428 -0.0019818078676412921 0 -0.000589528165929506 -0.0045466068053769603 0 -0.000589528165929506 -0.0045466068053769603 0 -0.00040664070769879962 -0.0029641115611746269 0 -0.000589528165929506 -0.0045466068053769603 0 -0.00013423466504657058 -0.0058577428687189874 0 0.00045371753074569232 -0.0016044268643038771 0 0.00027216630741681565 -0.0017843519616076377 0 0.00051685333573543756 -0.0019483492475099694 0 5.4679346865791823e-05 -0.0017172349494782837 0 0.00027216630741681565 -0.0017843519616076377 0 0.00026461237560498766 -0.0019988681316280865 0 5.4679346865791823e-05 -0.0017172349494782837 0 0.00013240221499350257 -0.001653612971729692 0 0.00027216630741681565 -0.0017843519616076377 0 5.4679346865791823e-05 -0.0017172349494782837 0 0.00012839226644817091 -0.0021188109963528709 0 0.00026461237560498766 -0.0019988681316280865 0 0.00012839226644817091 -0.0021188109963528709 0 0.00026461237560498766 -0.0019988681316280865 0 0.0002809267286042965 -0.0021740307032881729 0 0.00026461237560498766 -0.0019988681316280865 0 0.00042600284068310883 -0.0021771724391053647 0 0.00051685333573543756 -0.0019483492475099694 0 0.00042600284068310883 -0.0021771724391053647 0 0.00057472902669254732 -0.0023700965757557659 0 0.00051685333573543756 -0.0019483492475099694 0 0.00027216630741681565 -0.0017843519616076377 0 0.00026461237560498766 -0.0019988681316280865 0 0.00051685333573543756 -0.0019483492475099694 0 0.00026461237560498766 -0.0019988681316280865 0 0.0002809267286042965 -0.0021740307032881729 0 0.00042600284068310883 -0.0021771724391053647 0 0.0002809267286042965 -0.0021740307032881729 0 0.00034937024735850168 -0.0022624637321265254 0 0.00042600284068310883 -0.0021771724391053647 0 4.4425518044825891e-05 -0.0043730632183910266 0 0.00027376657055531615 -0.0062918645864788068 0 -0.00020330327953311966 -0.0069675478354018858 0 -5.3497586107284233e-05 -0.006956172427510364 0 -0.00012182755204423286 -0.007016663008531379 0 0.00029459560425851229 -0.0023564280716564128 0 0.00028881812178041598 -0.0023836391532405304 0 0.00057472902669254732 -0.0023700965757557659 0 0.00034937024735850168 -0.0022624637321265254 0 0.00029459560425851229 -0.0023564280716564128 0 0.00057472902669254732 -0.0023700965757557659 0 0.0002809267286042965 -0.0021740307032881729 0 0.00034937024735850168 -0.0022624637321265254 0 0.00024146699825466737 -0.002282902147803109 0 0.00034937024735850168 -0.0022624637321265254 0 0.00042600284068310883 -0.0021771724391053647 0 0.00057472902669254732 -0.0023700965757557659 0 0.00034937024735850168 -0.0022624637321265254 0 0.00029459560425851229 -0.0023564280716564128 0 0.00024146699825466737 -0.002282902147803109 0 8.1028297027176263e-05 -0.0041813577418574801 0 4.4425518044825891e-05 -0.0043730632183910266 0 0.00015373191271240565 -0.0023375064122048077 0 8.0587405639341011e-05 -0.0022588184580789542 0 0.00024146699825466737 -0.002282902147803109 0 0.00015689266599857958 -0.0021989811502624384 0 4.4425518044825891e-05 -0.0043730632183910266 0 0.00029203834781609493 -0.0023806987951655459 0 0.00024601720819250275 -0.0023392920273227849 0 0.00015373191271240565 -0.0023375064122048077 0 -0.00010090286234885011 -0.0024185117133860355 0 0.00029203834781609493 -0.0023806987951655459 0 0.00015373191271240565 -0.0023375064122048077 0 0.00029459560425851229 -0.0023564280716564128 0 0.00029203834781609493 -0.0023806987951655459 0 0.00024601720819250275 -0.0023392920273227849 0 0.00029459560425851229 -0.0023564280716564128 0 0.00024601720819250275 -0.0023392920273227849 0 0.00024146699825466737 -0.002282902147803109 0 0.00024601720819250275 -0.0023392920273227849 0 0.00015373191271240565 -0.0023375064122048077 0 0.00024146699825466737 -0.002282902147803109 0 -0.00010090286234885011 -0.0024185117133860355 0 0.00015373191271240565 -0.0023375064122048077 0 8.0587405639341011e-05 -0.0022588184580789542 0 0.00012839226644817091 -0.0021188109963528709 0 8.0587405639341011e-05 -0.0022588184580789542 0 0.00024146699825466737 -0.002282902147803109 0 -5.8440535948563297e-05 -0.0020963386003472048 0 0.00012839226644817091 -0.0021188109963528709 0 8.0587405639341011e-05 -0.0022588184580789542 0 0.00012839226644817091 -0.0021188109963528709 0 0.0002809267286042965 -0.0021740307032881729 0 0.00024146699825466737 -0.002282902147803109 0 -0.00062158754350023098 -0.0096684805852643753 0 -0.00069011182399510249 -0.0096037021184269787 0 -0.00058440857292617755 -0.0096412861338015451 0 6.0296841138032768e-05 -0.0070194353119419897 0 -5.0043309031539916e-05 -0.0070055184884174407 0 3.4645055169304615e-05 -0.0070684656019520788 0 -0.00038143136001964214 -0.0084283887873939801 0 0.00027376657055531615 -0.0062918645864788068 0 -0.00062158754350023098 -0.0096684805852643753 0 -0.00075510379504418546 -0.0096636935045818686 0 -0.00069011182399510249 -0.0096037021184269787 0 0.00027376657055531615 -0.0062918645864788068 0 -0.00013423466504657058 -0.0058577428687189874 0 -0.00075510379504418546 -0.0096636935045818686 0 -0.00069011182399510249 -0.0096037021184269787 0 -0.00080095247939509866 -0.0095085170167177827 0 -0.00069011182399510249 -0.0096037021184269787 0 -0.00080095247939509866 -0.0095085170167177827 0 -0.00066770106225575213 -0.0095290049815072112 0 -0.00069011182399510249 -0.0096037021184269787 0 -0.00058440857292617755 -0.0096412861338015451 0 -0.00066770106225575213 -0.0095290049815072112 0 -0.00058440857292617755 -0.0096412861338015451 0 -0.00066770106225575213 -0.0095290049815072112 0 -0.00057262429636414176 -0.0096151522224337017 0 -0.00066770106225575213 -0.0095290049815072112 0 -0.00061944194760132215 -0.0094079619279853373 0 -0.00057262429636414176 -0.0096151522224337017 0 -0.00066770106225575213 -0.0095290049815072112 0 -0.00061944194760132215 -0.0094079619279853373 0 -0.00072672413664658282 -0.0094026256444708512 0 -0.00080095247939509866 -0.0095085170167177827 0 -0.00066770106225575213 -0.0095290049815072112 0 -0.00072672413664658282 -0.0094026256444708512 0 -0.00084216471092173008 -0.0092824904510834406 0 -0.00080095247939509866 -0.0095085170167177827 0 -0.00072672413664658282 -0.0094026256444708512 0 -0.000589528165929506 -0.0045466068053769603 0 -0.00080206416597900236 -0.0062593333882745815 0 -0.00034065680723831824 -0.0030761630041840934 0 -0.00081058539839418695 -0.0031785830962077527 0 -0.00066160224570558236 -0.0034890399014430471 0 -0.00084216471092173008 -0.0092824904510834406 0 -0.00072672413664658282 -0.0094026256444708512 0 -0.00069788910025486868 -0.0092761358360927224 0 -0.00080206416597900236 -0.0062593333882745815 0 -0.0007948055663755929 -0.0069088757383527202 0 -0.00061944194760132215 -0.0094079619279853373 0 -0.00069788910025486868 -0.0092761358360927224 0 -0.00053444684363829523 -0.0092407143636991356 0 -0.00061944194760132215 -0.0094079619279853373 0 -0.00072672413664658282 -0.0094026256444708512 0 -0.00069788910025486868 -0.0092761358360927224 0 -0.00061944194760132215 -0.0094079619279853373 0 -0.00053444684363829523 -0.0092407143636991356 0 -0.00049153663038845269 -0.0094682541570210929 0 -0.00033855311995704913 -0.011206490069620276 0 -0.00072836258110349321 -0.01100351572372767 0 -0.00038712476027965193 -0.010658226243515269 0 -0.0007948055663755929 -0.0069088757383527202 0 -0.00030996903309727861 -0.01069315719175715 0 -0.00072836258110349321 -0.01100351572372767 0 -0.0010277257490905142 -0.010790564253238108 0 -0.0010550456811909581 -0.01126617661630433 0 -0.00033855311995704913 -0.011206490069620276 0 -0.00072836258110349321 -0.01100351572372767 0 -0.0010550456811909581 -0.01126617661630433 0 -0.00072836258110349321 -0.01100351572372767 0 -0.0010277257490905142 -0.010790564253238108 0 -0.00069744348706669184 -0.010459866072726282 0 -0.0010277257490905142 -0.010790564253238108 0 -0.00069744348706669184 -0.010459866072726282 0 -0.00075941558366514025 -0.0098944985867475271 0 -0.0010277257490905142 -0.010790564253238108 0 -0.00091093274634830752 -0.01071001050670683 0 -0.0010250362302329276 -0.010715794008163684 0 -0.00072836258110349321 -0.01100351572372767 0 -0.00069744348706669184 -0.010459866072726282 0 -0.00038712476027965193 -0.010658226243515269 0 -0.00097992017783971475 -0.010661370352565525 0 -0.00088889079998865695 -0.010479851032663265 0 -0.00030996903309727861 -0.01069315719175715 0 -0.00061430311450916611 -0.0095452483960677403 0 -0.00069744348706669184 -0.010459866072726282 0 -0.00038712476027965193 -0.010658226243515269 0 -0.00057081596378412024 -0.0097745257143899509 0 -0.00049153663038845269 -0.0094682541570210929 0 -0.00057262429636414176 -0.0096151522224337017 0 -0.00057081596378412024 -0.0097745257143899509 0 -0.00061944194760132215 -0.0094079619279853373 0 -0.00049153663038845269 -0.0094682541570210929 0 -0.00057262429636414176 -0.0096151522224337017 0 -0.0013460002644846388 -0.010977259753149397 0 -0.0010550456811909581 -0.01126617661630433 0 -0.0014495819534504587 -0.011280497551850569 0 -0.0013460002644846388 -0.010977259753149397 0 -0.0014495819534504587 -0.011280497551850569 0 -0.0015642791447803637 -0.011099529307608371 0 -0.0010277257490905142 -0.010790564253238108 0 -0.0013460002644846388 -0.010977259753149397 0 -0.0010550456811909581 -0.01126617661630433 0 -0.0010277257490905142 -0.010790564253238108 0 -0.0013460002644846388 -0.010977259753149397 0 -0.0011623862308931096 -0.010732381519301474 0 -0.0010277257490905142 -0.010790564253238108 0 -0.0011623862308931096 -0.010732381519301474 0 -0.0010250362302329276 -0.010715794008163684 0 -0.0013460002644846388 -0.010977259753149397 0 -0.0013953884163156432 -0.010790127348590309 0 -0.0015465958676339679 -0.010950223598579485 0 -0.0013460002644846388 -0.010977259753149397 0 -0.0013953884163156432 -0.010790127348590309 0 -0.0011623862308931096 -0.010732381519301474 0 -0.0013953884163156432 -0.010790127348590309 0 -0.0013863694621758205 -0.010497515945584849 0 -0.0015602953385850055 -0.010607900344418371 0 -0.0013953884163156432 -0.010790127348590309 0 -0.0011623862308931096 -0.010732381519301474 0 -0.0013863694621758205 -0.010497515945584849 0 -0.0011623862308931096 -0.010732381519301474 0 -0.0011143493036009755 -0.010487178574628594 0 -0.00099436501965359612 -0.010613809228029476 0 -0.0011623862308931096 -0.010732381519301474 0 -0.0011143493036009755 -0.010487178574628594 0 -0.0013863694621758205 -0.010497515945584849 0 -0.0011623862308931096 -0.010732381519301474 0 -0.0010250362302329276 -0.010715794008163684 0 -0.00099436501965359612 -0.010613809228029476 0 -0.0011143493036009755 -0.010487178574628594 0 -0.0013863694621758205 -0.010497515945584849 0 -0.0013418529224532448 -0.010159530487092856 0 -0.0011143493036009755 -0.010487178574628594 0 -0.0009223464287035709 -0.010257357237344557 0 -0.0013418529224532448 -0.010159530487092856 0 -0.0013863694621758205 -0.010497515945584849 0 -0.0015722926775361484 -0.010268762210536003 0 -0.0015602953385850055 -0.010607900344418371 0 -0.00058440857292617755 -0.0096412861338015451 0 -0.00057081596378412024 -0.0097745257143899509 0 -0.00054195719258768519 -0.0096158078188818136 0 -0.00058440857292617755 -0.0096412861338015451 0 -0.00057262429636414176 -0.0096151522224337017 0 -0.00057081596378412024 -0.0097745257143899509 0 -0.00057081596378412024 -0.0097745257143899509 0 -0.00075941558366514025 -0.0098944985867475271 0 -0.00054195719258768519 -0.0096158078188818136 0 -0.00091093274634830752 -0.01071001050670683 0 -0.00084789911538587592 -0.01058936017037662 0 -0.00061751936974804064 -0.010433764915093952 0 -0.00069744348706669184 -0.010459866072726282 0 -0.00057081596378412024 -0.0097745257143899509 0 -0.00075941558366514025 -0.0098944985867475271 0 -0.00088889079998865695 -0.010479851032663265 0 -0.00048003118729290076 -0.0090220657315889519 0 -0.00091093274634830752 -0.01071001050670683 0 -0.0010250362302329276 -0.010715794008163684 0 -0.00099436501965359612 -0.010613809228029476 0 -0.00099436501965359612 -0.010613809228029476 0 -0.00084789911538587592 -0.01058936017037662 0 -0.00088707127396602436 -0.01046796872224918 0 -0.00091093274634830752 -0.01071001050670683 0 -0.00099436501965359612 -0.010613809228029476 0 -0.00084789911538587592 -0.01058936017037662 0 -0.00084789911538587592 -0.01058936017037662 0 -0.00076064545972416716 -0.010498808441821094 0 -0.00061751936974804064 -0.010433764915093952 0 -0.00076064545972416716 -0.010498808441821094 0 -0.00088707127396602436 -0.01046796872224918 0 -0.00061751936974804064 -0.010433764915093952 0 -0.00084789911538587592 -0.01058936017037662 0 -0.00076064545972416716 -0.010498808441821094 0 -0.00088707127396602436 -0.01046796872224918 0 -0.0011143493036009755 -0.010487178574628594 0 -0.00099436501965359612 -0.010613809228029476 0 -0.00088707127396602436 -0.01046796872224918 0 -0.0011143493036009755 -0.010487178574628594 0 -0.00088707127396602436 -0.01046796872224918 0 -0.0009223464287035709 -0.010257357237344557 0 -0.0009223464287035709 -0.010257357237344557 0 -0.00061751936974804064 -0.010433764915093952 0 -0.0006320153861603668 -0.010018743861734951 0 -0.00088707127396602436 -0.01046796872224918 0 -0.0009223464287035709 -0.010257357237344557 0 -0.00061751936974804064 -0.010433764915093952 0 -0.00038143136001964214 -0.0084283887873939801 0 -0.00048003118729290076 -0.0090220657315889519 0 -0.00062158754350023098 -0.0096684805852643753 0 -0.00058440857292617755 -0.0096412861338015451 0 -0.00054195719258768519 -0.0096158078188818136 0 6.0296841138032768e-05 -0.0070194353119419897 0 0.0001293188951331486 -0.0070375759307367731 0 0.00011619765670904364 -0.0070961953410658774 0 -0.00061751936974804064 -0.010433764915093952 0 -0.00018409809669307783 -0.0097607602726185582 0 -0.0006320153861603668 -0.010018743861734951 0 -0.00048003118729290076 -0.0090220657315889519 0 4.5138657640056963e-06 -0.0083563336066772662 0 -0.00018409809669307783 -0.0097607602726185582 0 -0.0006320153861603668 -0.010018743861734951 0 -0.00060505428358822967 -0.0092457351811818887 0 -0.0006320153861603668 -0.010018743861734951 0 -0.0010398755122899154 -0.0098577099130928176 0 -0.00060505428358822967 -0.0092457351811818887 0 -0.0009223464287035709 -0.010257357237344557 0 -0.0006320153861603668 -0.010018743861734951 0 -0.0010398755122899154 -0.0098577099130928176 0 -0.0010398755122899154 -0.0098577099130928176 0 -0.00060505428358822967 -0.0092457351811818887 0 -0.0014922699094865447 -0.0094759532446695022 0 -0.00018409809669307783 -0.0097607602726185582 0 -0.00060505428358822967 -0.0092457351811818887 0 0.00016178239099712372 -0.0088407496339429348 0 -0.0013418529224532448 -0.010159530487092856 0 -0.0018067073201923571 -0.0095777890604702848 0 -0.0019637179143613655 -0.0098918996871760912 0 -0.0013863694621758205 -0.010497515945584849 0 -0.0013418529224532448 -0.010159530487092856 0 -0.0015722926775361484 -0.010268762210536003 0 -0.0013648985414631053 -0.010156953777140855 0 -0.0017251039847797217 -0.010097096360174499 0 -0.0009223464287035709 -0.010257357237344557 0 -0.0010398755122899154 -0.0098577099130928176 0 -0.0013418529224532448 -0.010159530487092856 0 -0.0010398755122899154 -0.0098577099130928176 0 -0.0013418529224532448 -0.010159530487092856 0 -0.0014922699094865447 -0.0094759532446695022 0 -0.0013418529224532448 -0.010159530487092856 0 -0.0014922699094865447 -0.0094759532446695022 0 -0.0018067073201923571 -0.0095777890604702848 0 -0.0018067073201923571 -0.0095777890604702848 0 -0.0017430988897314938 -0.0093048781133897099 0 -0.0020037318415703376 -0.0094765304569925241 0 -0.0014922699094865447 -0.0094759532446695022 0 -0.0018067073201923571 -0.0095777890604702848 0 -0.0017430988897314938 -0.0093048781133897099 0 -0.0014922699094865447 -0.0094759532446695022 0 -0.0017430988897314938 -0.0093048781133897099 0 -0.0013825974623989849 -0.00936515002994193 0 -0.0014796998696371753 -0.0094236640665309891 0 -0.0011269868024157835 -0.0089245455673546744 0 -0.0017485545614009004 -0.0089492605128483477 0 -0.0017430988897314938 -0.0093048781133897099 0 -0.0013825974623989849 -0.00936515002994193 0 -0.0017485545614009004 -0.0089492605128483477 0 -0.0017430988897314938 -0.0093048781133897099 0 -0.0019402994073029959 -0.009049354898287296 0 -0.00060505428358822967 -0.0092457351811818887 0 -0.00015987525344711602 -0.0082435603119710987 0 0.00016178239099712372 -0.0088407496339429348 0 -0.00060505428358822967 -0.0092457351811818887 0 -0.00091724424355896174 -0.0084477284549784384 0 -0.00015987525344711602 -0.0082435603119710987 0 -0.00060505428358822967 -0.0092457351811818887 0 -0.0014922699094865447 -0.0094759532446695022 0 -0.00091724424355896174 -0.0084477284549784384 0 -0.00083516997375844549 -0.0090596909990633412 0 -0.001386895100351321 -0.0088987789504081736 0 -0.0013825974623989849 -0.00936515002994193 0 -0.00053241241619415142 -0.0084624558902211735 0 -0.0011269868024157835 -0.0089245455673546744 0 -0.00023234756756422556 -0.0078714934026555255 0 2.2296803330389004e-05 -0.0079121807194675892 0 -0.00015987525344711602 -0.0082435603119710987 0 -0.00023234756756422556 -0.0078714934026555255 0 -0.00091724424355896174 -0.0084477284549784384 0 -0.00015987525344711602 -0.0082435603119710987 0 2.2296803330389004e-05 -0.0079121807194675892 0 -0.00015987525344711602 -0.0082435603119710987 0 0.00012592550335393236 -0.0077824777522103403 0 0.00011890538090580333 -0.0080645339941345165 0 0.00013341036222818691 -0.0078390993108206353 0 -0.00015987525344711602 -0.0082435603119710987 0 0.00016178239099712372 -0.0088407496339429348 0 0.00012592550335393236 -0.0077824777522103403 0 0.0001477836520101421 -0.0072176180455472009 0 -0.00012707153223837363 -0.0073488769518837036 0 -8.2014868744656526e-05 -0.0071951410122623807 0 0.0001477836520101421 -0.0072176180455472009 0 -0.00012707153223837363 -0.0073488769518837036 0 0.00012592550335393236 -0.0077824777522103403 0 -4.6520994804281752e-05 -0.007984570674502596 0 -0.00012707153223837363 -0.0073488769518837036 0 0.00012592550335393236 -0.0077824777522103403 0 -0.00060738899901932087 -0.006724147474361405 0 -0.00034172112914482007 -0.007056886951585792 0 -0.00059569227549760226 -0.0056475333982222509 0 -0.00017939269305423941 -0.0058961281271757903 0 -0.0003381425384138287 -0.007045814225567478 0 -0.00059569227549760226 -0.0056475333982222509 0 -0.001235998813913708 -0.0054364229653536865 0 -0.0003381425384138287 -0.007045814225567478 0 -4.6520994804281752e-05 -0.007984570674502596 0 -0.00012707153223837363 -0.0073488769518837036 0 -0.0003381425384138287 -0.007045814225567478 0 -0.00017939269305423941 -0.0058961281271757903 0 0.00019279169905523594 -0.0069001989030862557 0 -0.0003381425384138287 -0.007045814225567478 0 0.00035030870271047783 -0.004959287152880556 0 -0.00017939269305423941 -0.0058961281271757903 0 0.00019279169905523594 -0.0069001989030862557 0 0.00036064757542639942 -0.0050443487959561948 0 0.0003107775837165029 -0.0055062388281117685 0 0.0003107775837165029 -0.0055062388281117685 0 0.00017120853592997784 -0.0057702809840412747 0 0.00019279169905523594 -0.0069001989030862557 0 -0.00025757774184965076 -0.0071767662514696327 0 -0.00018023832997417848 -0.0072230026350737766 0 0.00033057265612680009 -0.0041122756484706889 0 0.00046700630159983377 -0.0042610602197393124 0 0.00049689331326172807 -0.0039472482668564722 0 0.00019279169905523594 -0.0069001989030862557 0 -0.0003381425384138287 -0.007045814225567478 0 -0.00025757774184965076 -0.0071767662514696327 0 -0.00012707153223837363 -0.0073488769518837036 0 -0.0003381425384138287 -0.007045814225567478 0 -0.00025757774184965076 -0.0071767662514696327 0 -0.00012707153223837363 -0.0073488769518837036 0 -0.00025757774184965076 -0.0071767662514696327 0 -8.2014868744656526e-05 -0.0071951410122623807 0 -0.00014127233591533042 -0.0071469844557594114 0 -0.00018023832997417848 -0.0072230026350737766 0 -0.00014049024903824476 -0.0070939553599631061 0 -0.00025757774184965076 -0.0071767662514696327 0 -0.00014127233591533042 -0.0071469844557594114 0 -8.2014868744656526e-05 -0.0071951410122623807 0 -0.00025757774184965076 -0.0071767662514696327 0 -0.00014127233591533042 -0.0071469844557594114 0 -0.00018023832997417848 -0.0072230026350737766 0 0.0002228299801577042 -0.0039295467240579455 0 0.00049689331326172807 -0.0039472482668564722 0 0.00038491004693487707 -0.0037851376292520936 0 4.4425518044825891e-05 -0.0043730632183910266 0 0.00017120853592997784 -0.0057702809840412747 0 0.00026490548950526836 -0.0036433573805531457 0 0.00055537259776915855 -0.0036220055262872987 0 0.00038491004693487707 -0.0037851376292520936 0 0.00055537259776915855 -0.0036220055262872987 0 0.00049689331326172807 -0.0039472482668564722 0 0.00038491004693487707 -0.0037851376292520936 0 -0.00020330327953311966 -0.0069675478354018858 0 -0.00018023832997417848 -0.0072230026350737766 0 -0.00014049024903824476 -0.0070939553599631061 0 -0.00014127233591533042 -0.0071469844557594114 0 -0.00014049024903824476 -0.0070939553599631061 0 -5.7902088279432398e-05 -0.0070764152981734009 0 -0.00020330327953311966 -0.0069675478354018858 0 -0.00014049024903824476 -0.0070939553599631061 0 -0.00012182755204423286 -0.007016663008531379 0 -0.00014049024903824476 -0.0070939553599631061 0 -0.00012182755204423286 -0.007016663008531379 0 -5.7902088279432398e-05 -0.0070764152981734009 0 0.00027376657055531615 -0.0062918645864788068 0 5.8669458742322783e-06 -0.0072391029563055346 0 -5.3497586107284233e-05 -0.006956172427510364 0 -0.00012182755204423286 -0.007016663008531379 0 -5.7902088279432398e-05 -0.0070764152981734009 0 -5.7902088279432398e-05 -0.0070764152981734009 0 3.4645055169304615e-05 -0.0070684656019520788 0 2.0863726993963896e-05 -0.0071283415740895969 0 -5.0043309031539916e-05 -0.0070055184884174407 0 -5.7902088279432398e-05 -0.0070764152981734009 0 3.4645055169304615e-05 -0.0070684656019520788 0 0.00011619765670904364 -0.0070961953410658774 0 3.4645055169304615e-05 -0.0070684656019520788 0 2.0863726993963896e-05 -0.0071283415740895969 0 6.0296841138032768e-05 -0.0070194353119419897 0 0.00011619765670904364 -0.0070961953410658774 0 3.4645055169304615e-05 -0.0070684656019520788 0 0.00011619765670904364 -0.0070961953410658774 0 0.0001477836520101421 -0.0072176180455472009 0 2.0863726993963896e-05 -0.0071283415740895969 0 4.5138657640056963e-06 -0.0083563336066772662 0 0.00011890538090580333 -0.0080645339941345165 0 -0.00014127233591533042 -0.0071469844557594114 0 -8.2014868744656526e-05 -0.0071951410122623807 0 2.0863726993963896e-05 -0.0071283415740895969 0 -0.00014127233591533042 -0.0071469844557594114 0 -5.7902088279432398e-05 -0.0070764152981734009 0 2.0863726993963896e-05 -0.0071283415740895969 0 0.0001477836520101421 -0.0072176180455472009 0 -8.2014868744656526e-05 -0.0071951410122623807 0 2.0863726993963896e-05 -0.0071283415740895969 0 -0.00013747183392810491 0.044929962973573233 0 -0.00022545318922773683 0.045085805873859082 0 -7.0234702705681274e-05 0.045031650772506003 0 -1.8933631652149873e-07 0.045000235406585515 0 -0.00013747183392810491 0.044929962973573233 0 -7.0234702705681274e-05 0.045031650772506003 0 -1.8933631652149873e-07 0.045000235406585515 0 -0.00013747183392810491 0.044929962973573233 0 4.8186543938401116e-07 0.044998935622677309 0 -0.00013747183392810491 0.044929962973573233 0 -0.00011909963485690918 0.04472562782885954 0 4.8186543938401116e-07 0.044998935622677309 0 -0.00013747183392810491 0.044929962973573233 0 -0.00056115763981326602 0.044950398353027506 0 -0.00042799551849119483 0.044524904087466323 0 -0.00056115763981326602 0.044950398353027506 0 -0.00096096527176275101 0.044583850943619135 0 -0.00042799551849119483 0.044524904087466323 0 -0.00016493912153930595 0.045121582388577504 0 -0.00018242653606165941 0.037117770475078554 0 -0.00021685973309182362 0.04314787299900337 0 -0.00077149533234334639 0.04335382854405033 0 -0.00071305972143082485 0.042415570469912386 0 -0.00021685973309182362 0.04314787299900337 0 -0.00035605124553903656 0.043869657635482284 0 -0.00077149533234334639 0.04335382854405033 0 -0.00016493912153930595 0.045121582388577504 0 -0.00019019697297513029 0.044227718799993897 0 -0.00013747183392810491 0.044929962973573233 0 -0.00056115763981326602 0.044950398353027506 0 -0.00022545318922773683 0.045085805873859082 0 7.3343448758633653e-05 0.043806582139453473 0 -0.00035605124553903656 0.043869657635482284 0 -0.00011433417871115084 0.044209673084005779 0 -0.00021685973309182362 0.04314787299900337 0 7.3343448758633653e-05 0.043806582139453473 0 -0.00035605124553903656 0.043869657635482284 0 -0.00035605124553903656 0.043869657635482284 0 -0.00011433417871115084 0.044209673084005779 0 -0.00036939418636463287 0.044282749378822032 0 -0.00035605124553903656 0.043869657635482284 0 -0.00036939418636463287 0.044282749378822032 0 -0.00072801822641120042 0.044035088544634726 0 -0.00011433417871115084 0.044209673084005779 0 0.00014385553370684434 0.044423743884269978 0 -0.00011102282431108557 0.044531631088184712 0 -0.00019019697297513029 0.044227718799993897 0 4.2091542469460249e-05 0.044751217277816238 0 7.3343448758633653e-05 0.043806582139453473 0 -0.00011433417871115084 0.044209673084005779 0 0.00014385553370684434 0.044423743884269978 0 -0.00022545318922773683 0.045085805873859082 0 -4.7650642532943639e-05 0.045040289441338609 0 -7.0234702705681274e-05 0.045031650772506003 0 -1.8933631652149873e-07 0.045000235406585515 0 -7.0234702705681274e-05 0.045031650772506003 0 -2.6558965421580611e-08 0.045000037419308601 0 -4.7650642532943639e-05 0.045040289441338609 0 -7.0234702705681274e-05 0.045031650772506003 0 -2.6558965421580611e-08 0.045000037419308601 0 -4.7650642532943639e-05 0.045040289441338609 0 -2.6558965421580611e-08 0.045000037419308601 0 -1.7239384692694353e-09 0.045000041357407955 0 4.2091542469460249e-05 0.044751217277816238 0 -4.9720993176033795e-08 0.044999799266368122 0 0.00014385553370684434 0.044423743884269978 0 4.8527153151704077e-07 0.04499900512651115 0 7.8788413159808793e-06 0.044819168723265267 0 0.00014385553370684434 0.044423743884269978 0 7.8788413159808793e-06 0.044819168723265267 0 -0.00011102282431108557 0.044531631088184712 0 4.8527153151704077e-07 0.04499900512651115 0 7.8788413159808793e-06 0.044819168723265267 0 -1.1691125152136836e-07 0.04500000655300207 0 7.8788413159808793e-06 0.044819168723265267 0 -1.1691125152136836e-07 0.04500000655300207 0 -1.4789205826296958e-05 0.044879226909459821 0 -1.4789205826296958e-05 0.044879226909459821 0 -3.6920989042649651e-05 0.044858459343776177 0 -8.1758768439484108e-05 0.044741188824503876 0 7.8788413159808793e-06 0.044819168723265267 0 -1.4789205826296958e-05 0.044879226909459821 0 -8.1758768439484108e-05 0.044741188824503876 0 2.9497567376058827e-08 0.044999827794520185 0 -1.4789205826296958e-05 0.044879226909459821 0 -3.6920989042649651e-05 0.044858459343776177 0 2.9497567376058827e-08 0.044999827794520185 0 -1.1691125152136836e-07 0.04500000655300207 0 -1.4789205826296958e-05 0.044879226909459821 0 -0.00011220040347249672 0.044723169538574498 0 -3.6920989042649651e-05 0.044858459343776177 0 -0.00017422143920998824 0.044648233595146324 0 -3.6920989042649651e-05 0.044858459343776177 0 -8.1758768439484108e-05 0.044741188824503876 0 -0.00017422143920998824 0.044648233595146324 0 -8.1758768439484108e-05 0.044741188824503876 0 -0.00017422143920998824 0.044648233595146324 0 -0.00022808345367251461 0.044532209724389496 0 -0.00017422143920998824 0.044648233595146324 0 -0.00022808345367251461 0.044532209724389496 0 -0.00036813737848423271 0.044405886874938426 0 7.8788413159808793e-06 0.044819168723265267 0 -8.1758768439484108e-05 0.044741188824503876 0 -0.00011102282431108557 0.044531631088184712 0 -8.1758768439484108e-05 0.044741188824503876 0 -0.00022808345367251461 0.044532209724389496 0 -0.00011102282431108557 0.044531631088184712 0 -0.00011433417871115084 0.044209673084005779 0 -0.00011102282431108557 0.044531631088184712 0 -0.00036939418636463287 0.044282749378822032 0 -0.00022808345367251461 0.044532209724389496 0 -0.00011102282431108557 0.044531631088184712 0 -0.00036939418636463287 0.044282749378822032 0 0.0017549505355062948 0.030966810937667781 0 -0.00025973307463340325 0.033384011188490062 0 -0.00022808345367251461 0.044532209724389496 0 -0.00036939418636463287 0.044282749378822032 0 -0.00036813737848423271 0.044405886874938426 0 -0.00036939418636463287 0.044282749378822032 0 -0.00036813737848423271 0.044405886874938426 0 -0.0004691719014575128 0.044099944459806098 0 0.0026728692228239173 0.0181287760605519 0 0.0033360416149326318 0.01867996510377043 0 0.0033390788129340977 0.01776799420075317 0 0.0026728692228239173 0.0181287760605519 0 0.0033360416149326318 0.01867996510377043 0 0.0028088553769010263 0.019039975548977781 0 -0.00017422143920998824 0.044648233595146324 0 -0.00036813737848423271 0.044405886874938426 0 -0.00021568646481866764 0.044575860542592646 0 0.0017549505355062948 0.030966810937667781 0 0.0015863877047329691 0.032327945575061481 0 0.0028088553769010263 0.019039975548977781 0 0.0034792171072457138 0.019788489937798782 0 0.0024307097213272016 0.019985764890131281 0 0.0033360416149326318 0.01867996510377043 0 0.0028088553769010263 0.019039975548977781 0 0.0034792171072457138 0.019788489937798782 0 0.0036173506979754345 0.021400320199705055 0 0.0034792171072457138 0.019788489937798782 0 0.0024307097213272016 0.019985764890131281 0 -0.00011220040347249672 0.044723169538574498 0 -0.00017422143920998824 0.044648233595146324 0 -0.00021568646481866764 0.044575860542592646 0 0.0028088553769010263 0.019039975548977781 0 0.0024307097213272016 0.019985764890131281 0 0.0019374478039524436 0.018713722240018698 0 0.0024307097213272016 0.019985764890131281 0 0.0019374478039524436 0.018713722240018698 0 0.0011572068473292921 0.019563434825515237 0 0.0019374478039524436 0.018713722240018698 0 0.0018789777752702477 0.017537882943240331 0 0.0012441440794325877 0.018293643059919425 0 0.0026728692228239173 0.0181287760605519 0 0.0019374478039524436 0.018713722240018698 0 0.0018789777752702477 0.017537882943240331 0 0.0026728692228239173 0.0181287760605519 0 0.0028088553769010263 0.019039975548977781 0 0.0019374478039524436 0.018713722240018698 0 0.0018789777752702477 0.017537882943240331 0 0.0026855650393100487 0.017185591548051701 0 0.0020571648789075568 0.016722572990676952 0 0.0018789777752702477 0.017537882943240331 0 0.0020571648789075568 0.016722572990676952 0 0.0014930261920824417 0.016965220948330979 0 0.0026728692228239173 0.0181287760605519 0 0.0018789777752702477 0.017537882943240331 0 0.0026855650393100487 0.017185591548051701 0 0.0026728692228239173 0.0181287760605519 0 0.0033390788129340977 0.01776799420075317 0 0.0026855650393100487 0.017185591548051701 0 0.0014833687300912046 0.045077545955071373 0 -0.00025973307463340325 0.033384011188490062 0 -0.00025973307463340325 0.033384011188490062 0 -0.00057124801369506082 0.037359565124798599 0 -0.00021621208041639313 0.030425232521510678 0 -0.00041518118608314882 0.030201724343575948 0 -0.00019605946595341691 0.030133188492991157 0 -0.00035605124553903656 0.043869657635482284 0 -0.00072801822641120042 0.044035088544634726 0 -0.00077149533234334639 0.04335382854405033 0 -0.00025973307463340325 0.033384011188490062 0 0.00092785127860420204 0.022417532423834395 0 -0.00041518118608314882 0.030201724343575948 0 -0.00040820705672327625 0.029997481357402218 0 -0.00019605946595341691 0.030133188492991157 0 -0.00019605946595341691 0.030133188492991157 0 -0.00031844495940556018 0.029872167974439433 0 -0.00018489263626109839 0.029876345015876566 0 -0.00057124801369506082 0.037359565124798599 0 -0.00018242653606165941 0.037117770475078554 0 -0.00040820705672327625 0.029997481357402218 0 -0.00019605946595341691 0.030133188492991157 0 -0.00031844495940556018 0.029872167974439433 0 -0.00040820705672327625 0.029997481357402218 0 -0.00031844495940556018 0.029872167974439433 0 -0.00044832252029629831 0.029811326860918082 0 -0.00040820705672327625 0.029997481357402218 0 -0.00044832252029629831 0.029811326860918082 0 -0.00057753112018664216 0.029840401701541813 0 -0.00040820705672327625 0.029997481357402218 0 -0.00057753112018664216 0.029840401701541813 0 -0.00058541221920219903 0.029998650472331786 0 -0.00057753112018664216 0.029840401701541813 0 -0.00079147043565835288 0.029834930599325429 0 -0.00067176431584698945 0.029595511518643942 0 -0.00057753112018664216 0.029840401701541813 0 -0.00058541221920219903 0.029998650472331786 0 -0.00079147043565835288 0.029834930599325429 0 0.00084155934228977711 0.023566870599517502 0 0.00035748040838585397 0.023143322103513039 0 0.0020571648789075568 0.016722572990676952 0 0.0015350907001429812 0.016441257054218259 0 0.0014930261920824417 0.016965220948330979 0 0.00092785127860420204 0.022417532423834395 0 0.00084155934228977711 0.023566870599517502 0 -0.00041518118608314882 0.030201724343575948 0 -0.00040820705672327625 0.029997481357402218 0 -0.00058541221920219903 0.029998650472331786 0 0.0012554393437497764 0.016544735345518553 0 0.00092154064061201156 0.016572730025326474 0 0.00098280485829794562 0.016906375486569005 0 0.0012554393437497764 0.016544735345518553 0 0.0015350907001429812 0.016441257054218259 0 0.0014930261920824417 0.016965220948330979 0 0.0012554393437497764 0.016544735345518553 0 0.0015350907001429812 0.016441257054218259 0 0.0013185033293721792 0.016510247226965428 0 0.0015350907001429812 0.016441257054218259 0 0.0013185033293721792 0.016510247226965428 0 0.0012938017197908407 0.016565182470612363 0 0.0012554393437497764 0.016544735345518553 0 0.0013185033293721792 0.016510247226965428 0 0.0013594731076053039 0.016514427639412219 0 0.0012815978596776398 0.016550656204687136 0 0.0010700607870640668 0.016127059259417893 0 0.0012554393437497764 0.016544735345518553 0 0.0008721382694474271 0.015945297763315578 0 0.0007096436172850559 0.016267138599156784 0 0.0008721382694474271 0.015945297763315578 0 0.0007096436172850559 0.016267138599156784 0 0.00048718685641364754 0.015984437677188306 0 0.00048718685641364754 0.015984437677188306 0 0.00033724148125648682 0.016198704314896284 0 5.6872712932716281e-05 0.015992925852758553 0 0.0007096436172850559 0.016267138599156784 0 0.00048718685641364754 0.015984437677188306 0 0.00033724148125648682 0.016198704314896284 0 0.00033724148125648682 0.016198704314896284 0 0.00057923884751252721 0.01651951577574497 0 0.00022499292302860445 0.016463697874866075 0 0.0007096436172850559 0.016267138599156784 0 0.00033724148125648682 0.016198704314896284 0 0.00057923884751252721 0.01651951577574497 0 0.00057923884751252721 0.01651951577574497 0 0.00092154064061201156 0.016572730025326474 0 0.00098280485829794562 0.016906375486569005 0 0.0012554393437497764 0.016544735345518553 0 0.0007096436172850559 0.016267138599156784 0 0.00092154064061201156 0.016572730025326474 0 0.0007096436172850559 0.016267138599156784 0 0.00057923884751252721 0.01651951577574497 0 0.00092154064061201156 0.016572730025326474 0 0.00057923884751252721 0.01651951577574497 0 0.00098280485829794562 0.016906375486569005 0 0.00049075787539361977 0.016907102876838744 0 0.00057923884751252721 0.01651951577574497 0 0.00049075787539361977 0.016907102876838744 0 0.00022499292302860445 0.016463697874866075 0 0.00049075787539361977 0.016907102876838744 0 0.00074391282206964619 0.017386856802143219 0 7.4787667425076456e-05 0.017442224364983959 0 0.00098280485829794562 0.016906375486569005 0 0.00049075787539361977 0.016907102876838744 0 0.00074391282206964619 0.017386856802143219 0 0.00098280485829794562 0.016906375486569005 0 0.00074391282206964619 0.017386856802143219 0 0.0013024877712843387 0.017414209513719716 0 0.00064727080562474967 0.01752924626239 0 0.0012292534772654949 0.017547605921039117 0 0.0012554393437497764 0.016544735345518553 0 0.00098280485829794562 0.016906375486569005 0 0.0014930261920824417 0.016965220948330979 0 0.00098280485829794562 0.016906375486569005 0 0.0013024877712843387 0.017414209513719716 0 0.0014930261920824417 0.016965220948330979 0 0.0018789777752702477 0.017537882943240331 0 0.0013024877712843387 0.017414209513719716 0 0.0014930261920824417 0.016965220948330979 0 0.0018468766726337899 0.017523677093842966 0 0.0012292534772654949 0.017547605921039117 0 0.0018789777752702477 0.017537882943240331 0 0.0011090799621787692 0.017680192619515544 0 0.0012441440794325877 0.018293643059919425 0 0.0005901893710129109 0.017693163643418768 0 0.0011090799621787692 0.017680192619515544 0 0.00087080000129745175 0.01811284328690279 0 0.0011090799621787692 0.017680192619515544 0 0.00087080000129745175 0.01811284328690279 0 0.0012441440794325877 0.018293643059919425 0 0.0012441440794325877 0.018293643059919425 0 0.0011620991805123889 0.018915030130030572 0 0.00085227425661852881 0.018685589440992374 0 0.00087080000129745175 0.01811284328690279 0 0.0012441440794325877 0.018293643059919425 0 0.00085227425661852881 0.018685589440992374 0 0.0019374478039524436 0.018713722240018698 0 0.0012441440794325877 0.018293643059919425 0 0.0011620991805123889 0.018915030130030572 0 0.0019374478039524436 0.018713722240018698 0 0.0011620991805123889 0.018915030130030572 0 0.0011572068473292921 0.019563434825515237 0 0.00085227425661852881 0.018685589440992374 0 0.00092694077362366351 0.019163051647265842 0 0.0007335008329355261 0.019019139542365129 0 0.0011620991805123889 0.018915030130030572 0 0.00085227425661852881 0.018685589440992374 0 0.00092694077362366351 0.019163051647265842 0 0.00092694077362366351 0.019163051647265842 0 0.00080995867337983079 0.019189525414612243 0 0.0007335008329355261 0.019019139542365129 0 0.00096886854252880184 0.019272596373689926 0 0.00092694077362366351 0.019163051647265842 0 0.00080995867337983079 0.019189525414612243 0 0.0011620991805123889 0.018915030130030572 0 0.00092694077362366351 0.019163051647265842 0 0.0011572068473292921 0.019563434825515237 0 0.00096886854252880184 0.019272596373689926 0 0.00092694077362366351 0.019163051647265842 0 0.0011572068473292921 0.019563434825515237 0 -0.00063071253077768121 0.017854918898005629 0 -0.00022729820797141417 0.017799642471041655 0 -0.00072541586023692052 0.017423415100622015 0 0.0001774335662294153 0.018518696125489915 0 -0.00030678291549598909 0.018106797632981769 0 0.00058922526721903561 0.019203407866464559 0 0.00055393888456547514 0.018738140473426208 0 9.5560514034713327e-05 0.018800770701771934 0 0.00080995867337983079 0.019189525414612243 0 0.00058922526721903561 0.019203407866464559 0 0.0007335008329355261 0.019019139542365129 0 0.00058922526721903561 0.019203407866464559 0 0.0007335008329355261 0.019019139542365129 0 0.00055393888456547514 0.018738140473426208 0 0.00085227425661852881 0.018685589440992374 0 0.00055393888456547514 0.018738140473426208 0 0.00060937823550951721 0.018252115407488299 0 0.00085227425661852881 0.018685589440992374 0 0.0007335008329355261 0.019019139542365129 0 0.00055393888456547514 0.018738140473426208 0 0.00055393888456547514 0.018738140473426208 0 0.00021455274404343606 0.018097133827717295 0 9.5560514034713327e-05 0.018800770701771934 0 0.00055393888456547514 0.018738140473426208 0 0.00021455274404343606 0.018097133827717295 0 0.00060937823550951721 0.018252115407488299 0 0.00087080000129745175 0.01811284328690279 0 0.00085227425661852881 0.018685589440992374 0 0.00060937823550951721 0.018252115407488299 0 0.0005901893710129109 0.017693163643418768 0 0.00087080000129745175 0.01811284328690279 0 0.00060937823550951721 0.018252115407488299 0 0.0005901893710129109 0.017693163643418768 0 0.00021455274404343606 0.018097133827717295 0 0.00060937823550951721 0.018252115407488299 0 0.0005901893710129109 0.017693163643418768 0 0.00021455274404343606 0.018097133827717295 0 7.4787667425076456e-05 0.017442224364983959 0 0.00064727080562474967 0.01752924626239 0 9.951013082671223e-05 0.017477148426320359 0 0.00021455274404343606 0.018097133827717295 0 7.4787667425076456e-05 0.017442224364983959 0 -0.00034940226473028323 0.01761825144751061 0 7.4787667425076456e-05 0.017442224364983959 0 -0.00034940226473028323 0.01761825144751061 0 -0.0002743619972057193 0.017044055916288749 0 -0.00034940226473028323 0.01761825144751061 0 -0.001101519835346391 0.017637404803162324 0 -0.00073418765121789479 0.016915420704434921 0 -0.00034940226473028323 0.01761825144751061 0 -0.00073418765121789479 0.016915420704434921 0 -0.0002743619972057193 0.017044055916288749 0 -0.00069845300805450978 0.017806454288798484 0 -0.00096475359890360417 0.017073463846429209 0 -0.00034940226473028323 0.01761825144751061 0 -0.00040471233202957668 0.01827665840428817 0 -0.001101519835346391 0.017637404803162324 0 0.00021455274404343606 0.018097133827717295 0 -0.00034940226473028323 0.01761825144751061 0 -0.00040471233202957668 0.01827665840428817 0 0.00021455274404343606 0.018097133827717295 0 -0.00040471233202957668 0.01827665840428817 0 9.5560514034713327e-05 0.018800770701771934 0 -0.00069845300805450978 0.017806454288798484 0 -0.00030678291549598909 0.018106797632981769 0 -0.00097885298674188948 0.017254323494540699 0 -0.00072541586023692052 0.017423415100622015 0 -0.00098184763707950449 0.017481119338266182 0 -0.00097885298674188948 0.017254323494540699 0 -0.00098184763707950449 0.017481119338266182 0 -0.0011258150997549422 0.017362583299958864 0 -0.00082008184231868687 0.017739075478266371 0 -0.00099426444691662385 0.017664206625400379 0 -0.00098184763707950449 0.017481119338266182 0 -0.00098184763707950449 0.017481119338266182 0 -0.0011079650231989664 0.017475326262821743 0 -0.0011258150997549422 0.017362583299958864 0 -0.00099426444691662385 0.017664206625400379 0 -0.00098184763707950449 0.017481119338266182 0 -0.0011079650231989664 0.017475326262821743 0 -0.00082008184231868687 0.017739075478266371 0 -0.00063071253077768121 0.017854918898005629 0 -0.00072541586023692052 0.017423415100622015 0 -0.00082008184231868687 0.017739075478266371 0 -0.00072541586023692052 0.017423415100622015 0 -0.00098184763707950449 0.017481119338266182 0 -0.0012636264579039326 0.017182412802752921 0 -0.0010947989183730758 0.017249206863177716 0 -0.0012286495909322036 0.01735750247224414 0 -0.00099074953957718087 0.016479280734713782 0 -0.0010873598808145138 0.016671041363767087 0 -0.00086773763300090738 0.015729345054056005 0 -0.00086149646026921663 0.015950815732634904 0 -0.00098184373179069058 0.016096214672911831 0 -0.0010947989183730758 0.017249206863177716 0 -0.0012286495909322036 0.01735750247224414 0 -0.0012254408482433854 0.017366478706702829 0 -0.0011747828601181348 0.017483693108668048 0 -0.0012286495909322036 0.01735750247224414 0 -0.0011079650231989664 0.017475326262821743 0 -0.0012286495909322036 0.01735750247224414 0 -0.0011079650231989664 0.017475326262821743 0 -0.0011258150997549422 0.017362583299958864 0 -0.0012286495909322036 0.01735750247224414 0 -0.0011258150997549422 0.017362583299958864 0 -0.0012254408482433854 0.017366478706702829 0 -0.0011258150997549422 0.017362583299958864 0 -0.0012254408482433854 0.017366478706702829 0 -0.0011462256628987245 0.017146253977743487 0 -0.00082933729871226042 0.016084506157034686 0 -0.00098184373179069058 0.016096214672911831 0 -0.00088031902484533343 0.016256665034901134 0 -0.00088031902484533343 0.016256665034901134 0 -0.00091284785101708032 0.016474420089763867 0 -0.0008497458148729321 0.016448875998417451 0 -0.00098184373179069058 0.016096214672911831 0 -0.00088031902484533343 0.016256665034901134 0 -0.00091284785101708032 0.016474420089763867 0 -0.00088031902484533343 0.016256665034901134 0 -0.00083832342166025584 0.016383964434848818 0 -0.0008497458148729321 0.016448875998417451 0 -0.0010873598808145138 0.016671041363767087 0 -0.00096475359890360417 0.017073463846429209 0 -0.00097885298674188948 0.017254323494540699 0 -0.0011258150997549422 0.017362583299958864 0 -0.0011462256628987245 0.017146253977743487 0 -0.00096475359890360417 0.017073463846429209 0 -0.00079279400878551148 0.016883714396192368 0 -0.00091284785101708032 0.016474420089763867 0 -0.00084798338372610337 0.016518882858822977 0 -0.0008497458148729321 0.016448875998417451 0 -0.00083517043987463052 0.016581408240025717 0 -0.00091284785101708032 0.016474420089763867 0 -0.00079050658699584165 0.01670966058152942 0 -0.00083517043987463052 0.016581408240025717 0 -0.00091284785101708032 0.016474420089763867 0 -0.00084798338372610337 0.016518882858822977 0 -0.00083517043987463052 0.016581408240025717 0 -0.00084798338372610337 0.016518882858822977 0 -0.00082444339595913495 0.016540310896624704 0 -0.00083517043987463052 0.016581408240025717 0 -0.00079050658699584165 0.01670966058152942 0 -0.00082444339595913495 0.016540310896624704 0 -0.00079050658699584165 0.01670966058152942 0 -0.00082444339595913495 0.016540310896624704 0 -0.00080668905904056408 0.016533782307081725 0 -0.00091284785101708032 0.016474420089763867 0 -0.00079050658699584165 0.01670966058152942 0 -0.00073418765121789479 0.016915420704434921 0 -0.00083832342166025584 0.016383964434848818 0 -0.00082878528743828938 0.01645896547719726 0 -0.00082859189125377103 0.016433260623779998 0 -0.00083832342166025584 0.016383964434848818 0 -0.00082878528743828938 0.01645896547719726 0 -0.0008497458148729321 0.016448875998417451 0 -0.00082878528743828938 0.01645896547719726 0 -0.0008497458148729321 0.016448875998417451 0 -0.00082444339595913495 0.016540310896624704 0 -0.00084798338372610337 0.016518882858822977 0 -0.0008497458148729321 0.016448875998417451 0 -0.00082444339595913495 0.016540310896624704 0 -0.00082878528743828938 0.01645896547719726 0 -0.00082444339595913495 0.016540310896624704 0 -0.00080668905904056408 0.016533782307081725 0 -0.00080668905904056408 0.016533782307081725 0 -0.00082859189125377103 0.016433260623779998 0 -0.00081968400601055045 0.016420798168666678 0 -0.00082878528743828938 0.01645896547719726 0 -0.00080668905904056408 0.016533782307081725 0 -0.00082859189125377103 0.016433260623779998 0 -0.00080668905904056408 0.016533782307081725 0 -0.00081968400601055045 0.016420798168666678 0 -0.00069182608541191288 0.016618456980966523 0 -0.00081968400601055045 0.016420798168666678 0 -0.0006691893713641837 0.016270002843739667 0 -0.00069182608541191288 0.016618456980966523 0 -0.0008861577768744781 0.016167013446033836 0 -0.0006691893713641837 0.016270002843739667 0 -0.00075596452179783023 0.015925812138592444 0 -0.0008861577768744781 0.016167013446033836 0 -0.00081968400601055045 0.016420798168666678 0 -0.0006691893713641837 0.016270002843739667 0 -0.0006691893713641837 0.016270002843739667 0 -0.00036816108638423043 0.01633334458049265 0 -0.00069182608541191288 0.016618456980966523 0 -0.00036816108638423043 0.01633334458049265 0 -0.00069182608541191288 0.016618456980966523 0 -0.00039605978447138774 0.016682400580801011 0 -0.00079050658699584165 0.01670966058152942 0 -0.00080668905904056408 0.016533782307081725 0 -0.00069182608541191288 0.016618456980966523 0 -0.00079050658699584165 0.01670966058152942 0 -0.00073418765121789479 0.016915420704434921 0 -0.00069182608541191288 0.016618456980966523 0 -0.00073418765121789479 0.016915420704434921 0 -0.00069182608541191288 0.016618456980966523 0 -0.00039605978447138774 0.016682400580801011 0 -0.00073418765121789479 0.016915420704434921 0 -0.0002743619972057193 0.017044055916288749 0 -0.00039605978447138774 0.016682400580801011 0 -0.0002743619972057193 0.017044055916288749 0 -0.00039605978447138774 0.016682400580801011 0 3.6488376762859143e-06 0.016708116619645379 0 0.00049075787539361977 0.016907102876838744 0 7.4787667425076456e-05 0.017442224364983959 0 3.6488376762859143e-06 0.016708116619645379 0 7.4787667425076456e-05 0.017442224364983959 0 -0.0002743619972057193 0.017044055916288749 0 3.6488376762859143e-06 0.016708116619645379 0 3.6488376762859143e-06 0.016708116619645379 0 0.00022499292302860445 0.016463697874866075 0 -4.1798536826925633e-05 0.01635207946357229 0 3.6488376762859143e-06 0.016708116619645379 0 -0.00020631791796660979 0.016511297695984639 0 -4.1798536826925633e-05 0.01635207946357229 0 0.00049075787539361977 0.016907102876838744 0 3.6488376762859143e-06 0.016708116619645379 0 0.00022499292302860445 0.016463697874866075 0 -0.00039605978447138774 0.016682400580801011 0 3.6488376762859143e-06 0.016708116619645379 0 -0.00020631791796660979 0.016511297695984639 0 -0.00036816108638423043 0.01633334458049265 0 -0.00039605978447138774 0.016682400580801011 0 -0.00020631791796660979 0.016511297695984639 0 -0.00036816108638423043 0.01633334458049265 0 -0.00020631791796660979 0.016511297695984639 0 -4.1798536826925633e-05 0.01635207946357229 0 -0.00036816108638423043 0.01633334458049265 0 -0.00013642293933240039 0.016150911919313539 0 -4.1798536826925633e-05 0.01635207946357229 0 -0.00013642293933240039 0.016150911919313539 0 -4.1798536826925633e-05 0.01635207946357229 0 2.3118254471688243e-05 0.01615469265935085 0 0.00022499292302860445 0.016463697874866075 0 -4.1798536826925633e-05 0.01635207946357229 0 2.3118254471688243e-05 0.01615469265935085 0 0.00033724148125648682 0.016198704314896284 0 0.00022499292302860445 0.016463697874866075 0 2.3118254471688243e-05 0.01615469265935085 0 0.00033724148125648682 0.016198704314896284 0 2.3118254471688243e-05 0.01615469265935085 0 5.6872712932716281e-05 0.015992925852758553 0 -0.00013642293933240039 0.016150911919313539 0 2.3118254471688243e-05 0.01615469265935085 0 5.1672334686044533e-05 0.016025344911023177 0 0.0001073478179761691 0.016128582692423964 0 0.0002337651601086287 0.015990509137042357 0 -0.00012449396063755666 0.016162110615708186 0 0.0002337651601086287 0.015990509137042357 0 -0.00013642293933240039 0.016150911919313539 0 0.00011676550697981898 0.015934798972498613 0 -0.00012624315196768445 0.015817871533629277 0 -0.00013642293933240039 0.016150911919313539 0 -0.00045520139636695821 0.015961219356972724 0 -0.00012624315196768445 0.015817871533629277 0 -0.00079098547792797651 0.01545899998335021 0 -0.00041614566262822283 0.015600448131632902 0 -0.00075596452179783023 0.015925812138592444 0 -0.0006691893713641837 0.016270002843739667 0 -0.00041614566262822283 0.015600448131632902 0 -0.00075596452179783023 0.015925812138592444 0 -0.00036816108638423043 0.01633334458049265 0 -0.00013642293933240039 0.016150911919313539 0 -0.00045520139636695821 0.015961219356972724 0 -0.00035545071482230242 0.016289145473498395 0 -0.0004453915742753701 0.015783822338133472 0 -0.0006691893713641837 0.016270002843739667 0 -0.00036816108638423043 0.01633334458049265 0 -0.00041614566262822283 0.015600448131632902 0 -0.00021568868571755163 0.015446924631197645 0 -0.00060897730634577819 0.015532353781320951 0 -0.00049683899863961543 0.015164067783665004 0 -0.0004453915742753701 0.015783822338133472 0 -0.00060974709444001473 0.015224410946045024 0 -0.00079098547792797651 0.01545899998335021 0 -0.00041614566262822283 0.015600448131632902 0 -0.00059601500223237236 0.014918097358561743 0 -0.00045520139636695821 0.015961219356972724 0 -0.00021568868571755163 0.015446924631197645 0 -0.00060897730634577819 0.015532353781320951 0 -0.00045520139636695821 0.015961219356972724 0 -0.00021568868571755163 0.015446924631197645 0 -0.00012624315196768445 0.015817871533629277 0 -0.00021568868571755163 0.015446924631197645 0 -0.00012624315196768445 0.015817871533629277 0 0.00017431315583662097 0.015615347850173655 0 0.0002337651601086287 0.015990509137042357 0 0.00042223875677510099 0.015878976070862586 0 0.00066939225896613564 0.016170246454461159 0 0.00062322573894341724 0.016453646396535619 0 0.0003666580176547189 0.016482785247287909 0 0.00011676550697981898 0.015934798972498613 0 -0.00012624315196768445 0.015817871533629277 0 0.00017431315583662097 0.015615347850173655 0 0.00042223875677510099 0.015878976070862586 0 0.00047847877386306478 0.016990803794989278 0 0.00017431315583662097 0.015615347850173655 0 3.4580471826848212e-05 0.015355426918852937 0 0.00021017810372359413 0.01534304337980132 0 -0.00021568868571755163 0.015446924631197645 0 0.00017431315583662097 0.015615347850173655 0 3.4580471826848212e-05 0.015355426918852937 0 -0.00021568868571755163 0.015446924631197645 0 3.4580471826848212e-05 0.015355426918852937 0 -4.6753278034921615e-05 0.015146248869641233 0 3.4580471826848212e-05 0.015355426918852937 0 -4.6753278034921615e-05 0.015146248869641233 0 8.3873652900688431e-05 0.015219208549719105 0 0.00047847877386306478 0.016990803794989278 0 -0.00010379090919420071 0.02004133634826195 0 0.00047847877386306478 0.016990803794989278 0 -0.00022911938557833241 0.01516339959652472 0 3.4580471826848212e-05 0.015355426918852937 0 0.00021017810372359413 0.01534304337980132 0 8.3873652900688431e-05 0.015219208549719105 0 -4.6753278034921615e-05 0.015146248869641233 0 8.3873652900688431e-05 0.015219208549719105 0 4.5279814166465926e-05 0.015118269108947383 0 8.3873652900688431e-05 0.015219208549719105 0 0.00021649537783619414 0.015222186211045093 0 4.5279814166465926e-05 0.015118269108947383 0 0.00019832757296158002 0.015392266622054609 0 8.3873652900688431e-05 0.015219208549719105 0 0.00021649537783619414 0.015222186211045093 0 0.00010972087716062118 0.015225428243098773 0 4.5279814166465926e-05 0.015118269108947383 0 0.00011133963901782296 0.015104561791258934 0 -0.00010379090919420071 0.02004133634826195 0 -0.0009024187853003716 0.015200874537833791 0 4.5279814166465926e-05 0.015118269108947383 0 -7.560331758944945e-05 0.015016154857283033 0 2.8133613468159108e-05 0.015031973721649217 0 4.5279814166465926e-05 0.015118269108947383 0 2.8133613468159108e-05 0.015031973721649217 0 0.00011133963901782296 0.015104561791258934 0 -4.6753278034921615e-05 0.015146248869641233 0 4.5279814166465926e-05 0.015118269108947383 0 -7.560331758944945e-05 0.015016154857283033 0 -4.6753278034921615e-05 0.015146248869641233 0 -7.560331758944945e-05 0.015016154857283033 0 -0.00018641129177541022 0.01499673925694989 0 -7.560331758944945e-05 0.015016154857283033 0 -0.00018641129177541022 0.01499673925694989 0 -0.00016901649445977683 0.014951209709394909 0 -0.00021568868571755163 0.015446924631197645 0 -4.6753278034921615e-05 0.015146248869641233 0 -0.00018641129177541022 0.01499673925694989 0 -0.00021568868571755163 0.015446924631197645 0 -0.00018641129177541022 0.01499673925694989 0 -0.00049683899863961543 0.015164067783665004 0 -0.00090363006617708258 0.01492538671710548 0 -0.00060897730634577819 0.015532353781320951 0 -0.00049683899863961543 0.015164067783665004 0 -0.00019218307344963942 0.014971422006720825 0 -0.00046531666524073393 0.014581432842548012 0 -0.00018641129177541022 0.01499673925694989 0 -0.00026460503174789566 0.014966636663603842 0 -0.00016901649445977683 0.014951209709394909 0 -0.00018641129177541022 0.01499673925694989 0 -0.00049683899863961543 0.015164067783665004 0 -0.00060986126784548164 0.014313728862539822 0 -0.00090363006617708258 0.01492538671710548 0 -0.00049683899863961543 0.015164067783665004 0 -0.00060986126784548164 0.014313728862539822 0 -0.00026460503174789566 0.014966636663603842 0 -0.00016901649445977683 0.014951209709394909 0 -0.0002075066399697744 0.014841879470157551 0 -0.00033160986395549489 0.014836787379650208 0 -0.00026460503174789566 0.014966636663603842 0 -0.0002075066399697744 0.014841879470157551 0 -0.00016901649445977683 0.014951209709394909 0 -0.0002075066399697744 0.014841879470157551 0 -6.1808835394612822e-05 0.014921790461434456 0 0.00078117294586213049 0.020118479125792264 0 0.00067204829498829016 0.020328024669196653 0 0.00047377837775071331 0.020266960899424733 0 0.00078117294586213049 0.020118479125792264 0 0.00047377837775071331 0.020266960899424733 0 0.00035629129446060836 0.020132266505244013 0 0.00023319418550610789 0.017975019015445078 0 0.0003613348443575433 0.017104792359604309 0 0.00089075785314977592 0.020297930902993602 0 0.00067204829498829016 0.020328024669196653 0 0.00071941905042979121 0.020483737604515245 0 0.00078117294586213049 0.020118479125792264 0 0.00089075785314977592 0.020297930902993602 0 0.00067204829498829016 0.020328024669196653 0 0.00067204829498829016 0.020328024669196653 0 0.00071941905042979121 0.020483737604515245 0 0.00050501237745470366 0.020458326163445797 0 0.00067204829498829016 0.020328024669196653 0 0.00050501237745470366 0.020458326163445797 0 0.00047377837775071331 0.020266960899424733 0 0.00071941905042979121 0.020483737604515245 0 0.00052109235027911433 0.02070039761385192 0 0.00074369959510707582 0.020679156462938941 0 0.00071941905042979121 0.020483737604515245 0 0.00050501237745470366 0.020458326163445797 0 0.00052109235027911433 0.02070039761385192 0 0.0010213343192635635 0.020462474828877811 0 0.00071941905042979121 0.020483737604515245 0 0.00074369959510707582 0.020679156462938941 0 0.0010213343192635635 0.020462474828877811 0 0.00089075785314977592 0.020297930902993602 0 0.00071941905042979121 0.020483737604515245 0 0.00033737375216697641 0.020598734245336037 0 0.0001795340455642496 0.020516743422994685 0 0.00014683655029768921 0.020729392166537877 0 0.00033737375216697641 0.020598734245336037 0 0.00050501237745470366 0.020458326163445797 0 0.00052109235027911433 0.02070039761385192 0 0.00033593245654841522 0.020413881336459116 0 0.00050501237745470366 0.020458326163445797 0 0.00047377837775071331 0.020266960899424733 0 0.00033737375216697641 0.020598734245336037 0 0.00033593245654841522 0.020413881336459116 0 0.00050501237745470366 0.020458326163445797 0 0.00033737375216697641 0.020598734245336037 0 0.00033593245654841522 0.020413881336459116 0 0.0001795340455642496 0.020516743422994685 0 0.00033593245654841522 0.020413881336459116 0 0.0001795340455642496 0.020516743422994685 0 0.00019627520003297753 0.020305200531423415 0 -5.3930810996230682e-05 0.020406162319363232 0 0.00035629129446060836 0.020132266505244013 0 -0.00021654763092870887 0.020168080738922747 0 0.00033593245654841522 0.020413881336459116 0 0.00019627520003297753 0.020305200531423415 0 0.00047377837775071331 0.020266960899424733 0 7.346059760309241e-05 0.020350646664295535 0 0.00044385903412620301 0.02028620215034382 0 -5.3930810996230682e-05 0.020406162319363232 0 0.00047377837775071331 0.020266960899424733 0 0.00035629129446060836 0.020132266505244013 0 -7.560331758944945e-05 0.015016154857283033 0 -6.1808835394612822e-05 0.014921790461434456 0 2.8133613468159108e-05 0.015031973721649217 0 -7.560331758944945e-05 0.015016154857283033 0 -0.00016901649445977683 0.014951209709394909 0 -6.1808835394612822e-05 0.014921790461434456 0 0.0003613348443575433 0.017104792359604309 0 -0.0011826157535333932 0.020187540107545223 0 -6.1808835394612822e-05 0.014921790461434456 0 2.8133613468159108e-05 0.015031973721649217 0 0.00011574612647788766 0.015018769799807929 0 2.8133613468159108e-05 0.015031973721649217 0 0.00011574612647788766 0.015018769799807929 0 0.00011133963901782296 0.015104561791258934 0 -0.0022676593496429201 0.025959654345472986 0 -0.0015559400977538181 0.026142167706110275 0 -0.0018833608698930943 0.026485345651399813 0 -0.0011826157535333932 0.020187540107545223 0 -0.001144192108991903 0.021069203574537076 0 -0.0011826157535333932 0.020187540107545223 0 -0.00089333456657265508 0.023442173760693737 0 -0.0022676593496429201 0.025959654345472986 0 -0.0023596861931530467 0.0265506842076009 0 -0.0018833608698930943 0.026485345651399813 0 -0.00022312506546793998 0.020338917977586957 0 -0.00042679883948800644 0.020399028759158114 0 -0.00041323908803910252 0.02048840338042078 0 -0.00042679883948800644 0.020399028759158114 0 -0.00041323908803910252 0.02048840338042078 0 -0.00048332008768016437 0.020471265936959946 0 0.00019627520003297753 0.020305200531423415 0 -0.00012052317619319824 0.020345377285069289 0 3.0718172361333356e-05 0.02044392539559204 0 -0.00022312506546793998 0.020338917977586957 0 -0.00041323908803910252 0.02048840338042078 0 -0.00021962453535913969 0.020407889998199657 0 -5.3930810996230682e-05 0.020406162319363232 0 -0.00041323908803910252 0.02048840338042078 0 -0.00021962453535913969 0.020407889998199657 0 7.346059760309241e-05 0.020350646664295535 0 -0.00026530984413667856 0.02041649584623988 0 -0.0011826157535333932 0.020187540107545223 0 -0.00051570169401075026 0.020302441266700891 0 -5.3930810996230682e-05 0.020406162319363232 0 -0.00021654763092870887 0.020168080738922747 0 -0.00021962453535913969 0.020407889998199657 0 0.0001795340455642496 0.020516743422994685 0 0.00019627520003297753 0.020305200531423415 0 3.0718172361333356e-05 0.02044392539559204 0 0.0001795340455642496 0.020516743422994685 0 3.0718172361333356e-05 0.02044392539559204 0 2.7040664990714287e-05 0.020591771921196142 0 3.0718172361333356e-05 0.02044392539559204 0 -0.00013064447027786235 0.020551707022751133 0 2.7040664990714287e-05 0.020591771921196142 0 -0.00012052317619319824 0.020345377285069289 0 3.0718172361333356e-05 0.02044392539559204 0 -0.00013064447027786235 0.020551707022751133 0 -0.00012052317619319824 0.020345377285069289 0 -0.00013064447027786235 0.020551707022751133 0 -0.00028609387344732772 0.020511203448376342 0 -0.00013064447027786235 0.020551707022751133 0 2.7040664990714287e-05 0.020591771921196142 0 -0.00012583846948058873 0.020811757138059252 0 -0.00013064447027786235 0.020551707022751133 0 -0.0003054610769186657 0.020671694036272923 0 -0.00012583846948058873 0.020811757138059252 0 2.7040664990714287e-05 0.020591771921196142 0 0.00014683655029768921 0.020729392166537877 0 -0.00012583846948058873 0.020811757138059252 0 0.0001795340455642496 0.020516743422994685 0 2.7040664990714287e-05 0.020591771921196142 0 0.00014683655029768921 0.020729392166537877 0 -0.00043218629409572513 0.02056948426145121 0 -0.00056396915460225092 0.020654985451149556 0 -0.00051059224412689798 0.020814529828716732 0 -0.0003054610769186657 0.020671694036272923 0 -0.00043218629409572513 0.02056948426145121 0 -0.00051059224412689798 0.020814529828716732 0 -0.00028609387344732772 0.020511203448376342 0 -0.00043218629409572513 0.02056948426145121 0 -0.00042234877495761752 0.020419116174394035 0 -0.0003054610769186657 0.020671694036272923 0 -0.00028609387344732772 0.020511203448376342 0 -0.00043218629409572513 0.02056948426145121 0 -0.00013064447027786235 0.020551707022751133 0 -0.0003054610769186657 0.020671694036272923 0 -0.00028609387344732772 0.020511203448376342 0 -0.00043218629409572513 0.02056948426145121 0 -0.00042234877495761752 0.020419116174394035 0 -0.00055721676623233152 0.020553959082247612 0 -0.00043218629409572513 0.02056948426145121 0 -0.00055721676623233152 0.020553959082247612 0 -0.00056396915460225092 0.020654985451149556 0 -0.00047936252733795233 0.020477507155191758 0 -0.00060212236338937747 0.020529186252323126 0 -0.00054523915654315549 0.020531491682964351 0 -0.00058061314948791999 0.020529472099242285 0 -0.00061545944806063802 0.020541975461061453 0 -0.00054523915654315549 0.020531491682964351 0 -0.00056611910053108066 0.02051369580594526 0 -0.00058061314948791999 0.020529472099242285 0 -0.00026530984413667856 0.02041649584623988 0 -0.00047936252733795233 0.020477507155191758 0 -0.00041323908803910252 0.02048840338042078 0 -0.00054523915654315549 0.020531491682964351 0 -0.00048332008768016437 0.020471265936959946 0 -0.00012052317619319824 0.020345377285069289 0 -0.00028609387344732772 0.020511203448376342 0 -0.00042234877495761752 0.020419116174394035 0 -0.00054523915654315549 0.020531491682964351 0 -0.00048332008768016437 0.020471265936959946 0 -0.00053144430008082223 0.020472315206984112 0 -0.00042679883948800644 0.020399028759158114 0 -0.00048332008768016437 0.020471265936959946 0 -0.00053144430008082223 0.020472315206984112 0 -0.00089333456657265508 0.023442173760693737 0 -0.00074467965617977191 0.023170474792379998 0 -0.0015559400977538181 0.026142167706110275 0 -0.00076089171949722447 0.026256595541722296 0 -0.0010889726472809377 0.026571230305207832 0 -0.00053144430008082223 0.020472315206984112 0 -0.00056611910053108066 0.02051369580594526 0 -0.00058303300079741449 0.020533199151452783 0 -0.00074467965617977191 0.023170474792379998 0 5.6216364811476186e-05 0.026724922206633698 0 -0.00054523915654315549 0.020531491682964351 0 -0.00053144430008082223 0.020472315206984112 0 -0.00056611910053108066 0.02051369580594526 0 -0.00056611910053108066 0.02051369580594526 0 -0.00058061314948791999 0.020529472099242285 0 -0.0005831928896914716 0.020531012385261622 0 -0.00056611910053108066 0.02051369580594526 0 -0.00058303300079741449 0.020533199151452783 0 -0.0005831928896914716 0.020531012385261622 0 -0.00064077116320188478 0.027120894285250802 0 1.1752137867349868e-05 0.027602674157552482 0 0.00050614717820755112 0.026416537396748888 0 -0.00072117922618266999 0.029265843564728757 0 -0.00066008500081642791 0.02926204437306416 0 -0.00065769259529244075 0.029182874519043996 0 -0.00076089171949722447 0.026256595541722296 0 -0.00064077116320188478 0.027120894285250802 0 0.00050614717820755112 0.026416537396748888 0 -0.00046903893989538555 0.028628467836077941 0 5.6216364811476186e-05 0.026724922206633698 0 -0.00046903893989538555 0.028628467836077941 0 -0.00073393240256870956 0.029008192312865191 0 1.1752137867349868e-05 0.027602674157552482 0 -0.00078458012388207495 0.028156439436443002 0 -0.00083199546293955689 0.02912701580351482 0 -0.00072117922618266999 0.029265843564728757 0 -0.00083199546293955689 0.02912701580351482 0 -0.00068458407510731069 0.029337906862309648 0 -0.00064077116320188478 0.027120894285250802 0 1.1752137867349868e-05 0.027602674157552482 0 -0.00078458012388207495 0.028156439436443002 0 -0.0015958290460981375 0.028444026763624137 0 -0.00078458012388207495 0.028156439436443002 0 -0.00083199546293955689 0.02912701580351482 0 -0.0015958290460981375 0.028444026763624137 0 -0.00083199546293955689 0.02912701580351482 0 -0.0014021768669810798 0.029146183191523577 0 -0.00050687192874483732 0.026991618479773726 0 -0.0018372999954989417 0.028450426656227174 0 -0.00064077116320188478 0.027120894285250802 0 -0.0015958290460981375 0.028444026763624137 0 -0.00078458012388207495 0.028156439436443002 0 -0.00064077116320188478 0.027120894285250802 0 -0.0011989233367732778 0.027380475021326633 0 -0.0013222757849560406 0.026859021089639126 0 -0.00064077116320188478 0.027120894285250802 0 -0.0010889726472809377 0.026571230305207832 0 -0.0013222757849560406 0.026859021089639126 0 -0.00076089171949722447 0.026256595541722296 0 -0.00064077116320188478 0.027120894285250802 0 -0.0010889726472809377 0.026571230305207832 0 -0.0015559400977538181 0.026142167706110275 0 -0.0010889726472809377 0.026571230305207832 0 -0.0013222757849560406 0.026859021089639126 0 -0.0013222757849560406 0.026859021089639126 0 -0.0018833608698930943 0.026485345651399813 0 -0.0018792744310126104 0.026912056540397963 0 -0.0013222757849560406 0.026859021089639126 0 -0.0018792744310126104 0.026912056540397963 0 -0.0016598884529069437 0.02729666818320663 0 -0.0015559400977538181 0.026142167706110275 0 -0.0013222757849560406 0.026859021089639126 0 -0.0018833608698930943 0.026485345651399813 0 -0.00010379090919420071 0.02004133634826195 0 -0.001144192108991903 0.021069203574537076 0 -0.0024377430232825634 0.0271151475783196 0 -0.0023596861931530467 0.0265506842076009 0 -0.0018792744310126104 0.026912056540397963 0 -0.0023596861931530467 0.0265506842076009 0 -0.0018833608698930943 0.026485345651399813 0 -0.0018792744310126104 0.026912056540397963 0 -0.0024377430232825634 0.0271151475783196 0 -0.0018792744310126104 0.026912056540397963 0 -0.0016598884529069437 0.02729666818320663 0 -0.00010379090919420071 0.02004133634826195 0 -0.00059998920172944586 0.024116403895926668 0 -0.0024377430232825634 0.0271151475783196 0 -0.0016598884529069437 0.02729666818320663 0 -0.0016646933045023891 0.027779829859552765 0 8.4182803742449415e-05 0.019823305510129976 0 0.00010162320586204322 0.01985618280720812 0 9.210332124789891e-05 0.019838865095275882 0 8.3665344530351547e-05 0.019828812532201024 0 8.4182803742449415e-05 0.019823305510129976 0 9.210332124789891e-05 0.019838865095275882 0 -0.0011989233367732778 0.027380475021326633 0 -0.0013222757849560406 0.026859021089639126 0 -0.0016598884529069437 0.02729666818320663 0 -0.0011989233367732778 0.027380475021326633 0 -0.0016598884529069437 0.02729666818320663 0 -0.0016646933045023891 0.027779829859552765 0 -0.0018372999954989417 0.028450426656227174 0 -0.00059998920172944586 0.024116403895926668 0 -0.00059998920172944586 0.024116403895926668 0 5.9972682042313057e-05 0.022958773386942893 0 -0.0015958290460981375 0.028444026763624137 0 -0.0020343905276611219 0.02914779019890645 0 -0.0014021768669810798 0.029146183191523577 0 0.0013940695212472771 0.016796660573175214 0 0.00149734207009284 0.016676006161377124 0 0.0013797751450864149 0.016631511399108685 0 -0.00059998920172944586 0.024116403895926668 0 0.00094502350324523294 0.016895120472762371 0 8.3665344530351547e-05 0.019828812532201024 0 9.210332124789891e-05 0.019838865095275882 0 9.9088607859938312e-05 0.019842755010834792 0 0.00047847877386306478 0.016990803794989278 0 0.00094502350324523294 0.016895120472762371 0 0.00062322573894341724 0.016453646396535619 0 0.00057484819763098274 0.016738373707385089 0 0.0003666580176547189 0.016482785247287909 0 0.00010162320586204322 0.01985618280720812 0 9.210332124789891e-05 0.019838865095275882 0 9.9088607859938312e-05 0.019842755010834792 0 0.00048718685641364754 0.015984437677188306 0 5.6872712932716281e-05 0.015992925852758553 0 0.00051934127279101145 0.015549963282813759 0 0.0002337651601086287 0.015990509137042357 0 0.00094502350324523294 0.016895120472762371 0 0.0010700607870640668 0.016127059259417893 0 0.00094502350324523294 0.016895120472762371 0 0.0008721382694474271 0.015945297763315578 0 0.00048718685641364754 0.015984437677188306 0 0.00051934127279101145 0.015549963282813759 0 0.0013940695212472771 0.016796660573175214 0 0.0013797751450864149 0.016631511399108685 0 0.0012938017197908407 0.016565182470612363 0 0.0013594731076053039 0.016514427639412219 0 0.00149734207009284 0.016676006161377124 0 0.0013797751450864149 0.016631511399108685 0 0.0013594731076053039 0.016514427639412219 0 0.0013797751450864149 0.016631511399108685 0 0.0012938017197908407 0.016565182470612363 0 0.0013185033293721792 0.016510247226965428 0 0.0013594731076053039 0.016514427639412219 0 0.0012938017197908407 0.016565182470612363 0 0.00035748040838585397 0.023143322103513039 0 5.9972682042313057e-05 0.022958773386942893 0 -0.00079147043565835288 0.029834930599325429 0 -0.001154440036821841 0.029659703563682211 0 -0.00067176431584698945 0.029595511518643942 0 -0.001154440036821841 0.029659703563682211 0 -0.00080234290184779701 0.029401019451242301 0 -0.00067176431584698945 0.029595511518643942 0 -0.001154440036821841 0.029659703563682211 0 -0.00080234290184779701 0.029401019451242301 0 -0.00083199546293955689 0.02912701580351482 0 -0.00080234290184779701 0.029401019451242301 0 -0.00068458407510731069 0.029337906862309648 0 -0.00067176431584698945 0.029595511518643942 0 -0.00080234290184779701 0.029401019451242301 0 -0.00083199546293955689 0.02912701580351482 0 -0.00068458407510731069 0.029337906862309648 0 -0.0020343905276611219 0.02914779019890645 0 -0.001154440036821841 0.029659703563682211 0 -0.0014021768669810798 0.029146183191523577 0 -0.001154440036821841 0.029659703563682211 0 -0.00083199546293955689 0.02912701580351482 0 -0.0014021768669810798 0.029146183191523577 0 -0.00053282718047921007 0.029526892334062065 0 -0.00044814596862264108 0.029537378439394212 0 -0.00040604807106489176 0.029657506098283416 0 -0.00053282718047921007 0.029526892334062065 0 -0.00053798718901195341 0.029681918683750173 0 -0.00040604807106489176 0.029657506098283416 0 -0.00053282718047921007 0.029526892334062065 0 -0.00044814596862264108 0.029537378439394212 0 -0.00048440451046761069 0.029437869013308717 0 -0.00053282718047921007 0.029526892334062065 0 -0.00068458407510731069 0.029337906862309648 0 -0.00067176431584698945 0.029595511518643942 0 -0.00053282718047921007 0.029526892334062065 0 -0.00068458407510731069 0.029337906862309648 0 -0.00058595373179509637 0.029400588060686433 0 -0.00053282718047921007 0.029526892334062065 0 -0.00067176431584698945 0.029595511518643942 0 -0.00053798718901195341 0.029681918683750173 0 -0.00057753112018664216 0.029840401701541813 0 -0.00067176431584698945 0.029595511518643942 0 -0.00053798718901195341 0.029681918683750173 0 -0.00044832252029629831 0.029811326860918082 0 -0.00057753112018664216 0.029840401701541813 0 -0.00053798718901195341 0.029681918683750173 0 -0.00044832252029629831 0.029811326860918082 0 -0.00053798718901195341 0.029681918683750173 0 -0.00040604807106489176 0.029657506098283416 0 -0.00031844495940556018 0.029872167974439433 0 -0.00027741650454717406 0.029757360776947867 0 -0.00040604807106489176 0.029657506098283416 0 -0.00031844495940556018 0.029872167974439433 0 -0.00044832252029629831 0.029811326860918082 0 -0.00040604807106489176 0.029657506098283416 0 -0.00018242653606165941 0.037117770475078554 0 -0.00063654087999821926 0.036915236734560784 0 -0.00016478950664274768 0.029943216042872766 0 -0.00027741650454717406 0.029757360776947867 0 -0.00019855300706664669 0.029637666352150056 0 -0.00018242653606165941 0.037117770475078554 0 -0.001703430040664239 0.029091291716360781 0 -0.00031844495940556018 0.029872167974439433 0 -0.00018489263626109839 0.029876345015876566 0 -0.00027741650454717406 0.029757360776947867 0 -0.00027741650454717406 0.029757360776947867 0 -0.00029033499085126893 0.029621474181394557 0 -0.00019855300706664669 0.029637666352150056 0 -0.00029033499085126893 0.029621474181394557 0 -0.00019855300706664669 0.029637666352150056 0 -0.00029013413788938941 0.029523756305259035 0 -0.00027741650454717406 0.029757360776947867 0 -0.00029033499085126893 0.029621474181394557 0 -0.00040604807106489176 0.029657506098283416 0 -0.00029033499085126893 0.029621474181394557 0 -0.00040604807106489176 0.029657506098283416 0 -0.00036457948146858095 0.029531665313716818 0 -0.00044814596862264108 0.029537378439394212 0 -0.00040604807106489176 0.029657506098283416 0 -0.00036457948146858095 0.029531665313716818 0 -0.00036457948146858095 0.029531665313716818 0 -0.00038224963165868405 0.029435930284597959 0 -0.00048440451046761069 0.029437869013308717 0 -0.00029033499085126893 0.029621474181394557 0 -0.00036457948146858095 0.029531665313716818 0 -0.00029013413788938941 0.029523756305259035 0 -0.00036457948146858095 0.029531665313716818 0 -0.00038224963165868405 0.029435930284597959 0 -0.00029013413788938941 0.029523756305259035 0 -0.00038224963165868405 0.029435930284597959 0 -0.00029013413788938941 0.029523756305259035 0 -0.00028986236206765152 0.02945432681167609 0 -0.00019855300706664669 0.029637666352150056 0 -0.00029013413788938941 0.029523756305259035 0 -0.00029208275016664504 0.029528515116574183 0 -0.00028986236206765152 0.02945432681167609 0 -0.00034697963615236562 0.029624511755704217 0 -0.00029208275016664504 0.029528515116574183 0 -0.00029013413788938941 0.029523756305259035 0 -0.00028986236206765152 0.02945432681167609 0 -0.00029208275016664504 0.029528515116574183 0 -0.0003003246695163783 0.029402002732284979 0 -0.00033268291068740022 0.029551838357578419 0 -0.00038224963165868405 0.029435930284597959 0 -0.00028986236206765152 0.02945432681167609 0 -0.00048822743647199531 0.02926647957955647 0 -0.00048822743647199531 0.02926647957955647 0 -0.00048440451046761069 0.029437869013308717 0 -0.00059614612671079418 0.029308875594896953 0 -0.00038224963165868405 0.029435930284597959 0 -0.00048822743647199531 0.02926647957955647 0 -0.00048440451046761069 0.029437869013308717 0 -0.00048440451046761069 0.029437869013308717 0 -0.00058595373179509637 0.029400588060686433 0 -0.00059614612671079418 0.029308875594896953 0 -0.00053282718047921007 0.029526892334062065 0 -0.00048440451046761069 0.029437869013308717 0 -0.00058595373179509637 0.029400588060686433 0 -0.00044814596862264108 0.029537378439394212 0 -0.00036457948146858095 0.029531665313716818 0 -0.00048440451046761069 0.029437869013308717 0 -0.00072117922618266999 0.029265843564728757 0 -0.00068458407510731069 0.029337906862309648 0 -0.00065588006837498532 0.029315023202122065 0 -0.00068458407510731069 0.029337906862309648 0 -0.00058595373179509637 0.029400588060686433 0 -0.00065588006837498532 0.029315023202122065 0 -0.00058595373179509637 0.029400588060686433 0 -0.00065588006837498532 0.029315023202122065 0 -0.00059614612671079418 0.029308875594896953 0 -0.00072117922618266999 0.029265843564728757 0 -0.00065588006837498532 0.029315023202122065 0 -0.00066008500081642791 0.02926204437306416 0 -0.00033268291068740022 0.029551838357578419 0 5.6216364811476186e-05 0.026724922206633698 0 -0.00065588006837498532 0.029315023202122065 0 -0.00066008500081642791 0.02926204437306416 0 -0.00059614612671079418 0.029308875594896953 0 -0.00066008500081642791 0.02926204437306416 0 -0.00059614612671079418 0.029308875594896953 0 -0.00065769259529244075 0.029182874519043996 0 -0.00048822743647199531 0.02926647957955647 0 -0.00059614612671079418 0.029308875594896953 0 -0.00065769259529244075 0.029182874519043996 0 -0.00014398771545831576 0.029446592702777573 0 2.5797233090483327e-07 0.029440154087819716 0 -4.1650494812459868e-05 0.029528903491213798 0 5.6216364811476186e-05 0.026724922206633698 0 0.00016876925142913967 0.026774840624042916 0 -0.00058303300079741449 0.020533199151452783 0 -0.00059445639175239738 0.020546044862074293 0 -0.0005831928896914716 0.020531012385261622 0 -0.00059445639175239738 0.020546044862074293 0 -0.00059263171670815012 0.020540023114113955 0 -0.0005831928896914716 0.020531012385261622 0 0.00016876925142913967 0.026774840624042916 0 2.7017778709974126e-05 0.026478639783232005 0 -0.00058061314948791999 0.020529472099242285 0 -0.00059263171670815012 0.020540023114113955 0 -0.0005831928896914716 0.020531012385261622 0 0.00029405692684939655 0.031198138910328233 0 0.00028060202323563149 0.031222060747697001 0 0.00021817424841732077 0.031287839546720021 0 -0.00014398771545831576 0.029446592702777573 0 -4.1650494812459868e-05 0.029528903491213798 0 -0.00023857600352564974 0.029569034306900232 0 0.00016876925142913967 0.026774840624042916 0 1.8578664046539453e-05 0.030068426560282139 0 0.00028060202323563149 0.031222060747697001 0 0.00023004467486031026 0.031311754549440608 0 0.00021817424841732077 0.031287839546720021 0 0.00028060202323563149 0.031222060747697001 0 0.00028580133291129496 0.031265608611408723 0 0.00023004467486031026 0.031311754549440608 0 -0.00042234877495761752 0.020419116174394035 0 -0.00061545944806063802 0.020541975461061453 0 -0.00055721676623233152 0.020553959082247612 0 -0.00058061314948791999 0.020529472099242285 0 -0.00059263171670815012 0.020540023114113955 0 -0.00061545944806063802 0.020541975461061453 0 -0.00059693912083741332 0.020541817615204086 0 -0.00061545944806063802 0.020541975461061453 0 -0.00062283986481996914 0.020546355808570758 0 0.00029405692684939655 0.031198138910328233 0 0.00028060202323563149 0.031222060747697001 0 0.00027063943080375826 0.03120455793608257 0 0.00010717645662846324 0.031096183012042183 0 -0.00010833004277555468 0.027150837252696462 0 -0.00059693912083741332 0.020541817615204086 0 -0.00059263171670815012 0.020540023114113955 0 -0.00061545944806063802 0.020541975461061453 0 0.00016876925142913967 0.026774840624042916 0 -0.00010833004277555468 0.027150837252696462 0 -0.00061545944806063802 0.020541975461061453 0 -0.00062283986481996914 0.020546355808570758 0 -0.00055721676623233152 0.020553959082247612 0 -0.00055721676623233152 0.020553959082247612 0 -0.00064049223892468895 0.020620421822070103 0 -0.00056396915460225092 0.020654985451149556 0 -0.00062283986481996914 0.020546355808570758 0 -0.00055721676623233152 0.020553959082247612 0 -0.00064049223892468895 0.020620421822070103 0 -0.00010833004277555468 0.027150837252696462 0 -0.00064946816733439455 0.022825152752274251 0 0.00028580133291129496 0.031265608611408723 0 0.00024258394296437202 0.031351142600275543 0 0.00023004467486031026 0.031311754549440608 0 -0.00010833004277555468 0.027150837252696462 0 -0.00018759153561590981 0.029202815377073862 0 -0.00062756916542519407 0.026778269745073732 0 -0.00064877481294132989 0.025934540855907132 0 5.4983572262762072e-05 0.025432806324096079 0 -0.0007898332139578924 0.023705815712333236 0 -0.00054267615240200775 0.023120485788787497 0 -0.00088281963427671673 0.023187218029364628 0 -0.00018759153561590981 0.029202815377073862 0 -0.0010673059558922475 0.022480745191814245 0 -0.00064877481294132989 0.025934540855907132 0 5.4983572262762072e-05 0.025432806324096079 0 -0.00067104709581205396 0.02508397674418511 0 -0.0007898332139578924 0.023705815712333236 0 -0.0011686078292804454 0.023510225047469226 0 -0.00088281963427671673 0.023187218029364628 0 -0.00065334358510436754 0.020733012705355554 0 -0.00056396915460225092 0.020654985451149556 0 -0.00051059224412689798 0.020814529828716732 0 -0.0010673059558922475 0.022480745191814245 0 -0.00056363137924682371 0.020469134081878979 0 -0.00064049223892468895 0.020620421822070103 0 -0.00065334358510436754 0.020733012705355554 0 -0.00056396915460225092 0.020654985451149556 0 -0.00064946816733439455 0.022825152752274251 0 -0.0010673059558922475 0.022480745191814245 0 0.0011555459933530908 0.033934531043888203 0 0.00053770516968337345 0.035100769151561018 0 0.00066541661278679597 0.035102386648416146 0 0.00051455185994947006 0.035059894561558017 0 0.00062916460753709819 0.035087241966155105 0 0.00026304052494844358 0.033823717929266785 0 0.0014434920023604194 0.033276786604965899 0 0.00051455185994947006 0.035059894561558017 0 -0.0016147941131949347 0.034174367376596099 0 0.00026304052494844358 0.033823717929266785 0 0.00038203391401889924 0.035087616091733914 0 -0.00018759153561590981 0.029202815377073862 0 -0.00076712834624700259 0.027854920594579252 0 -0.0016147941131949347 0.034174367376596099 0 0.00026304052494844358 0.033823717929266785 0 -0.00071207791226522634 0.032366466515661864 0 0.00024258394296437202 0.031351142600275543 0 0.00020008204445804356 0.031366114170872574 0 0.00023004467486031026 0.031311754549440608 0 -0.00018759153561590981 0.029202815377073862 0 0.00020643141951429288 0.033061821925167753 0 0.00051455185994947006 0.035059894561558017 0 0.00076690070153191887 0.03526671244699419 0 0.00062916460753709819 0.035087241966155105 0 0.00038203391401889924 0.035087616091733914 0 0.00051455185994947006 0.035059894561558017 0 0.00076690070153191887 0.03526671244699419 0 0.00020643141951429288 0.033061821925167753 0 -5.4969476952856348e-05 0.038330730459014882 0 0.00020008204445804356 0.031366114170872574 0 0.00019263533833420028 0.031357042743582926 0 0.00017346207585476606 0.031412870502666147 0 0.00026304052494844358 0.033823717929266785 0 0.00038203391401889924 0.035087616091733914 0 0.00051455185994947006 0.035059894561558017 0 0.00019263533833420028 0.031357042743582926 0 0.00021817424841732077 0.031287839546720021 0 0.00016931754202642791 0.031390278270641919 0 0.00020008204445804356 0.031366114170872574 0 0.00019263533833420028 0.031357042743582926 0 0.00023004467486031026 0.031311754549440608 0 0.00019263533833420028 0.031357042743582926 0 0.00023004467486031026 0.031311754549440608 0 0.00021817424841732077 0.031287839546720021 0 -0.00028986236206765152 0.02945432681167609 0 -0.00014398771545831576 0.029446592702777573 0 -0.00023857600352564974 0.029569034306900232 0 1.8578664046539453e-05 0.030068426560282139 0 -0.00025543799987382763 0.036661397774955772 0 -0.00028986236206765152 0.02945432681167609 0 -0.00023857600352564974 0.029569034306900232 0 -0.00034697963615236562 0.029624511755704217 0 -0.00025543799987382763 0.036661397774955772 0 -0.00066931609962065828 0.036401989360111665 0 -0.00025543799987382763 0.036661397774955772 0 -0.00035170375957327139 0.04434813046860709 0 -0.00094502661017638291 0.042798963481781728 0 -0.00031448161564584894 0.042856903927050945 0 -0.00052750738722952013 0.043344998838704039 0 -0.00035170375957327139 0.04434813046860709 0 -0.00028282389156023501 0.044387826152887826 0 -4.3237230655754567e-05 0.045005847180403 0 -3.215417316774565e-05 0.044758495981559364 0 -0.00011775572640932993 0.044631297831194253 0 -4.3237230655754567e-05 0.045005847180403 0 -3.215417316774565e-05 0.044758495981559364 0 -6.787661275984578e-06 0.04488838843576818 0 -0.00061289310335394323 0.043782649759370081 0 -4.5128529726064993e-05 0.04437395788147306 0 -0.00011775572640932993 0.044631297831194253 0 0.0003591384221902378 0.043725149529053514 0 -0.00061289310335394323 0.043782649759370081 0 -4.5128529726064993e-05 0.04437395788147306 0 -0.00035170375957327139 0.04434813046860709 0 -0.00013155394868598062 0.044642323186921809 0 0.0003591384221902378 0.043725149529053514 0 -4.5128529726064993e-05 0.04437395788147306 0 0.00027094845491453244 0.044489700435477869 0 -0.00025543799987382763 0.036661397774955772 0 -5.4969476952856348e-05 0.038330730459014882 0 0.00019263533833420028 0.031357042743582926 0 0.00016931754202642791 0.031390278270641919 0 0.00017346207585476606 0.031412870502666147 0 0.0011200870908561016 0.041768256123255708 0 -5.4969476952856348e-05 0.038330730459014882 0 -6.7043091772036532e-05 0.044517690434677959 0 -9.2365076452209934e-05 0.044531902583083705 0 -0.00022856849363800296 0.044356589667860623 0 0.00076690070153191887 0.03526671244699419 0 0.00062916460753709819 0.035087241966155105 0 0.0006644672361860621 0.035094315908464742 0 -5.4969476952856348e-05 0.038330730459014882 0 0.00024184239187027156 0.039733406883479691 0 -0.00011094076204341042 0.044476219317459847 0 -9.2365076452209934e-05 0.044531902583083705 0 -0.00022856849363800296 0.044356589667860623 0 -0.00011094076204341042 0.044476219317459847 0 -9.4326271553110674e-06 0.044343241887339846 0 -0.00022856849363800296 0.044356589667860623 0 -4.5128529726064993e-05 0.04437395788147306 0 -6.7043091772036532e-05 0.044517690434677959 0 -9.2365076452209934e-05 0.044531902583083705 0 -4.5128529726064993e-05 0.04437395788147306 0 -9.2365076452209934e-05 0.044531902583083705 0 -0.00011775572640932993 0.044631297831194253 0 -8.8739910581033365e-05 0.044526809726403431 0 0.00015682329447444036 0.045203628590471404 0 -3.215417316774565e-05 0.044758495981559364 0 -1.581845307464267e-05 0.044885043370027931 0 4.1458313281892007e-05 0.044923653710649429 0 -3.215417316774565e-05 0.044758495981559364 0 -0.00011775572640932993 0.044631297831194253 0 -9.4326271553110674e-06 0.044343241887339846 0 -0.00011094076204341042 0.044476219317459847 0 -9.2365076452209934e-05 0.044531902583083705 0 -0.00011775572640932993 0.044631297831194253 0 -3.215417316774565e-05 0.044758495981559364 0 -1.581845307464267e-05 0.044885043370027931 0 -1.7978936266852512e-05 0.044875819579893644 0 -0.00011094076204341042 0.044476219317459847 0 -0.00011775572640932993 0.044631297831194253 0 -9.4326271553110674e-06 0.044343241887339846 0 4.1458313281892007e-05 0.044923653710649429 0 1.7055254908339393e-05 0.044941911964766906 0 2.1192582293653185e-05 0.044931686898725016 0 -1.581845307464267e-05 0.044885043370027931 0 4.1458313281892007e-05 0.044923653710649429 0 2.4856080853232438e-06 0.044934628002628284 0 4.1458313281892007e-05 0.044923653710649429 0 2.4856080853232438e-06 0.044934628002628284 0 1.7055254908339393e-05 0.044941911964766906 0 2.4856080853232438e-06 0.044934628002628284 0 1.7055254908339393e-05 0.044941911964766906 0 3.579517485269622e-06 0.044956654649868887 0 -9.4326271553110674e-06 0.044343241887339846 0 -0.00022856849363800296 0.044356589667860623 0 -0.00018320162447842757 0.04377537874257216 0 0.00066541661278679597 0.035102386648416146 0 0.0006644672361860621 0.035094315908464742 0 0.00061404955386078685 0.035166099536480991 0 0.00015682329447444036 0.045203628590471404 0 0.00032022045883195254 0.04092963346146547 0 0.00024184239187027156 0.039733406883479691 0 0.00032022045883195254 0.04092963346146547 0 0.00066541661278679597 0.035102386648416146 0 0.00062916460753709819 0.035087241966155105 0 0.0006644672361860621 0.035094315908464742 0 -6.9262277120501075e-06 0.044966618829477063 0 -2.4184144841489437e-08 0.044999903572478288 0 -1.150054938284395e-09 0.044999970971066207 0 -6.9262277120501075e-06 0.044966618829477063 0 -2.4184144841489437e-08 0.044999903572478288 0 -7.5399579872106893e-06 0.044946468155596352 0 2.4856080853232438e-06 0.044934628002628284 0 -6.9262277120501075e-06 0.044966618829477063 0 3.579517485269622e-06 0.044956654649868887 0 -6.9262277120501075e-06 0.044966618829477063 0 -1.4198175533667927e-05 0.044922406015851166 0 -7.5399579872106893e-06 0.044946468155596352 0 2.4856080853232438e-06 0.044934628002628284 0 -6.9262277120501075e-06 0.044966618829477063 0 -1.4198175533667927e-05 0.044922406015851166 0 -1.581845307464267e-05 0.044885043370027931 0 2.4856080853232438e-06 0.044934628002628284 0 -1.4198175533667927e-05 0.044922406015851166 0 -1.4198175533667927e-05 0.044922406015851166 0 -1.7978936266852512e-05 0.044875819579893644 0 -7.5399579872106893e-06 0.044946468155596352 0 -1.581845307464267e-05 0.044885043370027931 0 -1.4198175533667927e-05 0.044922406015851166 0 -1.7978936266852512e-05 0.044875819579893644 0 -1.7978936266852512e-05 0.044875819579893644 0 -7.5399579872106893e-06 0.044946468155596352 0 4.3569065963809026e-07 0.044943593255705024 0 -2.4184144841489437e-08 0.044999903572478288 0 -7.5399579872106893e-06 0.044946468155596352 0 1.9748773707298025e-08 0.044999921611083654 0 1.9748773707298025e-08 0.044999921611083654 0 4.3569065963809026e-07 0.044943593255705024 0 3.4906847031827245e-06 0.044985277233452414 0 -7.5399579872106893e-06 0.044946468155596352 0 1.9748773707298025e-08 0.044999921611083654 0 4.3569065963809026e-07 0.044943593255705024 0 -3.215417316774565e-05 0.044758495981559364 0 -1.7978936266852512e-05 0.044875819579893644 0 -6.787661275984578e-06 0.04488838843576818 0 -1.7978936266852512e-05 0.044875819579893644 0 4.3569065963809026e-07 0.044943593255705024 0 -6.787661275984578e-06 0.04488838843576818 0 4.3569065963809026e-07 0.044943593255705024 0 2.4394217799223246e-07 0.044960096015772756 0 3.4906847031827245e-06 0.044985277233452414 0 4.3569065963809026e-07 0.044943593255705024 0 2.4394217799223246e-07 0.044960096015772756 0 -6.787661275984578e-06 0.04488838843576818 0 2.4394217799223246e-07 0.044960096015772756 0 -6.787661275984578e-06 0.04488838843576818 0 -1.2441348015679524e-05 0.044963606713439325 0 -4.3237230655754567e-05 0.045005847180403 0 -6.787661275984578e-06 0.04488838843576818 0 -1.2441348015679524e-05 0.044963606713439325 0 -0.00035170375957327139 0.04434813046860709 0 -3.5783888288857651e-05 0.044185783628793655 0 -2.9545501201920745e-05 0.044986170160844066 0 -9.4020658891041812e-06 0.044987540155708133 0 -4.753399934578189e-06 0.04499589469154211 0 -2.7060310549983249e-05 0.044987411807123547 0 -9.6784863223581415e-06 0.044975501560268423 0 -9.4020658891041812e-06 0.044987540155708133 0 -2.9545501201920745e-05 0.044986170160844066 0 -2.7060310549983249e-05 0.044987411807123547 0 -9.4020658891041812e-06 0.044987540155708133 0 -4.3237230655754567e-05 0.045005847180403 0 -2.7060310549983249e-05 0.044987411807123547 0 -1.2441348015679524e-05 0.044963606713439325 0 -2.7060310549983249e-05 0.044987411807123547 0 -1.2441348015679524e-05 0.044963606713439325 0 -9.6784863223581415e-06 0.044975501560268423 0 2.4394217799223246e-07 0.044960096015772756 0 -1.2441348015679524e-05 0.044963606713439325 0 -9.6784863223581415e-06 0.044975501560268423 0 2.4394217799223246e-07 0.044960096015772756 0 -9.4020658891041812e-06 0.044987540155708133 0 3.4906847031827245e-06 0.044985277233452414 0 2.4394217799223246e-07 0.044960096015772756 0 -9.6784863223581415e-06 0.044975501560268423 0 -9.4020658891041812e-06 0.044987540155708133 0 -9.4020658891041812e-06 0.044987540155708133 0 3.4906847031827245e-06 0.044985277233452414 0 -1.7931215417951013e-06 0.044994766091612397 0 1.9748773707298025e-08 0.044999921611083654 0 3.4906847031827245e-06 0.044985277233452414 0 -7.6562295166914563e-10 0.045000000390820187 0 3.4906847031827245e-06 0.044985277233452414 0 -7.6562295166914563e-10 0.045000000390820187 0 -1.7931215417951013e-06 0.044994766091612397 0 -7.6562295166914563e-10 0.045000000390820187 0 -1.7931215417951013e-06 0.044994766091612397 0 -1.089925310977482e-06 0.044998471120378879 0 -1.7931215417951013e-06 0.044994766091612397 0 -1.089925310977482e-06 0.044998471120378879 0 -4.753399934578189e-06 0.04499589469154211 0 -1.089925310977482e-06 0.044998471120378879 0 -4.753399934578189e-06 0.04499589469154211 0 -5.9898474903522487e-07 0.0449987214283811 0 -7.6562295166914563e-10 0.045000000390820187 0 -1.089925310977482e-06 0.044998471120378879 0 -1.3612875145030571e-09 0.044999994678695761 0 -1.089925310977482e-06 0.044998471120378879 0 -1.3612875145030571e-09 0.044999994678695761 0 -5.9898474903522487e-07 0.0449987214283811 0 -7.1492250829166369e-05 0.043540295097179112 0 -0.00052711636967498247 0.043900842397811446 0 8.2640856650663446e-05 0.044242855956126217 0 -3.5783888288857651e-05 0.044185783628793655 0 2.5880460325040526e-05 0.044623600458951869 0 -9.4020658891041812e-06 0.044987540155708133 0 -1.7931215417951013e-06 0.044994766091612397 0 -4.753399934578189e-06 0.04499589469154211 0 -7.1492250829166369e-05 0.043540295097179112 0 -0.00052750738722952013 0.043344998838704039 0 -0.00052711636967498247 0.043900842397811446 0 -0.00031448161564584894 0.042856903927050945 0 -7.1492250829166369e-05 0.043540295097179112 0 -0.00052750738722952013 0.043344998838704039 0 -0.00052750738722952013 0.043344998838704039 0 -0.00099869948355180691 0.043463548921565488 0 -0.00052711636967498247 0.043900842397811446 0 -0.00094502661017638291 0.042798963481781728 0 -0.00052750738722952013 0.043344998838704039 0 -0.00099869948355180691 0.043463548921565488 0 -0.00063654087999821926 0.036915236734560784 0 -0.00066931609962065828 0.036401989360111665 0 -0.00099463629247994513 0.044083566725009717 0 -0.00099869948355180691 0.043463548921565488 0 -0.00052711636967498247 0.043900842397811446 0 -0.00099463629247994513 0.044083566725009717 0 -0.00052711636967498247 0.043900842397811446 0 -0.00042799551849119483 0.044524904087466323 0 -0.00096096527176275101 0.044583850943619135 0 -0.00099463629247994513 0.044083566725009717 0 -0.00042799551849119483 0.044524904087466323 0 -0.00042799551849119483 0.044524904087466323 0 -0.00011909963485690918 0.04472562782885954 0 8.2640856650663446e-05 0.044242855956126217 0 -0.00013747183392810491 0.044929962973573233 0 -0.00042799551849119483 0.044524904087466323 0 -0.00011909963485690918 0.04472562782885954 0 9.8088881186883024e-09 0.044999823967134013 0 2.5880460325040526e-05 0.044623600458951869 0 -0.00011909963485690918 0.04472562782885954 0 4.8186543938401116e-07 0.044998935622677309 0 8.2640856650663446e-05 0.044242855956126217 0 7.1214621332237511e-10 0.045000000601641561 0 -1.3612875145030571e-09 0.044999994678695761 0 -5.9898474903522487e-07 0.0449987214283811 0 -0.00052711636967498247 0.043900842397811446 0 -0.00042799551849119483 0.044524904087466323 0 8.2640856650663446e-05 0.044242855956126217 0 0.00013999667238519451 0.04484279404577645 0 4.5840986872560161e-05 0.044778916784848036 0 0.00026120362125514303 0.044579406418831409 0 4.1205198952526135e-05 0.044031370335596211 0 0.00036800841282965047 0.043832662758607491 0 0.00023693026462749469 0.04347945494772229 0 2.3978683924618954e-05 0.044665389965405269 0 0.00028665078263919889 0.042689656325093847 0 4.1205198952526135e-05 0.044031370335596211 0 0.00036800841282965047 0.043832662758607491 0 0.00028353653368753923 0.044222862465719964 0 4.4222924798181445e-07 0.044999734749370288 0 -1.3137451906765665e-09 0.044999998484064316 0 3.1549795512775135e-09 0.045000002149066694 0 0.00013999667238519451 0.04484279404577645 0 4.5840986872560161e-05 0.044778916784848036 0 -3.3234603800051876e-08 0.044999877549007507 0 1.2476556067862169e-05 0.044906812014551746 0 1.5207633857352345e-08 0.044999939677298956 0 2.3978683924618954e-05 0.044665389965405269 0 2.5717292837806448e-05 0.044715783902287656 0 0.00013999667238519451 0.04484279404577645 0 3.8708817843816666e-05 0.045009539540617115 0 -3.3234603800051876e-08 0.044999877549007507 0 -5.0064430124801668e-05 0.04454295015376894 0 0.00028353653368753923 0.044222862465719964 0 0.0001853341867853009 0.044703774964795787 0 4.1205198952526135e-05 0.044031370335596211 0 -5.0064430124801668e-05 0.04454295015376894 0 0.00028353653368753923 0.044222862465719964 0 0.00028353653368753923 0.044222862465719964 0 0.00050826235077430131 0.044453342631051211 0 0.0001853341867853009 0.044703774964795787 0 0.00031129127797156986 0.036786923102266951 0 0.00028560275594620356 0.03680797059256196 0 0.00030911068137118509 0.036868656171003725 0 0.00028353653368753923 0.044222862465719964 0 0.00050826235077430131 0.044453342631051211 0 0.00061407216269952314 0.043883036471137532 0 0.00041992553022279441 0.04079741151249177 0 0.00016139246698060298 0.039418809516517578 0 0.00031129127797156986 0.036786923102266951 0 0.00028560275594620356 0.03680797059256196 0 0.00027135896522531143 0.03674918807659458 0 -0.00023829583082756315 0.03410293163959964 0 7.4431970817156988e-06 0.029371203046854571 0 -5.3113325419040955e-05 0.032955854089766812 0 0.00051565769448512217 0.033562271512539078 0 -0.00067355186693478252 0.032647167259558373 0 0.00024550665759481903 0.036791942859165996 0 0.00027135896522531143 0.03674918807659458 0 0.00024339624405663398 0.036731580781682822 0 0.00024550665759481903 0.036791942859165996 0 0.00021299648933306345 0.036727614708004577 0 0.00024339624405663398 0.036731580781682822 0 0.00028560275594620356 0.03680797059256196 0 0.00024550665759481903 0.036791942859165996 0 0.00027135896522531143 0.03674918807659458 0 0.00028560275594620356 0.03680797059256196 0 0.00024550665759481903 0.036791942859165996 0 0.00028358301721688266 0.036852585811158085 0 -0.00015522089169908894 0.030451551412388891 0 -0.0007491096197127841 0.03048936431974281 0 0.00017409988706402108 0.031138942748510166 0 0.00028710303332484189 0.035057563540000905 0 -0.00023829583082756315 0.03410293163959964 0 -0.0007491096197127841 0.03048936431974281 0 -0.00093266013544891877 0.030312985110354781 0 -0.00038300384385768336 0.029934037480414209 0 -0.00015522089169908894 0.030451551412388891 0 -0.0007491096197127841 0.03048936431974281 0 -0.00038300384385768336 0.029934037480414209 0 0.00036800841282965047 0.043832662758607491 0 0.00067206257367005966 0.04376387917603107 0 0.00023693026462749469 0.04347945494772229 0 0.00050826235077430131 0.044453342631051211 0 0.00061407216269952314 0.043883036471137532 0 0.00064189372073067646 0.043836771780884937 0 0.00036800841282965047 0.043832662758607491 0 0.00028353653368753923 0.044222862465719964 0 0.00061407216269952314 0.043883036471137532 0 0.00028560275594620356 0.03680797059256196 0 0.00028358301721688266 0.036852585811158085 0 0.00030911068137118509 0.036868656171003725 0 0.00028358301721688266 0.036852585811158085 0 0.00030911068137118509 0.036868656171003725 0 0.0003052399187257358 0.036877924083603082 0 1.7130447228917339e-05 0.039882456244113171 0 0.00016139246698060298 0.039418809516517578 0 0.00016139246698060298 0.039418809516517578 0 0.00052806363434941116 0.036895124305550746 0 -0.00023829583082756315 0.03410293163959964 0 0.00052806363434941116 0.036895124305550746 0 0.00036800841282965047 0.043832662758607491 0 0.00063821359749595147 0.043833466673918867 0 0.00067206257367005966 0.04376387917603107 0 0.00052806363434941116 0.036895124305550746 0 0.00071992380702820937 0.038665429210032458 0 0.00036800841282965047 0.043832662758607491 0 0.00061407216269952314 0.043883036471137532 0 0.00063821359749595147 0.043833466673918867 0 7.8528691677467733e-05 0.038848502310005237 0 0.00022123024906675173 0.039026494985894757 0 0.0003978825900692464 0.039110031512477807 0 0.00011456678010058625 0.035492602200337543 0 0.00035731476241554591 0.034934817255838163 0 0.00013766165838967746 0.035035483437965455 0 0.00022123024906675173 0.039026494985894757 0 4.9297131885132141e-05 0.039295019439606386 0 0.0003978825900692464 0.039110031512477807 0 0.00052806363434941116 0.036895124305550746 0 0.00028665078263919889 0.042689656325093847 0 7.1980852810042906e-05 0.038857799106435054 0 0.00022123024906675173 0.039026494985894757 0 4.9297131885132141e-05 0.039295019439606386 0 0.00052806363434941116 0.036895124305550746 0 5.8671018138981292e-05 0.037306348103094779 0 -0.00038300384385768336 0.029934037480414209 0 -0.00043389656456061274 0.029264853848546598 0 0.00049793589716372289 0.02928175622977585 0 0.00052806363434941116 0.036895124305550746 0 -0.00013022224715181693 0.031913472191166449 0 -0.00093266013544891877 0.030312985110354781 0 -0.00038300384385768336 0.029934037480414209 0 -0.00043389656456061274 0.029264853848546598 0 0.00035731476241554591 0.034934817255838163 0 0.00013766165838967746 0.035035483437965455 0 0.00021074651468376107 0.03469652435710531 0 5.8671018138981292e-05 0.037306348103094779 0 0.00016717323535460978 0.036656699689816337 0 4.9297131885132141e-05 0.039295019439606386 0 2.266653972523396e-05 0.039668586617122692 0 0.00017239818689499634 0.039588400887620077 0 4.9297131885132141e-05 0.039295019439606386 0 0.0003978825900692464 0.039110031512477807 0 0.00017239818689499634 0.039588400887620077 0 0.00028665078263919889 0.042689656325093847 0 2.2628787812510477e-05 0.042504686262254766 0 2.4110642762007713e-05 0.044989858151121602 0 1.5276017922022994e-05 0.045007569000990087 0 1.7174102851421444e-06 0.04499964695475258 0 0.00017325801774771386 0.044720307763988359 0 0.0001444104150938844 0.044318445975335678 0 -2.3829297054266712e-05 0.044797581349432361 0 0.00017325801774771386 0.044720307763988359 0 0.00029420766565531223 0.044432940474389788 0 0.0001444104150938844 0.044318445975335678 0 8.9564381348277526e-05 0.044860275569453885 0 0.00019730467487867205 0.044662491649450124 0 4.5840986872560161e-05 0.044778916784848036 0 0.00015280294322081285 0.04449704836538259 0 0.00026120362125514303 0.044579406418831409 0 0.00019730467487867205 0.044662491649450124 0 0.00028665078263919889 0.042689656325093847 0 1.2476556067862169e-05 0.044906812014551746 0 0.00019730467487867205 0.044662491649450124 0 3.1549795512775135e-09 0.045000002149066694 0 1.0391984332063329e-06 0.044999534133895042 0 -3.6540823527341171e-09 0.044999986231049789 0 4.4222924798181445e-07 0.044999734749370288 0 2.07459946665786e-06 0.04499834644079212 0 1.0391984332063329e-06 0.044999534133895042 0 4.4222924798181445e-07 0.044999734749370288 0 3.1549795512775135e-09 0.045000002149066694 0 1.0391984332063329e-06 0.044999534133895042 0 2.07459946665786e-06 0.04499834644079212 0 1.0391984332063329e-06 0.044999534133895042 0 1.7174102851421444e-06 0.04499964695475258 0 2.4110642762007713e-05 0.044989858151121602 0 1.7174102851421444e-06 0.04499964695475258 0 5.7840040643297181e-06 0.044986812576891209 0 1.0391984332063329e-06 0.044999534133895042 0 1.7174102851421444e-06 0.04499964695475258 0 -3.6540823527341171e-09 0.044999986231049789 0 0.00019730467487867205 0.044662491649450124 0 7.2857538212177622e-05 0.04492588857050097 0 1.7174102851421444e-06 0.04499964695475258 0 -3.6540823527341171e-09 0.044999986231049789 0 5.7840040643297181e-06 0.044986812576891209 0 -3.6540823527341171e-09 0.044999986231049789 0 5.7840040643297181e-06 0.044986812576891209 0 5.2464434150413792e-06 0.044982271415972705 0 -3.6540823527341171e-09 0.044999986231049789 0 5.2464434150413792e-06 0.044982271415972705 0 1.7061270206945061e-08 0.044999933715938668 0 5.7840040643297181e-06 0.044986812576891209 0 5.2464434150413792e-06 0.044982271415972705 0 1.2900314601672838e-05 0.044961993209969457 0 0.00017325801774771386 0.044720307763988359 0 3.2685242098625723e-05 0.044916175950472356 0 -2.3829297054266712e-05 0.044797581349432361 0 2.4110642762007713e-05 0.044989858151121602 0 1.2900314601672838e-05 0.044961993209969457 0 3.2685242098625723e-05 0.044916175950472356 0 8.9564381348277526e-05 0.044860275569453885 0 5.0519302065420076e-05 0.044906869137930995 0 2.4110642762007713e-05 0.044989858151121602 0 5.7840040643297181e-06 0.044986812576891209 0 1.2900314601672838e-05 0.044961993209969457 0 1.2900314601672838e-05 0.044961993209969457 0 3.2685242098625723e-05 0.044916175950472356 0 1.5031678977093943e-05 0.044960192990407225 0 5.2464434150413792e-06 0.044982271415972705 0 1.2900314601672838e-05 0.044961993209969457 0 1.5031678977093943e-05 0.044960192990407225 0 1.5031678977093943e-05 0.044960192990407225 0 1.0904877684929635e-05 0.044965322934083625 0 1.549234140200514e-05 0.044949149794082821 0 3.2685242098625723e-05 0.044916175950472356 0 1.5031678977093943e-05 0.044960192990407225 0 1.549234140200514e-05 0.044949149794082821 0 5.2464434150413792e-06 0.044982271415972705 0 1.5031678977093943e-05 0.044960192990407225 0 1.7061270206945061e-08 0.044999933715938668 0 1.5031678977093943e-05 0.044960192990407225 0 1.7061270206945061e-08 0.044999933715938668 0 1.0904877684929635e-05 0.044965322934083625 0 1.7061270206945061e-08 0.044999933715938668 0 2.8106507279218553e-06 0.044975945416053847 0 -1.150054938284395e-09 0.044999970971066207 0 1.7061270206945061e-08 0.044999933715938668 0 1.0904877684929635e-05 0.044965322934083625 0 2.8106507279218553e-06 0.044975945416053847 0 1.0904877684929635e-05 0.044965322934083625 0 2.8106507279218553e-06 0.044975945416053847 0 8.3311758355340353e-06 0.044954892726292821 0 -6.9262277120501075e-06 0.044966618829477063 0 2.8106507279218553e-06 0.044975945416053847 0 3.579517485269622e-06 0.044956654649868887 0 2.8106507279218553e-06 0.044975945416053847 0 3.579517485269622e-06 0.044956654649868887 0 8.3311758355340353e-06 0.044954892726292821 0 -6.9262277120501075e-06 0.044966618829477063 0 2.8106507279218553e-06 0.044975945416053847 0 -1.150054938284395e-09 0.044999970971066207 0 0.00066541661278679597 0.035102386648416146 0 0.00061404955386078685 0.035166099536480991 0 0.0006377773529049035 0.035233458767252715 0 0.0011555459933530908 0.033934531043888203 0 0.00072858303037756872 0.034609603016400987 0 0.00032022045883195254 0.04092963346146547 0 7.3656340469894642e-05 0.042645573758886481 0 0.00030429810392197009 0.03929593612643905 0 0.00027909034355046017 0.039326895778260679 0 0.00030341731251469473 0.039310160171260905 0 0.00032022045883195254 0.04092963346146547 0 0.00072858303037756872 0.034609603016400987 0 2.1192582293653185e-05 0.044931686898725016 0 8.3311758355340353e-06 0.044954892726292821 0 9.9393009096329052e-06 0.044940162584046338 0 1.7055254908339393e-05 0.044941911964766906 0 2.1192582293653185e-05 0.044931686898725016 0 8.3311758355340353e-06 0.044954892726292821 0 1.7055254908339393e-05 0.044941911964766906 0 3.579517485269622e-06 0.044956654649868887 0 8.3311758355340353e-06 0.044954892726292821 0 5.0257707050224414e-06 0.044950887958408535 0 9.9393009096329052e-06 0.044940162584046338 0 -1.4557207154395517e-05 0.044938280117610939 0 8.3311758355340353e-06 0.044954892726292821 0 5.0257707050224414e-06 0.044950887958408535 0 9.9393009096329052e-06 0.044940162584046338 0 1.0904877684929635e-05 0.044965322934083625 0 8.3311758355340353e-06 0.044954892726292821 0 5.0257707050224414e-06 0.044950887958408535 0 1.0904877684929635e-05 0.044965322934083625 0 5.0257707050224414e-06 0.044950887958408535 0 1.549234140200514e-05 0.044949149794082821 0 0.00037542308342437982 0.034238782944793829 0 0.00043402797187882674 0.034383116749465197 0 0.00026822149959862329 0.034445806211360688 0 7.3656340469894642e-05 0.042645573758886481 0 1.2789596259265038e-05 0.039914582833315462 0 0.00027909034355046017 0.039326895778260679 0 0.00030341731251469473 0.039310160171260905 0 0.00025747952190707102 0.039380387439722594 0 0.00072858303037756872 0.034609603016400987 0 1.2789596259265038e-05 0.039914582833315462 0 0.00072858303037756872 0.034609603016400987 0 0.0011457832568485718 0.032485214972210553 0 0.0022336917333305056 0.03147893308663649 0 0.001693066775044779 0.03007983066578869 0 0.0012372275533385759 0.031008569629565424 0 0.00026822149959862329 0.034445806211360688 0 0.00021074651468376107 0.03469652435710531 0 0.00034557334214837632 0.034561960287004617 0 0.00043402797187882674 0.034383116749465197 0 0.00026822149959862329 0.034445806211360688 0 0.00034557334214837632 0.034561960287004617 0 0.00043402797187882674 0.034383116749465197 0 0.00034557334214837632 0.034561960287004617 0 0.00052013263134681226 0.034534912483729835 0 1.2789596259265038e-05 0.039914582833315462 0 0.00016717323535460978 0.036656699689816337 0 3.2685242098625723e-05 0.044916175950472356 0 -1.4557207154395517e-05 0.044938280117610939 0 1.549234140200514e-05 0.044949149794082821 0 5.0257707050224414e-06 0.044950887958408535 0 -1.4557207154395517e-05 0.044938280117610939 0 1.549234140200514e-05 0.044949149794082821 0 1.2789596259265038e-05 0.039914582833315462 0 2.2628787812510477e-05 0.042504686262254766 0 3.2685242098625723e-05 0.044916175950472356 0 -1.4557207154395517e-05 0.044938280117610939 0 -2.3829297054266712e-05 0.044797581349432361 0 -9.9429333523871135e-06 0.040007839267625071 0 2.266653972523396e-05 0.039668586617122692 0 0.00017239818689499634 0.039588400887620077 0 0.00035731476241554591 0.034934817255838163 0 0.00034557334214837632 0.034561960287004617 0 0.00052013263134681226 0.034534912483729835 0 0.00035731476241554591 0.034934817255838163 0 0.00021074651468376107 0.03469652435710531 0 0.00034557334214837632 0.034561960287004617 0 -0.00013022224715181693 0.031913472191166449 0 0.0002184674267358926 0.028481115508814315 0 -0.00055406688835199578 0.022069541024520526 0 -0.00029553706043891246 0.022241525408529007 0 -0.00052110393099297095 0.021824783624742237 0 0.0002184674267358926 0.028481115508814315 0 -0.00034823676383316727 0.024342771919710859 0 -0.00055406688835199578 0.022069541024520526 0 -0.00048786611328992371 0.022280599801750015 0 -0.00029553706043891246 0.022241525408529007 0 -0.00071931075496085416 0.021967842168262849 0 -0.00055406688835199578 0.022069541024520526 0 -0.00068029856285332859 0.022273485231747516 0 -0.00068029856285332859 0.022273485231747516 0 -0.00048786611328992371 0.022280599801750015 0 -0.00038520037401510717 0.022604045781563376 0 -0.00055406688835199578 0.022069541024520526 0 -0.00068029856285332859 0.022273485231747516 0 -0.00048786611328992371 0.022280599801750015 0 0.001693066775044779 0.03007983066578869 0 0.0011464583839676037 0.028685742972595463 0 0.00021603732694855022 0.030520872953403083 0 -0.00048786611328992371 0.022280599801750015 0 -0.00029553706043891246 0.022241525408529007 0 -0.00038520037401510717 0.022604045781563376 0 0.0002184674267358926 0.028481115508814315 0 0.00010144455428775743 0.02601606337543369 0 0.0011457832568485718 0.032485214972210553 0 0.0002184674267358926 0.028481115508814315 0 0.001693066775044779 0.03007983066578869 0 0.0012372275533385759 0.031008569629565424 0 0.00021603732694855022 0.030520872953403083 0 0.0022336917333305056 0.03147893308663649 0 0.0012372275533385759 0.031008569629565424 0 0.00080577600672781201 0.031955320611023179 0 0.0012372275533385759 0.031008569629565424 0 0.00021603732694855022 0.030520872953403083 0 0.00080577600672781201 0.031955320611023179 0 -0.00068029856285332859 0.022273485231747516 0 -0.00038520037401510717 0.022604045781563376 0 -0.00077199825930011196 0.022739569690772739 0 -0.00038520037401510717 0.022604045781563376 0 -0.00054267615240200775 0.023120485788787497 0 -0.00077199825930011196 0.022739569690772739 0 0.00010144455428775743 0.02601606337543369 0 -0.00076712834624700259 0.027854920594579252 0 0.00026304052494844358 0.033823717929266785 0 -0.00071207791226522634 0.032366466515661864 0 0.00080577600672781201 0.031955320611023179 0 0.00021603732694855022 0.030520872953403083 0 -0.00071207791226522634 0.032366466515661864 0 0.00080577600672781201 0.031955320611023179 0 0.0014434920023604194 0.033276786604965899 0 0.0022336917333305056 0.03147893308663649 0 0.00080577600672781201 0.031955320611023179 0 0.00026304052494844358 0.033823717929266785 0 0.0014434920023604194 0.033276786604965899 0 0.00080577600672781201 0.031955320611023179 0 -0.0008394456338389288 0.020683576428466771 0 -0.00084120199736986126 0.020990311464459177 0 -0.00051059224412689798 0.020814529828716732 0 -0.0010673059558922475 0.022480745191814245 0 -0.00098672899796936261 0.021877345649636809 0 -0.00084120199736986126 0.020990311464459177 0 -0.00060461183770047378 0.021030132612635501 0 -0.00051059224412689798 0.020814529828716732 0 -0.0011686078292804454 0.023510225047469226 0 -0.001141747492523141 0.022905570050574916 0 -0.00088281963427671673 0.023187218029364628 0 -0.001141747492523141 0.022905570050574916 0 -0.00088281963427671673 0.023187218029364628 0 -0.00077199825930011196 0.022739569690772739 0 -0.00054267615240200775 0.023120485788787497 0 -0.00088281963427671673 0.023187218029364628 0 -0.00077199825930011196 0.022739569690772739 0 -0.001141747492523141 0.022905570050574916 0 -0.00077199825930011196 0.022739569690772739 0 -0.0010545434079337254 0.022368420753661807 0 -0.00084120199736986126 0.020990311464459177 0 -0.00086641417510023837 0.021315976655891487 0 -0.00060461183770047378 0.021030132612635501 0 -0.00098672899796936261 0.021877345649636809 0 -0.00095059800758450397 0.021872094643338894 0 -0.00086641417510023837 0.021315976655891487 0 -0.0004888621296097387 0.02123831044008322 0 -0.00060461183770047378 0.021030132612635501 0 -0.00086641417510023837 0.021315976655891487 0 -0.00066001492440619645 0.021538660655343204 0 -0.0004888621296097387 0.02123831044008322 0 -0.00095059800758450397 0.021872094643338894 0 -0.00088851911085113897 0.021843876816896458 0 -0.00086641417510023837 0.021315976655891487 0 -0.00066001492440619645 0.021538660655343204 0 -0.00086288103348809275 0.021837934343453654 0 -0.00068029856285332859 0.022273485231747516 0 -0.0010545434079337254 0.022368420753661807 0 -0.00086288103348809275 0.021837934343453654 0 -0.00068029856285332859 0.022273485231747516 0 -0.00077199825930011196 0.022739569690772739 0 -0.0010545434079337254 0.022368420753661807 0 -0.00071931075496085416 0.021967842168262849 0 -0.00068029856285332859 0.022273485231747516 0 -0.00086288103348809275 0.021837934343453654 0 -0.00066001492440619645 0.021538660655343204 0 -0.00086288103348809275 0.021837934343453654 0 -0.00059669914397397544 0.021788166653691252 0 -0.00086288103348809275 0.021837934343453654 0 -0.00069578724130399546 0.021915917906943558 0 -0.00059669914397397544 0.021788166653691252 0 -0.00086288103348809275 0.021837934343453654 0 -0.00069578724130399546 0.021915917906943558 0 -0.00076813970276594509 0.021931350236543301 0 -0.00069578724130399546 0.021915917906943558 0 -0.00069811734474991747 0.02204878775648032 0 -0.00076813970276594509 0.021931350236543301 0 -0.00069578724130399546 0.021915917906943558 0 -0.00069811734474991747 0.02204878775648032 0 -0.00058229664748302363 0.021986738670867163 0 -0.00069811734474991747 0.02204878775648032 0 -0.00058310213681187991 0.02208087657127978 0 -0.00058229664748302363 0.021986738670867163 0 -0.00069811734474991747 0.02204878775648032 0 -0.00078593451509668271 0.022002169109317227 0 -0.00076813970276594509 0.021931350236543301 0 -0.00069811734474991747 0.02204878775648032 0 -0.00078593451509668271 0.022002169109317227 0 -0.00078124012093843342 0.022124891150298476 0 -0.00071931075496085416 0.021967842168262849 0 -0.00086288103348809275 0.021837934343453654 0 -0.00076813970276594509 0.021931350236543301 0 -0.00078593451509668271 0.022002169109317227 0 -0.00076813970276594509 0.021931350236543301 0 -0.00070585658242138959 0.021958202774993898 0 -0.00071931075496085416 0.021967842168262849 0 -0.00055406688835199578 0.022069541024520526 0 -0.00070585658242138959 0.021958202774993898 0 -0.00045429283811507617 0.021272367370697903 0 -0.00034823676383316727 0.024342771919710859 0 -0.00071931075496085416 0.021967842168262849 0 -0.00076813970276594509 0.021931350236543301 0 -0.00070585658242138959 0.021958202774993898 0 -0.00043389656456061274 0.029264853848546598 0 8.6668755590667472e-05 0.028225325261651814 0 0.00049793589716372289 0.02928175622977585 0 -0.00038300384385768336 0.029934037480414209 0 0.00049793589716372289 0.02928175622977585 0 0.00033462794305233093 0.030232562502016398 0 -0.00034823676383316727 0.024342771919710859 0 0.00016915674911082364 0.027384619309319454 0 -0.00013490826213540043 0.024361305718021004 0 -4.4317621477364833e-05 0.024052476440591969 0 -5.1278734961888135e-05 0.024052836943845097 0 -0.00034823676383316727 0.024342771919710859 0 -0.00063963303894893123 0.022856831378451698 0 -0.00013490826213540043 0.024361305718021004 0 -0.00031968484672442813 0.024095541474308538 0 -5.1278734961888135e-05 0.024052836943845097 0 -0.00078593451509668271 0.022002169109317227 0 -0.00070585658242138959 0.021958202774993898 0 -0.00083836689988516812 0.022048596803613086 0 -0.00078593451509668271 0.022002169109317227 0 -0.00083836689988516812 0.022048596803613086 0 -0.00078124012093843342 0.022124891150298476 0 -0.00031968484672442813 0.024095541474308538 0 -0.00026657456344525546 0.023654072372616065 0 -0.00065798815163985419 0.02336138379658672 0 -0.00063963303894893123 0.022856831378451698 0 -0.00071618604772399755 0.022867274086398524 0 -0.00083836689988516812 0.022048596803613086 0 -0.0008677815239100515 0.022294835224234838 0 -0.00078124012093843342 0.022124891150298476 0 -0.00031968484672442813 0.024095541474308538 0 -0.00026657456344525546 0.023654072372616065 0 -5.1278734961888135e-05 0.024052836943845097 0 0.00016915674911082364 0.027384619309319454 0 7.4431970817156988e-06 0.029371203046854571 0 -0.00015522089169908894 0.030451551412388891 0 -0.00038300384385768336 0.029934037480414209 0 0.00033462794305233093 0.030232562502016398 0 -0.00015522089169908894 0.030451551412388891 0 0.00033462794305233093 0.030232562502016398 0 0.00017409988706402108 0.031138942748510166 0 -4.4317621477364833e-05 0.024052476440591969 0 -5.1278734961888135e-05 0.024052836943845097 0 4.3527632504399921e-05 0.024582278010663768 0 -0.00026657456344525546 0.023654072372616065 0 -5.1278734961888135e-05 0.024052836943845097 0 -1.6101164625197931e-05 0.023410657767600346 0 -1.9210924890222058e-05 0.024147053389431763 0 -5.1580939817465764e-05 0.023633600563540864 0 -4.4317621477364833e-05 0.024052476440591969 0 4.3527632504399921e-05 0.024582278010663768 0 -0.00019347306308878812 0.024988935808512351 0 4.3527632504399921e-05 0.024582278010663768 0 -0.00019347306308878812 0.024988935808512351 0 0.00010440721798077401 0.025224674543174942 0 -0.00028043267315549202 0.030342317471833229 0 -0.00032652316857602456 0.030605101422175981 0 2.5121534751839749e-05 0.03057729388777097 0 -5.1580939817465764e-05 0.023633600563540864 0 -0.00024077438970187244 0.026506015493623577 0 7.4431970817156988e-06 0.029371203046854571 0 -0.00024077438970187244 0.026506015493623577 0 0.00028710303332484189 0.035057563540000905 0 -0.00012343051221063629 0.033904289422184167 0 -5.3113325419040955e-05 0.032955854089766812 0 -0.00067355186693478252 0.032647167259558373 0 -0.00062364307614616013 0.032353131520877904 0 7.4431970817156988e-06 0.029371203046854571 0 -0.00012343051221063629 0.033904289422184167 0 -0.00065798815163985419 0.02336138379658672 0 -0.00049838235031465577 0.022856674764516166 0 -0.00071756599578227736 0.022579360164907317 0 -0.00026657456344525546 0.023654072372616065 0 -0.00065798815163985419 0.02336138379658672 0 -0.00029249992939060906 0.023124242353180245 0 -0.00026657456344525546 0.023654072372616065 0 -1.6101164625197931e-05 0.023410657767600346 0 -0.00029249992939060906 0.023124242353180245 0 -1.6101164625197931e-05 0.023410657767600346 0 -0.00029249992939060906 0.023124242353180245 0 -0.0001065453249337291 0.022830200549453946 0 -0.00029249992939060906 0.023124242353180245 0 -0.00049838235031465577 0.022856674764516166 0 -0.0001065453249337291 0.022830200549453946 0 -0.00065798815163985419 0.02336138379658672 0 -0.00029249992939060906 0.023124242353180245 0 -0.00049838235031465577 0.022856674764516166 0 -0.0008677815239100515 0.022294835224234838 0 -0.00073136122625535346 0.022433776266184351 0 -0.00071756599578227736 0.022579360164907317 0 -0.00071618604772399755 0.022867274086398524 0 -0.00074803624717006349 0.022605979524629102 0 -0.00073136122625535346 0.022433776266184351 0 -0.00071342701625275076 0.022269602415231911 0 -0.00069786010920845913 0.022526511103477878 0 -0.0008677815239100515 0.022294835224234838 0 -0.00073136122625535346 0.022433776266184351 0 -0.00071342701625275076 0.022269602415231911 0 -0.0005798543107496943 0.022218043684348897 0 -0.00071342701625275076 0.022269602415231911 0 -0.00069786010920845913 0.022526511103477878 0 -0.00023051476610297286 0.023983324515117425 0 -0.00052065659815792779 0.023845590891938051 0 -0.0005798543107496943 0.022218043684348897 0 -0.0004337183091250664 0.02235362226323467 0 -0.00069786010920845913 0.022526511103477878 0 -0.00069811734474991747 0.02204878775648032 0 -0.0005798543107496943 0.022218043684348897 0 -0.00071342701625275076 0.022269602415231911 0 -0.00069811734474991747 0.02204878775648032 0 -0.0005798543107496943 0.022218043684348897 0 -0.00058310213681187991 0.02208087657127978 0 -0.00069811734474991747 0.02204878775648032 0 -0.00078124012093843342 0.022124891150298476 0 -0.00071342701625275076 0.022269602415231911 0 -0.0008677815239100515 0.022294835224234838 0 -0.00078124012093843342 0.022124891150298476 0 -0.00071342701625275076 0.022269602415231911 0 -0.00038421943057855603 0.022173747407067942 0 -0.0004337183091250664 0.02235362226323467 0 -0.00016958523672687322 0.022190013904447775 0 -0.00023687709652746853 0.022118520254654293 0 -0.00038421943057855603 0.022173747407067942 0 -0.00016958523672687322 0.022190013904447775 0 -0.00021442937670395685 0.022280161356994444 0 0.00018236593159746487 0.022749532331028208 0 -0.00023687709652746853 0.022118520254654293 0 -0.00010044535882825225 0.021944210544521055 0 -0.00022189249189855675 0.021958880773405822 0 -0.00023687709652746853 0.022118520254654293 0 -0.00036315994014348481 0.02207273509118856 0 -0.00022189249189855675 0.021958880773405822 0 -0.00023687709652746853 0.022118520254654293 0 -0.00036315994014348481 0.02207273509118856 0 -0.00038421943057855603 0.022173747407067942 0 -0.0005798543107496943 0.022218043684348897 0 -0.00048856371818187868 0.022091885421723925 0 -0.00038421943057855603 0.022173747407067942 0 -0.00036315994014348481 0.02207273509118856 0 -0.00048856371818187868 0.022091885421723925 0 -0.00038421943057855603 0.022173747407067942 0 -0.0005798543107496943 0.022218043684348897 0 -0.00038421943057855603 0.022173747407067942 0 -0.0004337183091250664 0.02235362226323467 0 -0.0005798543107496943 0.022218043684348897 0 -0.00058310213681187991 0.02208087657127978 0 -0.00048856371818187868 0.022091885421723925 0 -0.00023051476610297286 0.023983324515117425 0 0.00018236593159746487 0.022749532331028208 0 7.166565662437442e-05 0.025347116765800315 0 0.00057954818464172979 0.025075315719000051 0 0.00046837438433971324 0.025603620715002686 0 0.00091208190010525771 0.02540144779734755 0 0.00057954818464172979 0.025075315719000051 0 0.00046837438433971324 0.025603620715002686 0 0.00061881764307877211 0.023820626147348735 0 0.00018236593159746487 0.022749532331028208 0 0.0001394125994728098 0.021981498909799731 0 0.00023296423123801821 0.021943642434864061 0 0.00021518220058541404 0.022054733011288179 0 0.0001394125994728098 0.021981498909799731 0 0.00015476325542977342 0.021872921856583339 0 0.00023296423123801821 0.021943642434864061 0 0.00015476325542977342 0.021872921856583339 0 -0.00016568288068617883 0.02217690579251588 0 -0.00010044535882825225 0.021944210544521055 0 0.00010550600240609057 0.021718884726656833 0 0.00018236593159746487 0.022749532331028208 0 0.0001394125994728098 0.021981498909799731 0 0.00015476325542977342 0.021872921856583339 0 8.4451339297419325e-05 0.021933493120380707 0 -0.00023687709652746853 0.022118520254654293 0 -0.00016568288068617883 0.02217690579251588 0 -0.00010044535882825225 0.021944210544521055 0 -0.00010044535882825225 0.021944210544521055 0 -0.00017236313930134076 0.021803798954014488 0 -0.00022189249189855675 0.021958880773405822 0 0.00015476325542977342 0.021872921856583339 0 -0.00010044535882825225 0.021944210544521055 0 1.0364932352045579e-05 0.021762786937623634 0 -0.00010044535882825225 0.021944210544521055 0 1.0364932352045579e-05 0.021762786937623634 0 -0.00017236313930134076 0.021803798954014488 0 0.00015476325542977342 0.021872921856583339 0 1.0364932352045579e-05 0.021762786937623634 0 0.00031348629476092501 0.021660314777510736 0 1.0364932352045579e-05 0.021762786937623634 0 6.584501653362346e-05 0.021557719332860256 0 0.00031348629476092501 0.021660314777510736 0 6.584501653362346e-05 0.021557719332860256 0 -0.0001126662446166304 0.021661451265411569 0 -0.00017424812948437182 0.021505245059573276 0 1.0364932352045579e-05 0.021762786937623634 0 6.584501653362346e-05 0.021557719332860256 0 -0.0001126662446166304 0.021661451265411569 0 1.0364932352045579e-05 0.021762786937623634 0 -0.00017236313930134076 0.021803798954014488 0 -0.0001126662446166304 0.021661451265411569 0 -0.0001126662446166304 0.021661451265411569 0 -0.0003125351499221762 0.021712532898171228 0 -0.00017424812948437182 0.021505245059573276 0 -0.0003125351499221762 0.021712532898171228 0 -0.00030860934799300204 0.021832992648264913 0 -0.00047959814264771967 0.021871867812606829 0 -0.00017236313930134076 0.021803798954014488 0 -0.0001126662446166304 0.021661451265411569 0 -0.0003125351499221762 0.021712532898171228 0 -0.00017236313930134076 0.021803798954014488 0 -0.0003125351499221762 0.021712532898171228 0 -0.00030860934799300204 0.021832992648264913 0 -0.00030860934799300204 0.021832992648264913 0 -0.00033723215606722259 0.02195948598618901 0 -0.00022189249189855675 0.021958880773405822 0 -0.00017236313930134076 0.021803798954014488 0 -0.00030860934799300204 0.021832992648264913 0 -0.00022189249189855675 0.021958880773405822 0 -0.00030860934799300204 0.021832992648264913 0 -0.00033723215606722259 0.02195948598618901 0 -0.00047959814264771967 0.021871867812606829 0 -0.00036315994014348481 0.02207273509118856 0 -0.00033723215606722259 0.02195948598618901 0 -0.00022189249189855675 0.021958880773405822 0 -0.00036315994014348481 0.02207273509118856 0 -0.00033723215606722259 0.02195948598618901 0 -0.00046380404714625024 0.021979402035516606 0 -0.00069578724130399546 0.021915917906943558 0 -0.00058229664748302363 0.021986738670867163 0 -0.00047959814264771967 0.021871867812606829 0 -0.00058310213681187991 0.02208087657127978 0 -0.00048856371818187868 0.022091885421723925 0 -0.00058229664748302363 0.021986738670867163 0 -0.00048856371818187868 0.022091885421723925 0 -0.00046380404714625024 0.021979402035516606 0 -0.00058229664748302363 0.021986738670867163 0 -0.00036315994014348481 0.02207273509118856 0 -0.00048856371818187868 0.022091885421723925 0 -0.00046380404714625024 0.021979402035516606 0 -0.00033723215606722259 0.02195948598618901 0 -0.00046380404714625024 0.021979402035516606 0 -0.00047959814264771967 0.021871867812606829 0 -0.00046380404714625024 0.021979402035516606 0 -0.00058229664748302363 0.021986738670867163 0 -0.00047959814264771967 0.021871867812606829 0 -0.00069578724130399546 0.021915917906943558 0 -0.00059669914397397544 0.021788166653691252 0 -0.00047959814264771967 0.021871867812606829 0 -0.0003125351499221762 0.021712532898171228 0 -0.00059669914397397544 0.021788166653691252 0 -0.00047959814264771967 0.021871867812606829 0 -0.0003125351499221762 0.021712532898171228 0 -0.00059669914397397544 0.021788166653691252 0 -0.00046349462937682968 0.021565613671168271 0 -0.00066001492440619645 0.021538660655343204 0 -0.00059669914397397544 0.021788166653691252 0 -0.00046349462937682968 0.021565613671168271 0 -0.0003125351499221762 0.021712532898171228 0 -0.00046349462937682968 0.021565613671168271 0 -0.00017424812948437182 0.021505245059573276 0 -0.00046349462937682968 0.021565613671168271 0 -0.00030179702601926267 0.021352324269617477 0 -0.00017424812948437182 0.021505245059573276 0 -0.00030179702601926267 0.021352324269617477 0 -0.0004888621296097387 0.02123831044008322 0 -0.00023101967208032429 0.021116793240669222 0 -0.00030179702601926267 0.021352324269617477 0 -0.00013323448713060908 0.021299160759169235 0 -0.00017424812948437182 0.021505245059573276 0 -0.00030179702601926267 0.021352324269617477 0 -0.00023101967208032429 0.021116793240669222 0 -0.00013323448713060908 0.021299160759169235 0 -0.00066001492440619645 0.021538660655343204 0 -0.00046349462937682968 0.021565613671168271 0 -0.0004888621296097387 0.02123831044008322 0 -0.00046349462937682968 0.021565613671168271 0 -0.00030179702601926267 0.021352324269617477 0 -0.0004888621296097387 0.02123831044008322 0 -0.0004888621296097387 0.02123831044008322 0 -0.00060461183770047378 0.021030132612635501 0 -0.00034631024464358871 0.020915676026583719 0 -0.0004888621296097387 0.02123831044008322 0 -0.00023101967208032429 0.021116793240669222 0 -0.00034631024464358871 0.020915676026583719 0 -0.0003054610769186657 0.020671694036272923 0 -0.00034631024464358871 0.020915676026583719 0 -0.00012583846948058873 0.020811757138059252 0 -0.00023101967208032429 0.021116793240669222 0 -0.00034631024464358871 0.020915676026583719 0 -0.00012583846948058873 0.020811757138059252 0 -0.0003054610769186657 0.020671694036272923 0 -0.00034631024464358871 0.020915676026583719 0 -0.00051059224412689798 0.020814529828716732 0 -0.00060461183770047378 0.021030132612635501 0 -0.00034631024464358871 0.020915676026583719 0 -0.00051059224412689798 0.020814529828716732 0 0.00014683655029768921 0.020729392166537877 0 -0.00012583846948058873 0.020811757138059252 0 0.00012452908588787316 0.020957371025161618 0 -0.00023101967208032429 0.021116793240669222 0 -0.00012583846948058873 0.020811757138059252 0 -2.2022474836371107e-05 0.021123571336639568 0 -0.00012583846948058873 0.020811757138059252 0 -2.2022474836371107e-05 0.021123571336639568 0 0.00012452908588787316 0.020957371025161618 0 -2.2022474836371107e-05 0.021123571336639568 0 0.00012452908588787316 0.020957371025161618 0 0.00025731221852070494 0.02112254277913838 0 -2.2022474836371107e-05 0.021123571336639568 0 4.3853974382590545e-05 0.021352769143462468 0 0.00025731221852070494 0.02112254277913838 0 -0.00023101967208032429 0.021116793240669222 0 -2.2022474836371107e-05 0.021123571336639568 0 -0.00013323448713060908 0.021299160759169235 0 -2.2022474836371107e-05 0.021123571336639568 0 -0.00013323448713060908 0.021299160759169235 0 4.3853974382590545e-05 0.021352769143462468 0 -0.00013323448713060908 0.021299160759169235 0 -0.00017424812948437182 0.021505245059573276 0 4.3853974382590545e-05 0.021352769143462468 0 6.584501653362346e-05 0.021557719332860256 0 -0.00017424812948437182 0.021505245059573276 0 4.3853974382590545e-05 0.021352769143462468 0 6.584501653362346e-05 0.021557719332860256 0 4.3853974382590545e-05 0.021352769143462468 0 0.00025848589623255765 0.02141808857002956 0 0.00025848589623255765 0.02141808857002956 0 0.00048889379063045554 0.021221099976488241 0 0.00043538382721606449 0.021447747782687404 0 0.00048889379063045554 0.021221099976488241 0 0.00063481243120087189 0.021488792136763059 0 0.00043538382721606449 0.021447747782687404 0 0.00048889379063045554 0.021221099976488241 0 0.00025731221852070494 0.02112254277913838 0 0.00056747857778313194 0.020943663976871741 0 0.00025848589623255765 0.02141808857002956 0 0.00048889379063045554 0.021221099976488241 0 0.00025731221852070494 0.02112254277913838 0 4.3853974382590545e-05 0.021352769143462468 0 0.00025848589623255765 0.02141808857002956 0 0.00025731221852070494 0.02112254277913838 0 0.00012452908588787316 0.020957371025161618 0 0.00025731221852070494 0.02112254277913838 0 0.00033351630534167692 0.020839116621774807 0 0.00025731221852070494 0.02112254277913838 0 0.00033351630534167692 0.020839116621774807 0 0.00056747857778313194 0.020943663976871741 0 0.00052109235027911433 0.02070039761385192 0 0.00033351630534167692 0.020839116621774807 0 0.00056747857778313194 0.020943663976871741 0 0.00033737375216697641 0.020598734245336037 0 0.00052109235027911433 0.02070039761385192 0 0.00033351630534167692 0.020839116621774807 0 0.00014683655029768921 0.020729392166537877 0 0.00012452908588787316 0.020957371025161618 0 0.00033351630534167692 0.020839116621774807 0 0.00033737375216697641 0.020598734245336037 0 0.00014683655029768921 0.020729392166537877 0 0.00033351630534167692 0.020839116621774807 0 0.0010213343192635635 0.020462474828877811 0 0.00074369959510707582 0.020679156462938941 0 0.00089711203489857767 0.020804081531008795 0 0.00052109235027911433 0.02070039761385192 0 0.00074369959510707582 0.020679156462938941 0 0.00056747857778313194 0.020943663976871741 0 0.00074369959510707582 0.020679156462938941 0 0.00056747857778313194 0.020943663976871741 0 0.00089711203489857767 0.020804081531008795 0 0.00056747857778313194 0.020943663976871741 0 0.00089711203489857767 0.020804081531008795 0 0.00077484702167024313 0.021148335896459824 0 -0.0010195294963891012 0.0071077808704878591 0 -0.0012870427641634911 0.0076229512202792933 0 -0.00083343200441549894 0.0074110620555288345 0 -6.2914838179379162e-05 0.014003599602786293 0 -0.00025867579178870251 0.014380159896279984 0 0.00048889379063045554 0.021221099976488241 0 0.00056747857778313194 0.020943663976871741 0 0.00077484702167024313 0.021148335896459824 0 0.00048889379063045554 0.021221099976488241 0 0.00077484702167024313 0.021148335896459824 0 0.00063481243120087189 0.021488792136763059 0 -0.00025867579178870251 0.014380159896279984 0 -0.00048838104395224589 0.014743895892490505 0 -0.0012870427641634911 0.0076229512202792933 0 -0.0015899669642126474 0.0080094375325315721 0 -0.00094742204493044322 0.0077912437674825547 0 -0.0015899669642126474 0.0080094375325315721 0 -0.00094742204493044322 0.0077912437674825547 0 -0.00082567048440076183 0.0082023878872050822 0 -0.0015899669642126474 0.0080094375325315721 0 -0.0011167221432418822 0.0085299185917602979 0 -0.00082567048440076183 0.0082023878872050822 0 -0.0015899669642126474 0.0080094375325315721 0 -0.0022416113591297855 0.0085321330332517095 0 -0.0011167221432418822 0.0085299185917602979 0 -0.00048838104395224589 0.014743895892490505 0 -0.00091036343021788299 0.015244681533559888 0 0.00063481243120087189 0.021488792136763059 0 0.00043538382721606449 0.021447747782687404 0 0.00031348629476092501 0.021660314777510736 0 0.00025848589623255765 0.02141808857002956 0 0.00043538382721606449 0.021447747782687404 0 0.00031348629476092501 0.021660314777510736 0 6.584501653362346e-05 0.021557719332860256 0 0.00025848589623255765 0.02141808857002956 0 0.00031348629476092501 0.021660314777510736 0 0.00015476325542977342 0.021872921856583339 0 0.00031348629476092501 0.021660314777510736 0 0.00030521301597192727 0.021850048896887055 0 0.00031348629476092501 0.021660314777510736 0 0.00048302878311261115 0.021778642034721154 0 0.00030521301597192727 0.021850048896887055 0 0.00063481243120087189 0.021488792136763059 0 0.00031348629476092501 0.021660314777510736 0 0.00048302878311261115 0.021778642034721154 0 0.00048302878311261115 0.021778642034721154 0 0.00030521301597192727 0.021850048896887055 0 0.00035438541647597797 0.021975810919259025 0 0.00015476325542977342 0.021872921856583339 0 0.00030521301597192727 0.021850048896887055 0 0.00023296423123801821 0.021943642434864061 0 0.00023296423123801821 0.021943642434864061 0 0.00035438541647597797 0.021975810919259025 0 0.00021518220058541404 0.022054733011288179 0 0.00030521301597192727 0.021850048896887055 0 0.00023296423123801821 0.021943642434864061 0 0.00035438541647597797 0.021975810919259025 0 -0.0022416113591297855 0.0085321330332517095 0 -0.0034592528447777303 0.010085242958404976 0 -0.0022683716950680096 0.010072199436251338 0 -0.0022416113591297855 0.0085321330332517095 0 -0.0034592528447777303 0.010085242958404976 0 -0.0036636750464422974 0.0101497234314827 0 -0.00091036343021788299 0.015244681533559888 0 -0.0016829060632781172 0.015816978400853113 0 -0.0017105271635741094 0.01541804169071447 0 -0.0016829060632781172 0.015816978400853113 0 -0.0034592528447777303 0.010085242958404976 0 -0.0022683716950680096 0.010072199436251338 0 -0.002877221960018589 0.010644851669007525 0 -0.0022416113591297855 0.0085321330332517095 0 -0.0022683716950680096 0.010072199436251338 0 -0.001095133023710971 0.0094150541399660483 0 -0.001095133023710971 0.0094150541399660483 0 -0.0011167221432418822 0.0085299185917602979 0 -0.00084473342191485436 0.0090735689156992948 0 -0.0022416113591297855 0.0085321330332517095 0 -0.001095133023710971 0.0094150541399660483 0 -0.0011167221432418822 0.0085299185917602979 0 -0.0023597497181906224 0.013584805203427775 0 -0.0010592870841939453 0.013984071930752771 0 -0.0016294307245640692 0.011794775244724094 0 -0.0026398106247629833 0.012268853979405322 0 -0.0023597497181906224 0.013584805203427775 0 -0.003308422590018185 0.012956250637379237 0 -0.0026398106247629833 0.012268853979405322 0 -0.0023597497181906224 0.013584805203427775 0 -0.0016294307245640692 0.011794775244724094 0 -0.0010592870841939453 0.013984071930752771 0 0.00065519350350502477 0.012434995110600757 0 0.0001698576563504098 0.015511616091622094 0 -0.0010592870841939453 0.013984071930752771 0 0.00065519350350502477 0.012434995110600757 0 -0.0016294307245640692 0.011794775244724094 0 -0.00097970874152918368 0.0094925515100355226 0 -0.00015862688156549983 0.010708810244784563 0 -0.001095133023710971 0.0094150541399660483 0 0.00065519350350502477 0.012434995110600757 0 -0.0016294307245640692 0.011794775244724094 0 -0.001095133023710971 0.0094150541399660483 0 -0.00081720357541040223 0.0091114431910329884 0 -0.00084473342191485436 0.0090735689156992948 0 -0.0022683716950680096 0.010072199436251338 0 -0.001095133023710971 0.0094150541399660483 0 -0.0016294307245640692 0.011794775244724094 0 -0.0026398106247629833 0.012268853979405322 0 -0.0016294307245640692 0.011794775244724094 0 -0.0025488748038510144 0.011201658639784205 0 -0.0022683716950680096 0.010072199436251338 0 -0.0025488748038510144 0.011201658639784205 0 -0.002877221960018589 0.010644851669007525 0 -0.0022683716950680096 0.010072199436251338 0 -0.0016294307245640692 0.011794775244724094 0 -0.0025488748038510144 0.011201658639784205 0 -0.003802721888341464 0.01020805820553501 0 -0.0033318041898948115 0.011265473422229827 0 -0.005096533861861873 0.01273599777348499 0 -0.0034592528447777303 0.010085242958404976 0 -0.002877221960018589 0.010644851669007525 0 -0.0033318041898948115 0.011265473422229827 0 -0.0025488748038510144 0.011201658639784205 0 -0.002877221960018589 0.010644851669007525 0 -0.0033318041898948115 0.011265473422229827 0 -0.0034592528447777303 0.010085242958404976 0 -0.003802721888341464 0.01020805820553501 0 -0.0033318041898948115 0.011265473422229827 0 -0.0026398106247629833 0.012268853979405322 0 -0.0025488748038510144 0.011201658639784205 0 -0.0033318041898948115 0.011265473422229827 0 -0.0016829060632781172 0.015816978400853113 0 0.00074079259469494074 0.023557615088952658 0 -0.0016829060632781172 0.015816978400853113 0 -0.0017016081299390691 0.018944909892036888 0 -0.00058105985054419636 0.019061797911175297 0 -0.00078807862913671169 0.019609021229585834 0 -0.0010861243311362239 0.019326554537725572 0 -0.0017016081299390691 0.018944909892036888 0 0.00074079259469494074 0.023557615088952658 0 -0.0017016081299390691 0.018944909892036888 0 -0.00055012573050470972 0.023881503732125699 0 0.0014575317900590559 0.025905066577901016 0 0.0010945425786931591 0.026078426590842734 0 0.0011622910797267582 0.025630677437781583 0 0.0014575317900590559 0.025905066577901016 0 0.0013213307930223875 0.026302267157687808 0 0.0010945425786931591 0.026078426590842734 0 -0.0017016081299390691 0.018944909892036888 0 -0.0028941145999811201 0.017177058287956258 0 -0.005096533861861873 0.01273599777348499 0 -0.003308422590018185 0.012956250637379237 0 -0.0030977017636632086 0.01501205929683759 0 -0.0033318041898948115 0.011265473422229827 0 -0.005096533861861873 0.01273599777348499 0 -0.003308422590018185 0.012956250637379237 0 -0.0023597497181906224 0.013584805203427775 0 -0.003308422590018185 0.012956250637379237 0 -0.0030977017636632086 0.01501205929683759 0 -0.0026398106247629833 0.012268853979405322 0 -0.0033318041898948115 0.011265473422229827 0 -0.003308422590018185 0.012956250637379237 0 -0.0015815391548656505 0.020616990950393453 0 -0.0017887637866693612 0.020840898678072206 0 -0.0014907920014949987 0.020700424235756718 0 -0.0019154285656907326 0.020289320488761826 0 -0.0015815391548656505 0.020616990950393453 0 -0.0018407097875312169 0.020618712453983831 0 -0.0015815391548656505 0.020616990950393453 0 -0.0018407097875312169 0.020618712453983831 0 -0.0017887637866693612 0.020840898678072206 0 -0.00055012573050470972 0.023881503732125699 0 0.00020958813045450706 0.024439845280570107 0 -0.0019154285656907326 0.020289320488761826 0 -0.0020295191978657512 0.020589415938873552 0 -0.0018407097875312169 0.020618712453983831 0 -0.0020295191978657512 0.020589415938873552 0 -0.001978783449843923 0.020785901433429455 0 -0.0021414272160969138 0.0208966335497624 0 -0.0020295191978657512 0.020589415938873552 0 -0.0018407097875312169 0.020618712453983831 0 -0.001978783449843923 0.020785901433429455 0 -0.0018407097875312169 0.020618712453983831 0 -0.001978783449843923 0.020785901433429455 0 -0.0017887637866693612 0.020840898678072206 0 -0.001978783449843923 0.020785901433429455 0 -0.0020974165320957749 0.020987128568606361 0 -0.0017887637866693612 0.020840898678072206 0 -0.0010782468419116931 0.022831602541087983 0 -0.0018698054465773972 0.020020178074097776 0 -0.0029217187403452628 0.019613378124692861 0 -0.0018085087746478221 0.019186133715409517 0 -0.0019831402955066092 0.019946603823479948 0 -0.001978783449843923 0.020785901433429455 0 -0.0020974165320957749 0.020987128568606361 0 -0.0021414272160969138 0.0208966335497624 0 -0.0010742494190898676 0.019457263202931868 0 -0.00088634683116631263 0.020202555246956012 0 -0.0019831402955066092 0.019946603823479948 0 -0.0018698054465773972 0.020020178074097776 0 -0.0016516867747730219 0.018475046281791103 0 -0.0018085087746478221 0.019186133715409517 0 -0.0010742494190898676 0.019457263202931868 0 -0.00067894653414548461 0.018753113225818487 0 -0.0018085087746478221 0.019186133715409517 0 -0.0010742494190898676 0.019457263202931868 0 -0.0019831402955066092 0.019946603823479948 0 -0.0010742494190898676 0.019457263202931868 0 0.00022554049253710603 0.019593769063047207 0 -0.00088634683116631263 0.020202555246956012 0 -0.0010742494190898676 0.019457263202931868 0 -0.00067894653414548461 0.018753113225818487 0 0.00022554049253710603 0.019593769063047207 0 -0.0016516867747730219 0.018475046281791103 0 -0.00036761698034873028 0.018546834225485823 0 -0.0025222030033264023 0.015721128093627332 0 -0.0014639357914605481 0.015536040096427374 0 -0.00091944044045117379 0.01767764783031537 0 -0.0030977017636632086 0.01501205929683759 0 -0.0025222030033264023 0.015721128093627332 0 -0.0014639357914605481 0.015536040096427374 0 -0.0030977017636632086 0.01501205929683759 0 -0.0014639357914605481 0.015536040096427374 0 -0.0020004284700899937 0.014528020207562558 0 -0.0028941145999811201 0.017177058287956258 0 -0.0016516867747730219 0.018475046281791103 0 -0.0023597497181906224 0.013584805203427775 0 -0.0010592870841939453 0.013984071930752771 0 -0.0020004284700899937 0.014528020207562558 0 -0.0010592870841939453 0.013984071930752771 0 -0.0014639357914605481 0.015536040096427374 0 -0.0020004284700899937 0.014528020207562558 0 -0.0023597497181906224 0.013584805203427775 0 -0.0030977017636632086 0.01501205929683759 0 -0.0020004284700899937 0.014528020207562558 0 -0.0010592870841939453 0.013984071930752771 0 -0.0014639357914605481 0.015536040096427374 0 0.0001698576563504098 0.015511616091622094 0 0.0001698576563504098 0.015511616091622094 0 -0.00091944044045117379 0.01767764783031537 0 0.0016702516575378462 0.017981148425562605 0 -0.0014639357914605481 0.015536040096427374 0 0.0001698576563504098 0.015511616091622094 0 -0.00091944044045117379 0.01767764783031537 0 6.4332377191661565e-05 0.020420173968446014 0 0.00026401275507938557 0.021159535362686083 0 0.0015872164155397008 0.020490840691659309 0 -0.00036761698034873028 0.018546834225485823 0 0.0015320016765637541 0.020456724595890912 0 -0.00091944044045117379 0.01767764783031537 0 0.0016702516575378462 0.017981148425562605 0 0.0015872164155397008 0.020490840691659309 0 0.00022554049253710603 0.019593769063047207 0 6.4332377191661565e-05 0.020420173968446014 0 0.0015872164155397008 0.020490840691659309 0 0.00022554049253710603 0.019593769063047207 0 -0.00088634683116631263 0.020202555246956012 0 6.4332377191661565e-05 0.020420173968446014 0 6.4332377191661565e-05 0.020420173968446014 0 -0.00055081693717503666 0.020997699840974396 0 0.00026401275507938557 0.021159535362686083 0 -0.00088634683116631263 0.020202555246956012 0 6.4332377191661565e-05 0.020420173968446014 0 -0.00055081693717503666 0.020997699840974396 0 -0.00055081693717503666 0.020997699840974396 0 -0.00010495734699707821 0.021883708161677919 0 -0.0010261955161429237 0.021682084784128083 0 -0.00055081693717503666 0.020997699840974396 0 -0.00010495734699707821 0.021883708161677919 0 0.00026401275507938557 0.021159535362686083 0 -0.00010495734699707821 0.021883708161677919 0 -0.00039925077559350568 0.022617071525244208 0 -0.0010261955161429237 0.021682084784128083 0 0.00026401275507938557 0.021159535362686083 0 0.00070470515012087496 0.021962772698873631 0 0.0015872164155397008 0.020490840691659309 0 -0.00010495734699707821 0.021883708161677919 0 0.00026401275507938557 0.021159535362686083 0 0.00070470515012087496 0.021962772698873631 0 0.00070470515012087496 0.021962772698873631 0 0.00071896381298933989 0.022787646111643127 0 0.00026502177303511644 0.022757644786595779 0 0.00071896381298933989 0.022787646111643127 0 0.00026502177303511644 0.022757644786595779 0 0.00029788517282612045 0.023210207921814937 0 0.00026502177303511644 0.022757644786595779 0 7.1368293935376186e-05 0.02369495193732922 0 0.00029788517282612045 0.023210207921814937 0 -0.00010495734699707821 0.021883708161677919 0 0.00070470515012087496 0.021962772698873631 0 0.00026502177303511644 0.022757644786595779 0 -0.00010495734699707821 0.021883708161677919 0 0.00026502177303511644 0.022757644786595779 0 -0.00039925077559350568 0.022617071525244208 0 -0.00039925077559350568 0.022617071525244208 0 7.1368293935376186e-05 0.02369495193732922 0 -0.0013916618187638438 0.023197028164853702 0 0.00026502177303511644 0.022757644786595779 0 -0.00039925077559350568 0.022617071525244208 0 7.1368293935376186e-05 0.02369495193732922 0 7.1368293935376186e-05 0.02369495193732922 0 -3.4760875077436743e-06 0.025156239030194632 0 3.7083216332375332e-06 0.023102884719469006 0 7.1368293935376186e-05 0.02369495193732922 0 -3.4760875077436743e-06 0.025156239030194632 0 -0.0013916618187638438 0.023197028164853702 0 0.00071896381298933989 0.022787646111643127 0 0.00029788517282612045 0.023210207921814937 0 0.00049857832626636262 0.023363445972962596 0 -2.8068769713346742e-09 0.023096934469467176 0 -6.3655940668984785e-10 0.022496415805712836 0 -1.0880304410390393e-06 0.022369615247910167 0 -5.3419944323989476e-07 0.023095860036365542 0 -0.00062119186170307066 0.020515094974672098 0 3.7083216332375332e-06 0.023102884719469006 0 0.00029788517282612045 0.023210207921814937 0 0.00049857832626636262 0.023363445972962596 0 7.1368293935376186e-05 0.02369495193732922 0 3.7083216332375332e-06 0.023102884719469006 0 0.00029788517282612045 0.023210207921814937 0 2.0120668331904215e-06 0.027704762414803713 0 9.2057127453232379e-05 0.027930973767257221 0 0.00020567088951341264 0.028450046449516379 0 2.0120668331904215e-06 0.027704762414803713 0 -0.0001102146762906888 0.027355805460876233 0 9.2057127453232379e-05 0.027930973767257221 0 -3.4911372748412316e-07 0.025161745474513775 0 -0.00065033375492927817 0.025340049472034692 0 -2.2628887857522862e-06 0.025165602781074561 0 2.0120668331904215e-06 0.027704762414803713 0 -0.0001102146762906888 0.027355805460876233 0 -0.0013916618187638438 0.023197028164853702 0 -0.0010261955161429237 0.021682084784128083 0 -0.0020752200236098775 0.021794816891729931 0 -0.0001102146762906888 0.027355805460876233 0 9.2057127453232379e-05 0.027930973767257221 0 -4.0756713706833027e-05 0.028112383362828425 0 -0.00039925077559350568 0.022617071525244208 0 -0.0013916618187638438 0.023197028164853702 0 -0.0010261955161429237 0.021682084784128083 0 -0.00065033375492927817 0.025340049472034692 0 -0.00085368447280096164 0.024419269384996611 0 9.2057127453232379e-05 0.027930973767257221 0 -4.0756713706833027e-05 0.028112383362828425 0 0.00022570796720948965 0.028171532662758764 0 -0.00014422663695760522 0.026086825717580104 0 -0.00047203062593997847 0.02538322641415839 0 -0.00086300321805275737 0.026167563610800304 0 -0.0019510579157263222 0.021751415542816517 0 -0.0015403537983812627 0.020899228385262741 0 -0.0024413922895719343 0.020660144217059324 0 -0.00085368447280096164 0.024419269384996611 0 -0.001567330032212641 0.022795390702826591 0 -0.00085368447280096164 0.024419269384996611 0 -0.00026884904331807389 0.027152220558527201 0 -0.0013828926191760697 0.022163346763466138 0 -0.00085368447280096164 0.024419269384996611 0 -0.0010261955161429237 0.021682084784128083 0 -0.0019510579157263222 0.021751415542816517 0 -0.0015403537983812627 0.020899228385262741 0 -0.00055081693717503666 0.020997699840974396 0 -0.0010261955161429237 0.021682084784128083 0 -0.0015403537983812627 0.020899228385262741 0 -0.00088634683116631263 0.020202555246956012 0 -0.0015403537983812627 0.020899228385262741 0 -0.0019831402955066092 0.019946603823479948 0 -0.00088634683116631263 0.020202555246956012 0 -0.00055081693717503666 0.020997699840974396 0 -0.0015403537983812627 0.020899228385262741 0 -0.00080234874517708219 0.024669177064551358 0 -0.00047203062593997847 0.02538322641415839 0 -0.00091441009312334437 0.025222056110470143 0 -0.00047203062593997847 0.02538322641415839 0 -0.00091441009312334437 0.025222056110470143 0 -0.00086300321805275737 0.026167563610800304 0 -0.0010782468419116931 0.022831602541087983 0 -0.001567330032212641 0.022795390702826591 0 -0.0029217187403452628 0.019613378124692861 0 -0.0024413922895719343 0.020660144217059324 0 -0.0019831402955066092 0.019946603823479948 0 -0.0015403537983812627 0.020899228385262741 0 -0.0024413922895719343 0.020660144217059324 0 -0.0019831402955066092 0.019946603823479948 0 -0.00091441009312334437 0.025222056110470143 0 -0.0013071965242170648 0.025500054581861158 0 -0.0010192274360641721 0.024750896930775656 0 0.0010764231094854016 0.029256861319007409 0 5.1344748271370628e-05 0.028731440199633192 0 0.0014927116757245693 0.028171857326595932 0 0.00055135701929749268 0.027681627703705036 0 0.00020751487072190656 0.025732569824656992 0 -8.3366499745731465e-05 0.027292777519884924 0 0.00020751487072190656 0.025732569824656992 0 0.0010764231094854016 0.029256861319007409 0 5.1344748271370628e-05 0.028731440199633192 0 0.00011802094538942163 0.02962316340101186 0 0.0010764231094854016 0.029256861319007409 0 0.00011802094538942163 0.02962316340101186 0 0.000653912051776167 0.030324793740361487 0 0.00011802094538942163 0.02962316340101186 0 0.000653912051776167 0.030324793740361487 0 -0.00029461231327845545 0.030414648741498396 0 -0.00052106194279290209 0.029559148018800326 0 -0.0010095036982119253 0.033622086988544665 0 -0.00052106194279290209 0.029559148018800326 0 -0.00026884904331807389 0.027152220558527201 0 -0.00091441009312334437 0.025222056110470143 0 -0.0013071965242170648 0.025500054581861158 0 -0.00086300321805275737 0.026167563610800304 0 -8.3366499745731465e-05 0.027292777519884924 0 -0.00052106194279290209 0.029559148018800326 0 -0.0013071965242170648 0.025500054581861158 0 -0.0015933357973533272 0.026253372788802829 0 -0.00086300321805275737 0.026167563610800304 0 9.2057127453232379e-05 0.027930973767257221 0 0.00022570796720948965 0.028171532662758764 0 0.00020567088951341264 0.028450046449516379 0 -7.5323129344741146e-05 0.028184244724433965 0 0.00022570796720948965 0.028171532662758764 0 0.00020567088951341264 0.028450046449516379 0 0.00020567088951341264 0.028450046449516379 0 -0.00030321377248951554 0.028715357547636457 0 9.4128370661090977e-05 0.029243018286293505 0 -0.00052106194279290209 0.029559148018800326 0 -0.0010187432856299382 0.031266580987030564 0 -0.0021820378531014883 0.034608683332207096 0 -0.0011726138833640864 0.033986371580950615 0 -0.001756663877203636 0.033226529935249591 0 -7.5323129344741146e-05 0.028184244724433965 0 0.00020567088951341264 0.028450046449516379 0 -0.00030321377248951554 0.028715357547636457 0 -0.0021820378531014883 0.034608683332207096 0 -0.0011726138833640864 0.033986371580950615 0 -0.00068749539871546818 0.034491622780899893 0 -0.00090367243546485244 0.033931405321776159 0 -0.0010095036982119253 0.033622086988544665 0 -0.0011726138833640864 0.033986371580950615 0 -0.00084812766526710969 0.033356826631226272 0 -0.001756663877203636 0.033226529935249591 0 -0.00084812766526710969 0.033356826631226272 0 -0.001756663877203636 0.033226529935249591 0 -0.00076622925211643569 0.032596729323147174 0 -0.00030321377248951554 0.028715357547636457 0 -0.00031525373624568002 0.030851971340872173 0 9.4128370661090977e-05 0.029243018286293505 0 -0.0010187432856299382 0.031266580987030564 0 -0.00051097024580490065 0.03071080703986374 0 -0.001756663877203636 0.033226529935249591 0 -0.00076622925211643569 0.032596729323147174 0 -0.00031525373624568002 0.030851971340872173 0 -2.0966247829077066e-06 0.030250017322935877 0 -0.00031525373624568002 0.030851971340872173 0 9.4128370661090977e-05 0.029243018286293505 0 2.0120668331904215e-06 0.027704762414803713 0 0.00020567088951341264 0.028450046449516379 0 9.4128370661090977e-05 0.029243018286293505 0 2.0120668331904215e-06 0.027704762414803713 0 -2.0966247829077066e-06 0.030250017322935877 0 9.4128370661090977e-05 0.029243018286293505 0 4.2661922440050183e-07 0.032794494336737257 0 -5.7419935659011594e-05 0.033809557546845011 0 0.00024767936713414909 0.034719256348675336 0 4.2661922440050183e-07 0.032794494336737257 0 -0.00030154994968523092 0.032922502065656993 0 -5.7419935659011594e-05 0.033809557546845011 0 -2.0966247829077066e-06 0.030250017322935877 0 -0.00031525373624568002 0.030851971340872173 0 4.2661922440050183e-07 0.032794494336737257 0 -0.00031525373624568002 0.030851971340872173 0 4.2661922440050183e-07 0.032794494336737257 0 -0.00030154994968523092 0.032922502065656993 0 -0.00076622925211643569 0.032596729323147174 0 -0.00031525373624568002 0.030851971340872173 0 -0.00030154994968523092 0.032922502065656993 0 -0.00042844201072090801 0.033844824333013224 0 -0.00010058789792518659 0.034797234655430186 0 -5.7419935659011594e-05 0.033809557546845011 0 -0.0002147090786451351 0.034775076837751752 0 -0.0010095036982119253 0.033622086988544665 0 -0.00042844201072090801 0.033844824333013224 0 -0.00010058789792518659 0.034797234655430186 0 -0.00078210674983279738 0.034317959953473164 0 -0.00030154994968523092 0.032922502065656993 0 -0.00042844201072090801 0.033844824333013224 0 -5.7419935659011594e-05 0.033809557546845011 0 -0.0011726138833640864 0.033986371580950615 0 -0.00084812766526710969 0.033356826631226272 0 -0.00042844201072090801 0.033844824333013224 0 -0.00084812766526710969 0.033356826631226272 0 -0.00030154994968523092 0.032922502065656993 0 -0.00042844201072090801 0.033844824333013224 0 -0.00084812766526710969 0.033356826631226272 0 -0.00076622925211643569 0.032596729323147174 0 -0.00030154994968523092 0.032922502065656993 0 -0.0011726138833640864 0.033986371580950615 0 -0.00042844201072090801 0.033844824333013224 0 -0.00078210674983279738 0.034317959953473164 0 -0.00010058789792518659 0.034797234655430186 0 -5.7419935659011594e-05 0.033809557546845011 0 0.00024767936713414909 0.034719256348675336 0 -0.00010058789792518659 0.034797234655430186 0 0.00027078866457770292 0.035536086548813781 0 0.00024767936713414909 0.034719256348675336 0 -0.00010058789792518659 0.034797234655430186 0 -0.00014898117117826659 0.035491640770294174 0 0.00027078866457770292 0.035536086548813781 0 -0.00014898117117826659 0.035491640770294174 0 0.00015571995257190397 0.035989877768773888 0 -0.00028124779720073781 0.036175805721333602 0 -0.00014898117117826659 0.035491640770294174 0 0.00015571995257190397 0.035989877768773888 0 0.00027078866457770292 0.035536086548813781 0 -0.00014898117117826659 0.035491640770294174 0 -0.0014468188693808515 0.034959695894877865 0 -0.00028124779720073781 0.036175805721333602 0 -0.0010095036982119253 0.033622086988544665 0 -0.00031165146217413656 0.031934126990381617 0 -0.00010058789792518659 0.034797234655430186 0 -0.00014898117117826659 0.035491640770294174 0 -0.0014468188693808515 0.034959695894877865 0 0.00011802094538942163 0.02962316340101186 0 -0.00029461231327845545 0.030414648741498396 0 -0.0013689350966046864 0.029282000124515088 0 5.1344748271370628e-05 0.028731440199633192 0 0.00011802094538942163 0.02962316340101186 0 -0.0013689350966046864 0.029282000124515088 0 0.0006173226829028107 0.027086833549714032 0 0.0001125286668238269 0.02731111424884608 0 0.00014582285256013519 0.026735562710005177 0 0.00055135701929749268 0.027681627703705036 0 -0.00031165146217413656 0.031934126990381617 0 -0.00031165146217413656 0.031934126990381617 0 0.00010116257040196602 0.03162844683902661 0 -5.9903603630126886e-05 0.036095972735287904 0 0.0003929418318616398 0.03646884868842163 0 0.00031978537173414797 0.036249012115973742 0 0.00015571995257190397 0.035989877768773888 0 -5.9903603630126886e-05 0.036095972735287904 0 0.00031978537173414797 0.036249012115973742 0 -0.00057017717211325187 0.034639696854455407 0 -0.00031165146217413656 0.031934126990381617 0 0.0001125286668238269 0.02731111424884608 0 0.00014582285256013519 0.026735562710005177 0 -0.00028286277932011256 0.026874147747069272 0 0.00014582285256013519 0.026735562710005177 0 -9.1759846687841217e-05 0.026363328466416779 0 -0.00028286277932011256 0.026874147747069272 0 0.00014582285256013519 0.026735562710005177 0 -9.1759846687841217e-05 0.026363328466416779 0 0.00031122086476908519 0.026118326174386509 0 0.00014582285256013519 0.026735562710005177 0 0.00056106708629513028 0.026587191980250838 0 0.00031122086476908519 0.026118326174386509 0 0.0006173226829028107 0.027086833549714032 0 0.00014582285256013519 0.026735562710005177 0 0.00056106708629513028 0.026587191980250838 0 0.0006173226829028107 0.027086833549714032 0 0.0009092380374789076 0.026673570569682489 0 0.00056106708629513028 0.026587191980250838 0 0.0006173226829028107 0.027086833549714032 0 0.0011411059989887822 0.026863438734033695 0 0.0009092380374789076 0.026673570569682489 0 -0.00080234874517708219 0.024669177064551358 0 -0.00091441009312334437 0.025222056110470143 0 -0.0010192274360641721 0.024750896930775656 0 0.00052578810532498649 0.02450340278150457 0 7.0762980055956513e-05 0.024669377689624274 0 0.00031528430883273579 0.02405430050342882 0 -0.0010782468419116931 0.022831602541087983 0 0.00020751487072190656 0.025732569824656992 0 -0.0010782468419116931 0.022831602541087983 0 0.00020958813045450706 0.024439845280570107 0 0.00020751487072190656 0.025732569824656992 0 0.00020958813045450706 0.024439845280570107 0 0.0011411059989887822 0.026863438734033695 0 0.0009092380374789076 0.026673570569682489 0 0.0012049385683477636 0.026701085386494978 0 0.00020958813045450706 0.024439845280570107 0 0.0012825844754650753 0.026816282255537068 0 0.0009092380374789076 0.026673570569682489 0 0.0012049385683477636 0.026701085386494978 0 0.001085712306133734 0.026449416055589692 0 0.0013213307930223875 0.026302267157687808 0 0.0011775330174825594 0.026643774710776582 0 0.001085712306133734 0.026449416055589692 0 0.0009092380374789076 0.026673570569682489 0 0.001085712306133734 0.026449416055589692 0 0.00078175227369661803 0.026294620934180342 0 0.001085712306133734 0.026449416055589692 0 0.00078175227369661803 0.026294620934180342 0 0.0010945425786931591 0.026078426590842734 0 0.0013213307930223875 0.026302267157687808 0 0.001085712306133734 0.026449416055589692 0 0.0010945425786931591 0.026078426590842734 0 0.00056106708629513028 0.026587191980250838 0 0.00078175227369661803 0.026294620934180342 0 0.00031122086476908519 0.026118326174386509 0 0.0009092380374789076 0.026673570569682489 0 0.00056106708629513028 0.026587191980250838 0 0.00078175227369661803 0.026294620934180342 0 0.00074088303762630551 0.026047951638255781 0 0.0003423535554600903 0.026124257824751237 0 0.00078175227369661803 0.026294620934180342 0 0.00073509634760111778 0.025871110144424704 0 0.00031122086476908519 0.026118326174386509 0 0.00073509634760111778 0.025871110144424704 0 0.0010945425786931591 0.026078426590842734 0 0.0011622910797267582 0.025630677437781583 0 0.00078175227369661803 0.026294620934180342 0 0.00073509634760111778 0.025871110144424704 0 0.0010945425786931591 0.026078426590842734 0 0.00091208190010525771 0.02540144779734755 0 0.00080061378182513299 0.025932688767453003 0 0.0012390993922407429 0.025713330923229211 0 0.00074088303762630551 0.026047951638255781 0 0.00074079259469494074 0.023557615088952658 0 0.00061881764307877211 0.023820626147348735 0 0.00074079259469494074 0.023557615088952658 0 0.00091208190010525771 0.02540144779734755 0 0.00080061378182513299 0.025932688767453003 0 0.00046837438433971324 0.025603620715002686 0 0.00080061378182513299 0.025932688767453003 0 0.00046837438433971324 0.025603620715002686 0 0.00035576782931856152 0.02615297165881383 0 0.00046837438433971324 0.025603620715002686 0 -7.9838934817247479e-06 0.025860483486095563 0 0.00035576782931856152 0.02615297165881383 0 7.166565662437442e-05 0.025347116765800315 0 0.00046837438433971324 0.025603620715002686 0 -7.9838934817247479e-06 0.025860483486095563 0 7.166565662437442e-05 0.025347116765800315 0 -7.9838934817247479e-06 0.025860483486095563 0 -0.00042109862472219147 0.025631173212687899 0 -6.0807026703297901e-05 0.026340598866342154 0 0.0003423535554600903 0.026124257824751237 0 -9.1759846687841217e-05 0.026363328466416779 0 -7.9838934817247479e-06 0.025860483486095563 0 0.00035576782931856152 0.02615297165881383 0 -0.00041989230965767114 0.026057481171211518 0 -0.00089501152745499876 0.02592198548957507 0 -0.00068010739120277449 0.026455172413347869 0 -9.1759846687841217e-05 0.026363328466416779 0 -0.00041989230965767114 0.026057481171211518 0 -0.00068010739120277449 0.026455172413347869 0 -9.1759846687841217e-05 0.026363328466416779 0 -7.9838934817247479e-06 0.025860483486095563 0 -0.00041989230965767114 0.026057481171211518 0 -7.9838934817247479e-06 0.025860483486095563 0 -0.00041989230965767114 0.026057481171211518 0 -0.00042109862472219147 0.025631173212687899 0 -0.00052065659815792779 0.023845590891938051 0 -0.00044064267109286621 0.026200783609702284 0 -0.00069786010920845913 0.022526511103477878 0 -0.00071756599578227736 0.022579360164907317 0 -0.00066966022185037995 0.022575470204388152 0 -0.00041989230965767114 0.026057481171211518 0 -0.00042109862472219147 0.025631173212687899 0 -0.00089501152745499876 0.02592198548957507 0 -0.00073136122625535346 0.022433776266184351 0 -0.00069786010920845913 0.022526511103477878 0 -0.00071756599578227736 0.022579360164907317 0 -0.00049838235031465577 0.022856674764516166 0 -0.00071756599578227736 0.022579360164907317 0 -0.00066966022185037995 0.022575470204388152 0 -0.00044064267109286621 0.026200783609702284 0 -0.00024077438970187244 0.026506015493623577 0 -0.00049838235031465577 0.022856674764516166 0 -0.00066966022185037995 0.022575470204388152 0 -0.0001065453249337291 0.022830200549453946 0 0.00024038045777310352 0.028366436348121749 0 -0.00011353989932400239 0.028342862618127206 0 1.7617242335282494e-05 0.02848324944796219 0 0.00024038045777310352 0.028366436348121749 0 -0.00013344831423645466 0.028078926295874215 0 -0.00011353989932400239 0.028342862618127206 0 0.00025623596918877649 0.032073233920374457 0 8.2177686497853501e-05 0.031890507597847777 0 0.00023311589921288196 0.031826866035114698 0 0.00010887100835491747 0.032126057289829361 0 -1.174306699626373e-05 0.030572931230135589 0 -0.00044064267109286621 0.026200783609702284 0 -1.174306699626373e-05 0.030572931230135589 0 0.00021299648933306345 0.036727614708004577 0 0.00022623177375230455 0.036697858667223457 0 0.00024339624405663398 0.036731580781682822 0 -0.00012343051221063629 0.033904289422184167 0 -0.00022016961357079854 0.036014662450375018 0 0.00022653629132696974 0.036683479674889392 0 0.00022623177375230455 0.036697858667223457 0 0.00022122089372496998 0.03668148325081725 0 -0.00032652316857602456 0.030605101422175981 0 2.5121534751839749e-05 0.03057729388777097 0 5.6748468249161775e-05 0.031022193665499184 0 -0.00024077438970187244 0.026506015493623577 0 0.00010887100835491747 0.032126057289829361 0 -0.00012343051221063629 0.033904289422184167 0 0.00010887100835491747 0.032126057289829361 0 0.00022122089372496998 0.03668148325081725 0 0.00023375673995834056 0.036689526961686647 0 0.00024036077590222459 0.036675438294312308 0 0.00022623177375230455 0.036697858667223457 0 0.00022122089372496998 0.03668148325081725 0 0.00023375673995834056 0.036689526961686647 0 0.00010887100835491747 0.032126057289829361 0 -0.00040736727610103446 0.034106742667769835 0 0.00022623177375230455 0.036697858667223457 0 0.00023375673995834056 0.036689526961686647 0 0.00025497873540827242 0.036702583531808858 0 0.00023375673995834056 0.036689526961686647 0 0.00024036077590222459 0.036675438294312308 0 0.00025497873540827242 0.036702583531808858 0 0.00022122089372496998 0.03668148325081725 0 0.00024036077590222459 0.036675438294312308 0 0.00022272117728069286 0.036670296451019338 0 0.00024036077590222459 0.036675438294312308 0 0.00023297914229163176 0.036645236441484548 0 0.00025487268216543385 0.036653461221876779 0 0.00024036077590222459 0.036675438294312308 0 0.00022272117728069286 0.036670296451019338 0 0.00023297914229163176 0.036645236441484548 0 0.00024036077590222459 0.036675438294312308 0 0.00025487268216543385 0.036653461221876779 0 0.00027257989514894109 0.036670312520506503 0 -0.00089501152745499876 0.02592198548957507 0 -0.0010856728343355191 0.026036041132231704 0 -0.00068010739120277449 0.026455172413347869 0 0.00024126806700270039 0.035920982687120968 0 0.00016188809849143211 0.035956477296952977 0 0.00019590227340784928 0.036213356009589671 0 -1.174306699626373e-05 0.030572931230135589 0 -0.00016319832450592504 0.031425558813044832 0 0.00024126806700270039 0.035920982687120968 0 0.00019590227340784928 0.036213356009589671 0 0.00048877950981896217 0.036299553168981154 0 -1.174306699626373e-05 0.030572931230135589 0 -0.00040736727610103446 0.034106742667769835 0 -0.00040736727610103446 0.034106742667769835 0 0.00021666706743022439 0.036697641752552218 0 0.00021666706743022439 0.036697641752552218 0 0.00027168211315829537 0.036424305061740214 0 0.00037003593836963504 0.036384223135185433 0 0.00019590227340784928 0.036213356009589671 0 0.00048877950981896217 0.036299553168981154 0 0.00037003593836963504 0.036384223135185433 0 0.00019590227340784928 0.036213356009589671 0 0.00029562611915173861 0.036535281095966439 0 0.00023297914229163176 0.036645236441484548 0 0.00027250302272524064 0.036618261932571748 0 0.00029562611915173861 0.036535281095966439 0 0.00023297914229163176 0.036645236441484548 0 0.00025487268216543385 0.036653461221876779 0 0.00027250302272524064 0.036618261932571748 0 0.00029562611915173861 0.036535281095966439 0 0.00027239230206851326 0.03662586808756943 0 0.00026808083835418064 0.036621260208509296 0 0.00027250302272524064 0.036618261932571748 0 0.00029562611915173861 0.036535281095966439 0 0.00026808083835418064 0.036621260208509296 0 0.00037003593836963504 0.036384223135185433 0 0.00029562611915173861 0.036535281095966439 0 0.00046135492943617616 0.036457974805585575 0 0.00029562611915173861 0.036535281095966439 0 0.00046135492943617616 0.036457974805585575 0 0.00048872074760694087 0.03661340966230861 0 0.00046135492943617616 0.036457974805585575 0 0.00048877950981896217 0.036299553168981154 0 0.0003929418318616398 0.03646884868842163 0 0.00046135492943617616 0.036457974805585575 0 0.0003929418318616398 0.03646884868842163 0 0.00046606804845702353 0.036428057228335496 0 0.00037003593836963504 0.036384223135185433 0 0.00046135492943617616 0.036457974805585575 0 0.00048877950981896217 0.036299553168981154 0 -9.1759846687841217e-05 0.026363328466416779 0 -0.00068010739120277449 0.026455172413347869 0 -0.00028286277932011256 0.026874147747069272 0 -0.00016319832450592504 0.031425558813044832 0 0.00010116257040196602 0.03162844683902661 0 0.00015571995257190397 0.035989877768773888 0 0.00031978537173414797 0.036249012115973742 0 0.00046874049020679545 0.036237662897418338 0 0.0003929418318616398 0.03646884868842163 0 0.00031978537173414797 0.036249012115973742 0 0.00046606804845702353 0.036428057228335496 0 0.00031978537173414797 0.036249012115973742 0 0.00046606804845702353 0.036428057228335496 0 0.00046874049020679545 0.036237662897418338 0 0.00046135492943617616 0.036457974805585575 0 0.00046606804845702353 0.036428057228335496 0 0.00048872074760694087 0.03661340966230861 0 0.00046606804845702353 0.036428057228335496 0 0.00046874049020679545 0.036237662897418338 0 0.00048872074760694087 0.03661340966230861 0 0.00050459987095665131 0.036541321116527713 0 0.00046874049020679545 0.036237662897418338 0 0.0004189986446588993 0.035938178645138562 0 0.00050459987095665131 0.036541321116527713 0 0.00046874049020679545 0.036237662897418338 0 0.00048872074760694087 0.03661340966230861 0 0.00046874049020679545 0.036237662897418338 0 0.00027078866457770292 0.035536086548813781 0 0.0004189986446588993 0.035938178645138562 0 0.00015571995257190397 0.035989877768773888 0 0.00046874049020679545 0.036237662897418338 0 0.00027078866457770292 0.035536086548813781 0 0.00027078866457770292 0.035536086548813781 0 0.00024767936713414909 0.034719256348675336 0 0.0004189986446588993 0.035938178645138562 0 0.00050459987095665131 0.036541321116527713 0 0.0004189986446588993 0.035938178645138562 0 0.00037405811239634026 0.036894060584099171 0 0.0004189986446588993 0.035938178645138562 0 7.8114267757945602e-07 0.035337955298801238 0 0.00037405811239634026 0.036894060584099171 0 0.00024767936713414909 0.034719256348675336 0 0.0004189986446588993 0.035938178645138562 0 7.8114267757945602e-07 0.035337955298801238 0 4.2661922440050183e-07 0.032794494336737257 0 0.00024767936713414909 0.034719256348675336 0 7.8114267757945602e-07 0.035337955298801238 0 5.5349184911971799e-07 0.03788123329326943 0 0.00034474505319270033 0.038328454636505291 0 1.3059484510688235e-06 0.040425546086628218 0 5.5349184911971799e-07 0.03788123329326943 0 0.00037405811239634026 0.036894060584099171 0 0.00034474505319270033 0.038328454636505291 0 7.8114267757945602e-07 0.035337955298801238 0 5.5349184911971799e-07 0.03788123329326943 0 0.00037405811239634026 0.036894060584099171 0 0.00050459987095665131 0.036541321116527713 0 0.00037405811239634026 0.036894060584099171 0 0.00050461289704409849 0.037119728235065694 0 0.00037405811239634026 0.036894060584099171 0 0.00034474505319270033 0.038328454636505291 0 0.00050461289704409849 0.037119728235065694 0 0.00050461289704409849 0.037119728235065694 0 0.00043323416497648051 0.037023813728435155 0 0.00026814406896228852 0.037484112288896837 0 0.00034474505319270033 0.038328454636505291 0 0.00050461289704409849 0.037119728235065694 0 0.00026814406896228852 0.037484112288896837 0 0.00050459987095665131 0.036541321116527713 0 0.00050461289704409849 0.037119728235065694 0 0.00048872074760694087 0.03661340966230861 0 0.00050461289704409849 0.037119728235065694 0 0.00048872074760694087 0.03661340966230861 0 0.00043323416497648051 0.037023813728435155 0 0.00029562611915173861 0.036535281095966439 0 0.00048872074760694087 0.03661340966230861 0 0.00027239230206851326 0.03662586808756943 0 0.00049360582180359982 0.036670282776111965 0 0.00038861847935224564 0.036819723336686233 0 0.00027239230206851326 0.03662586808756943 0 0.0002701663198111421 0.036642795124324654 0 0.00026808083835418064 0.036621260208509296 0 0.00038861847935224564 0.036819723336686233 0 3.6085630369808026e-05 0.036594106223291123 0 0.00043323416497648051 0.037023813728435155 0 -9.1267623949070022e-06 0.037094904166567265 0 0.00026814406896228852 0.037484112288896837 0 3.6085630369808026e-05 0.036594106223291123 0 -0.00017443501279506787 0.041127533260171385 0 -9.1267623949070022e-06 0.037094904166567265 0 -0.00027703871908467539 0.037989701490987189 0 -0.0010401683042876408 0.036970120756394081 0 -0.00027703871908467539 0.037989701490987189 0 -0.0012945738888592787 0.038790016442760214 0 -0.0010401683042876408 0.036970120756394081 0 -9.1267623949070022e-06 0.037094904166567265 0 -0.00027703871908467539 0.037989701490987189 0 0.00026814406896228852 0.037484112288896837 0 0.00034474505319270033 0.038328454636505291 0 -0.00027703871908467539 0.037989701490987189 0 0.00026814406896228852 0.037484112288896837 0 0.00034474505319270033 0.038328454636505291 0 -0.00027703871908467539 0.037989701490987189 0 -7.9013841378872794e-05 0.039664310746192852 0 -0.00027703871908467539 0.037989701490987189 0 -7.9013841378872794e-05 0.039664310746192852 0 -0.0012945738888592787 0.038790016442760214 0 -7.9013841378872794e-05 0.039664310746192852 0 1.3059484510688235e-06 0.040425546086628218 0 -3.8658106933565916e-06 0.042964803024400644 0 0.00034474505319270033 0.038328454636505291 0 -7.9013841378872794e-05 0.039664310746192852 0 1.3059484510688235e-06 0.040425546086628218 0 1.4677817133413265e-06 0.044995317177958655 0 -3.6847364447148859e-05 0.044668264473021364 0 -6.6966127969532348e-07 0.045001636504647405 0 1.4677817133413265e-06 0.044995317177958655 0 -2.2727736399109385e-06 0.042977219911876773 0 -3.6847364447148859e-05 0.044668264473021364 0 -2.1300482451433534e-07 0.042969080099954295 0 -0.00065885054332327916 0.041649057404791225 0 -7.9013841378872794e-05 0.039664310746192852 0 -3.8658106933565916e-06 0.042964803024400644 0 -0.0012945738888592787 0.038790016442760214 0 -3.6847364447148859e-05 0.044668264473021364 0 -0.00011819271934232572 0.044888717611666212 0 -6.6966127969532348e-07 0.045001636504647405 0 -0.00065885054332327916 0.041649057404791225 0 -0.00017443501279506787 0.041127533260171385 0 -0.00017443501279506787 0.041127533260171385 0 6.2595770778431166e-07 0.045002457700850887 0 4.5954280267965034e-09 0.045000027828328411 0 7.099442018871476e-05 0.044994330310537602 0 1.479660584486605e-07 0.045000105324545674 0 0.0001170899299534855 0.045013960555455257 0 4.5954280267965034e-09 0.045000027828328411 0 7.099442018871476e-05 0.044994330310537602 0 7.099442018871476e-05 0.044994330310537602 0 1.479660584486605e-07 0.045000105324545674 0 9.8819302029163659e-05 0.044953428056439086 0 7.099442018871476e-05 0.044994330310537602 0 0.00016755110853569551 0.044969324042278012 0 9.8819302029163659e-05 0.044953428056439086 0 -0.00017443501279506787 0.041127533260171385 0 0.00027202644151519401 0.040770066285828958 0 0.0001170899299534855 0.045013960555455257 0 7.099442018871476e-05 0.044994330310537602 0 0.00016755110853569551 0.044969324042278012 0 0.00028431562474535933 0.03668509164117395 0 0.00027738677551437203 0.036653284567373073 0 0.00029458916664960839 0.036689183209120818 0 0.0002701663198111421 0.036642795124324654 0 0.00028431562474535933 0.03668509164117395 0 0.00027738677551437203 0.036653284567373073 0 0.0002701663198111421 0.036642795124324654 0 0.00027738677551437203 0.036653284567373073 0 0.00026808083835418064 0.036621260208509296 0 0.00027250302272524064 0.036618261932571748 0 0.00027738677551437203 0.036653284567373073 0 0.00026808083835418064 0.036621260208509296 0 0.00027250302272524064 0.036618261932571748 0 0.00027738677551437203 0.036653284567373073 0 0.00027257989514894109 0.036670312520506503 0 0.00025487268216543385 0.036653461221876779 0 0.00027250302272524064 0.036618261932571748 0 0.00027257989514894109 0.036670312520506503 0 0.00027202644151519401 0.040770066285828958 0 0.00031049585010423748 0.040746817155489237 0 0.00027257989514894109 0.036670312520506503 0 0.00029458916664960839 0.036689183209120818 0 0.00030614668960827492 0.036723615051485872 0 0.00027738677551437203 0.036653284567373073 0 0.00027257989514894109 0.036670312520506503 0 0.00029458916664960839 0.036689183209120818 0 0.00027257989514894109 0.036670312520506503 0 0.00030614668960827492 0.036723615051485872 0 0.00025497873540827242 0.036702583531808858 0 0.00024036077590222459 0.036675438294312308 0 0.00027257989514894109 0.036670312520506503 0 0.00025497873540827242 0.036702583531808858 0 0.00030614668960827492 0.036723615051485872 0 0.00025497873540827242 0.036702583531808858 0 0.00027135896522531143 0.03674918807659458 0 0.00022623177375230455 0.036697858667223457 0 0.00025497873540827242 0.036702583531808858 0 0.00024339624405663398 0.036731580781682822 0 0.00025497873540827242 0.036702583531808858 0 0.00027135896522531143 0.03674918807659458 0 0.00024339624405663398 0.036731580781682822 0 0.00041992553022279441 0.04079741151249177 0 0.00031049585010423748 0.040746817155489237 0 0.00031129127797156986 0.036786923102266951 0 0.00030614668960827492 0.036723615051485872 0 0.00027135896522531143 0.03674918807659458 0 0.00050826235077430131 0.044453342631051211 0 0.00031616575325414388 0.044842354717313501 0 0.0001853341867853009 0.044703774964795787 0 2.5717292837806448e-05 0.044715783902287656 0 -2.7193186388787624e-08 0.044999944174602825 0 3.8708817843816666e-05 0.045009539540617115 0 -3.3234603800051876e-08 0.044999877549007507 0 3.220456949080458e-08 0.045000096814052454 0 -5.0064430124801668e-05 0.04454295015376894 0 0.0001853341867853009 0.044703774964795787 0 -3.038273753297459e-07 0.044999385720113645 0 0.0001853341867853009 0.044703774964795787 0 -3.038273753297459e-07 0.044999385720113645 0 9.8819302029163659e-05 0.044953428056439086 0 1.479660584486605e-07 0.045000105324545674 0 -3.038273753297459e-07 0.044999385720113645 0 9.8819302029163659e-05 0.044953428056439086 0 0.00016755110853569551 0.044969324042278012 0 0.00031616575325414388 0.044842354717313501 0 9.8819302029163659e-05 0.044953428056439086 0 0.00031616575325414388 0.044842354717313501 0 0.0001853341867853009 0.044703774964795787 0 9.8819302029163659e-05 0.044953428056439086 0 -0.00057937562669364395 -0.0051673998867061968 0 -0.00082220924603285963 -0.0048982373294475714 0 -1.7577304344056753e-05 -0.004847221441819323 0 -0.00057937562669364395 -0.0051673998867061968 0 -0.00081306178660311165 -0.0051200372931590986 0 -0.00081315314361448256 -0.0051478190850811727 0 -7.7581229193644598e-06 0.00010878300383366116 0 0.00023379994226879522 0.00038383633658485632 0 -0.00057937562669364395 -0.0051673998867061968 0 -0.00081306178660311165 -0.0051200372931590986 0 -0.00082220924603285963 -0.0048982373294475714 0 -7.7581229193644598e-06 0.00010878300383366116 0 0.00010062669989899596 0.00031169190709981638 0 0.00061605906816890538 0.0054291172650371223 0 9.6890101476045505e-05 0.0056205410516788875 0 0.00036992101695965216 0.0058516983987912082 0 0.00061605906816890538 0.0054291172650371223 0 9.6890101476045505e-05 0.0056205410516788875 0 0.00018364333204772326 0.005342798563551375 0 0.00018364333204772326 0.005342798563551375 0 -0.00010156925953407665 0.0054855078861949253 0 -5.9635817039825533e-05 0.005546207557500034 0 9.6890101476045505e-05 0.0056205410516788875 0 0.00018364333204772326 0.005342798563551375 0 -5.9635817039825533e-05 0.005546207557500034 0 9.6890101476045505e-05 0.0056205410516788875 0 0.00036992101695965216 0.0058516983987912082 0 -0.0001499859700536467 0.0059495694047915579 0 0.00036992101695965216 0.0058516983987912082 0 -0.0001499859700536467 0.0059495694047915579 0 -6.0164680157098098e-05 0.0064180787667189008 0 0.00036992101695965216 0.0058516983987912082 0 0.00082579681430237396 0.0058661073882838336 0 0.00068922591394261464 0.0061658226546627906 0 0.00061605906816890538 0.0054291172650371223 0 0.00036992101695965216 0.0058516983987912082 0 0.00082579681430237396 0.0058661073882838336 0 0.00061605906816890538 0.0054291172650371223 0 0.00082579681430237396 0.0058661073882838336 0 0.00098495463327992754 0.0056357862792612923 0 0.00082579681430237396 0.0058661073882838336 0 0.00098495463327992754 0.0056357862792612923 0 0.0010054082878129772 0.0059273954809318701 0 -0.00042300778538527476 -0.00031909637847916039 0 0.00099740591725583252 0.0074226537394626981 0 0.00098495463327992754 0.0056357862792612923 0 0.0011716897469789943 0.0057620458602078897 0 0.0010054082878129772 0.0059273954809318701 0 -0.00081315314361448256 -0.0051478190850811727 0 -0.00084960797762742156 -0.0051331155634409369 0 -0.00086580388672048117 -0.0051371366372065354 0 -0.00084960797762742156 -0.0051331155634409369 0 -0.00086938565601360539 -0.0051489790475779482 0 -0.00086580388672048117 -0.0051371366372065354 0 0.00023379994226879522 0.00038383633658485632 0 -0.00042300778538527476 -0.00031909637847916039 0 -0.0026624667943133248 -0.00815179144441339 0 -0.0026127087316573897 -0.0080118596888840345 0 -0.0025136469313980564 -0.0081988008021376298 0 -0.0026127087316573897 -0.0080118596888840345 0 -0.0027238826785635395 -0.0080083336458425299 0 -0.0027165176355976877 -0.0078429493733277039 0 -0.0026624667943133248 -0.00815179144441339 0 -0.0026127087316573897 -0.0080118596888840345 0 -0.0027238826785635395 -0.0080083336458425299 0 -0.0026624667943133248 -0.00815179144441339 0 -0.0027238826785635395 -0.0080083336458425299 0 -0.0028435362786956801 -0.0081312798846829414 0 -0.00042300778538527476 -0.00031909637847916039 0 -0.0015808900819670262 -0.0012206130853352657 0 -0.00042300778538527476 -0.00031909637847916039 0 -0.0017322396011365977 -0.0070092555668788198 0 -0.0027238826785635395 -0.0080083336458425299 0 -0.0028435362786956801 -0.0081312798846829414 0 -0.0028515889391590057 -0.0078090522185082899 0 -0.0030305141230470571 -0.0079551630737085856 0 -0.0028435362786956801 -0.0081312798846829414 0 -0.0028515889391590057 -0.0078090522185082899 0 -0.00087122425505439544 -0.0051489152377375514 0 -0.00086938565601360539 -0.0051489790475779482 0 -0.00086580388672048117 -0.0051371366372065354 0 -0.0026624667943133248 -0.00815179144441339 0 -0.0028435362786956801 -0.0081312798846829414 0 -0.0026173596526463637 -0.008295171354302586 0 -0.0017322396011365977 -0.0070092555668788198 0 -0.0020641832525673228 -0.007091279194354083 0 -0.00087122425505439544 -0.0051489152377375514 0 -0.00086938565601360539 -0.0051489790475779482 0 -0.00088686798754052023 -0.0051638022860740216 0 -0.0026624667943133248 -0.00815179144441339 0 -0.0026173596526463637 -0.008295171354302586 0 -0.0025136469313980564 -0.0081988008021376298 0 -0.0018540851579177185 -0.0077498513925243857 0 -0.0014662768492539544 -0.0069472235136463891 0 -0.0021131223094267176 -0.0072549703832145004 0 -0.0020641832525673228 -0.007091279194354083 0 -0.0010738143189990494 -0.0059084322293262359 0 -0.00087122425505439544 -0.0051489152377375514 0 -0.00088686798754052023 -0.0051638022860740216 0 -0.00087121652104315021 -0.0051479724269383109 0 -0.0014662768492539544 -0.0069472235136463891 0 -0.0021131223094267176 -0.0072549703832145004 0 -0.0021465295533627262 -0.0067459565267256206 0 -0.00087122425505439544 -0.0051489152377375514 0 -0.00087121652104315021 -0.0051479724269383109 0 -0.00086580388672048117 -0.0051371366372065354 0 -0.00087121652104315021 -0.0051479724269383109 0 -0.00086355907168935526 -0.0051514043519300711 0 -0.00086580388672048117 -0.0051371366372065354 0 -0.0010738143189990494 -0.0059084322293262359 0 -0.0010450220592099627 -0.0056928464232122505 0 -0.0014662768492539544 -0.0069472235136463891 0 -0.0011643710977672754 -0.0061670229589575751 0 -0.001721043446991716 -0.0063649364067232331 0 -0.0014662768492539544 -0.0069472235136463891 0 -0.001721043446991716 -0.0063649364067232331 0 -0.0021465295533627262 -0.0067459565267256206 0 -0.00081306178660311165 -0.0051200372931590986 0 -0.00081315314361448256 -0.0051478190850811727 0 -0.00086580388672048117 -0.0051371366372065354 0 -0.00086355907168935526 -0.0051514043519300711 0 -0.00086580388672048117 -0.0051371366372065354 0 -0.00088484054102181287 -0.0051069607707735255 0 -0.00081306178660311165 -0.0051200372931590986 0 -0.00088484054102181287 -0.0051069607707735255 0 -0.00082220924603285963 -0.0048982373294475714 0 -0.00081306178660311165 -0.0051200372931590986 0 -0.00086580388672048117 -0.0051371366372065354 0 -0.00088484054102181287 -0.0051069607707735255 0 -0.00088484054102181287 -0.0051069607707735255 0 -0.00084543975266224061 -0.0050915092841545724 0 -0.00082220924603285963 -0.0048982373294475714 0 -0.00086355907168935526 -0.0051514043519300711 0 -0.00088484054102181287 -0.0051069607707735255 0 -0.00094258182534268532 -0.0052990037892477289 0 -0.00088484054102181287 -0.0051069607707735255 0 -0.00094258182534268532 -0.0052990037892477289 0 -0.00084543975266224061 -0.0050915092841545724 0 -0.00094258182534268532 -0.0052990037892477289 0 -0.00084543975266224061 -0.0050915092841545724 0 -0.00092209619007296243 -0.0049556706503777349 0 -0.0016440133375335239 -0.0058228739582665426 0 -0.0021874552884207743 -0.0056779255915596358 0 -0.0021874559102641657 -0.0061905304605451494 0 -0.001721043446991716 -0.0063649364067232331 0 -0.0016440133375335239 -0.0058228739582665426 0 -0.0021874559102641657 -0.0061905304605451494 0 -0.0011643710977672754 -0.0061670229589575751 0 -0.001721043446991716 -0.0063649364067232331 0 -0.0016440133375335239 -0.0058228739582665426 0 -0.0010450220592099627 -0.0056928464232122505 0 -0.00093088566044869769 -0.0053426194300613874 0 -0.0011643710977672754 -0.0061670229589575751 0 -0.00094258182534268532 -0.0052990037892477289 0 -0.0016440133375335239 -0.0058228739582665426 0 -0.00094258182534268532 -0.0052990037892477289 0 -0.0016703288268834107 -0.0052803043279402518 0 -0.0012401266429170968 -0.0049865073001188953 0 -0.00094258182534268532 -0.0052990037892477289 0 -0.0016440133375335239 -0.0058228739582665426 0 -0.0016703288268834107 -0.0052803043279402518 0 -0.0016440133375335239 -0.0058228739582665426 0 -0.0016703288268834107 -0.0052803043279402518 0 -0.0021874552884207743 -0.0056779255915596358 0 -0.0016703288268834107 -0.0052803043279402518 0 -0.0012401266429170968 -0.0049865073001188953 0 -0.0018420406199925175 -0.0046482734916646427 0 -0.0012401266429170968 -0.0049865073001188953 0 -0.0011578603237274807 -0.0046488406401626724 0 -0.0018420406199925175 -0.0046482734916646427 0 -0.0010784629390473215 -0.0080829977895099051 0 -0.0016332837698344303 -0.0080166646067511785 0 -0.00078689687061830795 -0.0046799827778657346 0 -0.00092209619007296243 -0.0049556706503777349 0 -0.00077794509753686763 -0.0050027409156198866 0 -0.00084543975266224061 -0.0050915092841545724 0 -0.00092209619007296243 -0.0049556706503777349 0 -0.00077794509753686763 -0.0050027409156198866 0 -0.0012401266429170968 -0.0049865073001188953 0 -0.0011578603237274807 -0.0046488406401626724 0 -0.00092209619007296243 -0.0049556706503777349 0 -0.00094258182534268532 -0.0052990037892477289 0 -0.0012401266429170968 -0.0049865073001188953 0 -0.00092209619007296243 -0.0049556706503777349 0 -0.0007948055663755929 -0.0069088757383527202 0 -0.0010784629390473215 -0.0080829977895099051 0 -0.00078689687061830795 -0.0046799827778657346 0 -0.0011578603237274807 -0.0046488406401626724 0 -0.00092209619007296243 -0.0049556706503777349 0 -0.0007948055663755929 -0.0069088757383527202 0 -0.001051137385457942 -0.0038112656861957997 0 -0.00081058539839418695 -0.0031785830962077527 0 -0.0012920232248118425 -0.0032858201189337826 0 -0.00066160224570558236 -0.0034890399014430471 0 -0.0012920232248118425 -0.0032858201189337826 0 -0.00066160224570558236 -0.0034890399014430471 0 -0.0011138082692839538 -0.0040012165099958157 0 -0.00034065680723831824 -0.0030761630041840934 0 -0.00066160224570558236 -0.0034890399014430471 0 -0.00031397966884638462 -0.0033911953513552015 0 -0.00066160224570558236 -0.0034890399014430471 0 -0.00047292103004898528 -0.003857706447071309 0 -0.00031397966884638462 -0.0033911953513552015 0 -0.00066160224570558236 -0.0034890399014430471 0 -0.00047292103004898528 -0.003857706447071309 0 -0.0011138082692839538 -0.0040012165099958157 0 -0.00047292103004898528 -0.003857706447071309 0 -0.0011138082692839538 -0.0040012165099958157 0 -0.00054070661824686696 -0.004397066018755562 0 -0.00054070661824686696 -0.004397066018755562 0 -0.00082220924603285963 -0.0048982373294475714 0 -1.7577304344056753e-05 -0.004847221441819323 0 -0.0011138082692839538 -0.0040012165099958157 0 -0.00054070661824686696 -0.004397066018755562 0 -0.00082220924603285963 -0.0048982373294475714 0 -0.00084543975266224061 -0.0050915092841545724 0 -0.00077794509753686763 -0.0050027409156198866 0 -0.00082220924603285963 -0.0048982373294475714 0 -0.001051137385457942 -0.0038112656861957997 0 -0.00077209865472702122 -0.0051740970275722786 0 -0.00047292103004898528 -0.003857706447071309 0 -0.00054070661824686696 -0.004397066018755562 0 -0.00017031006551041842 -0.0041680040415452702 0 0.00010062669989899596 0.00031169190709981638 0 0.00031307807435587535 0.00033818076626176806 0 0.00018364333204772326 0.005342798563551375 0 -0.00010156925953407665 0.0054855078861949253 0 -0.00013398787629584255 0.0054630203336798831 0 -0.00054070661824686696 -0.004397066018755562 0 -1.7577304344056753e-05 -0.004847221441819323 0 -0.00017031006551041842 -0.0041680040415452702 0 -1.7577304344056753e-05 -0.004847221441819323 0 -0.00017031006551041842 -0.0041680040415452702 0 0.00026688273306331645 -0.0040371042445930165 0 -1.7577304344056753e-05 -0.004847221441819323 0 0.00026688273306331645 -0.0040371042445930165 0 0.00064239981197564751 -0.0043094134308841606 0 0.00026688273306331645 -0.0040371042445930165 0 0.00035796181340053536 -0.0035264153366062903 0 0.00070268223401124175 -0.0036654419182279756 0 0.00026688273306331645 -0.0040371042445930165 0 -4.6065185630884064e-05 -0.0037149397186169823 0 0.00035796181340053536 -0.0035264153366062903 0 -0.00017031006551041842 -0.0041680040415452702 0 0.00026688273306331645 -0.0040371042445930165 0 -4.6065185630884064e-05 -0.0037149397186169823 0 -0.00047292103004898528 -0.003857706447071309 0 -0.00017031006551041842 -0.0041680040415452702 0 -4.6065185630884064e-05 -0.0037149397186169823 0 -4.6065185630884064e-05 -0.0037149397186169823 0 -0.00031397966884638462 -0.0033911953513552015 0 0.00010737416888288532 -0.0032388811138124962 0 -0.00047292103004898528 -0.003857706447071309 0 -4.6065185630884064e-05 -0.0037149397186169823 0 -0.00031397966884638462 -0.0033911953513552015 0 0.00067751425056112864 -0.0031116192499155292 0 0.00010737416888288532 -0.0032388811138124962 0 0.00035796181340053536 -0.0035264153366062903 0 -4.6065185630884064e-05 -0.0037149397186169823 0 0.00010737416888288532 -0.0032388811138124962 0 0.00035796181340053536 -0.0035264153366062903 0 0.00067751425056112864 -0.0031116192499155292 0 0.00070268223401124175 -0.0036654419182279756 0 0.0010366153476553475 -0.0033410380844421934 0 0.00067751425056112864 -0.0031116192499155292 0 0.00035796181340053536 -0.0035264153366062903 0 0.00070268223401124175 -0.0036654419182279756 0 0.00070268223401124175 -0.0036654419182279756 0 0.0013349750841437713 -0.0037419138764382322 0 0.00064239981197564751 -0.0043094134308841606 0 0.00026688273306331645 -0.0040371042445930165 0 0.00070268223401124175 -0.0036654419182279756 0 0.00064239981197564751 -0.0043094134308841606 0 0.00070268223401124175 -0.0036654419182279756 0 0.0013349750841437713 -0.0037419138764382322 0 0.0010366153476553475 -0.0033410380844421934 0 -7.1589420234531982e-05 0.0024026933956465455 0 0.00024978594259295392 0.0060205562146706318 0 0.0013131551670147832 -0.002856333600176141 0 0.0010832273023706348 -0.0032088473858169399 0 0.0013349750841437713 -0.0037419138764382322 0 0.0010366153476553475 -0.0033410380844421934 0 0.0018720171517253605 -0.003249622855243653 0 0.0014189081250114764 -0.0024010348862822982 0 0.0010366153476553475 -0.0033410380844421934 0 0.0018720171517253605 -0.003249622855243653 0 0.0012521314506540172 -0.0029706848217266675 0 0.00097717721210063857 -0.0030449839143331238 0 0.0010366153476553475 -0.0033410380844421934 0 0.00097717721210063857 -0.0030449839143331238 0 0.00067751425056112864 -0.0031116192499155292 0 0.0010366153476553475 -0.0033410380844421934 0 -0.00076219144334206505 0.0061396876506357593 0 -0.00077345046271977186 0.0060756628977971013 0 -0.0004859384745993984 0.0063576230635011156 0 -8.9603774606603919e-05 0.00039262218268800456 0 -0.00063879743206684712 0.0024773888317689468 0 -0.00047338160809908632 0.0064496518179041843 0 -0.00033880803831621453 0.0064632146772348699 0 -0.00037575494789792829 0.0064018494928565674 0 -0.00063879743206684712 0.0024773888317689468 0 -0.00034917412012445737 0.0050461131666306881 0 -0.00043385161717235507 0.0056559292742372185 0 -0.00063879743206684712 0.0024773888317689468 0 -0.00034917412012445737 0.0050461131666306881 0 -0.0003516430691448673 0.006604565079571998 0 -0.00045894689194690767 0.0065082360028209324 0 -0.00076219144334206505 0.0061396876506357593 0 -0.0004859384745993984 0.0063576230635011156 0 -0.00047338160809908632 0.0064496518179041843 0 -0.00027235419543870243 0.0065778259968469642 0 -0.00033880803831621453 0.0064632146772348699 0 -0.00027235419543870243 0.0065778259968469642 0 -0.00028573875533354431 0.0065003462104677107 0 -0.00026423156477680293 0.0065102834512306088 0 -0.00027235419543870243 0.0065778259968469642 0 -0.00026423156477680293 0.0065102834512306088 0 -0.00029377774044790991 0.0065908963333283751 0 -0.00027235419543870243 0.0065778259968469642 0 -0.00033880803831621453 0.0064632146772348699 0 -0.00028573875533354431 0.0065003462104677107 0 -0.00033880803831621453 0.0064632146772348699 0 -0.00030161491728143773 0.0063580933849500167 0 -0.00037575494789792829 0.0064018494928565674 0 -0.00033880803831621453 0.0064632146772348699 0 -0.00028246150300245806 0.0064421022557166726 0 -0.00028573875533354431 0.0065003462104677107 0 -0.00033880803831621453 0.0064632146772348699 0 -0.00028246150300245806 0.0064421022557166726 0 -0.00030161491728143773 0.0063580933849500167 0 -0.00028246150300245806 0.0064421022557166726 0 -0.00026423156477680293 0.0065102834512306088 0 -0.0002544708234120302 0.006381393209923745 0 -0.00028246150300245806 0.0064421022557166726 0 -0.00028573875533354431 0.0065003462104677107 0 -0.00026423156477680293 0.0065102834512306088 0 -0.00026423156477680293 0.0065102834512306088 0 -0.0002544708234120302 0.006381393209923745 0 -0.00023788526850213799 0.0064150877374592394 0 -0.0002544708234120302 0.006381393209923745 0 -0.00030161491728143773 0.0063580933849500167 0 -0.00026600715047750081 0.0062778065692693707 0 -0.00028246150300245806 0.0064421022557166726 0 -0.0002544708234120302 0.006381393209923745 0 -0.00030161491728143773 0.0063580933849500167 0 -0.00030161491728143773 0.0063580933849500167 0 -0.00030463782564114125 0.0062200902229794163 0 -0.00035506468182638728 0.0063172320619037164 0 -0.00030161491728143773 0.0063580933849500167 0 -0.00030463782564114125 0.0062200902229794163 0 -0.00026600715047750081 0.0062778065692693707 0 -0.00030463782564114125 0.0062200902229794163 0 -0.00026600715047750081 0.0062778065692693707 0 -0.00026443272124815023 0.0061151234114314723 0 -0.00030938164037473518 0.0060892632302001768 0 -0.00028705574493210811 0.0060246119329773534 0 -0.00026443272124815023 0.0061151234114314723 0 -0.00030463782564114125 0.0062200902229794163 0 -0.00030938164037473518 0.0060892632302001768 0 -0.00026443272124815023 0.0061151234114314723 0 -0.00023574355855480631 0.0062633771099570006 0 -0.00023597854405190194 0.0061626329341172553 0 -0.00026443272124815023 0.0061151234114314723 0 -0.00026600715047750081 0.0062778065692693707 0 -0.00023574355855480631 0.0062633771099570006 0 -0.00026443272124815023 0.0061151234114314723 0 -0.0002544708234120302 0.006381393209923745 0 -0.00026600715047750081 0.0062778065692693707 0 -0.00023574355855480631 0.0062633771099570006 0 -0.00023574355855480631 0.0062633771099570006 0 -0.00021570719758094137 0.0062180060888924046 0 -0.00023788526850213799 0.0064150877374592394 0 -0.0002544708234120302 0.006381393209923745 0 -0.00023574355855480631 0.0062633771099570006 0 -0.00023788526850213799 0.0064150877374592394 0 -0.00023574355855480631 0.0062633771099570006 0 -0.00021570719758094137 0.0062180060888924046 0 -0.00023597854405190194 0.0061626329341172553 0 -0.00030752254538648723 0.005528749733188185 0 -0.00048941396945132094 0.0053735616727394291 0 -0.00038501679501932833 0.0057586213647774715 0 -0.00047338160809908632 0.0064496518179041843 0 -0.00035316249962066235 0.0061471424151411918 0 -0.00038501679501932833 0.0057586213647774715 0 -0.00034917412012445737 0.0050461131666306881 0 -0.00038513641758343447 0.0061143611322950703 0 -0.00044917787510989567 0.0028817619822020962 0 5.3414002477832325e-05 0.0034080533592304638 0 1.9868547791037767e-05 0.0032617415486125745 0 -7.1589420234531982e-05 0.0024026933956465455 0 -0.00034917412012445737 0.0050461131666306881 0 -7.1589420234531982e-05 0.0024026933956465455 0 -0.00063879743206684712 0.0024773888317689468 0 -0.00047338160809908632 0.0064496518179041843 0 -0.00035506468182638728 0.0063172320619037164 0 -0.00035316249962066235 0.0061471424151411918 0 -0.00047338160809908632 0.0064496518179041843 0 -0.00037575494789792829 0.0064018494928565674 0 -0.00035506468182638728 0.0063172320619037164 0 -0.00030161491728143773 0.0063580933849500167 0 -0.00037575494789792829 0.0064018494928565674 0 -0.00035506468182638728 0.0063172320619037164 0 -0.00030463782564114125 0.0062200902229794163 0 -0.00035506468182638728 0.0063172320619037164 0 -0.00035316249962066235 0.0061471424151411918 0 -0.00035316249962066235 0.0061471424151411918 0 -0.00038501679501932833 0.0057586213647774715 0 -0.00032765440092611645 0.0059799529837168078 0 -0.00030463782564114125 0.0062200902229794163 0 -0.00035316249962066235 0.0061471424151411918 0 -0.00030938164037473518 0.0060892632302001768 0 -0.00035316249962066235 0.0061471424151411918 0 -0.00030938164037473518 0.0060892632302001768 0 -0.00032765440092611645 0.0059799529837168078 0 -0.00030900605141626379 0.0058760350470693831 0 -0.00031185082643775267 0.0056391922236925388 0 -0.00022733993629543903 0.0060639402934934165 0 -0.00043914057206538771 0.0055603942494658705 0 -7.5056332784695736e-05 0.006428780920576198 0 -0.00038501679501932833 0.0057586213647774715 0 -0.00030900605141626379 0.0058760350470693831 0 -0.00031185082643775267 0.0056391922236925388 0 -0.00038501679501932833 0.0057586213647774715 0 -0.00032765440092611645 0.0059799529837168078 0 -0.00030900605141626379 0.0058760350470693831 0 -0.00030938164037473518 0.0060892632302001768 0 -0.00032765440092611645 0.0059799529837168078 0 -0.00028705574493210811 0.0060246119329773534 0 -0.00032765440092611645 0.0059799529837168078 0 -0.00028705574493210811 0.0060246119329773534 0 -0.00030900605141626379 0.0058760350470693831 0 -0.00038501679501932833 0.0057586213647774715 0 -0.00031185082643775267 0.0056391922236925388 0 -0.0002916232379152194 0.0056299677202457437 0 6.1481550308432859e-05 0.0075145283936094735 0 -3.4107728079453457e-06 0.0077151245167374465 0 -0.00016658553208251544 0.0075718078136194789 0 -0.00014311189532173016 0.0063003127453300865 0 -7.5056332784695736e-05 0.006428780920576198 0 -0.00028705574493210811 0.0060246119329773534 0 -0.00030900605141626379 0.0058760350470693831 0 -0.00022733993629543903 0.0060639402934934165 0 -0.00021570719758094137 0.0062180060888924046 0 -0.00022733993629543903 0.0060639402934934165 0 -0.00023597854405190194 0.0061626329341172553 0 -0.00022733993629543903 0.0060639402934934165 0 -0.00023597854405190194 0.0061626329341172553 0 -0.00026443272124815023 0.0061151234114314723 0 -0.00028705574493210811 0.0060246119329773534 0 -0.00022733993629543903 0.0060639402934934165 0 -0.00026443272124815023 0.0061151234114314723 0 6.1481550308432859e-05 0.0075145283936094735 0 -3.4107728079453457e-06 0.0077151245167374465 0 0.00016856980347663077 0.0079347657586303615 0 -3.4107728079453457e-06 0.0077151245167374465 0 0.00016856980347663077 0.0079347657586303615 0 -9.5999372140389278e-05 0.0078287660988284012 0 -7.5056332784695736e-05 0.006428780920576198 0 -4.5067461517785801e-05 0.0067824601078277386 0 -0.00031185082643775267 0.0056391922236925388 0 -0.00019982576355135169 0.0056967116377024327 0 -0.00026537281524198784 0.0055591920278406119 0 -0.00031185082643775267 0.0056391922236925388 0 -0.00026537281524198784 0.0055591920278406119 0 -0.00025911419393222961 0.0055737443671720691 0 -0.00023529709635668482 0.0055567772209143898 0 -0.00010156925953407665 0.0054855078861949253 0 -0.00019815087587806869 0.0055452782378128508 0 -0.00025911419393222961 0.0055737443671720691 0 -0.00023529709635668482 0.0055567772209143898 0 -0.00019815087587806869 0.0055452782378128508 0 -0.00026537281524198784 0.0055591920278406119 0 -0.00025911419393222961 0.0055737443671720691 0 -0.00019815087587806869 0.0055452782378128508 0 -0.00031185082643775267 0.0056391922236925388 0 -0.00025911419393222961 0.0055737443671720691 0 -0.00023529709635668482 0.0055567772209143898 0 -0.00023529709635668482 0.0055567772209143898 0 -0.00010156925953407665 0.0054855078861949253 0 -0.00013398787629584255 0.0054630203336798831 0 -0.00023529709635668482 0.0055567772209143898 0 -0.00013398787629584255 0.0054630203336798831 0 -0.00022428671551316863 0.0055243525715282116 0 -0.00030752254538648723 0.005528749733188185 0 -0.00022428671551316863 0.0055243525715282116 0 -0.0002916232379152194 0.0056299677202457437 0 -0.00030752254538648723 0.005528749733188185 0 -0.00038501679501932833 0.0057586213647774715 0 -0.0002916232379152194 0.0056299677202457437 0 -7.1589420234531982e-05 0.0024026933956465455 0 0.00031307807435587535 0.00033818076626176806 0 -0.00032459890276810566 0.0055575678714328584 0 -0.00013398787629584255 0.0054630203336798831 0 -0.00022428671551316863 0.0055243525715282116 0 -0.00031185082643775267 0.0056391922236925388 0 -0.00023529709635668482 0.0055567772209143898 0 -0.0002916232379152194 0.0056299677202457437 0 -0.00023529709635668482 0.0055567772209143898 0 -0.00022428671551316863 0.0055243525715282116 0 -0.0002916232379152194 0.0056299677202457437 0 -0.0010195294963891012 0.0071077808704878591 0 -0.00059745873309144241 0.0069552039807107063 0 -0.00083343200441549894 0.0074110620555288345 0 0.00014759554101865494 0.013395123357260357 0 -6.2914838179379162e-05 0.014003599602786293 0 -0.00068649390541091263 0.0066972707562901876 0 -0.0010195294963891012 0.0071077808704878591 0 -0.00059745873309144241 0.0069552039807107063 0 -0.00068649390541091263 0.0066972707562901876 0 -0.00059745873309144241 0.0069552039807107063 0 -0.00039740888277406021 0.0067094317045776012 0 -0.00059745873309144241 0.0069552039807107063 0 -0.00051827658983570829 0.0073715695103274215 0 -0.00083343200441549894 0.0074110620555288345 0 -0.00059745873309144241 0.0069552039807107063 0 -0.00025663948885127632 0.0072912368921664765 0 -0.00051827658983570829 0.0073715695103274215 0 -0.00060745183886913936 0.0069142643884609811 0 -0.00028148319224026376 0.0069956993453413416 0 -0.00026612044065467232 0.00661366651444531 0 -0.00039740888277406021 0.0067094317045776012 0 -0.00027903034266184783 0.0065879546633759653 0 -0.00059745873309144241 0.0069552039807107063 0 -0.00026612044065467232 0.00661366651444531 0 -0.00039740888277406021 0.0067094317045776012 0 -0.00033920408211422765 0.0066205241913791036 0 -0.00039740888277406021 0.0067094317045776012 0 -0.00027903034266184783 0.0065879546633759653 0 -0.00033920408211422765 0.0066205241913791036 0 -0.00027903034266184783 0.0065879546633759653 0 -0.00029377774044790991 0.0065908963333283751 0 -0.00026423156477680293 0.0065102834512306088 0 -0.00027903034266184783 0.0065879546633759653 0 -0.00029377774044790991 0.0065908963333283751 0 -0.00026423156477680293 0.0065102834512306088 0 -0.00027903034266184783 0.0065879546633759653 0 -0.00023788526850213799 0.0064150877374592394 0 -7.5056332784695736e-05 0.006428780920576198 0 -0.00028148319224026376 0.0069956993453413416 0 -0.00021570719758094137 0.0062180060888924046 0 -0.0002072554173757651 0.0061627957795397301 0 -0.00026612044065467232 0.00661366651444531 0 -0.00021570719758094137 0.0062180060888924046 0 -0.00026612044065467232 0.00661366651444531 0 -0.00023788526850213799 0.0064150877374592394 0 -0.00026612044065467232 0.00661366651444531 0 -0.00027903034266184783 0.0065879546633759653 0 -0.00023788526850213799 0.0064150877374592394 0 6.1481550308432859e-05 0.0075145283936094735 0 -0.00025663948885127632 0.0072912368921664765 0 -0.00016658553208251544 0.0075718078136194789 0 -3.4107728079453457e-06 0.0077151245167374465 0 -0.00016658553208251544 0.0075718078136194789 0 -9.5999372140389278e-05 0.0078287660988284012 0 -0.00016658553208251544 0.0075718078136194789 0 -9.5999372140389278e-05 0.0078287660988284012 0 -0.00036826758939034504 0.0076879837590256121 0 -9.5999372140389278e-05 0.0078287660988284012 0 -0.00036826758939034504 0.0076879837590256121 0 -0.00022895500056367257 0.0080251474051325922 0 -0.00036826758939034504 0.0076879837590256121 0 -0.00055214751432398001 0.0079390996490704222 0 -0.00022895500056367257 0.0080251474051325922 0 -0.00025663948885127632 0.0072912368921664765 0 -0.00036826758939034504 0.0076879837590256121 0 -0.00051827658983570829 0.0073715695103274215 0 -0.00025663948885127632 0.0072912368921664765 0 -0.00016658553208251544 0.0075718078136194789 0 -0.00036826758939034504 0.0076879837590256121 0 -0.00051827658983570829 0.0073715695103274215 0 -0.00063942254722551182 0.0076069420825136012 0 -0.00083343200441549894 0.0074110620555288345 0 -0.00036826758939034504 0.0076879837590256121 0 -0.00051827658983570829 0.0073715695103274215 0 -0.00063942254722551182 0.0076069420825136012 0 -0.00063942254722551182 0.0076069420825136012 0 -0.00094742204493044322 0.0077912437674825547 0 -0.00055214751432398001 0.0079390996490704222 0 -0.00036826758939034504 0.0076879837590256121 0 -0.00063942254722551182 0.0076069420825136012 0 -0.00055214751432398001 0.0079390996490704222 0 -0.0012870427641634911 0.0076229512202792933 0 -0.00094742204493044322 0.0077912437674825547 0 -0.00083343200441549894 0.0074110620555288345 0 -0.00063942254722551182 0.0076069420825136012 0 -0.00094742204493044322 0.0077912437674825547 0 -0.00083343200441549894 0.0074110620555288345 0 -0.0011167221432418822 0.0085299185917602979 0 -0.00082567048440076183 0.0082023878872050822 0 -0.00057226456874948572 0.0086185218903419951 0 -0.00094742204493044322 0.0077912437674825547 0 -0.00082567048440076183 0.0082023878872050822 0 -0.00055214751432398001 0.0079390996490704222 0 -0.00082567048440076183 0.0082023878872050822 0 -0.00055214751432398001 0.0079390996490704222 0 -0.00039419821599016625 0.0082882045719224993 0 -0.00082567048440076183 0.0082023878872050822 0 -0.00039419821599016625 0.0082882045719224993 0 -0.00057226456874948572 0.0086185218903419951 0 -0.00055214751432398001 0.0079390996490704222 0 -0.00039419821599016625 0.0082882045719224993 0 -0.00022895500056367257 0.0080251474051325922 0 -0.00022895500056367257 0.0080251474051325922 0 5.3530619035550853e-06 0.0080707585486978466 0 -8.0938530975974116e-05 0.0082886539299136981 0 -9.5999372140389278e-05 0.0078287660988284012 0 -0.00022895500056367257 0.0080251474051325922 0 5.3530619035550853e-06 0.0080707585486978466 0 -0.00039419821599016625 0.0082882045719224993 0 -0.00022895500056367257 0.0080251474051325922 0 -8.0938530975974116e-05 0.0082886539299136981 0 -0.00039419821599016625 0.0082882045719224993 0 -0.00026378109808057707 0.0085358610236399395 0 -8.0938530975974116e-05 0.0082886539299136981 0 -0.00026378109808057707 0.0085358610236399395 0 -0.00042217523629054302 0.008759581545151756 0 -0.00020238299822291993 0.0087093207377552245 0 -0.00026378109808057707 0.0085358610236399395 0 2.2517606876354127e-05 0.0084849890185152571 0 -0.00020238299822291993 0.0087093207377552245 0 -0.00026378109808057707 0.0085358610236399395 0 -0.00042217523629054302 0.008759581545151756 0 -0.00057226456874948572 0.0086185218903419951 0 -0.00039419821599016625 0.0082882045719224993 0 -0.00026378109808057707 0.0085358610236399395 0 -0.00057226456874948572 0.0086185218903419951 0 -0.00057226456874948572 0.0086185218903419951 0 -0.00084473342191485436 0.0090735689156992948 0 -0.00066940484548767636 0.0089708655854653253 0 -0.00042217523629054302 0.008759581545151756 0 -0.00057226456874948572 0.0086185218903419951 0 -0.00066940484548767636 0.0089708655854653253 0 -0.0011167221432418822 0.0085299185917602979 0 -0.00057226456874948572 0.0086185218903419951 0 -0.00084473342191485436 0.0090735689156992948 0 9.6890101476045505e-05 0.0056205410516788875 0 -0.00024073877568356024 0.0056650395888347112 0 -5.9635817039825533e-05 0.005546207557500034 0 -0.00010156925953407665 0.0054855078861949253 0 -5.9635817039825533e-05 0.005546207557500034 0 -0.00019815087587806869 0.0055452782378128508 0 -0.00024073877568356024 0.0056650395888347112 0 -5.9635817039825533e-05 0.005546207557500034 0 -0.00019815087587806869 0.0055452782378128508 0 -0.00026537281524198784 0.0055591920278406119 0 -0.00024073877568356024 0.0056650395888347112 0 -0.00019815087587806869 0.0055452782378128508 0 -4.5067461517785801e-05 0.0067824601078277386 0 -2.3037020799707253e-05 0.0069622157281977069 0 0.00020117265476476119 0.008281538784696018 0 5.3530619035550853e-06 0.0080707585486978466 0 -8.0938530975974116e-05 0.0082886539299136981 0 0.00016856980347663077 0.0079347657586303615 0 0.00020117265476476119 0.008281538784696018 0 5.3530619035550853e-06 0.0080707585486978466 0 0.00016856980347663077 0.0079347657586303615 0 -9.5999372140389278e-05 0.0078287660988284012 0 5.3530619035550853e-06 0.0080707585486978466 0 2.2517606876354127e-05 0.0084849890185152571 0 0.00018345945714735347 0.0084657155755002052 0 5.6288583309462493e-05 0.0085964149363533405 0 0.00020117265476476119 0.008281538784696018 0 -8.0938530975974116e-05 0.0082886539299136981 0 2.2517606876354127e-05 0.0084849890185152571 0 -0.00026378109808057707 0.0085358610236399395 0 -8.0938530975974116e-05 0.0082886539299136981 0 2.2517606876354127e-05 0.0084849890185152571 0 2.2517606876354127e-05 0.0084849890185152571 0 5.6288583309462493e-05 0.0085964149363533405 0 -0.00020238299822291993 0.0087093207377552245 0 0.00020117265476476119 0.008281538784696018 0 2.2517606876354127e-05 0.0084849890185152571 0 0.00018345945714735347 0.0084657155755002052 0 -2.3037020799707253e-05 0.0069622157281977069 0 1.5797011730473412e-05 0.0072063014528573671 0 9.6890101476045505e-05 0.0056205410516788875 0 -0.00024073877568356024 0.0056650395888347112 0 -0.0001499859700536467 0.0059495694047915579 0 0.00018345945714735347 0.0084657155755002052 0 0.00018143361584180658 0.0084367355605848987 0 5.6288583309462493e-05 0.0085964149363533405 0 0.00018143361584180658 0.0084367355605848987 0 5.6288583309462493e-05 0.0085964149363533405 0 9.4592127311619544e-05 0.0085695476064717117 0 1.5797011730473412e-05 0.0072063014528573671 0 8.0235341096550317e-05 0.00745183933655929 0 0.00018143361584180658 0.0084367355605848987 0 0.00016593320531769489 0.0083794312431685475 0 9.4592127311619544e-05 0.0085695476064717117 0 5.6288583309462493e-05 0.0085964149363533405 0 -0.00020238299822291993 0.0087093207377552245 0 -0.00017972907146509 0.0088293135273209439 0 5.6288583309462493e-05 0.0085964149363533405 0 -8.320196440073686e-05 0.0088110903307472722 0 -0.00017972907146509 0.0088293135273209439 0 5.6288583309462493e-05 0.0085964149363533405 0 -8.320196440073686e-05 0.0088110903307472722 0 9.4592127311619544e-05 0.0085695476064717117 0 -8.320196440073686e-05 0.0088110903307472722 0 2.5263530646219604e-05 0.0087208115435286355 0 9.4592127311619544e-05 0.0085695476064717117 0 -8.320196440073686e-05 0.0088110903307472722 0 -0.00028665187145989862 0.0090794220406753348 0 -0.00014559580771271363 0.0089948620430536398 0 -8.320196440073686e-05 0.0088110903307472722 0 2.5263530646219604e-05 0.0087208115435286355 0 -0.00014559580771271363 0.0089948620430536398 0 2.5263530646219604e-05 0.0087208115435286355 0 0.00016593320531769489 0.0083794312431685475 0 0.00018209614316940607 0.0086415273036431536 0 0.00016593320531769489 0.0083794312431685475 0 0.00018209614316940607 0.0086415273036431536 0 0.00031428408312393169 0.007886405876055427 0 2.5263530646219604e-05 0.0087208115435286355 0 0.00016593320531769489 0.0083794312431685475 0 9.4592127311619544e-05 0.0085695476064717117 0 -0.00081720357541040223 0.0091114431910329884 0 -0.00068041096707457526 0.0090363405695207833 0 -0.00085956261628428534 0.0091168279196488702 0 -0.00081720357541040223 0.0091114431910329884 0 -0.00084473342191485436 0.0090735689156992948 0 -0.00066940484548767636 0.0089708655854653253 0 -0.00081720357541040223 0.0091114431910329884 0 -0.00066940484548767636 0.0089708655854653253 0 -0.00068041096707457526 0.0090363405695207833 0 -0.00042217523629054302 0.008759581545151756 0 -0.00066940484548767636 0.0089708655854653253 0 -0.00045139809522645594 0.0089480067786318288 0 -0.00066940484548767636 0.0089708655854653253 0 -0.00068041096707457526 0.0090363405695207833 0 -0.00045139809522645594 0.0089480067786318288 0 -0.00068041096707457526 0.0090363405695207833 0 -0.00045139809522645594 0.0089480067786318288 0 -0.00051733052477161091 0.0091004654897994704 0 -0.00042217523629054302 0.008759581545151756 0 -0.00045139809522645594 0.0089480067786318288 0 -0.00020238299822291993 0.0087093207377552245 0 -0.00045139809522645594 0.0089480067786318288 0 -0.00020238299822291993 0.0087093207377552245 0 -0.00017972907146509 0.0088293135273209439 0 -0.00045139809522645594 0.0089480067786318288 0 -0.00017972907146509 0.0088293135273209439 0 -0.00028665187145989862 0.0090794220406753348 0 -8.320196440073686e-05 0.0088110903307472722 0 -0.00017972907146509 0.0088293135273209439 0 -0.00028665187145989862 0.0090794220406753348 0 -0.00028665187145989862 0.0090794220406753348 0 -0.00027720021798347661 0.0091547819254298429 0 -0.00014559580771271363 0.0089948620430536398 0 -0.00028665187145989862 0.0090794220406753348 0 -0.00044628712416384275 0.0094491321823260421 0 -0.00027720021798347661 0.0091547819254298429 0 -0.00047269931370169383 0.0094985526677981002 0 0.00092081683558335823 0.0098571306399788255 0 -0.00028665187145989862 0.0090794220406753348 0 -0.00051733052477161091 0.0091004654897994704 0 -0.00044628712416384275 0.0094491321823260421 0 -0.00045139809522645594 0.0089480067786318288 0 -0.00028665187145989862 0.0090794220406753348 0 -0.00051733052477161091 0.0091004654897994704 0 -0.00068041096707457526 0.0090363405695207833 0 -0.00051733052477161091 0.0091004654897994704 0 -0.00085956261628428534 0.0091168279196488702 0 -0.00051733052477161091 0.0091004654897994704 0 -0.00044628712416384275 0.0094491321823260421 0 -0.00085956261628428534 0.0091168279196488702 0 -0.00044628712416384275 0.0094491321823260421 0 -0.00085956261628428534 0.0091168279196488702 0 -0.00078495587106497454 0.010703684079601792 0 0.0001698576563504098 0.015511616091622094 0 0.0016702516575378462 0.017981148425562605 0 0.0021858096686160565 0.015731729284479395 0 0.00083297882946871101 0.01271533712785884 0 0.00015358459965586417 0.014222932884391089 0 0.0016702516575378462 0.017981148425562605 0 0.0021858096686160565 0.015731729284479395 0 0.0033449895258950333 0.019454352188346451 0 0.00065519350350502477 0.012434995110600757 0 0.0001698576563504098 0.015511616091622094 0 0.0021858096686160565 0.015731729284479395 0 -0.00015862688156549983 0.010708810244784563 0 0.00083297882946871101 0.01271533712785884 0 0.00015358459965586417 0.014222932884391089 0 0.0001397305750840313 0.017898957044167666 0 0.00070470515012087496 0.021962772698873631 0 0.0015872164155397008 0.020490840691659309 0 0.0018155050750282655 0.022299905846194797 0 0.0015872164155397008 0.020490840691659309 0 0.0033449895258950333 0.019454352188346451 0 0.0018155050750282655 0.022299905846194797 0 0.0016702516575378462 0.017981148425562605 0 0.0015872164155397008 0.020490840691659309 0 0.0033449895258950333 0.019454352188346451 0 -0.00044628712416384275 0.0094491321823260421 0 -0.00078495587106497454 0.010703684079601792 0 0.0016486865529884479 0.010974031529995648 0 -0.00075448531328268988 0.012292353914187211 0 0.00028250006078081629 0.013306454871624816 0 -0.0017153867532691989 0.013532107677593046 0 0.00015358459965586417 0.014222932884391089 0 -0.00026866426902940899 0.011850879352965886 0 -0.00085619790823839243 0.011184175469594238 0 -0.00075448531328268988 0.012292353914187211 0 -0.0017153867532691989 0.013532107677593046 0 -0.00085619790823839243 0.011184175469594238 0 -0.00075448531328268988 0.012292353914187211 0 0.00028250006078081629 0.013306454871624816 0 -0.00078495587106497454 0.010703684079601792 0 0.00028250006078081629 0.013306454871624816 0 0.00066632025947059061 0.011866846509869576 0 0.0016479244486115145 0.012525959332636951 0 0.00066632025947059061 0.011866846509869576 0 0.0016486865529884479 0.010974031529995648 0 0.00028250006078081629 0.013306454871624816 0 0.0016479244486115145 0.012525959332636951 0 0.00066632025947059061 0.011866846509869576 0 0.00028250006078081629 0.013306454871624816 0 0.0016479244486115145 0.012525959332636951 0 0.0017206623399504547 0.013822885990282507 0 -0.00078495587106497454 0.010703684079601792 0 0.00066632025947059061 0.011866846509869576 0 0.0016486865529884479 0.010974031529995648 0 -0.00027720021798347661 0.0091547819254298429 0 -0.00014559580771271363 0.0089948620430536398 0 -0.00014130766096176242 0.0091635205056269011 0 0.0016479244486115145 0.012525959332636951 0 0.0016486865529884479 0.010974031529995648 0 0.0039017530291539718 0.012709766259937973 0 0.0016479244486115145 0.012525959332636951 0 0.0017206623399504547 0.013822885990282507 0 0.0039017530291539718 0.012709766259937973 0 0.00092081683558335823 0.0098571306399788255 0 0.00024199043450335965 0.012555504154245632 0 0.0012443529816875895 0.015654837865843031 0 0.00024199043450335965 0.012555504154245632 0 4.7244248803192835e-05 0.01830357879918415 0 0.00012173747107328614 0.01704845905415624 0 0.00013729554525945158 0.016427973414544751 0 0.00012173747107328614 0.01704845905415624 0 4.8706611375643719e-05 0.016289107285857817 0 0.00013729554525945158 0.016427973414544751 0 4.211302625506493e-07 0.017915520246034017 0 4.7244248803192835e-05 0.01830357879918415 0 0.00013729554525945158 0.016427973414544751 0 4.211302625506493e-07 0.017915520246034017 0 4.7244248803192835e-05 0.01830357879918415 0 -1.3979664319087754e-08 0.020205119177576284 0 0.0012443529816875895 0.015654837865843031 0 -0.00029514418235585612 0.01686432406624579 0 0.00028250006078081629 0.013306454871624816 0 0.0017206623399504547 0.013822885990282507 0 -0.00043554385227855441 0.014964338401579069 0 4.7244248803192835e-05 0.01830357879918415 0 0.00012173747107328614 0.01704845905415624 0 -0.00019425552401341778 0.019173776258257478 0 0.00028250006078081629 0.013306454871624816 0 -0.00043554385227855441 0.014964338401579069 0 -0.0017153867532691989 0.013532107677593046 0 -0.00019425552401341778 0.019173776258257478 0 -1.3979664319087754e-08 0.020205119177576284 0 -9.0624410744770341e-05 0.021956831045623397 0 4.7244248803192835e-05 0.01830357879918415 0 -0.00019425552401341778 0.019173776258257478 0 -1.3979664319087754e-08 0.020205119177576284 0 -0.00029514418235585612 0.01686432406624579 0 -0.00062119186170307066 0.020515094974672098 0 -1.3979664319087754e-08 0.020205119177576284 0 -1.1245676623267497e-06 0.022493241736925185 0 -9.0624410744770341e-05 0.021956831045623397 0 -2.1079720724063381e-06 0.022492865801524015 0 -0.00062119186170307066 0.020515094974672098 0 -0.00062119186170307066 0.020515094974672098 0 0.0001397305750840313 0.017898957044167666 0 0.00070470515012087496 0.021962772698873631 0 0.00071896381298933989 0.022787646111643127 0 0.0018155050750282655 0.022299905846194797 0 -0.00043554385227855441 0.014964338401579069 0 -0.0025917406251807868 0.01610531911849165 0 -0.0017153867532691989 0.013532107677593046 0 0.00071896381298933989 0.022787646111643127 0 0.00049857832626636262 0.023363445972962596 0 0.0018155050750282655 0.022299905846194797 0 -4.0287765407368192e-05 0.011975987307909204 0 -0.00090959049990103772 0.011261541815182251 0 -0.00041884492567298106 0.013928540671533846 0 -4.0287765407368192e-05 0.011975987307909204 0 -0.00031787003674438232 0.010187750116772729 0 0.00025674124413400923 0.01127238681412533 0 2.5263530646219604e-05 0.0087208115435286355 0 0.00018209614316940607 0.0086415273036431536 0 1.8481953683801138e-05 0.008974276172977148 0 -4.0287765407368192e-05 0.011975987307909204 0 -0.00031787003674438232 0.010187750116772729 0 -0.00090959049990103772 0.011261541815182251 0 2.2437013701970072e-05 0.0093535650937091718 0 -0.00074668335531049808 0.0099060545479912887 0 2.5263530646219604e-05 0.0087208115435286355 0 1.8481953683801138e-05 0.008974276172977148 0 -0.00014559580771271363 0.0089948620430536398 0 1.8481953683801138e-05 0.008974276172977148 0 -0.00014559580771271363 0.0089948620430536398 0 -0.00014130766096176242 0.0091635205056269011 0 -0.00090959049990103772 0.011261541815182251 0 -0.0027870777656420361 0.012329306312830725 0 -0.00041884492567298106 0.013928540671533846 0 -0.00074668335531049808 0.0099060545479912887 0 0.00024199043450335965 0.012555504154245632 0 0.00024199043450335965 0.012555504154245632 0 -0.00092840279306638214 0.01454597340711266 0 4.8706611375643719e-05 0.016289107285857817 0 -0.00041884492567298106 0.013928540671533846 0 0.00013729554525945158 0.016427973414544751 0 -0.00041884492567298106 0.013928540671533846 0 0.00013729554525945158 0.016427973414544751 0 -1.6981130915875231e-07 0.015626157486926404 0 4.211302625506493e-07 0.017915520246034017 0 0.00013729554525945158 0.016427973414544751 0 -1.6981130915875231e-07 0.015626157486926404 0 -0.00041884492567298106 0.013928540671533846 0 -1.6981130915875231e-07 0.015626157486926404 0 -3.164501000089137e-08 0.013336105824001881 0 -0.00041884492567298106 0.013928540671533846 0 -3.164501000089137e-08 0.013336105824001881 0 0.00012482657024023711 0.012596168318616511 0 -4.0287765407368192e-05 0.011975987307909204 0 -0.00041884492567298106 0.013928540671533846 0 0.00012482657024023711 0.012596168318616511 0 -4.0287765407368192e-05 0.011975987307909204 0 0.00012482657024023711 0.012596168318616511 0 0.00034265841986426637 0.012232849391173721 0 -3.164501000089137e-08 0.013336105824001881 0 0.00012482657024023711 0.012596168318616511 0 -2.016666986222125e-07 0.011051617792405898 0 -3.0986293742244763e-06 0.011042239147850158 0 -0.0002354070270734131 0.0074512477964120069 0 1.7346109111743454e-06 0.0084196155870367457 0 0.00012482657024023711 0.012596168318616511 0 -2.016666986222125e-07 0.011051617792405898 0 0.00034265841986426637 0.012232849391173721 0 8.0564576033593503e-08 0.011046461201205889 0 0.00016066662318742919 0.0097704929298979906 0 -0.0002354070270734131 0.0074512477964120069 0 1.7346109111743454e-06 0.0084196155870367457 0 0.00049324108998758667 0.0064705406745910405 0 6.0203938562525182e-07 0.0057906584738551727 0 1.7346109111743454e-06 0.0084196155870367457 0 0.00038000341669354947 0.0063214879532739656 0 6.0203938562525182e-07 0.0057906584738551727 0 0.00038000341669354947 0.0063214879532739656 0 0.00032195243183497964 0.0045744673013453294 0 1.7346109111743454e-06 0.0084196155870367457 0 0.00049324108998758667 0.0064705406745910405 0 0.00038000341669354947 0.0063214879532739656 0 0.00049324108998758667 0.0064705406745910405 0 0.00038000341669354947 0.0063214879532739656 0 0.00053852031874099639 0.0056178491297932199 0 0.00038000341669354947 0.0063214879532739656 0 0.00053852031874099639 0.0056178491297932199 0 0.00032195243183497964 0.0045744673013453294 0 0.00053852031874099639 0.0056178491297932199 0 0.00079202851406274687 0.0060975410214823642 0 0.00042193098947101992 0.0051365983084356928 0 0.00049324108998758667 0.0064705406745910405 0 0.00053852031874099639 0.0056178491297932199 0 0.00079202851406274687 0.0060975410214823642 0 0.00049324108998758667 0.0064705406745910405 0 0.00079202851406274687 0.0060975410214823642 0 0.00069866050053292786 0.0062600957390487183 0 0.00079202851406274687 0.0060975410214823642 0 0.00069866050053292786 0.0062600957390487183 0 0.0012965363676181708 0.0073858819387738152 0 0.00034265841986426637 0.012232849391173721 0 0.00025674124413400923 0.01127238681412533 0 0.0012875746920608759 0.010564881339420644 0 -4.0287765407368192e-05 0.011975987307909204 0 0.00034265841986426637 0.012232849391173721 0 0.00025674124413400923 0.01127238681412533 0 -0.0002354070270734131 0.0074512477964120069 0 0.00049324108998758667 0.0064705406745910405 0 0.00069866050053292786 0.0062600957390487183 0 0.00016066662318742919 0.0097704929298979906 0 0.00091339152238802384 0.0084708382173964755 0 0.00091339152238802384 0.0084708382173964755 0 0.0012600673846333026 0.007557036162703216 0 0.0012875746920608759 0.010564881339420644 0 0.00036841722031140698 0.010019843048737055 0 0.000536641085052684 0.0081201080542638599 0 0.00025674124413400923 0.01127238681412533 0 0.0012875746920608759 0.010564881339420644 0 0.00036841722031140698 0.010019843048737055 0 -0.00031787003674438232 0.010187750116772729 0 0.00025674124413400923 0.01127238681412533 0 0.00036841722031140698 0.010019843048737055 0 2.2437013701970072e-05 0.0093535650937091718 0 0.000583725989979485 0.0082688588157047091 0 -0.00031787003674438232 0.010187750116772729 0 0.00036841722031140698 0.010019843048737055 0 0.000536641085052684 0.0081201080542638599 0 0.00018209614316940607 0.0086415273036431536 0 0.00031428408312393169 0.007886405876055427 0 0.000536641085052684 0.0081201080542638599 0 0.00018143361584180658 0.0084367355605848987 0 0.00016593320531769489 0.0083794312431685475 0 0.00031428408312393169 0.007886405876055427 0 0.00031428408312393169 0.007886405876055427 0 0.00089544060702656113 0.0073208983907765042 0 0.00051819825052006453 0.0067302285214932049 0 0.00031428408312393169 0.007886405876055427 0 0.00089544060702656113 0.0073208983907765042 0 0.000536641085052684 0.0081201080542638599 0 0.0012875746920608759 0.010564881339420644 0 0.000536641085052684 0.0081201080542638599 0 0.0012965363676181708 0.0073858819387738152 0 0.00089544060702656113 0.0073208983907765042 0 0.000536641085052684 0.0081201080542638599 0 0.0012965363676181708 0.0073858819387738152 0 0.00079202851406274687 0.0060975410214823642 0 0.00096171599194758985 0.0071829161541092784 0 0.00024026131101696001 0.0060918990997319167 0 0.00079202851406274687 0.0060975410214823642 0 0.0012965363676181708 0.0073858819387738152 0 0.00096171599194758985 0.0071829161541092784 0 0.00096171599194758985 0.0071829161541092784 0 0.0010980845770357736 0.0071238680577693234 0 0.0011431177607657346 0.0062835501697423787 0 0.00089544060702656113 0.0073208983907765042 0 0.0010980845770357736 0.0071238680577693234 0 0.0011431177607657346 0.0062835501697423787 0 0.0012965363676181708 0.0073858819387738152 0 0.00096171599194758985 0.0071829161541092784 0 0.0010980845770357736 0.0071238680577693234 0 0.00089544060702656113 0.0073208983907765042 0 0.0012965363676181708 0.0073858819387738152 0 0.0010980845770357736 0.0071238680577693234 0 0.0011340768456307162 0.0049707582904708484 0 0.0011431177607657346 0.0062835501697423787 0 0.00094460333941861704 0.0056184334103139347 0 0.0010078964089510953 0.0060224551482134297 0 0.001097721651666164 0.0062119902363636671 0 0.0011431177607657346 0.0062835501697423787 0 0.0010054082878129772 0.0059273954809318701 0 0.00094460333941861704 0.0056184334103139347 0 0.00082579681430237396 0.0058661073882838336 0 0.0011431177607657346 0.0062835501697423787 0 0.0010054082878129772 0.0059273954809318701 0 0.00082579681430237396 0.0058661073882838336 0 0.0011431177607657346 0.0062835501697423787 0 0.00068922591394261464 0.0061658226546627906 0 0.00036992101695965216 0.0058516983987912082 0 -6.0164680157098098e-05 0.0064180787667189008 0 0.00068922591394261464 0.0061658226546627906 0 8.0235341096550317e-05 0.00745183933655929 0 0.00031377326729105327 0.0078951516705330731 0 -6.0164680157098098e-05 0.0064180787667189008 0 0.00068922591394261464 0.0061658226546627906 0 0.00051819825052006453 0.0067302285214932049 0 -6.0164680157098098e-05 0.0064180787667189008 0 0.00031428408312393169 0.007886405876055427 0 0.00051819825052006453 0.0067302285214932049 0 0.00089544060702656113 0.0073208983907765042 0 0.0011431177607657346 0.0062835501697423787 0 0.00051819825052006453 0.0067302285214932049 0 0.0011431177607657346 0.0062835501697423787 0 0.00068922591394261464 0.0061658226546627906 0 0.00051819825052006453 0.0067302285214932049 0 5.9579895550464488e-05 0.0049340034157888514 0 1.5945449953094312e-05 0.0055654705674102172 0 0.00052561684586007818 0.0052012141129935121 0 5.9579895550464488e-05 0.0049340034157888514 0 -0.00048719856655394264 0.0050007229989478966 0 1.5945449953094312e-05 0.0055654705674102172 0 5.9579895550464488e-05 0.0049340034157888514 0 -0.00048719856655394264 0.0050007229989478966 0 -0.00033945854718956466 0.0043293598827097886 0 -0.0026942017284383728 -0.0075059150205388789 0 -0.0026347657579437762 -0.0077607379880274127 0 -0.0025641658972094697 -0.0076344589130708778 0 -0.0026942017284383728 -0.0075059150205388789 0 -0.0025135757391046114 -0.0075184665103153929 0 -0.0025641658972094697 -0.0076344589130708778 0 -0.0026942017284383728 -0.0075059150205388789 0 -0.0027165176355976877 -0.0078429493733277039 0 -0.0028515889391590057 -0.0078090522185082899 0 -0.0026942017284383728 -0.0075059150205388789 0 -0.0026347657579437762 -0.0077607379880274127 0 -0.0027165176355976877 -0.0078429493733277039 0 -0.0015449568742551684 -0.0014654532746252119 0 -0.0015808900819670262 -0.0012206130853352657 0 -0.0026347657579437762 -0.0077607379880274127 0 -0.0027165176355976877 -0.0078429493733277039 0 -0.0025570158193384054 -0.0078887056418644221 0 -0.0026127087316573897 -0.0080118596888840345 0 -0.0027165176355976877 -0.0078429493733277039 0 -0.0025570158193384054 -0.0078887056418644221 0 -0.0027238826785635395 -0.0080083336458425299 0 -0.0027165176355976877 -0.0078429493733277039 0 -0.0028515889391590057 -0.0078090522185082899 0 1.5945449953094312e-05 0.0055654705674102172 0 0.00063010128940300708 0.0056963047166631786 0 0.00052561684586007818 0.0052012141129935121 0 0.00047410581661388237 0.0060234468190026392 0 1.5945449953094312e-05 0.0055654705674102172 0 0.00063010128940300708 0.0056963047166631786 0 0.00047410581661388237 0.0060234468190026392 0 0.0010054082878129772 0.0059273954809318701 0 0.00063010128940300708 0.0056963047166631786 0 0.0010054082878129772 0.0059273954809318701 0 0.00063010128940300708 0.0056963047166631786 0 0.00094460333941861704 0.0056184334103139347 0 0.0011340768456307162 0.0049707582904708484 0 0.00094460333941861704 0.0056184334103139347 0 0.00052561684586007818 0.0052012141129935121 0 0.00063010128940300708 0.0056963047166631786 0 0.00094460333941861704 0.0056184334103139347 0 0.00052561684586007818 0.0052012141129935121 0 5.9579895550464488e-05 0.0049340034157888514 0 0.00052561684586007818 0.0052012141129935121 0 0.00049790309865908303 0.004538765545452174 0 0.0011340768456307162 0.0049707582904708484 0 0.00052561684586007818 0.0052012141129935121 0 0.00049790309865908303 0.004538765545452174 0 0.0010078964089510953 0.0060224551482134297 0 0.00050874814017894782 0.0050857692049460067 0 0.0011340768456307162 0.0049707582904708484 0 0.00049790309865908303 0.004538765545452174 0 0.00066125359168880927 0.0040713452764979466 0 0.00049790309865908303 0.004538765545452174 0 0.00066125359168880927 0.0040713452764979466 0 0.00025365573218836683 0.0038796755738170164 0 0.00049790309865908303 0.004538765545452174 0 0.00011674490724776643 0.0042853035036674253 0 0.00025365573218836683 0.0038796755738170164 0 0.00011674490724776643 0.0042853035036674253 0 0.00025365573218836683 0.0038796755738170164 0 -0.00018161160374394319 0.0036521671430546697 0 5.9579895550464488e-05 0.0049340034157888514 0 0.00049790309865908303 0.004538765545452174 0 0.00011674490724776643 0.0042853035036674253 0 5.9579895550464488e-05 0.0049340034157888514 0 0.00011674490724776643 0.0042853035036674253 0 -0.00033945854718956466 0.0043293598827097886 0 -0.00033945854718956466 0.0043293598827097886 0 -0.00018161160374394319 0.0036521671430546697 0 -0.00069519684001809819 0.0036737327457798986 0 0.00011674490724776643 0.0042853035036674253 0 -0.00033945854718956466 0.0043293598827097886 0 -0.00018161160374394319 0.0036521671430546697 0 -0.00018161160374394319 0.0036521671430546697 0 -1.8924573750012622e-05 0.0028574775319195971 0 -0.00051640057543964003 0.0030277058945214499 0 0.00025365573218836683 0.0038796755738170164 0 -0.00018161160374394319 0.0036521671430546697 0 -1.8924573750012622e-05 0.0028574775319195971 0 0.00025365573218836683 0.0038796755738170164 0 -1.8924573750012622e-05 0.0028574775319195971 0 0.00023001811764789345 0.0039879662470725958 0 -1.8924573750012622e-05 0.0028574775319195971 0 0.00023001811764789345 0.0039879662470725958 0 0.00017070434137109346 0.0026542564067489108 0 0.00079202851406274687 0.0060975410214823642 0 0.00024026131101696001 0.0060918990997319167 0 0.00042193098947101992 0.0051365983084356928 0 0.00050874814017894782 0.0050857692049460067 0 0.00023943286877145184 0.0041599962949424221 0 0.00024026131101696001 0.0060918990997319167 0 0.00023001811764789345 0.0039879662470725958 0 0.00042193098947101992 0.0051365983084356928 0 0.00066125359168880927 0.0040713452764979466 0 0.00025365573218836683 0.0038796755738170164 0 0.00023001811764789345 0.0039879662470725958 0 0.00023001811764789345 0.0039879662470725958 0 0.00042193098947101992 0.0051365983084356928 0 0.00032195243183497964 0.0045744673013453294 0 0.00053852031874099639 0.0056178491297932199 0 0.00042193098947101992 0.0051365983084356928 0 0.00032195243183497964 0.0045744673013453294 0 0.00023001811764789345 0.0039879662470725958 0 0.00032195243183497964 0.0045744673013453294 0 0.00017070434137109346 0.0026542564067489108 0 0.00032195243183497964 0.0045744673013453294 0 2.7249705077778152e-07 0.0031643515991794974 0 0.00017070434137109346 0.0026542564067489108 0 6.0203938562525182e-07 0.0057906584738551727 0 0.00032195243183497964 0.0045744673013453294 0 2.7249705077778152e-07 0.0031643515991794974 0 -1.8924573750012622e-05 0.0028574775319195971 0 0.00017070434137109346 0.0026542564067489108 0 -0.00022078471886751285 0.0010889442291620688 0 2.7249705077778152e-07 0.0031643515991794974 0 0.00017070434137109346 0.0026542564067489108 0 1.4153975847953283e-06 0.00053521871618755594 0 0.00017070434137109346 0.0026542564067489108 0 1.4153975847953283e-06 0.00053521871618755594 0 -0.00022078471886751285 0.0010889442291620688 0 1.4153975847953283e-06 0.00053521871618755594 0 -0.00022078471886751285 0.0010889442291620688 0 -4.530868763285824e-06 -0.0020861257298807391 0 -0.00022078471886751285 0.0010889442291620688 0 -0.0017566106777763852 0.00019010929458705345 0 -0.0013215845130275783 0.0012905235534886141 0 -0.00022078471886751285 0.0010889442291620688 0 -4.530868763285824e-06 -0.0020861257298807391 0 -0.0017566106777763852 0.00019010929458705345 0 8.5156536742076371e-09 -0.0020924339028104847 0 -0.00096569262047280029 -0.0026468405853232349 0 -4.530868763285824e-06 -0.0020861257298807391 0 -0.0023808955589651104 -0.0012182376011569986 0 -0.0017566106777763852 0.00019010929458705345 0 -1.2000055113142993e-08 -0.002092473493337983 0 -1.3503631293040721e-07 -0.0039460777639294675 0 -6.2139420807800717e-06 -0.0040353347896167338 0 -0.0023808955589651104 -0.0012182376011569986 0 -0.0029585120485680033 -0.0001534246694686627 0 -0.0017566106777763852 0.00019010929458705345 0 -0.00096569262047280029 -0.0026468405853232349 0 -0.0014667656696633283 -0.0029992323471511578 0 -1.3503631293040721e-07 -0.0039460777639294675 0 -6.2139420807800717e-06 -0.0040353347896167338 0 3.336428840286512e-07 -0.0058006364736122506 0 -6.2139420807800717e-06 -0.0040353347896167338 0 3.336428840286512e-07 -0.0058006364736122506 0 3.9475740129197984e-05 -0.005904280825708921 0 -0.0023808955589651104 -0.0012182376011569986 0 -0.0029585120485680033 -0.0001534246694686627 0 -0.003128174092469804 -0.00031767842468555192 0 -0.0029585120485680033 -0.0001534246694686627 0 -0.0027282816635312377 0.00036723480165298713 0 -0.003235863320900958 1.1894053092508785e-05 0 -0.0027282816635312377 0.00036723480165298713 0 -0.0017566106777763852 0.00019010929458705345 0 -0.0020565961416890714 0.0010956870580984669 0 -0.0029585120485680033 -0.0001534246694686627 0 -0.0027282816635312377 0.00036723480165298713 0 -0.0017566106777763852 0.00019010929458705345 0 -0.0017566106777763852 0.00019010929458705345 0 -0.0020565961416890714 0.0010956870580984669 0 -0.0013215845130275783 0.0012905235534886141 0 -0.0027282816635312377 0.00036723480165298713 0 -0.0020565961416890714 0.0010956870580984669 0 -0.0026912682379764416 0.00093369544866052845 0 -0.0020565961416890714 0.0010956870580984669 0 -0.0026912682379764416 0.00093369544866052845 0 -0.002111719787528693 0.0016074838573716206 0 -0.0020565961416890714 0.0010956870580984669 0 -0.002111719787528693 0.0016074838573716206 0 -0.0014800494799648721 0.0019268238073367778 0 -0.0027282816635312377 0.00036723480165298713 0 -0.003235863320900958 1.1894053092508785e-05 0 -0.0031510096252002719 0.00030036495519915248 0 -0.0027282816635312377 0.00036723480165298713 0 -0.0031510096252002719 0.00030036495519915248 0 -0.0026912682379764416 0.00093369544866052845 0 -0.0031510096252002719 0.00030036495519915248 0 -0.0032530481600211445 0.0011044703793384701 0 -0.0036339804191317317 -0.00051644846438312925 0 -0.0031510096252002719 0.00030036495519915248 0 -0.0026912682379764416 0.00093369544866052845 0 -0.0032530481600211445 0.0011044703793384701 0 -0.0032530481600211445 0.0011044703793384701 0 -0.0033497267534191477 0.0014614989604158682 0 -0.0034575772735356684 0.001357039932026438 0 -0.0032613937246956876 0.001194325431796822 0 -0.0027474255443368997 0.0024698226417986836 0 -0.0026912682379764416 0.00093369544866052845 0 -0.0032530481600211445 0.0011044703793384701 0 -0.0023656069001011461 0.0018665118377732585 0 -0.0032530481600211445 0.0011044703793384701 0 -0.0023656069001011461 0.0018665118377732585 0 -0.0020410278659846268 0.0032691501487672027 0 -0.002111719787528693 0.0016074838573716206 0 -0.0016836812293311036 0.0024709488658740822 0 -0.0014800494799648721 0.0019268238073367778 0 -0.0023656069001011461 0.0018665118377732585 0 -0.002111719787528693 0.0016074838573716206 0 -0.0016836812293311036 0.0024709488658740822 0 -0.0026912682379764416 0.00093369544866052845 0 -0.0023656069001011461 0.0018665118377732585 0 -0.002111719787528693 0.0016074838573716206 0 -0.0023656069001011461 0.0018665118377732585 0 -0.0016836812293311036 0.0024709488658740822 0 -0.0020410278659846268 0.0032691501487672027 0 -0.0016836812293311036 0.0024709488658740822 0 -0.0010949685937750328 0.002801320984017639 0 -0.0012727727918201278 0.0033419419234888897 0 -0.0016836812293311036 0.0024709488658740822 0 -0.0014800494799648721 0.0019268238073367778 0 -0.0010949685937750328 0.002801320984017639 0 -0.0014800494799648721 0.0019268238073367778 0 -0.0010949685937750328 0.002801320984017639 0 -0.00069608766994599979 0.002216306859445813 0 -1.8924573750012622e-05 0.0028574775319195971 0 -0.00051640057543964003 0.0030277058945214499 0 -0.00069608766994599979 0.002216306859445813 0 -0.0010949685937750328 0.002801320984017639 0 -0.00051640057543964003 0.0030277058945214499 0 -0.00069519684001809819 0.0036737327457798986 0 -0.0010949685937750328 0.002801320984017639 0 -0.00051640057543964003 0.0030277058945214499 0 -0.00069608766994599979 0.002216306859445813 0 -1.8924573750012622e-05 0.0028574775319195971 0 -0.00022078471886751285 0.0010889442291620688 0 -0.00069608766994599979 0.002216306859445813 0 -0.00022078471886751285 0.0010889442291620688 0 -0.00069608766994599979 0.002216306859445813 0 -0.0013215845130275783 0.0012905235534886141 0 -0.0020565961416890714 0.0010956870580984669 0 -0.0014800494799648721 0.0019268238073367778 0 -0.0013215845130275783 0.0012905235534886141 0 -0.0014800494799648721 0.0019268238073367778 0 -0.00069608766994599979 0.002216306859445813 0 -0.0013215845130275783 0.0012905235534886141 0 -0.0027187263887533245 -0.0068460225915934585 0 -0.0025637150907911878 -0.0070791788672316426 0 -0.0029105197942918657 -0.0069781682877849242 0 -0.0027187263887533245 -0.0068460225915934585 0 -0.0024680546768299809 -0.0066592243744121975 0 -0.0026342512674018678 -0.0065446912368082579 0 -0.0027187263887533245 -0.0068460225915934585 0 -0.0025637150907911878 -0.0070791788672316426 0 -0.0024680546768299809 -0.0066592243744121975 0 4.2570303326561592e-07 -0.010421511337832305 0 1.2172183565475281e-06 -0.010583125691599081 0 -3.2278073216809031e-05 -0.013048905746309155 0 1.2172183565475281e-06 -0.010583125691599081 0 -1.1898113682166094e-06 -0.0076567848425893904 0 -0.00021232588663894683 -0.008471873635768401 0 4.2570303326561592e-07 -0.010421511337832305 0 1.2172183565475281e-06 -0.010583125691599081 0 -1.1898113682166094e-06 -0.0076567848425893904 0 -0.0010002619046078894 -0.0092032823293690721 0 -0.0013762150388666647 -0.0053953275347921993 0 -0.0025637150907911878 -0.0070791788672316426 0 -0.0020527521306725268 -0.0067703482049393726 0 -0.001509638822164123 -0.0073300789795043755 0 -0.0020527521306725268 -0.0067703482049393726 0 -0.0013828138549362144 -0.0063978227880281272 0 -0.0022202572894629248 -0.0062103083241089639 0 -0.0025637150907911878 -0.0070791788672316426 0 -0.0024680546768299809 -0.0066592243744121975 0 -0.0020527521306725268 -0.0067703482049393726 0 -0.0024680546768299809 -0.0066592243744121975 0 -0.0020527521306725268 -0.0067703482049393726 0 -0.0022202572894629248 -0.0062103083241089639 0 -0.0020527521306725268 -0.0067703482049393726 0 -0.001509638822164123 -0.0073300789795043755 0 -0.0013828138549362144 -0.0063978227880281272 0 -0.0029827315063432483 0.00010909661036966253 0 -0.0030920413489052604 9.1903211914151744e-05 0 -0.0023582561369110693 2.5882682136653553e-05 0 -0.0013762150388666647 -0.0053953275347921993 0 -0.0019277283160916083 -0.0029469190708736022 0 -9.7378803390135126e-07 -0.0076541929127529476 0 -0.0013762150388666647 -0.0053953275347921993 0 -4.4160715625760024e-07 -0.0076512565597813813 0 3.336428840286512e-07 -0.0058006364736122506 0 3.9475740129197984e-05 -0.005904280825708921 0 -0.0013762150388666647 -0.0053953275347921993 0 -0.0014667656696633283 -0.0029992323471511578 0 -4.4160715625760024e-07 -0.0076512565597813813 0 -8.2740100171667074e-05 -0.0071087224218477777 0 3.9475740129197984e-05 -0.005904280825708921 0 -0.0029827315063432483 0.00010909661036966253 0 -0.003128174092469804 -0.00031767842468555192 0 -0.0030920413489052604 9.1903211914151744e-05 0 -0.0029585120485680033 -0.0001534246694686627 0 -0.003128174092469804 -0.00031767842468555192 0 -0.0030920413489052604 9.1903211914151744e-05 0 -0.0029585120485680033 -0.0001534246694686627 0 -0.003235863320900958 1.1894053092508785e-05 0 -0.0030920413489052604 9.1903211914151744e-05 0 -0.003235863320900958 1.1894053092508785e-05 0 -0.0030920413489052604 9.1903211914151744e-05 0 -0.0036339804191317317 -0.00051644846438312925 0 -0.0030920413489052604 9.1903211914151744e-05 0 -0.0036339804191317317 -0.00051644846438312925 0 -0.0023582561369110693 2.5882682136653553e-05 0 -0.0036339804191317317 -0.00051644846438312925 0 -0.0030214230042393 -0.0028754472177450327 0 -0.0023582561369110693 2.5882682136653553e-05 0 -0.003235863320900958 1.1894053092508785e-05 0 -0.0031510096252002719 0.00030036495519915248 0 -0.0036339804191317317 -0.00051644846438312925 0 -0.0060991904676380056 -0.0049158026267041846 0 -0.0038212588869122712 -0.0045950841228553641 0 -0.0030214230042393 -0.0028754472177450327 0 -0.0040629544565532125 -0.00061997554219377874 0 -0.0039753650085927713 -0.00095915949993300614 0 -0.0060991904676380056 -0.0049158026267041846 0 -0.0036339804191317317 -0.00051644846438312925 0 -0.0030214230042393 -0.0028754472177450327 0 -0.0032530481600211445 0.0011044703793384701 0 -0.0033497267534191477 0.0014614989604158682 0 -0.0036339804191317317 -0.00051644846438312925 0 -0.0060991904676380056 -0.0049158026267041846 0 -0.0038212588869122712 -0.0045950841228553641 0 -0.0047134418452400365 -0.0054057018511155892 0 -0.0026311788786791122 -0.0046398070368776443 0 -0.0038212588869122712 -0.0045950841228553641 0 -0.0030214230042393 -0.0028754472177450327 0 -0.0026311788786791122 -0.0046398070368776443 0 -0.0030214230042393 -0.0028754472177450327 0 -0.0015928470847267964 -0.0042957404518927326 0 -0.0026311788786791122 -0.0046398070368776443 0 -0.0015928470847267964 -0.0042957404518927326 0 -0.0015119689359449212 -0.0046982215778504583 0 -0.0015928470847267964 -0.0042957404518927326 0 -0.0015119689359449212 -0.0046982215778504583 0 -0.0020381057169149806 -0.0053427031737594641 0 -0.0013828138549362144 -0.0063978227880281272 0 -0.0022202572894629248 -0.0062103083241089639 0 -0.0020381057169149806 -0.0053427031737594641 0 -0.0016632104275837263 -0.0043996178948066608 0 -0.0019277283160916083 -0.0029469190708736022 0 -0.0015928470847267964 -0.0042957404518927326 0 -0.0013828138549362144 -0.0063978227880281272 0 -0.0020381057169149806 -0.0053427031737594641 0 -0.0030214230042393 -0.0028754472177450327 0 -0.0015928470847267964 -0.0042957404518927326 0 -0.0023582561369110693 2.5882682136653553e-05 0 -0.0024680546768299809 -0.0066592243744121975 0 -0.0022202572894629248 -0.0062103083241089639 0 -0.0024566466767225788 -0.0063600623744077571 0 -0.0022202572894629248 -0.0062103083241089639 0 -0.0024566466767225788 -0.0063600623744077571 0 -0.0024752111119867534 -0.0060184691812711424 0 -0.0022202572894629248 -0.0062103083241089639 0 -0.0024752111119867534 -0.0060184691812711424 0 -0.0020381057169149806 -0.0053427031737594641 0 -0.0015028857043081975 -0.0049189635167418023 0 -0.0026111883128001529 -0.0056000481505971986 0 -0.0024848012801405254 -0.005856526448078824 0 -0.002615715666878877 -0.0060117344411941198 0 -0.0025016413247113687 -0.0057256601575657474 0 -0.0015119689359449212 -0.0046982215778504583 0 -0.0020381057169149806 -0.0053427031737594641 0 -0.0024008652648549755 -0.0055854915251102484 0 -0.002836509367230696 -0.0056865147883413394 0 -0.0024008652648549755 -0.0055854915251102484 0 -0.0025016413247113687 -0.0057256601575657474 0 -0.0024008652648549755 -0.0055854915251102484 0 -0.0024848012801405254 -0.005856526448078824 0 -0.0025016413247113687 -0.0057256601575657474 0 -0.0024752111119867534 -0.0060184691812711424 0 -0.0020381057169149806 -0.0053427031737594641 0 -0.0024008652648549755 -0.0055854915251102484 0 -0.0058492032777553819 -0.012528526653888091 0 -0.005822615678315414 -0.011494977736760243 0 -0.0024752111119867534 -0.0060184691812711424 0 -0.0024008652648549755 -0.0055854915251102484 0 -0.0024848012801405254 -0.005856526448078824 0 -0.0024848012801405254 -0.005856526448078824 0 -0.0026090805439741918 -0.0061704686085274889 0 -0.0026082345993817578 -0.0062640715967229761 0 -0.0024752111119867534 -0.0060184691812711424 0 -0.0024848012801405254 -0.005856526448078824 0 -0.0026082345993817578 -0.0062640715967229761 0 -0.0058492032777553819 -0.012528526653888091 0 -0.0085726528254779534 -0.017095546527815492 0 -0.0024848012801405254 -0.005856526448078824 0 -0.002615715666878877 -0.0060117344411941198 0 -0.0026090805439741918 -0.0061704686085274889 0 -0.0026090805439741918 -0.0061704686085274889 0 -0.0026082345993817578 -0.0062640715967229761 0 -0.0027227905638796575 -0.0065871992561467698 0 -0.002615715666878877 -0.0060117344411941198 0 -0.0026090805439741918 -0.0061704686085274889 0 -0.0027227905638796575 -0.0065871992561467698 0 -0.0026082345993817578 -0.0062640715967229761 0 -0.002709851218889156 -0.0066038413085901752 0 -0.0026342512674018678 -0.0065446912368082579 0 -0.0026082345993817578 -0.0062640715967229761 0 -0.002709851218889156 -0.0066038413085901752 0 -0.0027227905638796575 -0.0065871992561467698 0 -0.0024566466767225788 -0.0063600623744077571 0 -0.0024752111119867534 -0.0060184691812711424 0 -0.0026342512674018678 -0.0065446912368082579 0 -0.0024752111119867534 -0.0060184691812711424 0 -0.0026082345993817578 -0.0062640715967229761 0 -0.0026342512674018678 -0.0065446912368082579 0 -0.0024680546768299809 -0.0066592243744121975 0 -0.0024566466767225788 -0.0063600623744077571 0 -0.0026342512674018678 -0.0065446912368082579 0 -0.0027187263887533245 -0.0068460225915934585 0 -0.0026342512674018678 -0.0065446912368082579 0 -0.0028016941724798928 -0.0068858394576090838 0 -0.002709851218889156 -0.0066038413085901752 0 -0.0026342512674018678 -0.0065446912368082579 0 -0.0028016941724798928 -0.0068858394576090838 0 -0.0071219128511774447 -0.02028864824218414 0 -0.0076329713996086861 -0.01911600294414352 0 -0.0064616537250446774 -0.019498668058884647 0 -0.0071219128511774447 -0.02028864824218414 0 -0.0060538551205557255 -0.020845072016159243 0 -0.0064616537250446774 -0.019498668058884647 0 -0.0071219128511774447 -0.02028864824218414 0 -0.0076329713996086861 -0.01911600294414352 0 -0.0081677958190148146 -0.020315470170173412 0 -0.0076329713996086861 -0.01911600294414352 0 -0.0067643863946661182 -0.018329386870538655 0 -0.0064616537250446774 -0.019498668058884647 0 -0.0076329713996086861 -0.01911600294414352 0 -0.0067643863946661182 -0.018329386870538655 0 -0.0075598949624777279 -0.017859601981553008 0 -0.0067643863946661182 -0.018329386870538655 0 -0.0068456610252922157 -0.017531064813317739 0 -0.0075598949624777279 -0.017859601981553008 0 -0.0068456610252922157 -0.017531064813317739 0 -0.0070061160434941863 -0.01648810796944487 0 -0.00594808064163296 -0.017594899656838577 0 -0.0068456610252922157 -0.017531064813317739 0 -0.0070061160434941863 -0.01648810796944487 0 -0.0075598949624777279 -0.017859601981553008 0 -0.0070061316683979608 -0.015650979484452959 0 -0.0070061160434941863 -0.01648810796944487 0 -0.0085531177845568056 -0.017025691640370388 0 -0.0070061160434941863 -0.01648810796944487 0 -0.0075598949624777279 -0.017859601981553008 0 -0.0085531177845568056 -0.017025691640370388 0 -0.0075598949624777279 -0.017859601981553008 0 -0.008323344814893793 -0.018221941979499733 0 -0.0085531177845568056 -0.017025691640370388 0 -0.0076329713996086861 -0.01911600294414352 0 -0.0075598949624777279 -0.017859601981553008 0 -0.008323344814893793 -0.018221941979499733 0 -0.008323344814893793 -0.018221941979499733 0 -0.0089061471745749358 -0.018073397691689471 0 -0.0089176155888519033 -0.019018050143450274 0 -0.008323344814893793 -0.018221941979499733 0 -0.0089061471745749358 -0.018073397691689471 0 -0.0085531177845568056 -0.017025691640370388 0 -0.0060985098728859061 -0.016175201587965718 0 -0.0079359165731916672 -0.017143552620703432 0 -0.0095078965642036752 -0.017119883365001996 0 -0.0085726528254779534 -0.017095546527815492 0 -0.0094482445356904293 -0.017741528574275897 0 -0.0079359165731916672 -0.017143552620703432 0 -0.0095078965642036752 -0.017119883365001996 0 -0.0097423775678543972 -0.017952275157403132 0 -0.0089061471745749358 -0.018073397691689471 0 -0.0085531177845568056 -0.017025691640370388 0 -0.0097423775678543972 -0.017952275157403132 0 -0.0089061471745749358 -0.018073397691689471 0 -0.0089176155888519033 -0.019018050143450274 0 -0.0097423775678543972 -0.017952275157403132 0 -0.0089176155888519033 -0.019018050143450274 0 -0.0099425841485754358 -0.019108533821781768 0 -0.0097423775678543972 -0.017952275157403132 0 -0.0076329713996086861 -0.01911600294414352 0 -0.008323344814893793 -0.018221941979499733 0 -0.0089176155888519033 -0.019018050143450274 0 -0.0089176155888519033 -0.019018050143450274 0 -0.0081677958190148146 -0.020315470170173412 0 -0.0094096501788882465 -0.020357741950005642 0 -0.0076329713996086861 -0.01911600294414352 0 -0.0089176155888519033 -0.019018050143450274 0 -0.0081677958190148146 -0.020315470170173412 0 -0.0089176155888519033 -0.019018050143450274 0 -0.0099425841485754358 -0.019108533821781768 0 -0.0094096501788882465 -0.020357741950005642 0 -0.0099425841485754358 -0.019108533821781768 0 -0.010495310205573863 -0.020381412837177426 0 -0.0094096501788882465 -0.020357741950005642 0 -0.010902253568984268 -0.019249766476388666 0 -0.0099425841485754358 -0.019108533821781768 0 -0.010495310205573863 -0.020381412837177426 0 -0.010902253568984268 -0.019249766476388666 0 -0.01156048675764707 -0.02035150360647647 0 -0.010495310205573863 -0.020381412837177426 0 -0.010902253568984268 -0.019249766476388666 0 -0.010343930457755161 -0.018631098466692773 0 -0.010782778154860095 -0.018208481000124101 0 -0.010902253568984268 -0.019249766476388666 0 -0.0099425841485754358 -0.019108533821781768 0 -0.010343930457755161 -0.018631098466692773 0 -0.0099425841485754358 -0.019108533821781768 0 -0.010343930457755161 -0.018631098466692773 0 -0.0097423775678543972 -0.017952275157403132 0 -0.010343930457755161 -0.018631098466692773 0 -0.0097423775678543972 -0.017952275157403132 0 -0.010782778154860095 -0.018208481000124101 0 -0.002836509367230696 -0.0056865147883413394 0 -0.0025016413247113687 -0.0057256601575657474 0 -0.0035233450311091411 -0.0061599744771967339 0 -0.0095078965642036752 -0.017119883365001996 0 -0.010782778154860095 -0.018208481000124101 0 -0.012063171446435143 -0.017882305364996062 0 -0.005822615678315414 -0.011494977736760243 0 -0.007155799991309956 -0.010030215773759144 0 -0.0095078965642036752 -0.017119883365001996 0 -0.0097423775678543972 -0.017952275157403132 0 -0.010782778154860095 -0.018208481000124101 0 -0.010782778154860095 -0.018208481000124101 0 -0.012063171446435143 -0.017882305364996062 0 -0.011836883351890811 -0.019046625818690099 0 -0.0026311788786791122 -0.0046398070368776443 0 -0.0015119689359449212 -0.0046982215778504583 0 -0.0041904185559622871 -0.006715867500329608 0 -0.0015028857043081975 -0.0049189635167418023 0 -0.007155799991309956 -0.010030215773759144 0 -0.0026311788786791122 -0.0046398070368776443 0 -0.0038212588869122712 -0.0045950841228553641 0 -0.0041904185559622871 -0.006715867500329608 0 -0.0038212588869122712 -0.0045950841228553641 0 -0.0047134418452400365 -0.0054057018511155892 0 -0.0041904185559622871 -0.006715867500329608 0 -0.012063171446435143 -0.017882305364996062 0 -0.011836883351890811 -0.019046625818690099 0 -0.012897048719355746 -0.019215390850998146 0 -0.010902253568984268 -0.019249766476388666 0 -0.010782778154860095 -0.018208481000124101 0 -0.011836883351890811 -0.019046625818690099 0 -0.010902253568984268 -0.019249766476388666 0 -0.011836883351890811 -0.019046625818690099 0 -0.01156048675764707 -0.02035150360647647 0 -0.011836883351890811 -0.019046625818690099 0 -0.012897048719355746 -0.019215390850998146 0 -0.01268723498574678 -0.020380075340327895 0 -0.011836883351890811 -0.019046625818690099 0 -0.01156048675764707 -0.02035150360647647 0 -0.01268723498574678 -0.020380075340327895 0 -0.01156048675764707 -0.02035150360647647 0 -0.012267763064758521 -0.021522154569726292 0 -0.01268723498574678 -0.020380075340327895 0 -0.01156048675764707 -0.02035150360647647 0 -0.011141901324330229 -0.021653327895359186 0 -0.012267763064758521 -0.021522154569726292 0 -0.011141901324330229 -0.021653327895359186 0 -0.012267763064758521 -0.021522154569726292 0 -0.012306129652198485 -0.022831270179571116 0 -0.012306129652198485 -0.022831270179571116 0 -0.010476820285807245 -0.022812791216536035 0 -0.010950690105197865 -0.024228833841046498 0 -0.011141901324330229 -0.021653327895359186 0 -0.012306129652198485 -0.022831270179571116 0 -0.010476820285807245 -0.022812791216536035 0 -0.011141901324330229 -0.021653327895359186 0 -0.010476820285807245 -0.022812791216536035 0 -0.009871369026883705 -0.021681800371924277 0 -0.010476820285807245 -0.022812791216536035 0 -0.008967126945324715 -0.023310913744746142 0 -0.010950690105197865 -0.024228833841046498 0 -0.010476820285807245 -0.022812791216536035 0 -0.009871369026883705 -0.021681800371924277 0 -0.008967126945324715 -0.023310913744746142 0 -0.011141901324330229 -0.021653327895359186 0 -0.009871369026883705 -0.021681800371924277 0 -0.010495310205573863 -0.020381412837177426 0 -0.01156048675764707 -0.02035150360647647 0 -0.011141901324330229 -0.021653327895359186 0 -0.010495310205573863 -0.020381412837177426 0 -0.009871369026883705 -0.021681800371924277 0 -0.010495310205573863 -0.020381412837177426 0 -0.0094096501788882465 -0.020357741950005642 0 -0.0081677958190148146 -0.020315470170173412 0 -0.0094096501788882465 -0.020357741950005642 0 -0.0085788600328684846 -0.021625921405271888 0 -0.009871369026883705 -0.021681800371924277 0 -0.0094096501788882465 -0.020357741950005642 0 -0.0085788600328684846 -0.021625921405271888 0 -0.009871369026883705 -0.021681800371924277 0 -0.0085788600328684846 -0.021625921405271888 0 -0.008967126945324715 -0.023310913744746142 0 -0.0085788600328684846 -0.021625921405271888 0 -0.008967126945324715 -0.023310913744746142 0 -0.0075908981426307731 -0.02298567030380087 0 -0.0075908981426307731 -0.02298567030380087 0 -0.0063695465663419449 -0.024384081499937264 0 -0.0062756220675522813 -0.022498415906214007 0 -0.0075908981426307731 -0.02298567030380087 0 -0.0072906953320977961 -0.021389566420175376 0 -0.0062756220675522813 -0.022498415906214007 0 -0.0072906953320977961 -0.021389566420175376 0 -0.0060538551205557255 -0.020845072016159243 0 -0.0062756220675522813 -0.022498415906214007 0 -0.0085788600328684846 -0.021625921405271888 0 -0.0075908981426307731 -0.02298567030380087 0 -0.0072906953320977961 -0.021389566420175376 0 -0.0081677958190148146 -0.020315470170173412 0 -0.0085788600328684846 -0.021625921405271888 0 -0.0072906953320977961 -0.021389566420175376 0 -0.0071219128511774447 -0.02028864824218414 0 -0.0081677958190148146 -0.020315470170173412 0 -0.0072906953320977961 -0.021389566420175376 0 -0.0071219128511774447 -0.02028864824218414 0 -0.0072906953320977961 -0.021389566420175376 0 -0.0060538551205557255 -0.020845072016159243 0 -0.0038407695287847117 0.00074859678301632618 0 -0.0039306728490307924 0.00091466029760158463 0 -0.0034575772735356684 0.001357039932026438 0 -0.0030457703770651813 -0.0060021623951589352 0 -0.0019197057581599969 0.0011054801781500367 0 -0.00033945854718956466 0.0043293598827097886 0 -0.0011303603309642588 0.0043547961605420009 0 -0.00069519684001809819 0.0036737327457798986 0 -0.00048719856655394264 0.0050007229989478966 0 -0.00033945854718956466 0.0043293598827097886 0 -0.0011303603309642588 0.0043547961605420009 0 -0.0019197057581599969 0.0011054801781500367 0 -0.0011529191790156353 0.0043832146326259888 0 -0.00018161160374394319 0.0036521671430546697 0 -0.00051640057543964003 0.0030277058945214499 0 -0.00069519684001809819 0.0036737327457798986 0 -0.00099344569568681667 0.0042118048010841014 0 -0.0012727727918201278 0.0033419419234888897 0 -0.0020410278659846268 0.0032691501487672027 0 -0.0010949685937750328 0.002801320984017639 0 -0.00069519684001809819 0.0036737327457798986 0 -0.0012727727918201278 0.0033419419234888897 0 -0.00099344569568681667 0.0042118048010841014 0 -0.00069519684001809819 0.0036737327457798986 0 -0.0012727727918201278 0.0033419419234888897 0 -0.0019197057581599969 0.0011054801781500367 0 -0.0027474255443368997 0.0024698226417986836 0 -0.0016836812293311036 0.0024709488658740822 0 -0.0012727727918201278 0.0033419419234888897 0 -0.0020410278659846268 0.0032691501487672027 0 -0.0040629544565532125 -0.00061997554219377874 0 -0.0083320551981587755 -0.0090479548739629719 0 -0.0047134418452400365 -0.0054057018511155892 0 -0.0041904185559622871 -0.006715867500329608 0 -0.0073841447223246251 -0.0074638739135500422 0 -0.007155799991309956 -0.010030215773759144 0 -0.0059020647094717524 -0.0071725308153450951 0 -0.0060991904676380056 -0.0049158026267041846 0 -0.0073841447223246251 -0.0074638739135500422 0 -0.008365693279260145 -0.0087410203398153481 0 -0.007155799991309956 -0.010030215773759144 0 -0.0083320551981587755 -0.0090479548739629719 0 -0.0043772930419729971 -0.0067928940154256537 0 -0.0073841447223246251 -0.0074638739135500422 0 -0.008365693279260145 -0.0087410203398153481 0 -0.0033497267534191477 0.0014614989604158682 0 -0.0034575772735356684 0.001357039932026438 0 -0.0033424687512526446 0.0011152797312546695 0 -0.0060991904676380056 -0.0049158026267041846 0 -0.0047134418452400365 -0.0054057018511155892 0 -0.0073841447223246251 -0.0074638739135500422 0 -0.012063171446435143 -0.017882305364996062 0 -0.012897048719355746 -0.019215390850998146 0 -0.014091710534666672 -0.018898152329639543 0 -0.012897048719355746 -0.019215390850998146 0 -0.013760719125666211 -0.02006697092025312 0 -0.014091710534666672 -0.018898152329639543 0 -0.012897048719355746 -0.019215390850998146 0 -0.013760719125666211 -0.02006697092025312 0 -0.01268723498574678 -0.020380075340327895 0 -0.0038407695287847117 0.00074859678301632618 0 -0.0034575772735356684 0.001357039932026438 0 -0.0033424687512526446 0.0011152797312546695 0 -0.0030457703770651813 -0.0060021623951589352 0 -0.0083320551981587755 -0.0090479548739629719 0 -0.0064498705084792708 -0.01093879173761165 0 -0.0075338691138553196 -0.011440761986688953 0 -0.0071791129285175221 -0.01089447815560057 0 -0.013760719125666211 -0.02006697092025312 0 -0.014091710534666672 -0.018898152329639543 0 -0.01492154092824432 -0.020292664018402917 0 -0.0083320551981587755 -0.0090479548739629719 0 -0.012049560672483906 -0.017309804001085342 0 -0.01492154092824432 -0.020292664018402917 0 -0.013772440649516373 -0.021642991667657017 0 -0.015726272214896992 -0.021657782236512546 0 -0.013760719125666211 -0.02006697092025312 0 -0.01492154092824432 -0.020292664018402917 0 -0.013772440649516373 -0.021642991667657017 0 -0.012049560672483906 -0.017309804001085342 0 -0.005881624401315344 -0.012306346801513508 0 -0.012267763064758521 -0.021522154569726292 0 -0.013772440649516373 -0.021642991667657017 0 -0.01268723498574678 -0.020380075340327895 0 -0.013760719125666211 -0.02006697092025312 0 -0.013772440649516373 -0.021642991667657017 0 -0.01268723498574678 -0.020380075340327895 0 -0.012267763064758521 -0.021522154569726292 0 -0.012306129652198485 -0.022831270179571116 0 -0.013772440649516373 -0.021642991667657017 0 -0.012306129652198485 -0.022831270179571116 0 -0.013772440649516373 -0.021642991667657017 0 -0.014537819792481746 -0.023818880413919094 0 -0.0023230929921442727 -0.0080721943365723529 0 -0.0022983045148419539 -0.008208871069618269 0 -0.0021323468072451594 -0.0082052934492509999 0 -0.013772440649516373 -0.021642991667657017 0 -0.015726272214896992 -0.021657782236512546 0 -0.014537819792481746 -0.023818880413919094 0 -0.005881624401315344 -0.012306346801513508 0 -0.008600783386828648 -0.016411369115738105 0 -0.0020956204657601482 -0.0076992643888550054 0 -0.0024048393385807916 -0.0078958186677038997 0 -0.0023981586299016196 -0.0081483426284430036 0 -0.0023230929921442727 -0.0080721943365723529 0 -0.0022983045148419539 -0.008208871069618269 0 -0.0023981586299016196 -0.0081483426284430036 0 -0.005881624401315344 -0.012306346801513508 0 -0.0009622310869640394 -0.0061737755831713917 0 -0.0020956204657601482 -0.0076992643888550054 0 -0.0023602996948271786 -0.0077162170770367529 0 -0.0024048393385807916 -0.0078958186677038997 0 -0.0064498705084792708 -0.01093879173761165 0 -0.0071791129285175221 -0.01089447815560057 0 -0.0068226066806340571 -0.010341583998849074 0 -0.0022672734125362736 -0.0074410840716324271 0 -0.0020956204657601482 -0.0076992643888550054 0 -0.0022854235665275072 -0.0075965115258071238 0 -0.0030457703770651813 -0.0060021623951589352 0 -0.005881624401315344 -0.012306346801513508 0 -0.0020956204657601482 -0.0076992643888550054 0 -0.0022854235665275072 -0.0075965115258071238 0 -0.0023602996948271786 -0.0077162170770367529 0 -0.0022672734125362736 -0.0074410840716324271 0 -0.0022854235665275072 -0.0075965115258071238 0 -0.0023998925353110019 -0.0075854957031347234 0 -0.0030457703770651813 -0.0060021623951589352 0 -0.0021421501584479425 -0.0075557515294008429 0 -0.0012388496866594929 -0.006761782155512497 0 -0.0015175698253874226 -0.0062785730037847806 0 -0.0025135757391046114 -0.0075184665103153929 0 -0.0015449568742551684 -0.0014654532746252119 0 -0.0019197057581599969 0.0011054801781500367 0 -0.0022672734125362736 -0.0074410840716324271 0 -0.0023998925353110019 -0.0075854957031347234 0 -0.0025135757391046114 -0.0075184665103153929 0 -0.0026942017284383728 -0.0075059150205388789 0 -0.0015175698253874226 -0.0062785730037847806 0 -0.0025135757391046114 -0.0075184665103153929 0 -0.0023998925353110019 -0.0075854957031347234 0 -0.0025027763574313701 -0.0077164050532357725 0 -0.0023602996948271786 -0.0077162170770367529 0 -0.0022854235665275072 -0.0075965115258071238 0 -0.0023998925353110019 -0.0075854957031347234 0 -0.0023602996948271786 -0.0077162170770367529 0 -0.0023998925353110019 -0.0075854957031347234 0 -0.0024963729329229058 -0.0076187066879665286 0 -0.0025135757391046114 -0.0075184665103153929 0 -0.0023998925353110019 -0.0075854957031347234 0 -0.0024963729329229058 -0.0076187066879665286 0 -0.0025027763574313701 -0.0077164050532357725 0 -0.0024963729329229058 -0.0076187066879665286 0 -0.0025135757391046114 -0.0075184665103153929 0 -0.0025641658972094697 -0.0076344589130708778 0 -0.0024963729329229058 -0.0076187066879665286 0 -0.0025641658972094697 -0.0076344589130708778 0 -0.0025027763574313701 -0.0077164050532357725 0 -0.0026347657579437762 -0.0077607379880274127 0 -0.0025027763574313701 -0.0077164050532357725 0 -0.0025570158193384054 -0.0078887056418644221 0 -0.0026347657579437762 -0.0077607379880274127 0 -0.0025641658972094697 -0.0076344589130708778 0 -0.0025027763574313701 -0.0077164050532357725 0 -0.0025027763574313701 -0.0077164050532357725 0 -0.0024572134453854028 -0.0078051519368149821 0 -0.0025570158193384054 -0.0078887056418644221 0 -0.0023602996948271786 -0.0077162170770367529 0 -0.0024572134453854028 -0.0078051519368149821 0 -0.0024048393385807916 -0.0078958186677038997 0 -0.0025027763574313701 -0.0077164050532357725 0 -0.0023602996948271786 -0.0077162170770367529 0 -0.0024572134453854028 -0.0078051519368149821 0 -0.0024572134453854028 -0.0078051519368149821 0 -0.0024048393385807916 -0.0078958186677038997 0 -0.0025570158193384054 -0.0078887056418644221 0 -0.0024048393385807916 -0.0078958186677038997 0 -0.0025570158193384054 -0.0078887056418644221 0 -0.0024974920953623695 -0.0080649977923844072 0 -0.0026127087316573897 -0.0080118596888840345 0 -0.0024974920953623695 -0.0080649977923844072 0 -0.0025136469313980564 -0.0081988008021376298 0 -0.0026127087316573897 -0.0080118596888840345 0 -0.0025570158193384054 -0.0078887056418644221 0 -0.0024974920953623695 -0.0080649977923844072 0 -0.0024048393385807916 -0.0078958186677038997 0 -0.0024974920953623695 -0.0080649977923844072 0 -0.0023981586299016196 -0.0081483426284430036 0 -0.0024974920953623695 -0.0080649977923844072 0 -0.0024852916103980053 -0.0082073741851869352 0 -0.0023981586299016196 -0.0081483426284430036 0 -0.0024974920953623695 -0.0080649977923844072 0 -0.0024852916103980053 -0.0082073741851869352 0 -0.0025136469313980564 -0.0081988008021376298 0 -0.0022983045148419539 -0.008208871069618269 0 -0.0023981586299016196 -0.0081483426284430036 0 -0.0024212911677349851 -0.008289742806621073 0 -0.0024852916103980053 -0.0082073741851869352 0 -0.0023981586299016196 -0.0081483426284430036 0 -0.0024212911677349851 -0.008289742806621073 0 -0.0022983045148419539 -0.008208871069618269 0 -0.0024212911677349851 -0.008289742806621073 0 -0.0022528104163661651 -0.0084228415172321602 0 -0.0024247819465276115 -0.0085034183243136024 0 -0.0025618064612146414 -0.0082010921411117613 0 -0.0025645552725232393 -0.0089465026452819531 0 -0.0024212911677349851 -0.008289742806621073 0 -0.0024247819465276115 -0.0085034183243136024 0 -0.0022528104163661651 -0.0084228415172321602 0 -0.0024212911677349851 -0.008289742806621073 0 -0.0024247819465276115 -0.0085034183243136024 0 -0.0025618064612146414 -0.0082010921411117613 0 -0.0024247819465276115 -0.0085034183243136024 0 -0.0022245063105090493 -0.0087716473710236428 0 -0.0022528104163661651 -0.0084228415172321602 0 -0.0021919868343717171 -0.0080546242673817017 0 -0.0025618064612146414 -0.0082010921411117613 0 -0.0026605339085702642 -0.0074815137294054722 0 -0.0020641832525673228 -0.007091279194354083 0 -0.0025441457363942583 -0.0076367025699927704 0 -0.0020641832525673228 -0.007091279194354083 0 -0.0026414604330512125 -0.0084202987328968332 0 -0.0021919868343717171 -0.0080546242673817017 0 -0.0025136469313980564 -0.0081988008021376298 0 -0.0025618064612146414 -0.0082010921411117613 0 -0.0024852916103980053 -0.0082073741851869352 0 -0.0025136469313980564 -0.0081988008021376298 0 -0.0025618064612146414 -0.0082010921411117613 0 -0.0024852916103980053 -0.0082073741851869352 0 -0.0024212911677349851 -0.008289742806621073 0 -0.0025618064612146414 -0.0082010921411117613 0 -0.0018540851579177185 -0.0077498513925243857 0 -0.0021131223094267176 -0.0072549703832145004 0 -0.0026605339085702642 -0.0074815137294054722 0 -0.0025498667354676317 -0.0082354522416050752 0 -0.0026924867065435372 -0.0079912356998035824 0 -0.0025618064612146414 -0.0082010921411117613 0 -0.0026605339085702642 -0.0074815137294054722 0 -0.0028324735483187284 -0.0070465347478220414 0 -0.0021131223094267176 -0.0072549703832145004 0 -0.0024726940915544291 -0.0069849235730803363 0 -0.0021465295533627262 -0.0067459565267256206 0 -0.0024726940915544291 -0.0069849235730803363 0 -0.0026605339085702642 -0.0074815137294054722 0 -0.0028324735483187284 -0.0070465347478220414 0 -0.0021131223094267176 -0.0072549703832145004 0 -0.0024726940915544291 -0.0069849235730803363 0 -0.0026605339085702642 -0.0074815137294054722 0 -0.0024247819465276115 -0.0085034183243136024 0 -0.0025645552725232393 -0.0089465026452819531 0 -0.0022245063105090493 -0.0087716473710236428 0 -0.0025645552725232393 -0.0089465026452819531 0 -0.0022944275460679907 -0.0091043632937165553 0 -0.0022245063105090493 -0.0087716473710236428 0 -0.0024726940915544291 -0.0069849235730803363 0 -0.0028324735483187284 -0.0070465347478220414 0 -0.002597952340616729 -0.0065106997275485206 0 -0.0028324735483187284 -0.0070465347478220414 0 -0.002597952340616729 -0.0065106997275485206 0 -0.0030460065576091086 -0.0062437730122164728 0 -0.0026924867065435372 -0.0079912356998035824 0 -0.0026293726820071817 -0.0081030516502217168 0 -0.0025645552725232393 -0.0089465026452819531 0 -0.0023608548825601807 -0.0096082856992344059 0 -0.0022944275460679907 -0.0091043632937165553 0 -0.002597952340616729 -0.0065106997275485206 0 -0.0030460065576091086 -0.0062437730122164728 0 -0.0025886455953523049 -0.0059935313209681911 0 -0.002597952340616729 -0.0065106997275485206 0 -0.0021465295533627262 -0.0067459565267256206 0 -0.0021874559102641657 -0.0061905304605451494 0 -0.002597952340616729 -0.0065106997275485206 0 -0.0021874559102641657 -0.0061905304605451494 0 -0.0025886455953523049 -0.0059935313209681911 0 -0.001721043446991716 -0.0063649364067232331 0 -0.0021465295533627262 -0.0067459565267256206 0 -0.0021874559102641657 -0.0061905304605451494 0 -0.0024726940915544291 -0.0069849235730803363 0 -0.002597952340616729 -0.0065106997275485206 0 -0.0021465295533627262 -0.0067459565267256206 0 -0.0018560858990247732 -0.0095367470684301833 0 -0.0020261894938686594 -0.0091003171031319389 0 -0.0014101439376940131 -0.0093015350930551969 0 -0.0018560858990247732 -0.0095367470684301833 0 -0.0014101439376940131 -0.0093015350930551969 0 -0.0015059513730408022 -0.0098131836035116986 0 -0.0023608548825601807 -0.0096082856992344059 0 -0.0020261894938686594 -0.0091003171031319389 0 -0.0022944275460679907 -0.0091043632937165553 0 -0.0018560858990247732 -0.0095367470684301833 0 -0.0023608548825601807 -0.0096082856992344059 0 -0.0020261894938686594 -0.0091003171031319389 0 -0.0020261894938686594 -0.0091003171031319389 0 -0.0022245063105090493 -0.0087716473710236428 0 -0.0017713536347307333 -0.008659061251291119 0 -0.0020261894938686594 -0.0091003171031319389 0 -0.0022944275460679907 -0.0091043632937165553 0 -0.0022245063105090493 -0.0087716473710236428 0 -0.0020261894938686594 -0.0091003171031319389 0 -0.0017713536347307333 -0.008659061251291119 0 -0.0014101439376940131 -0.0093015350930551969 0 -0.0074313537034918593 -0.016870139843325957 0 -0.0081823169759670557 -0.020939445258698682 0 -0.0074313537034918593 -0.016870139843325957 0 -0.008600783386828648 -0.016411369115738105 0 -0.0017713536347307333 -0.008659061251291119 0 -0.0022528104163661651 -0.0084228415172321602 0 -0.0021323468072451594 -0.0082052934492509999 0 -0.0022245063105090493 -0.0087716473710236428 0 -0.0017713536347307333 -0.008659061251291119 0 -0.0022528104163661651 -0.0084228415172321602 0 -0.0022983045148419539 -0.008208871069618269 0 -0.0022528104163661651 -0.0084228415172321602 0 -0.0021323468072451594 -0.0082052934492509999 0 -0.012306129652198485 -0.022831270179571116 0 -0.014537819792481746 -0.023818880413919094 0 -0.012501647117542961 -0.024562830142831119 0 -0.013263639789820092 -0.025945444342464846 0 -0.014537819792481746 -0.023818880413919094 0 -0.012501647117542961 -0.024562830142831119 0 -0.012501647117542961 -0.024562830142831119 0 -0.010950690105197865 -0.024228833841046498 0 -0.011679202166760837 -0.026039866067858606 0 -0.012306129652198485 -0.022831270179571116 0 -0.012501647117542961 -0.024562830142831119 0 -0.010950690105197865 -0.024228833841046498 0 -0.008967126945324715 -0.023310913744746142 0 -0.010950690105197865 -0.024228833841046498 0 -0.0096862584357525171 -0.025432466968506758 0 -0.0096862584357525171 -0.025432466968506758 0 -0.011679202166760837 -0.026039866067858606 0 -0.010137423923540598 -0.02752118806023458 0 -0.010950690105197865 -0.024228833841046498 0 -0.0096862584357525171 -0.025432466968506758 0 -0.011679202166760837 -0.026039866067858606 0 -0.013263639789820092 -0.025945444342464846 0 -0.012501647117542961 -0.024562830142831119 0 -0.011679202166760837 -0.026039866067858606 0 -0.0075908981426307731 -0.02298567030380087 0 -0.0079945763016680063 -0.024734782399074482 0 -0.0063695465663419449 -0.024384081499937264 0 -0.0079945763016680063 -0.024734782399074482 0 -0.0069127238710631695 -0.025790886412856685 0 -0.0063695465663419449 -0.024384081499937264 0 -0.008967126945324715 -0.023310913744746142 0 -0.0096862584357525171 -0.025432466968506758 0 -0.0079945763016680063 -0.024734782399074482 0 -0.008967126945324715 -0.023310913744746142 0 -0.0075908981426307731 -0.02298567030380087 0 -0.0079945763016680063 -0.024734782399074482 0 -0.0096862584357525171 -0.025432466968506758 0 -0.0082787586732328607 -0.026664677606280496 0 -0.010137423923540598 -0.02752118806023458 0 -0.0096862584357525171 -0.025432466968506758 0 -0.0079945763016680063 -0.024734782399074482 0 -0.0082787586732328607 -0.026664677606280496 0 -0.0079945763016680063 -0.024734782399074482 0 -0.0082787586732328607 -0.026664677606280496 0 -0.0069127238710631695 -0.025790886412856685 0 -0.0082787586732328607 -0.026664677606280496 0 -0.0069127238710631695 -0.025790886412856685 0 -0.0066358143361605918 -0.027292327977229459 0 -0.0082787586732328607 -0.026664677606280496 0 -0.0085175481360814827 -0.028219011154066134 0 -0.0072019119357241103 -0.028615415140122839 0 -0.0066358143361605918 -0.027292327977229459 0 -0.0068849986688652243 -0.029430820556780722 0 -0.0059117354008990384 -0.028699956533253052 0 -0.0083396948558634287 -0.026796790654841592 0 -0.0066059725951497766 -0.028921749390504303 0 -0.0082787586732328607 -0.026664677606280496 0 -0.0066358143361605918 -0.027292327977229459 0 -0.0068849986688652243 -0.029430820556780722 0 -0.0082787586732328607 -0.026664677606280496 0 -0.0085175481360814827 -0.028219011154066134 0 -0.010137423923540598 -0.02752118806023458 0 -0.0093710647683619488 -0.029292801653000074 0 -0.0085175481360814827 -0.028219011154066134 0 -0.010137423923540598 -0.02752118806023458 0 -0.0086127268865950658 -0.027861593212492181 0 -0.0062397056278638363 -0.0280097342427231 0 -0.0093710647683619488 -0.029292801653000074 0 -0.0085175481360814827 -0.028219011154066134 0 -0.007704499064917064 -0.029000678386896659 0 -0.0085175481360814827 -0.028219011154066134 0 -0.007704499064917064 -0.029000678386896659 0 -0.0072019119357241103 -0.028615415140122839 0 -0.006087666290849802 -0.028609366379698204 0 -0.006622938902187233 -0.028703330882465881 0 -0.006500594814950281 -0.028921963449566747 0 -0.0037095821219361065 -0.028432337367031692 0 -0.003687520393879071 -0.028434535166891386 0 -0.0036853240066100517 -0.028466092232855348 0 -0.0062397056278638363 -0.0280097342427231 0 -0.0057791178421925391 -0.02962279175209491 0 -0.0062397056278638363 -0.0280097342427231 0 -0.0066059725951497766 -0.028921749390504303 0 -0.0057791178421925391 -0.02962279175209491 0 -0.0066059725951497766 -0.028921749390504303 0 -0.0066362765969110128 -0.02971341885866062 0 -0.0068211788865210361 -0.02938237241981359 0 -0.0059117354008990384 -0.028699956533253052 0 -0.0066059725951497766 -0.028921749390504303 0 -0.0062379609547028592 -0.028846677799909057 0 -0.013263639789820092 -0.025945444342464846 0 -0.011679202166760837 -0.026039866067858606 0 -0.012076057380026524 -0.027749602167190947 0 -0.012652000134619916 -0.028999355519046345 0 -0.0081823169759670557 -0.020939445258698682 0 -0.011679202166760837 -0.026039866067858606 0 -0.010137423923540598 -0.02752118806023458 0 -0.012043475706325562 -0.028046479441344991 0 -0.0093710647683619488 -0.029292801653000074 0 -0.010137423923540598 -0.02752118806023458 0 -0.011108083412641186 -0.029557208449670337 0 -0.0081823169759670557 -0.020939445258698682 0 -0.0024950152728031483 -0.013431530560083864 0 -0.0081823169759670557 -0.020939445258698682 0 -0.0071183384169413375 -0.023137705806000011 0 -0.010137423923540598 -0.02752118806023458 0 -0.012043475706325562 -0.028046479441344991 0 -0.011108083412641186 -0.029557208449670337 0 -0.005884984678730905 -0.020821440429133954 0 -0.0071655680022772181 -0.018597895466774865 0 -0.0052792731247803234 -0.018259415709608734 0 -0.0036412631134518821 -0.018169386680656256 0 -0.0041930731819011932 -0.019609206931026916 0 -0.0026581308264704315 -0.019324710902182789 0 -0.0071183384169413375 -0.023137705806000011 0 -0.0024950152728031483 -0.013431530560083864 0 -0.0036412631134518821 -0.018169386680656256 0 -0.0026581308264704315 -0.019324710902182789 0 -0.0021957710521551235 -0.017354163683561317 0 -0.0036412631134518821 -0.018169386680656256 0 -0.0041930731819011932 -0.019609206931026916 0 -0.0051667026189881208 -0.017945150172720744 0 -0.0066817939573300686 -0.02597849002460478 0 -0.0058205035716243888 -0.025804516238007953 0 -0.0063994328905846685 -0.025568394851038789 0 -0.0086127268865950658 -0.027861593212492181 0 -0.0071183384169413375 -0.023137705806000011 0 -0.0045153671952094495 -0.023503885819266223 0 -0.0054956328930863985 -0.027215111665411677 0 -0.0063994328905846685 -0.025568394851038789 0 -0.0062141178827488869 -0.025107760936916735 0 -0.0068814614715837705 -0.025628251468575815 0 -0.0071183384169413375 -0.023137705806000011 0 -0.0045153671952094495 -0.023503885819266223 0 -0.0058205035716243888 -0.025804516238007953 0 -0.0063994328905846685 -0.025568394851038789 0 -0.0062141178827488869 -0.025107760936916735 0 -0.0028924038127137249 -0.024007787244697838 0 -0.0026316677186471117 -0.023284949391203114 0 -0.0035205161324758094 -0.022928954568780205 0 -0.0045153671952094495 -0.023503885819266223 0 -0.0018285585962873106 -0.028375832277188373 0 -0.0028924038127137249 -0.024007787244697838 0 -0.0026316677186471117 -0.023284949391203114 0 -0.0018558712830658744 -0.023229739038250988 0 -0.0036412631134518821 -0.018169386680656256 0 -0.003468158457249168 -0.01663633578374937 0 -0.0021957710521551235 -0.017354163683561317 0 -0.0036412631134518821 -0.018169386680656256 0 -0.0051667026189881208 -0.017945150172720744 0 -0.003468158457249168 -0.01663633578374937 0 -0.0045153671952094495 -0.023503885819266223 0 -0.0026087728744423918 -0.019866215980101496 0 -0.0036853240066100517 -0.028466092232855348 0 -0.0036793946174478735 -0.028497581268343074 0 -0.0036463773965378439 -0.028502367000587208 0 -0.0037095821219361065 -0.028432337367031692 0 -0.0036853240066100517 -0.028466092232855348 0 -0.0037104508445764584 -0.028463685979028354 0 -0.0036853240066100517 -0.028466092232855348 0 -0.0037104508445764584 -0.028463685979028354 0 -0.0036793946174478735 -0.028497581268343074 0 -0.0066817939573300686 -0.02597849002460478 0 -0.0075326425702398571 -0.026158760776973374 0 -0.0068814614715837705 -0.025628251468575815 0 -0.0038140026199331217 -0.028459427134479628 0 -0.0037525290294959011 -0.028442329714021983 0 -0.0037321336567870487 -0.028494798620744805 0 -0.0037104508445764584 -0.028463685979028354 0 -0.0037525290294959011 -0.028442329714021983 0 -0.0037321336567870487 -0.028494798620744805 0 -0.0062397056278638363 -0.0280097342427231 0 -0.0054956328930863985 -0.027215111665411677 0 -0.0037095821219361065 -0.028432337367031692 0 -0.0037104508445764584 -0.028463685979028354 0 -0.0037525290294959011 -0.028442329714021983 0 -0.0066817939573300686 -0.02597849002460478 0 -0.0063994328905846685 -0.025568394851038789 0 -0.0068814614715837705 -0.025628251468575815 0 -0.0037321336567870487 -0.028494798620744805 0 -0.0036549674107288392 -0.028580319164827974 0 -0.0037643227768554572 -0.028560486754548847 0 -0.0038140026199331217 -0.028459427134479628 0 -0.0037321336567870487 -0.028494798620744805 0 -0.0037643227768554572 -0.028560486754548847 0 -0.0037104508445764584 -0.028463685979028354 0 -0.0037321336567870487 -0.028494798620744805 0 -0.0036793946174478735 -0.028497581268343074 0 -0.0037321336567870487 -0.028494798620744805 0 -0.0036793946174478735 -0.028497581268343074 0 -0.0036549674107288392 -0.028580319164827974 0 -0.0036793946174478735 -0.028497581268343074 0 -0.0036549674107288392 -0.028580319164827974 0 -0.0035638511716615325 -0.028537984955666756 0 -0.0010241809256029291 -0.031177343761133295 0 -0.0010591557499621946 -0.030903780347871054 0 -0.0012202053889402435 -0.031087893097679623 0 -0.0010241809256029291 -0.031177343761133295 0 -0.0010591557499621946 -0.030903780347871054 0 -0.00060671504485585988 -0.031084479727396065 0 -0.0010591557499621946 -0.030903780347871054 0 -0.00060671504485585988 -0.031084479727396065 0 -0.00089927447192893954 -0.030552091868240719 0 -0.0024815535106210212 -0.029951452676695543 0 -0.0018285585962873106 -0.028375832277188373 0 -0.0018285585962873106 -0.028375832277188373 0 -0.00039656822311241974 -0.031500237289490557 0 -0.00090703926476422617 -0.030176330106762499 0 -0.00089927447192893954 -0.030552091868240719 0 -0.00095313735040518323 -0.030333470771630913 0 -0.0010591557499621946 -0.030903780347871054 0 -0.00089927447192893954 -0.030552091868240719 0 -0.001162520280400998 -0.030713355424354067 0 -0.0017646250633366462 -0.026818135741518489 0 -0.0016930124071513849 -0.016278012199759908 0 -0.0018558712830658744 -0.023229739038250988 0 -0.0022148424973701866 -0.022620542254082592 0 -0.00083209520689412708 -0.022274068094466661 0 -0.0010186834159225484 -0.030118359859649457 0 -0.001041258606974302 -0.030188248279918391 0 -0.0011793434741844036 -0.030030685540468421 0 -0.0026316677186471117 -0.023284949391203114 0 -0.0018558712830658744 -0.023229739038250988 0 -0.0022148424973701866 -0.022620542254082592 0 -0.0018285585962873106 -0.028375832277188373 0 -0.0017646250633366462 -0.026818135741518489 0 -0.0026316677186471117 -0.023284949391203114 0 -0.0035205161324758094 -0.022928954568780205 0 -0.0022148424973701866 -0.022620542254082592 0 -0.00090703926476422617 -0.030176330106762499 0 -0.0010186834159225484 -0.030118359859649457 0 -0.00095313735040518323 -0.030333470771630913 0 -0.00095313735040518323 -0.030333470771630913 0 -0.001041258606974302 -0.030188248279918391 0 -0.0010380825217664673 -0.030257608205278275 0 -0.0010186834159225484 -0.030118359859649457 0 -0.00095313735040518323 -0.030333470771630913 0 -0.001041258606974302 -0.030188248279918391 0 -0.001041258606974302 -0.030188248279918391 0 -0.0011793434741844036 -0.030030685540468421 0 -0.0010380825217664673 -0.030257608205278275 0 -0.0015227000823316457 -0.011231606615309015 0 -0.0015293413313593803 -0.011228475113783956 0 -0.0015328097740523365 -0.011268811378632768 0 -0.0015210286561589308 -0.01141670110778906 0 -0.0015328097740523365 -0.011268811378632768 0 -0.001530610010213351 -0.011346707306028455 0 -0.0015210286561589308 -0.01141670110778906 0 -0.0015102749711929926 -0.011528325060420759 0 -0.0015328097740523365 -0.011268811378632768 0 -0.0016930124071513849 -0.016278012199759908 0 -0.0010046417517362671 -0.021674057283037396 0 -0.0016930124071513849 -0.016278012199759908 0 -0.0012373817253698255 -0.0092868078331714773 0 -0.0015210286561589308 -0.01141670110778906 0 -0.0015102749711929926 -0.011528325060420759 0 -0.001530610010213351 -0.011346707306028455 0 -0.0034777183593738886 -0.0050734295561027636 0 -0.0035416780650129299 -0.0051372512269815523 0 -0.0030637775366435796 -0.0052059714118934744 0 -0.003468158457249168 -0.01663633578374937 0 -0.0018273660616835248 -0.015175094356487348 0 -0.0017305698126668162 -0.015351689634509006 0 -0.0026458604993010544 -0.012633641729490086 0 -0.0018928250775772739 -0.014130568347595619 0 -0.0035610549989234849 -0.0051071787874572899 0 -0.0034777183593738886 -0.0050734295561027636 0 -0.0035416780650129299 -0.0051372512269815523 0 -0.0016930124071513849 -0.016278012199759908 0 -0.0017443816311885779 -0.012018567549297476 0 -0.0016930124071513849 -0.016278012199759908 0 -0.0026458604993010544 -0.012633641729490086 0 -0.0026087728744423918 -0.019866215980101496 0 -0.0016930124071513849 -0.016278012199759908 0 -0.0035416780650129299 -0.0051372512269815523 0 -0.0030637775366435796 -0.0052059714118934744 0 -0.0032645599515731187 -0.0056344488494068281 0 -0.0034777183593738886 -0.0050734295561027636 0 -0.0030637775366435796 -0.0052059714118934744 0 -0.0027142776250678288 -0.0048219715515950157 0 -0.0017443816311885779 -0.012018567549297476 0 -0.0022700788296897735 -0.0075383180869915637 0 -0.0017443816311885779 -0.012018567549297476 0 -0.0014977298059065782 -0.010960378985721473 0 -0.0015293413313593803 -0.011228475113783956 0 -0.0016129281292613211 -0.011215174040300003 0 -0.0015328097740523365 -0.011268811378632768 0 -0.0016774782237598037 -0.011255220057192048 0 -0.0016129281292613211 -0.011215174040300003 0 -0.0016094082844390703 -0.011243758247314753 0 -0.0016129281292613211 -0.011215174040300003 0 -0.0015806960641437597 -0.01120339428917728 0 -0.0016094082844390703 -0.011243758247314753 0 -0.0016332837698344303 -0.0080166646067511785 0 -0.0022700788296897735 -0.0075383180869915637 0 -0.0014495819534504587 -0.011280497551850569 0 -0.0015806960641437597 -0.01120339428917728 0 -0.0016094082844390703 -0.011243758247314753 0 -0.0018420406199925175 -0.0046482734916646427 0 -0.0027142776250678288 -0.0048219715515950157 0 -0.0024334883587739269 -0.0052409139951316054 0 -0.0016703288268834107 -0.0052803043279402518 0 -0.0018420406199925175 -0.0046482734916646427 0 -0.0024334883587739269 -0.0052409139951316054 0 -0.0030637775366435796 -0.0052059714118934744 0 -0.0027142776250678288 -0.0048219715515950157 0 -0.0024334883587739269 -0.0052409139951316054 0 -0.0030637775366435796 -0.0052059714118934744 0 -0.0024334883587739269 -0.0052409139951316054 0 -0.0028643231006800188 -0.0054996765320212771 0 -0.0024334883587739269 -0.0052409139951316054 0 -0.0028643231006800188 -0.0054996765320212771 0 -0.0025969978335735854 -0.0056086565560831778 0 -0.0028643231006800188 -0.0054996765320212771 0 -0.0025969978335735854 -0.0056086565560831778 0 -0.0029195484100714379 -0.0057992659992627728 0 -0.0016703288268834107 -0.0052803043279402518 0 -0.0024334883587739269 -0.0052409139951316054 0 -0.0021874552884207743 -0.0056779255915596358 0 -0.0024334883587739269 -0.0052409139951316054 0 -0.0025969978335735854 -0.0056086565560831778 0 -0.0021874552884207743 -0.0056779255915596358 0 -0.0025969978335735854 -0.0056086565560831778 0 -0.0021874552884207743 -0.0056779255915596358 0 -0.0025886455953523049 -0.0059935313209681911 0 -0.0021874552884207743 -0.0056779255915596358 0 -0.0021874559102641657 -0.0061905304605451494 0 -0.0025886455953523049 -0.0059935313209681911 0 -0.0025969978335735854 -0.0056086565560831778 0 -0.0029195484100714379 -0.0057992659992627728 0 -0.0025886455953523049 -0.0059935313209681911 0 -0.0030460065576091086 -0.0062437730122164728 0 -0.0029195484100714379 -0.0057992659992627728 0 -0.0025886455953523049 -0.0059935313209681911 0 -0.0030460065576091086 -0.0062437730122164728 0 -0.0029195484100714379 -0.0057992659992627728 0 -0.0032645599515731187 -0.0056344488494068281 0 -0.0026293726820071817 -0.0081030516502217168 0 -0.002898669415491622 -0.007154453002193 0 -0.0018560858990247732 -0.0095367470684301833 0 -0.0023608548825601807 -0.0096082856992344059 0 -0.0020333627827565353 -0.0098914629224128876 0 -0.0023608548825601807 -0.0096082856992344059 0 -0.0020333627827565353 -0.0098914629224128876 0 -0.0020758952949564489 -0.010310169226644421 0 -0.0020333627827565353 -0.0098914629224128876 0 -0.0017729760503594481 -0.010126156219178634 0 -0.0020758952949564489 -0.010310169226644421 0 -0.0024950152728031483 -0.013431530560083864 0 -0.0018928250775772739 -0.014130568347595619 0 -0.0020333627827565353 -0.0098914629224128876 0 -0.0014389118620385674 -0.0098385630099377657 0 -0.0017729760503594481 -0.010126156219178634 0 -0.0018560858990247732 -0.0095367470684301833 0 -0.0020333627827565353 -0.0098914629224128876 0 -0.0015059513730408022 -0.0098131836035116986 0 -0.0014488586022045617 -0.0095639885609230101 0 -0.0024950152728031483 -0.013431530560083864 0 -0.0014389118620385674 -0.0098385630099377657 0 -0.0017729760503594481 -0.010126156219178634 0 -0.0015528264696897203 -0.010415873201484791 0 -0.0017019744510994787 -0.011066233768453091 0 -0.0015528264696897203 -0.010415873201484791 0 -0.0020758952949564489 -0.010310169226644421 0 -0.0026458604993010544 -0.012633641729490086 0 -0.002898669415491622 -0.007154453002193 0 -0.0017729760503594481 -0.010126156219178634 0 -0.0015528264696897203 -0.010415873201484791 0 -0.0020758952949564489 -0.010310169226644421 0 -0.003468158457249168 -0.01663633578374937 0 -0.0017305698126668162 -0.015351689634509006 0 -0.0021957710521551235 -0.017354163683561317 0 -0.0030637775366435796 -0.0052059714118934744 0 -0.0028643231006800188 -0.0054996765320212771 0 -0.0032645599515731187 -0.0056344488494068281 0 -0.0028643231006800188 -0.0054996765320212771 0 -0.0029195484100714379 -0.0057992659992627728 0 -0.0032645599515731187 -0.0056344488494068281 0 -0.0019269669544777219 -0.031817088144957574 0 -0.0018756904979122058 -0.031716867368344448 0 -0.0019010469604783182 -0.031847497813759243 0 -0.0019269669544777219 -0.031817088144957574 0 -0.0019344085651049191 -0.031723788863772119 0 -0.0019791168824334579 -0.031862097439710316 0 -0.0019269669544777219 -0.031817088144957574 0 -0.001943622205100633 -0.031919106356859323 0 -0.0019791168824334579 -0.031862097439710316 0 -0.0019269669544777219 -0.031817088144957574 0 -0.0019344085651049191 -0.031723788863772119 0 -0.0018756904979122058 -0.031716867368344448 0 -0.0019344085651049191 -0.031723788863772119 0 -0.0018756904979122058 -0.031716867368344448 0 -0.0018769899863106264 -0.031589315245179155 0 -0.0018756904979122058 -0.031716867368344448 0 -0.0018066523354048534 -0.031614446062193123 0 -0.0018769899863106264 -0.031589315245179155 0 -0.0018756904979122058 -0.031716867368344448 0 -0.0018066523354048534 -0.031614446062193123 0 -0.0018070136155316735 -0.03169001814012691 0 -0.0018070136155316735 -0.03169001814012691 0 -0.0019010469604783182 -0.031847497813759243 0 -0.0017027774930194687 -0.03164776885455424 0 -0.0018066523354048534 -0.031614446062193123 0 -0.0017453851230618486 -0.031604812754537595 0 -0.001731287077144673 -0.031530274803659358 0 -0.0018066523354048534 -0.031614446062193123 0 -0.0017453851230618486 -0.031604812754537595 0 -0.0018070136155316735 -0.03169001814012691 0 -0.0017453851230618486 -0.031604812754537595 0 -0.0018070136155316735 -0.03169001814012691 0 -0.0017027774930194687 -0.03164776885455424 0 -0.0018756904979122058 -0.031716867368344448 0 -0.0018070136155316735 -0.03169001814012691 0 -0.0019010469604783182 -0.031847497813759243 0 -0.0019716116780154045 -0.031842285820368264 0 -0.0022637515498596596 -0.031884699907094124 0 -0.0019393257535586096 -0.031830692566199636 0 -0.0019010469604783182 -0.031847497813759243 0 -0.0020809423076589397 -0.031856275098597911 0 -0.0019113389283220827 -0.031828286074663641 0 -0.0018974170364390211 -0.031750606011554043 0 -0.0019393257535586096 -0.031830692566199636 0 -0.0021046967991416267 -0.031782331956932183 0 -0.0023701446321457049 -0.031985213184284524 0 -0.0019393257535586096 -0.031830692566199636 0 -0.0020809423076589397 -0.031856275098597911 0 -0.0021403269008615864 -0.031798473390344369 0 -0.002142631411343846 -0.031717419253602136 0 -0.0021046967991416267 -0.031782331956932183 0 -0.0022574823660757109 -0.031767851930381293 0 -0.0021046967991416267 -0.031782331956932183 0 -0.0019786704912875415 -0.031766402526767143 0 -0.002048277644621592 -0.031656704493999835 0 -0.002142631411343846 -0.031717419253602136 0 -0.0021430797594419165 -0.031610473667040825 0 -0.002048277644621592 -0.031656704493999835 0 -0.002142631411343846 -0.031717419253602136 0 -0.0021046967991416267 -0.031782331956932183 0 -0.002048277644621592 -0.031656704493999835 0 -0.0019786704912875415 -0.031766402526767143 0 -0.00196212492864188 -0.0317483214691614 0 -0.002048277644621592 -0.031656704493999835 0 -0.0019393257535586096 -0.031830692566199636 0 -0.0021046967991416267 -0.031782331956932183 0 -0.0019786704912875415 -0.031766402526767143 0 -0.0019393257535586096 -0.031830692566199636 0 -0.0019786704912875415 -0.031766402526767143 0 -0.0019327763777021087 -0.031834072379807309 0 -0.0019786704912875415 -0.031766402526767143 0 -0.0019327763777021087 -0.031834072379807309 0 -0.00196212492864188 -0.0317483214691614 0 -0.0019327763777021087 -0.031834072379807309 0 -0.001943622205100633 -0.031919106356859323 0 -0.0019590851319285399 -0.03187033739370114 0 -0.0019327763777021087 -0.031834072379807309 0 -0.0019590851319285399 -0.03187033739370114 0 -0.00196212492864188 -0.0317483214691614 0 -0.0019393257535586096 -0.031830692566199636 0 -0.0019327763777021087 -0.031834072379807309 0 -0.0019010469604783182 -0.031847497813759243 0 -0.0019269669544777219 -0.031817088144957574 0 -0.0019010469604783182 -0.031847497813759243 0 -0.001943622205100633 -0.031919106356859323 0 -0.0019327763777021087 -0.031834072379807309 0 -0.0019010469604783182 -0.031847497813759243 0 -0.001943622205100633 -0.031919106356859323 0 -0.001943622205100633 -0.031919106356859323 0 -0.0019590851319285399 -0.03187033739370114 0 -0.0019748520090365992 -0.032025190583805457 0 -0.0019908619276141921 -0.032003398047984535 0 -0.0021065499163881187 -0.031983212244520741 0 -0.0019821366139549548 -0.03222711398807851 0 -0.001943622205100633 -0.031919106356859323 0 -0.0019908619276141921 -0.032003398047984535 0 -0.0019748520090365992 -0.032025190583805457 0 -0.0019908619276141921 -0.032003398047984535 0 -0.0019821366139549548 -0.03222711398807851 0 -0.0019748520090365992 -0.032025190583805457 0 -0.001943622205100633 -0.031919106356859323 0 -0.0019908619276141921 -0.032003398047984535 0 -0.0019791168824334579 -0.031862097439710316 0 -0.0019821366139549548 -0.03222711398807851 0 -0.0023526510799478685 -0.032451981234637654 0 -0.002319073275362757 -0.032197671345709923 0 -0.0021065499163881187 -0.031983212244520741 0 -0.0019821366139549548 -0.03222711398807851 0 -0.002319073275362757 -0.032197671345709923 0 -0.0021065499163881187 -0.031983212244520741 0 -0.0021737381171147599 -0.031815398591692169 0 -0.002319073275362757 -0.032197671345709923 0 -0.0019908619276141921 -0.032003398047984535 0 -0.0021065499163881187 -0.031983212244520741 0 -0.0019791168824334579 -0.031862097439710316 0 -0.0021065499163881187 -0.031983212244520741 0 -0.0019791168824334579 -0.031862097439710316 0 -0.0020317842620254747 -0.031744501851694959 0 -0.0021065499163881187 -0.031983212244520741 0 -0.0020317842620254747 -0.031744501851694959 0 -0.0021737381171147599 -0.031815398591692169 0 -0.0019344085651049191 -0.031723788863772119 0 -0.0019791168824334579 -0.031862097439710316 0 -0.0020317842620254747 -0.031744501851694959 0 -0.0020317842620254747 -0.031744501851694959 0 -0.0021737381171147599 -0.031815398591692169 0 -0.00212082577959719 -0.031575901521383835 0 -0.0020317842620254747 -0.031744501851694959 0 -0.0020097462259105001 -0.031509828827651361 0 -0.00212082577959719 -0.031575901521383835 0 -0.0020317842620254747 -0.031744501851694959 0 -0.0020097462259105001 -0.031509828827651361 0 -0.0019416912875397261 -0.031563684912389374 0 -0.0021737381171147599 -0.031815398591692169 0 -0.00212082577959719 -0.031575901521383835 0 -0.0023701814703431293 -0.031768704877591668 0 -0.0021737381171147599 -0.031815398591692169 0 -0.002319073275362757 -0.032197671345709923 0 -0.0023701814703431293 -0.031768704877591668 0 -0.0022306562444118897 -0.03143116657210334 0 -0.00212082577959719 -0.031575901521383835 0 -0.0023701814703431293 -0.031768704877591668 0 -0.0022306562444118897 -0.03143116657210334 0 -0.0024206916810551394 -0.031505941850366787 0 -0.0023458529491614663 -0.031324217207266906 0 -0.0022306562444118897 -0.03143116657210334 0 -0.00212082577959719 -0.031575901521383835 0 -0.0020308324829373219 -0.031339608107809891 0 -0.0020097462259105001 -0.031509828827651361 0 -0.0020308324829373219 -0.031339608107809891 0 -0.0019200377135568819 -0.031379252518540589 0 -0.0020097462259105001 -0.031509828827651361 0 -0.00212082577959719 -0.031575901521383835 0 -0.0020308324829373219 -0.031339608107809891 0 -0.0020308324829373219 -0.031339608107809891 0 -0.0019200377135568819 -0.031379252518540589 0 -0.0018909122183139824 -0.031194643332254194 0 -0.0019200377135568819 -0.031379252518540589 0 -0.0018275947315760895 -0.031254795287910038 0 -0.0018909122183139824 -0.031194643332254194 0 -0.0020097462259105001 -0.031509828827651361 0 -0.0019200377135568819 -0.031379252518540589 0 -0.0019416912875397261 -0.031563684912389374 0 -0.0019200377135568819 -0.031379252518540589 0 -0.0019416912875397261 -0.031563684912389374 0 -0.0018391302643737564 -0.031415615594652856 0 -0.0019416912875397261 -0.031563684912389374 0 -0.0018769899863106264 -0.031589315245179155 0 -0.0018391302643737564 -0.031415615594652856 0 -0.0019344085651049191 -0.031723788863772119 0 -0.0019416912875397261 -0.031563684912389374 0 -0.0018769899863106264 -0.031589315245179155 0 -0.0019344085651049191 -0.031723788863772119 0 -0.0020317842620254747 -0.031744501851694959 0 -0.0019416912875397261 -0.031563684912389374 0 -0.0018066523354048534 -0.031614446062193123 0 -0.001809573857453946 -0.0314991147102512 0 -0.001731287077144673 -0.031530274803659358 0 -0.001809573857453946 -0.0314991147102512 0 -0.0017443734724187222 -0.031417281584087721 0 -0.001731287077144673 -0.031530274803659358 0 -0.0018769899863106264 -0.031589315245179155 0 -0.001809573857453946 -0.0314991147102512 0 -0.0018391302643737564 -0.031415615594652856 0 -0.0018066523354048534 -0.031614446062193123 0 -0.0018769899863106264 -0.031589315245179155 0 -0.001809573857453946 -0.0314991147102512 0 -0.0018391302643737564 -0.031415615594652856 0 -0.0017443734724187222 -0.031417281584087721 0 -0.0017339362187661846 -0.031230815199347891 0 -0.001809573857453946 -0.0314991147102512 0 -0.0018391302643737564 -0.031415615594652856 0 -0.0017443734724187222 -0.031417281584087721 0 -0.0018391302643737564 -0.031415615594652856 0 -0.0018275947315760895 -0.031254795287910038 0 -0.0017339362187661846 -0.031230815199347891 0 -0.0018275947315760895 -0.031254795287910038 0 -0.0017339362187661846 -0.031230815199347891 0 -0.0017686344267231436 -0.031006847208544571 0 -0.0019200377135568819 -0.031379252518540589 0 -0.0018391302643737564 -0.031415615594652856 0 -0.0018275947315760895 -0.031254795287910038 0 -0.0017339362187661846 -0.031230815199347891 0 -0.0016211548403314744 -0.03118137682017047 0 -0.0016661323432616408 -0.03131865132782044 0 -0.0017339362187661846 -0.031230815199347891 0 -0.0016211548403314744 -0.03118137682017047 0 -0.0016495670067569511 -0.031044107680481041 0 -0.0015317501598375036 -0.031045869275294249 0 -0.0015322966629117377 -0.030896781146077655 0 -0.0016495670067569511 -0.031044107680481041 0 -0.0016211548403314744 -0.03118137682017047 0 -0.0015317501598375036 -0.031045869275294249 0 -0.0016495670067569511 -0.031044107680481041 0 -0.0015317501598375036 -0.031045869275294249 0 -0.0014217887946374216 -0.030879588573767471 0 -0.0015322966629117377 -0.030896781146077655 0 -0.0015317501598375036 -0.031045869275294249 0 -0.0015155622160537858 -0.03116720614776991 0 -0.0014242926479030979 -0.031033013489958353 0 -0.0016211548403314744 -0.03118137682017047 0 -0.0015317501598375036 -0.031045869275294249 0 -0.0015155622160537858 -0.03116720614776991 0 -0.0016211548403314744 -0.03118137682017047 0 -0.0015824436530545406 -0.031294259511994542 0 -0.0015155622160537858 -0.03116720614776991 0 -0.0015824436530545406 -0.031294259511994542 0 -0.0015155622160537858 -0.03116720614776991 0 -0.0015001902013715678 -0.031280516446232823 0 -0.0015155622160537858 -0.03116720614776991 0 -0.0015001902013715678 -0.031280516446232823 0 -0.0014204165396504897 -0.03117255422231837 0 -0.0015001902013715678 -0.031280516446232823 0 -0.0014323216527211439 -0.031313259373601549 0 -0.0015449328737000636 -0.031389130893532728 0 -0.0015824436530545406 -0.031294259511994542 0 -0.0016376248486688137 -0.031426541512359109 0 -0.0015449328737000636 -0.031389130893532728 0 -0.0015824436530545406 -0.031294259511994542 0 -0.0015001902013715678 -0.031280516446232823 0 -0.0015449328737000636 -0.031389130893532728 0 -0.0015824436530545406 -0.031294259511994542 0 -0.0016376248486688137 -0.031426541512359109 0 -0.0016661323432616408 -0.03131865132782044 0 -0.0017443734724187222 -0.031417281584087721 0 -0.0016376248486688137 -0.031426541512359109 0 -0.001731287077144673 -0.031530274803659358 0 -0.0017443734724187222 -0.031417281584087721 0 -0.0016376248486688137 -0.031426541512359109 0 -0.0016661323432616408 -0.03131865132782044 0 -0.0017443734724187222 -0.031417281584087721 0 -0.0017339362187661846 -0.031230815199347891 0 -0.0016661323432616408 -0.03131865132782044 0 -0.0016211548403314744 -0.03118137682017047 0 -0.0015824436530545406 -0.031294259511994542 0 -0.0016661323432616408 -0.03131865132782044 0 -0.0010591557499621946 -0.030903780347871054 0 -0.001162520280400998 -0.030713355424354067 0 -0.0012168838299715021 -0.030928415841285993 0 -0.001162520280400998 -0.030713355424354067 0 -0.0012168838299715021 -0.030928415841285993 0 -0.001311095203221964 -0.030891545018499625 0 -0.0012168838299715021 -0.030928415841285993 0 -0.001311095203221964 -0.030891545018499625 0 -0.0013199043896971168 -0.031054221406460646 0 -0.001311095203221964 -0.030891545018499625 0 -0.0014242926479030979 -0.031033013489958353 0 -0.0013199043896971168 -0.031054221406460646 0 -0.001311095203221964 -0.030891545018499625 0 -0.0014242926479030979 -0.031033013489958353 0 -0.0014217887946374216 -0.030879588573767471 0 -0.0015317501598375036 -0.031045869275294249 0 -0.0014242926479030979 -0.031033013489958353 0 -0.0014217887946374216 -0.030879588573767471 0 -0.0014242926479030979 -0.031033013489958353 0 -0.0014204165396504897 -0.03117255422231837 0 -0.0013199043896971168 -0.031054221406460646 0 -0.0015155622160537858 -0.03116720614776991 0 -0.0014242926479030979 -0.031033013489958353 0 -0.0014204165396504897 -0.03117255422231837 0 -0.0015001902013715678 -0.031280516446232823 0 -0.0014204165396504897 -0.03117255422231837 0 -0.0014323216527211439 -0.031313259373601549 0 -0.0014204165396504897 -0.03117255422231837 0 -0.0014323216527211439 -0.031313259373601549 0 -0.0013316105750620104 -0.031203278788265794 0 -0.0014323216527211439 -0.031313259373601549 0 -0.0013316105750620104 -0.031203278788265794 0 -0.0012496275186342082 -0.03137258423218145 0 -0.0014204165396504897 -0.03117255422231837 0 -0.0013316105750620104 -0.031203278788265794 0 -0.0013199043896971168 -0.031054221406460646 0 -0.0013316105750620104 -0.031203278788265794 0 -0.0013199043896971168 -0.031054221406460646 0 -0.0012202053889402435 -0.031087893097679623 0 -0.0010241809256029291 -0.031177343761133295 0 -0.0012202053889402435 -0.031087893097679623 0 -0.0012974455494075669 -0.031259404098864955 0 -0.0012168838299715021 -0.030928415841285993 0 -0.0013199043896971168 -0.031054221406460646 0 -0.0012202053889402435 -0.031087893097679623 0 -0.0013316105750620104 -0.031203278788265794 0 -0.0012202053889402435 -0.031087893097679623 0 -0.0012974455494075669 -0.031259404098864955 0 -0.0010591557499621946 -0.030903780347871054 0 -0.0012168838299715021 -0.030928415841285993 0 -0.0012202053889402435 -0.031087893097679623 0 -0.0035626461382596295 -0.028359928304819617 0 -0.0037314828679351963 -0.030172118050850447 0 -0.0036793946174478735 -0.028497581268343074 0 -0.0035638511716615325 -0.028537984955666756 0 -0.0034835835318993745 -0.02848756449908274 0 -0.0024815535106210212 -0.029951452676695543 0 -0.0020362797259632255 -0.030705723683197836 0 -0.0036549674107288392 -0.028580319164827974 0 -0.0035638511716615325 -0.028537984955666756 0 -0.0034307322419802207 -0.028588004243857223 0 -0.0035638511716615325 -0.028537984955666756 0 -0.0034307322419802207 -0.028588004243857223 0 -0.0034835835318993745 -0.02848756449908274 0 -0.0020362797259632255 -0.030705723683197836 0 -0.0037314828679351963 -0.030172118050850447 0 -0.0037314828679351963 -0.030172118050850447 0 -0.0031299262050014038 -0.032145371087351271 0 -0.0020362797259632255 -0.030705723683197836 0 -0.0019430962108091946 -0.031763166157799783 0 -0.0026600943476588861 -0.031917443658644906 0 -0.0023493095731392209 -0.031879909210098194 0 -0.0024221870206570361 -0.031783728627691042 0 -0.0026600943476588861 -0.031917443658644906 0 -0.002735706438569708 -0.031786371833435634 0 -0.0024221870206570361 -0.031783728627691042 0 -0.0014323216527211439 -0.031313259373601549 0 -0.0012496275186342082 -0.03137258423218145 0 -0.0015211381321171909 -0.031487047807235817 0 -0.0013404860192979839 -0.031414224156890366 0 -0.0020362797259632255 -0.030705723683197836 0 -0.0051588914343549007 -0.032355798426251803 0 -0.0045299232804076649 -0.031537923602276141 0 -0.003690835870574291 -0.032241686364167431 0 -0.0045299232804076649 -0.031537923602276141 0 -0.003697066886742107 -0.031534296355426969 0 -0.0041300090527865143 -0.031153944297534087 0 -0.0045299232804076649 -0.031537923602276141 0 -0.003690835870574291 -0.032241686364167431 0 -0.003697066886742107 -0.031534296355426969 0 -0.0059844159249100842 -0.030868665049259638 0 -0.0051588914343549007 -0.032355798426251803 0 -0.0045299232804076649 -0.031537923602276141 0 -0.003687520393879071 -0.028434535166891386 0 -0.0036853240066100517 -0.028466092232855348 0 -0.0036463773965378439 -0.028502367000587208 0 -0.0057791178421925391 -0.02962279175209491 0 -0.0037314828679351963 -0.030172118050850447 0 -0.0018974170364390211 -0.031750606011554043 0 -0.0019430962108091946 -0.031763166157799783 0 -0.0020809423076589397 -0.031856275098597911 0 -0.0023493095731392209 -0.031879909210098194 0 -0.0021403269008615864 -0.031798473390344369 0 -0.0017027774930194687 -0.03164776885455424 0 -0.0016151103450084468 -0.031501496010379569 0 -0.0015211381321171909 -0.031487047807235817 0 -0.0017027774930194687 -0.03164776885455424 0 -0.0016811962527799758 -0.031543135503748862 0 -0.0016151103450084468 -0.031501496010379569 0 -0.0017453851230618486 -0.031604812754537595 0 -0.0017027774930194687 -0.03164776885455424 0 -0.0016811962527799758 -0.031543135503748862 0 -0.0016376248486688137 -0.031426541512359109 0 -0.0016811962527799758 -0.031543135503748862 0 -0.001731287077144673 -0.031530274803659358 0 -0.0017453851230618486 -0.031604812754537595 0 -0.0016811962527799758 -0.031543135503748862 0 -0.001731287077144673 -0.031530274803659358 0 -0.0016376248486688137 -0.031426541512359109 0 -0.0016811962527799758 -0.031543135503748862 0 -0.0016151103450084468 -0.031501496010379569 0 -0.0023493095731392209 -0.031879909210098194 0 -0.0024221870206570361 -0.031783728627691042 0 -0.0021403269008615864 -0.031798473390344369 0 -0.0016151103450084468 -0.031501496010379569 0 -0.0015449328737000636 -0.031389130893532728 0 -0.0015211381321171909 -0.031487047807235817 0 -0.0016376248486688137 -0.031426541512359109 0 -0.0016151103450084468 -0.031501496010379569 0 -0.0015449328737000636 -0.031389130893532728 0 -0.0014323216527211439 -0.031313259373601549 0 -0.0015449328737000636 -0.031389130893532728 0 -0.0015211381321171909 -0.031487047807235817 0 -0.003111786185125697 -0.031814983287989873 0 -0.003690835870574291 -0.032241686364167431 0 -0.0023701446321457049 -0.031985213184284524 0 -0.0031299262050014038 -0.032145371087351271 0 -0.0022637515498596596 -0.031884699907094124 0 -0.003111786185125697 -0.031814983287989873 0 -0.003690835870574291 -0.032241686364167431 0 -0.003697066886742107 -0.031534296355426969 0 -0.003697066886742107 -0.031534296355426969 0 -0.0031486176338437781 -0.031570341648398878 0 -0.0032679677877772415 -0.03124788932706131 0 -0.003111786185125697 -0.031814983287989873 0 -0.003697066886742107 -0.031534296355426969 0 -0.0031486176338437781 -0.031570341648398878 0 -0.003111786185125697 -0.031814983287989873 0 -0.0027404742306268901 -0.031669867850410392 0 -0.0031486176338437781 -0.031570341648398878 0 -0.0031486176338437781 -0.031570341648398878 0 -0.0027953256165575936 -0.03130281174614858 0 -0.0032679677877772415 -0.03124788932706131 0 -0.0027404742306268901 -0.031669867850410392 0 -0.0031486176338437781 -0.031570341648398878 0 -0.0027953256165575936 -0.03130281174614858 0 -0.0027404742306268901 -0.031669867850410392 0 -0.0024502529481951361 -0.0315170390896133 0 -0.0027953256165575936 -0.03130281174614858 0 -0.0027404742306268901 -0.031669867850410392 0 -0.0024502529481951361 -0.0315170390896133 0 -0.0024127224966198815 -0.031739481842077068 0 -0.003111786185125697 -0.031814983287989873 0 -0.0027404742306268901 -0.031669867850410392 0 -0.0023701446321457049 -0.031985213184284524 0 -0.0027404742306268901 -0.031669867850410392 0 -0.0024127224966198815 -0.031739481842077068 0 -0.0023701446321457049 -0.031985213184284524 0 -0.0021046967991416267 -0.031782331956932183 0 -0.0023701446321457049 -0.031985213184284524 0 -0.0022574823660757109 -0.031767851930381293 0 -0.0024127224966198815 -0.031739481842077068 0 -0.0023701446321457049 -0.031985213184284524 0 -0.0022574823660757109 -0.031767851930381293 0 -0.002142631411343846 -0.031717419253602136 0 -0.0021430797594419165 -0.031610473667040825 0 -0.0022574823660757109 -0.031767851930381293 0 -0.0024502529481951361 -0.0315170390896133 0 -0.0024127224966198815 -0.031739481842077068 0 -0.0022574823660757109 -0.031767851930381293 0 -0.0024502529481951361 -0.0315170390896133 0 -0.0022574823660757109 -0.031767851930381293 0 -0.0022721274395691845 -0.031499315150572388 0 -0.0021430797594419165 -0.031610473667040825 0 -0.0022574823660757109 -0.031767851930381293 0 -0.0022721274395691845 -0.031499315150572388 0 -0.0026128916983929828 -0.030884018317177554 0 0.00016374947963886471 -0.028532604295061544 0 0.00068930277738398426 -0.028949580655721736 0 -0.0022445990934708455 -0.031375460276677231 0 -0.0026128916983929828 -0.030884018317177554 0 -0.0019562498708861555 -0.031634642316350478 0 -0.0022721274395691845 -0.031499315150572388 0 -0.0022445990934708455 -0.031375460276677231 0 -0.0021481379241543078 -0.031527684209775093 0 -0.0022960193500921751 -0.029444048707395899 0 3.831026340848665e-05 -0.028683630140615667 0 -0.0025614592990192493 -0.030846056845720237 0 -0.00083741484357236417 -0.030339348900049121 0 -0.0021430797594419165 -0.031610473667040825 0 -0.0022721274395691845 -0.031499315150572388 0 -0.0021481379241543078 -0.031527684209775093 0 -0.0026128916983929828 -0.030884018317177554 0 -0.002933056617204105 -0.030114327111549422 0 0.00016374947963886471 -0.028532604295061544 0 -0.0022721274395691845 -0.031499315150572388 0 -0.0022445990934708455 -0.031375460276677231 0 -0.002450837156274152 -0.031278750004300158 0 -0.0022445990934708455 -0.031375460276677231 0 -0.002450837156274152 -0.031278750004300158 0 -0.0026128916983929828 -0.030884018317177554 0 -0.0024502529481951361 -0.0315170390896133 0 -0.0022721274395691845 -0.031499315150572388 0 -0.002450837156274152 -0.031278750004300158 0 -0.0024502529481951361 -0.0315170390896133 0 -0.002450837156274152 -0.031278750004300158 0 -0.0027953256165575936 -0.03130281174614858 0 -0.002450837156274152 -0.031278750004300158 0 -0.0027953256165575936 -0.03130281174614858 0 -0.0026128916983929828 -0.030884018317177554 0 -0.0036496175750323134 -0.030885321535001641 0 -0.002933056617204105 -0.030114327111549422 0 -0.0044979721650121318 -0.030633705042131289 0 -0.0018909024410287887 -0.028935085425555309 0 -0.0031107506552572051 -0.028473878942891776 0 -0.0042272954159346364 -0.029331659120937607 0 -0.0022960193500921751 -0.029444048707395899 0 -0.0044977838049503 -0.030047669545282141 0 -0.0027953256165575936 -0.03130281174614858 0 -0.0030521748820053446 -0.030926695373588043 0 -0.0032679677877772415 -0.03124788932706131 0 -0.0027953256165575936 -0.03130281174614858 0 -0.0030521748820053446 -0.030926695373588043 0 -0.0026128916983929828 -0.030884018317177554 0 -0.0030521748820053446 -0.030926695373588043 0 -0.0036496175750323134 -0.030885321535001641 0 -0.0032679677877772415 -0.03124788932706131 0 -0.003697066886742107 -0.031534296355426969 0 -0.0036496175750323134 -0.030885321535001641 0 -0.0032679677877772415 -0.03124788932706131 0 -0.0030521748820053446 -0.030926695373588043 0 -0.0036496175750323134 -0.030885321535001641 0 -0.002933056617204105 -0.030114327111549422 0 -0.0030521748820053446 -0.030926695373588043 0 -0.0026128916983929828 -0.030884018317177554 0 -0.002933056617204105 -0.030114327111549422 0 -0.0018909024410287887 -0.028935085425555309 0 -0.0021772670968918835 -0.028315818256670684 0 -0.0016039720863860539 -0.028093541168657123 0 -0.0021772670968918835 -0.028315818256670684 0 -0.0022558806266204691 -0.027694718009496674 0 -0.0016039720863860539 -0.028093541168657123 0 -0.0021772670968918835 -0.028315818256670684 0 -0.0031107506552572051 -0.028473878942891776 0 -0.0022558806266204691 -0.027694718009496674 0 -0.0018909024410287887 -0.028935085425555309 0 -0.0021772670968918835 -0.028315818256670684 0 -0.0031107506552572051 -0.028473878942891776 0 -0.0022558806266204691 -0.027694718009496674 0 -0.0032779442516803034 -0.027394038130941805 0 -0.0026744907135075177 -0.026624001456734235 0 -0.0031107506552572051 -0.028473878942891776 0 -0.0022558806266204691 -0.027694718009496674 0 -0.0032779442516803034 -0.027394038130941805 0 -0.0022558806266204691 -0.027694718009496674 0 -0.0015662845825371598 -0.027526650731057693 0 -0.0018179400600221197 -0.026890090577454742 0 -0.0022558806266204691 -0.027694718009496674 0 -0.0015662845825371598 -0.027526650731057693 0 -0.0016039720863860539 -0.028093541168657123 0 -0.0018909024410287887 -0.028935085425555309 0 -0.00091282583677657493 -0.028212952466489579 0 0.00016374947963886471 -0.028532604295061544 0 -0.0015662845825371598 -0.027526650731057693 0 -0.00098317261217797762 -0.027669656370610925 0 -0.0016039720863860539 -0.028093541168657123 0 -0.00098317261217797762 -0.027669656370610925 0 -0.0016039720863860539 -0.028093541168657123 0 -0.00091282583677657493 -0.028212952466489579 0 -0.0015662845825371598 -0.027526650731057693 0 -0.00098317261217797762 -0.027669656370610925 0 -0.0010829278499537079 -0.02703950407206171 0 -0.00098317261217797762 -0.027669656370610925 0 -0.00026236372265006045 -0.027821924088209066 0 -0.00091282583677657493 -0.028212952466489579 0 -0.00098317261217797762 -0.027669656370610925 0 -0.00026236372265006045 -0.027821924088209066 0 -0.00050120725322800122 -0.027312269437900473 0 -0.00098317261217797762 -0.027669656370610925 0 -0.00050120725322800122 -0.027312269437900473 0 -0.0010829278499537079 -0.02703950407206171 0 -0.00026236372265006045 -0.027821924088209066 0 -0.00050120725322800122 -0.027312269437900473 0 0.00016302759284510216 -0.027267852862290339 0 -0.00026236372265006045 -0.027821924088209066 0 -0.00091282583677657493 -0.028212952466489579 0 0.00016374947963886471 -0.028532604295061544 0 -0.0018909024410287887 -0.028935085425555309 0 -0.0016039720863860539 -0.028093541168657123 0 -0.00091282583677657493 -0.028212952466489579 0 -0.0059844159249100842 -0.030868665049259638 0 -0.0045299232804076649 -0.031537923602276141 0 -0.0044979721650121318 -0.030633705042131289 0 -0.0066362765969110128 -0.02971341885866062 0 -0.0059117354008990384 -0.028699956533253052 0 -0.0042272954159346364 -0.029331659120937607 0 -0.0057791178421925391 -0.02962279175209491 0 -0.0044977838049503 -0.030047669545282141 0 -0.0045299232804076649 -0.031537923602276141 0 -0.0044979721650121318 -0.030633705042131289 0 -0.0041300090527865143 -0.031153944297534087 0 -0.003697066886742107 -0.031534296355426969 0 -0.0036496175750323134 -0.030885321535001641 0 -0.0041300090527865143 -0.031153944297534087 0 -0.0036496175750323134 -0.030885321535001641 0 -0.0044979721650121318 -0.030633705042131289 0 -0.0041300090527865143 -0.031153944297534087 0 -0.0031107506552572051 -0.028473878942891776 0 -0.0032779442516803034 -0.027394038130941805 0 -0.0046357462281578681 -0.027850149775221739 0 -0.0031107506552572051 -0.028473878942891776 0 -0.0042272954159346364 -0.029331659120937607 0 -0.0046357462281578681 -0.027850149775221739 0 -0.0059117354008990384 -0.028699956533253052 0 -0.0042272954159346364 -0.029331659120937607 0 -0.0046357462281578681 -0.027850149775221739 0 -0.0066358143361605918 -0.027292327977229459 0 -0.0046357462281578681 -0.027850149775221739 0 -0.0055351041030856259 -0.026029755768960067 0 -0.0066358143361605918 -0.027292327977229459 0 -0.0059117354008990384 -0.028699956533253052 0 -0.0046357462281578681 -0.027850149775221739 0 -0.0069127238710631695 -0.025790886412856685 0 -0.0055351041030856259 -0.026029755768960067 0 -0.0063695465663419449 -0.024384081499937264 0 -0.0069127238710631695 -0.025790886412856685 0 -0.0066358143361605918 -0.027292327977229459 0 -0.0055351041030856259 -0.026029755768960067 0 -0.0055351041030856259 -0.026029755768960067 0 -0.0038723835619844816 -0.026125718569850548 0 -0.0048338256726552179 -0.024760912028267263 0 -0.0046357462281578681 -0.027850149775221739 0 -0.0055351041030856259 -0.026029755768960067 0 -0.0038723835619844816 -0.026125718569850548 0 -0.0032779442516803034 -0.027394038130941805 0 -0.0046357462281578681 -0.027850149775221739 0 -0.0038723835619844816 -0.026125718569850548 0 -0.0032779442516803034 -0.027394038130941805 0 -0.0038723835619844816 -0.026125718569850548 0 -0.0026744907135075177 -0.026624001456734235 0 -0.0038723835619844816 -0.026125718569850548 0 -0.0036716254156081134 -0.024728501708034804 0 -0.002816291665472885 -0.025494575725747749 0 -0.0036716254156081134 -0.024728501708034804 0 -0.0026895932580129575 -0.024516497266377852 0 -0.0036646535053673338 -0.023641233735097814 0 -0.0036716254156081134 -0.024728501708034804 0 -0.0043684564688353904 -0.023971461051976516 0 -0.0036646535053673338 -0.023641233735097814 0 -0.0036716254156081134 -0.024728501708034804 0 -0.0048338256726552179 -0.024760912028267263 0 -0.0043684564688353904 -0.023971461051976516 0 -0.0038723835619844816 -0.026125718569850548 0 -0.0036716254156081134 -0.024728501708034804 0 -0.0048338256726552179 -0.024760912028267263 0 -0.0055351041030856259 -0.026029755768960067 0 -0.0048338256726552179 -0.024760912028267263 0 -0.0063695465663419449 -0.024384081499937264 0 -0.0048338256726552179 -0.024760912028267263 0 -0.0052367269728037661 -0.023472273656139273 0 -0.0043684564688353904 -0.023971461051976516 0 -0.0048338256726552179 -0.024760912028267263 0 -0.0063695465663419449 -0.024384081499937264 0 -0.0052367269728037661 -0.023472273656139273 0 -0.001244765211888097 -0.026137607263834906 0 -0.00042114118722913425 -0.026696865652735061 0 -0.0010829278499537079 -0.02703950407206171 0 -0.001244765211888097 -0.026137607263834906 0 -0.00042114118722913425 -0.026696865652735061 0 -0.00048147704314993129 -0.025935256591290909 0 -0.00042114118722913425 -0.026696865652735061 0 -0.00048147704314993129 -0.025935256591290909 0 7.5547916101983457e-05 -0.026213967858814666 0 -0.00042114118722913425 -0.026696865652735061 0 -0.00050120725322800122 -0.027312269437900473 0 0.00016302759284510216 -0.027267852862290339 0 -0.00042114118722913425 -0.026696865652735061 0 -0.00050120725322800122 -0.027312269437900473 0 -0.0010829278499537079 -0.02703950407206171 0 -0.001244765211888097 -0.026137607263834906 0 -0.0010829278499537079 -0.02703950407206171 0 -0.0018179400600221197 -0.026890090577454742 0 -0.0015662845825371598 -0.027526650731057693 0 -0.0010829278499537079 -0.02703950407206171 0 -0.0018179400600221197 -0.026890090577454742 0 -0.0018179400600221197 -0.026890090577454742 0 -0.0026744907135075177 -0.026624001456734235 0 -0.0020567798697291805 -0.026120064534943373 0 -0.0022558806266204691 -0.027694718009496674 0 -0.0018179400600221197 -0.026890090577454742 0 -0.0026744907135075177 -0.026624001456734235 0 -0.0038723835619844816 -0.026125718569850548 0 -0.0026744907135075177 -0.026624001456734235 0 -0.002816291665472885 -0.025494575725747749 0 -0.0026744907135075177 -0.026624001456734235 0 -0.0020567798697291805 -0.026120064534943373 0 -0.002816291665472885 -0.025494575725747749 0 -0.001244765211888097 -0.026137607263834906 0 -0.0018179400600221197 -0.026890090577454742 0 -0.0020567798697291805 -0.026120064534943373 0 -0.0020567798697291805 -0.026120064534943373 0 -0.0019072519119000071 -0.025303887173988085 0 -0.002816291665472885 -0.025494575725747749 0 -0.001244765211888097 -0.026137607263834906 0 -0.0020567798697291805 -0.026120064534943373 0 -0.0019072519119000071 -0.025303887173988085 0 -0.0019072519119000071 -0.025303887173988085 0 -0.002816291665472885 -0.025494575725747749 0 -0.0026895932580129575 -0.024516497266377852 0 -0.0036716254156081134 -0.024728501708034804 0 -0.002816291665472885 -0.025494575725747749 0 -0.0026895932580129575 -0.024516497266377852 0 -0.0019072519119000071 -0.025303887173988085 0 -0.0026895932580129575 -0.024516497266377852 0 -0.0017704138135171176 -0.024392160710539675 0 -0.0017704138135171176 -0.024392160710539675 0 -0.00081999873173886769 -0.025153534195929368 0 -0.0009839522072450002 -0.02432422646313959 0 -0.0019072519119000071 -0.025303887173988085 0 -0.0017704138135171176 -0.024392160710539675 0 -0.00081999873173886769 -0.025153534195929368 0 -0.001244765211888097 -0.026137607263834906 0 -0.0019072519119000071 -0.025303887173988085 0 -0.00081999873173886769 -0.025153534195929368 0 -0.001244765211888097 -0.026137607263834906 0 -0.00081999873173886769 -0.025153534195929368 0 -0.00048147704314993129 -0.025935256591290909 0 -0.00081999873173886769 -0.025153534195929368 0 -0.00048147704314993129 -0.025935256591290909 0 0.00016154132408811476 -0.025628719334473953 0 -0.00048147704314993129 -0.025935256591290909 0 0.00016154132408811476 -0.025628719334473953 0 7.5547916101983457e-05 -0.026213967858814666 0 -0.00081999873173886769 -0.025153534195929368 0 0.00016154132408811476 -0.025628719334473953 0 0.00010984513155579085 -0.024722629846648157 0 -0.00081999873173886769 -0.025153534195929368 0 0.00010984513155579085 -0.024722629846648157 0 -0.0009839522072450002 -0.02432422646313959 0 0.0013591148797630745 -0.025632356645804676 0 0.00016154132408811476 -0.025628719334473953 0 0.00010984513155579085 -0.024722629846648157 0 0.0013591148797630745 -0.025632356645804676 0 0.00010984513155579085 -0.024722629846648157 0 0.0010782008613452326 -0.024691376330271179 0 0.0013591148797630745 -0.025632356645804676 0 0.00086653254206730981 -0.026149676264945031 0 0.0016561162668378413 -0.026196376481837119 0 0.0013591148797630745 -0.025632356645804676 0 0.00086653254206730981 -0.026149676264945031 0 0.00016154132408811476 -0.025628719334473953 0 0.00086653254206730981 -0.026149676264945031 0 0.00016154132408811476 -0.025628719334473953 0 7.5547916101983457e-05 -0.026213967858814666 0 0.0020534910713365206 -0.025885291022034043 0 0.0022871673738898467 -0.026097050782966959 0 0.0023982595684386545 -0.025343034963870099 0 0.0013591148797630745 -0.025632356645804676 0 0.0020534910713365206 -0.025885291022034043 0 0.0023982595684386545 -0.025343034963870099 0 0.0013591148797630745 -0.025632356645804676 0 0.0020534910713365206 -0.025885291022034043 0 0.0016561162668378413 -0.026196376481837119 0 0.0020534910713365206 -0.025885291022034043 0 0.0016561162668378413 -0.026196376481837119 0 0.0021696464873698141 -0.026257388361517892 0 0.0016561162668378413 -0.026196376481837119 0 0.0018071119274092381 -0.026810689621991471 0 0.0021696464873698141 -0.026257388361517892 0 0.0016561162668378413 -0.026196376481837119 0 0.0018071119274092381 -0.026810689621991471 0 0.001181729275990978 -0.026538536371698406 0 0.0018071119274092381 -0.026810689621991471 0 0.00097871715761778323 -0.027092832931965159 0 0.0013005522201915813 -0.027551776239593026 0 0.0018071119274092381 -0.026810689621991471 0 0.001181729275990978 -0.026538536371698406 0 0.00097871715761778323 -0.027092832931965159 0 0.00086653254206730981 -0.026149676264945031 0 0.00054129406262513544 -0.026680732470206452 0 7.5547916101983457e-05 -0.026213967858814666 0 -0.00042114118722913425 -0.026696865652735061 0 0.00054129406262513544 -0.026680732470206452 0 7.5547916101983457e-05 -0.026213967858814666 0 0.00086653254206730981 -0.026149676264945031 0 0.0016561162668378413 -0.026196376481837119 0 0.001181729275990978 -0.026538536371698406 0 0.00086653254206730981 -0.026149676264945031 0 0.00054129406262513544 -0.026680732470206452 0 0.001181729275990978 -0.026538536371698406 0 0.00054129406262513544 -0.026680732470206452 0 0.00097871715761778323 -0.027092832931965159 0 0.00016302759284510216 -0.027267852862290339 0 0.00054129406262513544 -0.026680732470206452 0 0.001181729275990978 -0.026538536371698406 0 0.00097871715761778323 -0.027092832931965159 0 -0.00042114118722913425 -0.026696865652735061 0 0.00054129406262513544 -0.026680732470206452 0 0.00016302759284510216 -0.027267852862290339 0 -0.00026236372265006045 -0.027821924088209066 0 0.00016302759284510216 -0.027267852862290339 0 0.00057412180391225038 -0.027721722669544306 0 -0.00026236372265006045 -0.027821924088209066 0 0.00016374947963886471 -0.028532604295061544 0 0.00057412180391225038 -0.027721722669544306 0 0.00016374947963886471 -0.028532604295061544 0 0.0008759034421184724 -0.028168267373243551 0 0.00057412180391225038 -0.027721722669544306 0 0.00016374947963886471 -0.028532604295061544 0 0.0008759034421184724 -0.028168267373243551 0 0.00068930277738398426 -0.028949580655721736 0 0.0008759034421184724 -0.028168267373243551 0 0.00057412180391225038 -0.027721722669544306 0 0.0013005522201915813 -0.027551776239593026 0 0.00097871715761778323 -0.027092832931965159 0 0.00057412180391225038 -0.027721722669544306 0 0.0013005522201915813 -0.027551776239593026 0 0.00097871715761778323 -0.027092832931965159 0 0.00016302759284510216 -0.027267852862290339 0 0.00057412180391225038 -0.027721722669544306 0 -0.00083741484357236417 -0.030339348900049121 0 0.00025317204832201557 -0.029703932933337531 0 0.0018071119274092381 -0.026810689621991471 0 0.0013005522201915813 -0.027551776239593026 0 0.0020692784037729941 -0.027775740903822708 0 0.0008759034421184724 -0.028168267373243551 0 0.0013005522201915813 -0.027551776239593026 0 0.0020692784037729941 -0.027775740903822708 0 0.0008759034421184724 -0.028168267373243551 0 0.00068930277738398426 -0.028949580655721736 0 0.0020692784037729941 -0.027775740903822708 0 -0.0019702358304702458 -0.031764681961580853 0 -0.0019562498708861555 -0.031634642316350478 0 -0.002008133280601791 -0.031936360522896959 0 -0.0019702358304702458 -0.031764681961580853 0 -0.0019590851319285399 -0.03187033739370114 0 -0.002008133280601791 -0.031936360522896959 0 -0.0019590851319285399 -0.03187033739370114 0 -0.0019748520090365992 -0.032025190583805457 0 -0.002008133280601791 -0.031936360522896959 0 -0.0019702358304702458 -0.031764681961580853 0 -0.0019590851319285399 -0.03187033739370114 0 -0.00196212492864188 -0.0317483214691614 0 -0.00196212492864188 -0.0317483214691614 0 -0.0019857884688957643 -0.031661417186959792 0 -0.002048277644621592 -0.031656704493999835 0 -0.0019702358304702458 -0.031764681961580853 0 -0.00196212492864188 -0.0317483214691614 0 -0.0019857884688957643 -0.031661417186959792 0 -0.0021430797594419165 -0.031610473667040825 0 -0.002048277644621592 -0.031656704493999835 0 -0.0021481379241543078 -0.031527684209775093 0 -0.002048277644621592 -0.031656704493999835 0 -0.0021481379241543078 -0.031527684209775093 0 -0.0020672568447221468 -0.03155866890657609 0 -0.0022445990934708455 -0.031375460276677231 0 -0.0021481379241543078 -0.031527684209775093 0 -0.0020672568447221468 -0.03155866890657609 0 -0.0019857884688957643 -0.031661417186959792 0 -0.002048277644621592 -0.031656704493999835 0 -0.0020672568447221468 -0.03155866890657609 0 -0.0022445990934708455 -0.031375460276677231 0 -0.0020672568447221468 -0.03155866890657609 0 -0.0019562498708861555 -0.031634642316350478 0 -0.0019702358304702458 -0.031764681961580853 0 -0.0019857884688957643 -0.031661417186959792 0 -0.0019562498708861555 -0.031634642316350478 0 -0.0019857884688957643 -0.031661417186959792 0 -0.0020672568447221468 -0.03155866890657609 0 -0.0019562498708861555 -0.031634642316350478 0 -0.0019821366139549548 -0.03222711398807851 0 -0.0022015452633866433 -0.032982975457169501 0 -0.002339142221359882 -0.032752257274393674 0 -0.0025490670517833392 -0.032981471785052258 0 -0.00021628925455762887 -0.030870501148433888 0 -0.0019821366139549548 -0.03222711398807851 0 -0.002339142221359882 -0.032752257274393674 0 -0.0023526510799478685 -0.032451981234637654 0 -0.0019821366139549548 -0.03222711398807851 0 -0.002008133280601791 -0.031936360522896959 0 -0.0017477993856746378 -0.031888027301967083 0 -0.0019821366139549548 -0.03222711398807851 0 -0.0019748520090365992 -0.032025190583805457 0 -0.002008133280601791 -0.031936360522896959 0 0.00025317204832201557 -0.029703932933337531 0 -0.00021628925455762887 -0.030870501148433888 0 0.0020692784037729941 -0.027775740903822708 0 0.0032143969915632508 -0.027290221997696307 0 0.0024073409878900194 -0.026608029186553816 0 0.0018071119274092381 -0.026810689621991471 0 0.0020692784037729941 -0.027775740903822708 0 0.0024073409878900194 -0.026608029186553816 0 0.0032143969915632508 -0.027290221997696307 0 0.0032865984396345154 -0.027141975985219471 0 0.0024073409878900194 -0.026608029186553816 0 0.00034583168487664921 -0.029811460123344669 0 0.0026097693402683149 -0.026587331617619638 0 -0.0022015452633866433 -0.032982975457169501 0 -0.002339142221359882 -0.032752257274393674 0 -0.0023046393040661683 -0.032978025451588552 0 -0.00021628925455762887 -0.030870501148433888 0 -0.0013333117867677185 -0.031393186218281958 0 0.00028607710919620772 -0.030897944732170991 0 7.1974703115512833e-05 -0.031326525349365607 0 -0.00042035998197351604 -0.031058124345334764 0 -0.00021628925455762887 -0.030870501148433888 0 0.00034583168487664921 -0.029811460123344669 0 0.00034583168487664921 -0.029811460123344669 0 -0.0013333117867677185 -0.031393186218281958 0 0.0020321165277373695 -0.026117850009756766 0 0.0021629426802550599 -0.02640029175522628 0 0.0024073409878900194 -0.026608029186553816 0 0.0020321165277373695 -0.026117850009756766 0 0.0021629426802550599 -0.02640029175522628 0 0.0019415914794622838 -0.026395897640488837 0 0.0021629426802550599 -0.02640029175522628 0 0.0019415914794622838 -0.026395897640488837 0 0.0022437891027623281 -0.02639387871342622 0 0.0021629426802550599 -0.02640029175522628 0 0.0024073409878900194 -0.026608029186553816 0 0.0022437891027623281 -0.02639387871342622 0 0.0018071119274092381 -0.026810689621991471 0 0.0024073409878900194 -0.026608029186553816 0 0.0021696464873698141 -0.026257388361517892 0 0.0024073409878900194 -0.026608029186553816 0 0.0021696464873698141 -0.026257388361517892 0 0.0022437891027623281 -0.02639387871342622 0 0.0022871673738898467 -0.026097050782966959 0 0.0022437891027623281 -0.02639387871342622 0 0.0021546091564622243 -0.026543213371546234 0 0.0021696464873698141 -0.026257388361517892 0 0.0022871673738898467 -0.026097050782966959 0 0.0022437891027623281 -0.02639387871342622 0 0.0020534910713365206 -0.025885291022034043 0 0.0021696464873698141 -0.026257388361517892 0 0.0022871673738898467 -0.026097050782966959 0 0.0022437891027623281 -0.02639387871342622 0 0.0017844687624483889 -0.026859257492935447 0 0.0021546091564622243 -0.026543213371546234 0 0.0019415914794622838 -0.026395897640488837 0 0.0022437891027623281 -0.02639387871342622 0 0.0017844687624483889 -0.026859257492935447 0 0.0017844687624483889 -0.026859257492935447 0 0.0018845839349235949 -0.02765733606546104 0 0.0021546091564622243 -0.026543213371546234 0 0.0018845839349235949 -0.02765733606546104 0 0.0022784993432479819 -0.026393691514222623 0 0.0021546091564622243 -0.026543213371546234 0 0.0035712685356557041 -0.022908618390190556 0 0.0031578437626444758 -0.021358203118519256 0 0.0046202429308809315 -0.020396866738888051 0 0.0039775146727015556 -0.029331962596552404 0 0.0053235150564557706 -0.029101096206979492 0 0.0048559323001645012 -0.030150442634121772 0 0.0018845839349235949 -0.02765733606546104 0 0.0022784993432479819 -0.026393691514222623 0 0.0025213889110886848 -0.026559985276640798 0 0.0028428958596872938 -0.028709148566575707 0 0.0039072189646076122 -0.026123028316765336 0 0.0039072189646076122 -0.026123028316765336 0 0.004550071503751473 -0.025932339477002703 0 0.0022871673738898467 -0.026097050782966959 0 0.0022784993432479819 -0.026393691514222623 0 0.0021546091564622243 -0.026543213371546234 0 0.0022871673738898467 -0.026097050782966959 0 0.0022784993432479819 -0.026393691514222623 0 0.0023982595684386545 -0.025343034963870099 0 0.0023982595684386545 -0.025343034963870099 0 0.0010782008613452326 -0.024691376330271179 0 0.0013514435219942899 -0.023967465482642902 0 0.0013591148797630745 -0.025632356645804676 0 0.0023982595684386545 -0.025343034963870099 0 0.0010782008613452326 -0.024691376330271179 0 0.0023982595684386545 -0.025343034963870099 0 0.0025529730976743743 -0.023581369886828255 0 0.0019617016159579671 -0.023336038172465511 0 0.0023982595684386545 -0.025343034963870099 0 0.0013514435219942899 -0.023967465482642902 0 0.0019617016159579671 -0.023336038172465511 0 0.0023982595684386545 -0.025343034963870099 0 0.0025529730976743743 -0.023581369886828255 0 0.0032861641588893347 -0.02296712923088861 0 0.0023982595684386545 -0.025343034963870099 0 0.0032861641588893347 -0.02296712923088861 0 0.003768666374553295 -0.022908772862046487 0 0.0028606528496938027 -0.02518276221981473 0 0.0039072189646076122 -0.026123028316765336 0 0.0022784993432479819 -0.026393691514222623 0 0.0023982595684386545 -0.025343034963870099 0 0.0025213889110886848 -0.026559985276640798 0 0.00010984513155579085 -0.024722629846648157 0 0.00040625546720605488 -0.02377002501945482 0 -0.00066818091140834169 -0.023521045886046435 0 0.00010984513155579085 -0.024722629846648157 0 0.0010782008613452326 -0.024691376330271179 0 0.00040625546720605488 -0.02377002501945482 0 0.0013514435219942899 -0.023967465482642902 0 0.00040625546720605488 -0.02377002501945482 0 0.0010062363693708301 -0.022907490423915978 0 0.0010782008613452326 -0.024691376330271179 0 0.0013514435219942899 -0.023967465482642902 0 0.00040625546720605488 -0.02377002501945482 0 0.0013514435219942899 -0.023967465482642902 0 0.0010062363693708301 -0.022907490423915978 0 0.0019617016159579671 -0.023336038172465511 0 0.00040625546720605488 -0.02377002501945482 0 0.00011410919626988443 -0.022810298676254222 0 0.0010062363693708301 -0.022907490423915978 0 0.00040625546720605488 -0.02377002501945482 0 0.00011410919626988443 -0.022810298676254222 0 -0.00066818091140834169 -0.023521045886046435 0 0.00011410919626988443 -0.022810298676254222 0 0.0010062363693708301 -0.022907490423915978 0 0.00058063763024508166 -0.02153227113187044 0 0.00011410919626988443 -0.022810298676254222 0 0.00058063763024508166 -0.02153227113187044 0 -0.00068398625528567002 -0.022239035963683783 0 0.0010062363693708301 -0.022907490423915978 0 0.0019617016159579671 -0.023336038172465511 0 0.0020176008691654063 -0.022114641803990705 0 0.00058063763024508166 -0.02153227113187044 0 0.0020176008691654063 -0.022114641803990705 0 0.0021314756970590236 -0.020421968621950486 0 0.0010062363693708301 -0.022907490423915978 0 0.00058063763024508166 -0.02153227113187044 0 0.0020176008691654063 -0.022114641803990705 0 0.0032861641588893347 -0.02296712923088861 0 0.0025878742768052692 -0.022782100159969603 0 0.003013180094613438 -0.0222888793400942 0 0.0032861641588893347 -0.02296712923088861 0 0.0035712685356557041 -0.022908618390190556 0 0.003013180094613438 -0.0222888793400942 0 0.0038681786807687199 -0.025941503665695999 0 0.0039072189646076122 -0.026123028316765336 0 0.0025529730976743743 -0.023581369886828255 0 0.0032861641588893347 -0.02296712923088861 0 0.0025878742768052692 -0.022782100159969603 0 0.0019617016159579671 -0.023336038172465511 0 0.0025878742768052692 -0.022782100159969603 0 0.0020176008691654063 -0.022114641803990705 0 0.0025529730976743743 -0.023581369886828255 0 0.0019617016159579671 -0.023336038172465511 0 0.0025878742768052692 -0.022782100159969603 0 0.0025878742768052692 -0.022782100159969603 0 0.0020176008691654063 -0.022114641803990705 0 0.003013180094613438 -0.0222888793400942 0 0.0020176008691654063 -0.022114641803990705 0 0.0031578437626444758 -0.021358203118519256 0 0.0021314756970590236 -0.020421968621950486 0 0.0020176008691654063 -0.022114641803990705 0 0.0031578437626444758 -0.021358203118519256 0 0.003013180094613438 -0.0222888793400942 0 0.0035712685356557041 -0.022908618390190556 0 0.0031578437626444758 -0.021358203118519256 0 0.003013180094613438 -0.0222888793400942 0 0.0031578437626444758 -0.021358203118519256 0 0.0021314756970590236 -0.020421968621950486 0 0.0046202429308809315 -0.020396866738888051 0 0.0021314756970590236 -0.020421968621950486 0 0.0022871941803159555 -0.017930307376632336 0 0.0046202429308809315 -0.020396866738888051 0 0.00058063763024508166 -0.02153227113187044 0 0.0021314756970590236 -0.020421968621950486 0 0.00032895085634314857 -0.019710195965361135 0 0.0021314756970590236 -0.020421968621950486 0 0.00032895085634314857 -0.019710195965361135 0 0.0022871941803159555 -0.017930307376632336 0 0.00058063763024508166 -0.02153227113187044 0 0.00032895085634314857 -0.019710195965361135 0 -0.000602550122805805 -0.020926664357336925 0 0.0037199830403761673 -0.01532132649549906 0 -0.00045447976499112447 -0.016038718121507443 0 0.00032895085634314857 -0.019710195965361135 0 0.0022871941803159555 -0.017930307376632336 0 -0.00092260945713969385 -0.017833968592598674 0 0.0022871941803159555 -0.017930307376632336 0 0.005712438754491898 -0.018044186588262401 0 0.0046202429308809315 -0.020396866738888051 0 0.0037199830403761673 -0.01532132649549906 0 0.0057127387623025746 -0.020729038165965236 0 0.0057127387623025746 -0.020729038165965236 0 0.004550071503751473 -0.025932339477002703 0 0.0043712283590499378 -0.031104178664985573 0 0.003685155363886498 -0.030578612369817942 0 0.0048559323001645012 -0.030150442634121772 0 0.0043712283590499378 -0.031104178664985573 0 0.003685155363886498 -0.030578612369817942 0 0.0033515550151332202 -0.03109491131148788 0 0.0057127387623025746 -0.020729038165965236 0 0.0035635102847612504 -0.029429443818378229 0 0.0041357952465696677 -0.022562656736796523 0 0.0040365819059317515 -0.02262781748744553 0 0.0040091303163855172 -0.022593719970259545 0 0.0039775146727015556 -0.029331962596552404 0 0.0036704518005853488 -0.029952547861878905 0 0.0048559323001645012 -0.030150442634121772 0 0.003685155363886498 -0.030578612369817942 0 0.0036704518005853488 -0.029952547861878905 0 0.0048559323001645012 -0.030150442634121772 0 -0.0060538551205557255 -0.020845072016159243 0 -0.0050469757736764679 -0.022113347738105926 0 -0.0044238136829246322 -0.020718711761682013 0 -0.0060538551205557255 -0.020845072016159243 0 -0.0050469757736764679 -0.022113347738105926 0 -0.0062756220675522813 -0.022498415906214007 0 -0.0063695465663419449 -0.024384081499937264 0 -0.0062756220675522813 -0.022498415906214007 0 -0.0052367269728037661 -0.023472273656139273 0 -0.0050469757736764679 -0.022113347738105926 0 -0.0052367269728037661 -0.023472273656139273 0 -0.0043391351150672613 -0.022989638205280143 0 -0.0050469757736764679 -0.022113347738105926 0 -0.0062756220675522813 -0.022498415906214007 0 -0.0052367269728037661 -0.023472273656139273 0 -0.0050469757736764679 -0.022113347738105926 0 -0.0043391351150672613 -0.022989638205280143 0 -0.0038721157681381678 -0.021982247938879044 0 -0.0052367269728037661 -0.023472273656139273 0 -0.0043391351150672613 -0.022989638205280143 0 -0.0043684564688353904 -0.023971461051976516 0 -0.0043391351150672613 -0.022989638205280143 0 -0.0043684564688353904 -0.023971461051976516 0 -0.0036646535053673338 -0.023641233735097814 0 -0.0043391351150672613 -0.022989638205280143 0 -0.0032414191084538723 -0.022808515423887912 0 -0.0038721157681381678 -0.021982247938879044 0 -0.0043391351150672613 -0.022989638205280143 0 -0.0036646535053673338 -0.023641233735097814 0 -0.0032414191084538723 -0.022808515423887912 0 -0.0032414191084538723 -0.022808515423887912 0 -0.0038721157681381678 -0.021982247938879044 0 -0.0028576647903083641 -0.022016745521630108 0 -0.0038721157681381678 -0.021982247938879044 0 -0.0030943900770758507 -0.021084579289397581 0 -0.0028576647903083641 -0.022016745521630108 0 -0.0050469757736764679 -0.022113347738105926 0 -0.0038721157681381678 -0.021982247938879044 0 -0.0044238136829246322 -0.020718711761682013 0 -0.0038721157681381678 -0.021982247938879044 0 -0.0044238136829246322 -0.020718711761682013 0 -0.0030943900770758507 -0.021084579289397581 0 -0.0030943900770758507 -0.021084579289397581 0 -0.0018527574540000799 -0.021422005713092954 0 -0.0028576647903083641 -0.022016745521630108 0 -0.0018527574540000799 -0.021422005713092954 0 -0.0021742025053708659 -0.022613522903871357 0 -0.0013516817524651206 -0.022781676053044642 0 -0.0018527574540000799 -0.021422005713092954 0 -0.0021742025053708659 -0.022613522903871357 0 -0.0028576647903083641 -0.022016745521630108 0 -0.0032414191084538723 -0.022808515423887912 0 -0.0021742025053708659 -0.022613522903871357 0 -0.0028576647903083641 -0.022016745521630108 0 -0.0032414191084538723 -0.022808515423887912 0 -0.0021742025053708659 -0.022613522903871357 0 -0.0025542439694682005 -0.023601171591548415 0 -0.0036646535053673338 -0.023641233735097814 0 -0.0032414191084538723 -0.022808515423887912 0 -0.0025542439694682005 -0.023601171591548415 0 -0.0026895932580129575 -0.024516497266377852 0 -0.0036646535053673338 -0.023641233735097814 0 -0.0025542439694682005 -0.023601171591548415 0 -0.0026895932580129575 -0.024516497266377852 0 -0.0017704138135171176 -0.024392160710539675 0 -0.0025542439694682005 -0.023601171591548415 0 -0.0017704138135171176 -0.024392160710539675 0 -0.0025542439694682005 -0.023601171591548415 0 -0.0015830159618110907 -0.023544082007370015 0 -0.0021742025053708659 -0.022613522903871357 0 -0.0025542439694682005 -0.023601171591548415 0 -0.0015830159618110907 -0.023544082007370015 0 -0.0021742025053708659 -0.022613522903871357 0 -0.0015830159618110907 -0.023544082007370015 0 -0.0013516817524651206 -0.022781676053044642 0 -0.0015830159618110907 -0.023544082007370015 0 -0.00066818091140834169 -0.023521045886046435 0 -0.0013516817524651206 -0.022781676053044642 0 -0.0015830159618110907 -0.023544082007370015 0 -0.0009839522072450002 -0.02432422646313959 0 -0.00066818091140834169 -0.023521045886046435 0 -0.0017704138135171176 -0.024392160710539675 0 -0.0015830159618110907 -0.023544082007370015 0 -0.0009839522072450002 -0.02432422646313959 0 0.00010984513155579085 -0.024722629846648157 0 -0.0009839522072450002 -0.02432422646313959 0 -0.00066818091140834169 -0.023521045886046435 0 0.00011410919626988443 -0.022810298676254222 0 -0.00066818091140834169 -0.023521045886046435 0 -0.00068398625528567002 -0.022239035963683783 0 -0.00066818091140834169 -0.023521045886046435 0 -0.00068398625528567002 -0.022239035963683783 0 -0.0013516817524651206 -0.022781676053044642 0 -0.0018527574540000799 -0.021422005713092954 0 -0.00068398625528567002 -0.022239035963683783 0 -0.0013516817524651206 -0.022781676053044642 0 -0.0018527574540000799 -0.021422005713092954 0 -0.00068398625528567002 -0.022239035963683783 0 -0.000602550122805805 -0.020926664357336925 0 0.00058063763024508166 -0.02153227113187044 0 -0.00068398625528567002 -0.022239035963683783 0 -0.000602550122805805 -0.020926664357336925 0 -0.0018527574540000799 -0.021422005713092954 0 -0.000602550122805805 -0.020926664357336925 0 -0.0013357223688249622 -0.019636371756996833 0 0.00032895085634314857 -0.019710195965361135 0 -0.000602550122805805 -0.020926664357336925 0 -0.0013357223688249622 -0.019636371756996833 0 0.00032895085634314857 -0.019710195965361135 0 -0.0013357223688249622 -0.019636371756996833 0 -0.00092260945713969385 -0.017833968592598674 0 -0.0013357223688249622 -0.019636371756996833 0 -0.00092260945713969385 -0.017833968592598674 0 -0.0024426794780477786 -0.018786339837006245 0 -0.00092260945713969385 -0.017833968592598674 0 -0.0024426794780477786 -0.018786339837006245 0 -0.0037677172022971919 -0.017494961338744459 0 -0.00045447976499112447 -0.016038718121507443 0 -0.004047273719483744 -0.016050613279174682 0 -0.0024426794780477786 -0.018786339837006245 0 -0.0026436900385929359 -0.020007303291845684 0 -0.0035776642843575188 -0.019093530358375674 0 -0.0018527574540000799 -0.021422005713092954 0 -0.0013357223688249622 -0.019636371756996833 0 -0.0026436900385929359 -0.020007303291845684 0 -0.0013357223688249622 -0.019636371756996833 0 -0.0024426794780477786 -0.018786339837006245 0 -0.0026436900385929359 -0.020007303291845684 0 -0.0030943900770758507 -0.021084579289397581 0 -0.0026436900385929359 -0.020007303291845684 0 -0.0036358563522704496 -0.020128726210390122 0 -0.0030943900770758507 -0.021084579289397581 0 -0.0018527574540000799 -0.021422005713092954 0 -0.0026436900385929359 -0.020007303291845684 0 -0.0044238136829246322 -0.020718711761682013 0 -0.0030943900770758507 -0.021084579289397581 0 -0.0036358563522704496 -0.020128726210390122 0 -0.0044238136829246322 -0.020718711761682013 0 -0.0036358563522704496 -0.020128726210390122 0 -0.0043475720086258865 -0.019698070696360051 0 -0.0044238136829246322 -0.020718711761682013 0 -0.0043475720086258865 -0.019698070696360051 0 -0.005293487111729593 -0.019693782010522572 0 -0.0043475720086258865 -0.019698070696360051 0 -0.0035776642843575188 -0.019093530358375674 0 -0.004622559335097076 -0.018759431424475205 0 -0.0043475720086258865 -0.019698070696360051 0 -0.004622559335097076 -0.018759431424475205 0 -0.005293487111729593 -0.019693782010522572 0 -0.0036358563522704496 -0.020128726210390122 0 -0.0043475720086258865 -0.019698070696360051 0 -0.0035776642843575188 -0.019093530358375674 0 -0.0026436900385929359 -0.020007303291845684 0 -0.0036358563522704496 -0.020128726210390122 0 -0.0035776642843575188 -0.019093530358375674 0 -0.0024426794780477786 -0.018786339837006245 0 -0.0035776642843575188 -0.019093530358375674 0 -0.0037677172022971919 -0.017494961338744459 0 -0.0035776642843575188 -0.019093530358375674 0 -0.0037677172022971919 -0.017494961338744459 0 -0.004622559335097076 -0.018759431424475205 0 -0.0037677172022971919 -0.017494961338744459 0 -0.004622559335097076 -0.018759431424475205 0 -0.0050677608272614739 -0.018037552180854691 0 -0.0037677172022971919 -0.017494961338744459 0 -0.0050677608272614739 -0.018037552180854691 0 -0.00594808064163296 -0.017594899656838577 0 -0.0070061160434941863 -0.01648810796944487 0 -0.0037677172022971919 -0.017494961338744459 0 -0.00594808064163296 -0.017594899656838577 0 -0.004622559335097076 -0.018759431424475205 0 -0.0050677608272614739 -0.018037552180854691 0 -0.0056509407967062593 -0.018614141917358468 0 -0.0050677608272614739 -0.018037552180854691 0 -0.00594808064163296 -0.017594899656838577 0 -0.0056509407967062593 -0.018614141917358468 0 -0.007017312120479873 -0.016397600382370425 0 -0.004047273719483744 -0.016050613279174682 0 -0.0067643863946661182 -0.018329386870538655 0 -0.0068456610252922157 -0.017531064813317739 0 -0.00594808064163296 -0.017594899656838577 0 -0.0067643863946661182 -0.018329386870538655 0 -0.00594808064163296 -0.017594899656838577 0 -0.0056509407967062593 -0.018614141917358468 0 -0.0056509407967062593 -0.018614141917358468 0 -0.0064616537250446774 -0.019498668058884647 0 -0.005293487111729593 -0.019693782010522572 0 -0.0067643863946661182 -0.018329386870538655 0 -0.0056509407967062593 -0.018614141917358468 0 -0.0064616537250446774 -0.019498668058884647 0 -0.004622559335097076 -0.018759431424475205 0 -0.0056509407967062593 -0.018614141917358468 0 -0.005293487111729593 -0.019693782010522572 0 -0.0060538551205557255 -0.020845072016159243 0 -0.0044238136829246322 -0.020718711761682013 0 -0.005293487111729593 -0.019693782010522572 0 -0.0060538551205557255 -0.020845072016159243 0 -0.0064616537250446774 -0.019498668058884647 0 -0.005293487111729593 -0.019693782010522572 0 -0.0028150988598759871 -0.0070594236060416678 0 -0.0027227905638796575 -0.0065871992561467698 0 -0.0028994106723621506 -0.00727421748879518 0 -0.0028016941724798928 -0.0068858394576090838 0 -0.002794924351054719 -0.007205279836134065 0 -0.0028150988598759871 -0.0070594236060416678 0 -0.002794924351054719 -0.007205279836134065 0 -0.0028150988598759871 -0.0070594236060416678 0 -0.0027633714595181056 -0.0073083957270307321 0 -0.0028016941724798928 -0.0068858394576090838 0 -0.0028150988598759871 -0.0070594236060416678 0 -0.0027524308541290172 -0.0067367252010238554 0 -0.002709851218889156 -0.0066038413085901752 0 -0.0028016941724798928 -0.0068858394576090838 0 -0.0027524308541290172 -0.0067367252010238554 0 -0.0028150988598759871 -0.0070594236060416678 0 -0.0027524308541290172 -0.0067367252010238554 0 -0.0027227905638796575 -0.0065871992561467698 0 -0.002709851218889156 -0.0066038413085901752 0 -0.0027524308541290172 -0.0067367252010238554 0 -0.0027227905638796575 -0.0065871992561467698 0 -0.0091187146249809784 -0.013212762276640916 0 -0.0054780692539244833 -0.011413021611965496 0 -0.0060950520883232611 -0.012483842936149321 0 -0.002615715666878877 -0.0060117344411941198 0 -0.0027227905638796575 -0.0065871992561467698 0 -0.0028994106723621506 -0.00727421748879518 0 -0.0070061316683979608 -0.015650979484452959 0 -0.0070061160434941863 -0.01648810796944487 0 -0.0050460093077175716 -0.013711153977816637 0 -0.0058492032777553819 -0.012528526653888091 0 -0.0058866239938871337 -0.013242926509676662 0 -0.0058492032777553819 -0.012528526653888091 0 -0.0038959865006062302 -0.0089185484027073918 0 -0.0070061160434941863 -0.01648810796944487 0 -0.0041504833210968504 -0.01454917112596844 0 -0.0050460093077175716 -0.013711153977816637 0 -0.0058866239938871337 -0.013242926509676662 0 -0.0026313253019338376 -0.011950315163377809 0 -0.0054780692539244833 -0.011413021611965496 0 -0.0060950520883232611 -0.012483842936149321 0 -0.0026527619854998441 -0.011782609838927843 0 -0.0041504833210968504 -0.01454917112596844 0 -0.0050460093077175716 -0.013711153977816637 0 -0.0026527619854998441 -0.011782609838927843 0 -0.0028994106723621506 -0.00727421748879518 0 -0.002443990529065263 -0.007635951137044703 0 -0.0013792602262615674 -0.0089186656322996008 0 -0.0028150988598759871 -0.0070594236060416678 0 -0.0028994106723621506 -0.00727421748879518 0 -0.0027633714595181056 -0.0073083957270307321 0 -0.0028994106723621506 -0.00727421748879518 0 -0.0027633714595181056 -0.0073083957270307321 0 -0.002443990529065263 -0.007635951137044703 0 -0.002794924351054719 -0.007205279836134065 0 -0.0027633714595181056 -0.0073083957270307321 0 -0.002443990529065263 -0.007635951137044703 0 -0.0038959865006062302 -0.0089185484027073918 0 -0.0015488707020939625 -0.0089043407359560341 0 -0.002443990529065263 -0.007635951137044703 0 -0.0013792602262615674 -0.0089186656322996008 0 -0.0017383041398167278 -0.0072659499979801315 0 -0.0054780692539244833 -0.011413021611965496 0 -0.0013792602262615674 -0.0089186656322996008 0 -0.0026527619854998441 -0.011782609838927843 0 -0.0013792602262615674 -0.0089186656322996008 0 -0.0026527619854998441 -0.011782609838927843 0 0.0013148831344805727 -0.01121133991082396 0 0.00016539941071447458 -0.014074738648443738 0 -0.0041504833210968504 -0.01454917112596844 0 -0.0026527619854998441 -0.011782609838927843 0 0.00016539941071447458 -0.014074738648443738 0 -0.0026527619854998441 -0.011782609838927843 0 0.0013148831344805727 -0.01121133991082396 0 -0.0013792602262615674 -0.0089186656322996008 0 0.0013148831344805727 -0.01121133991082396 0 0.0023315443004965049 -0.008132744486631838 0 -4.3349903847433307e-07 -0.014158013341427344 0 -3.2756265293547841e-05 -0.015533574418779297 0 3.397430708128405e-05 -0.017961629131956092 0 -0.0013792602262615674 -0.0089186656322996008 0 -0.0017383041398167278 -0.0072659499979801315 0 0.0023315443004965049 -0.008132744486631838 0 -0.00073917116195643551 -0.011445301277747014 0 0.0012822906322684149 -0.01294154048720399 0 4.2570303326561592e-07 -0.010421511337832305 0 -4.3349903847433307e-07 -0.014158013341427344 0 -3.2278073216809031e-05 -0.013048905746309155 0 -0.00073917116195643551 -0.011445301277747014 0 -0.0013946856922231997 -0.009989267366531631 0 -0.002443990529065263 -0.007635951137044703 0 -0.0017383041398167278 -0.0072659499979801315 0 -0.0029105197942918657 -0.0069781682877849242 0 -0.002794924351054719 -0.007205279836134065 0 -0.002443990529065263 -0.007635951137044703 0 -0.0029105197942918657 -0.0069781682877849242 0 -4.3349903847433307e-07 -0.014158013341427344 0 -3.2756265293547841e-05 -0.015533574418779297 0 -3.2278073216809031e-05 -0.013048905746309155 0 -0.0027187263887533245 -0.0068460225915934585 0 -0.0028016941724798928 -0.0068858394576090838 0 -0.0029105197942918657 -0.0069781682877849242 0 -0.0010002619046078894 -0.0092032823293690721 0 -0.0013946856922231997 -0.009989267366531631 0 -0.0028016941724798928 -0.0068858394576090838 0 -0.002794924351054719 -0.007205279836134065 0 -0.0029105197942918657 -0.0069781682877849242 0 0.0071883062027865074 -0.010441332948235493 0 0.0063476669091448003 -0.0091463389891274765 0 0.006464867733542233 -0.011502095456169585 0 0.0082551918903904873 -0.010642768060408526 0 0.0071883062027865074 -0.010441332948235493 0 0.007145124121100241 -0.009341647138594783 0 0.0082551918903904873 -0.010642768060408526 0 0.0071883062027865074 -0.010441332948235493 0 0.0079179157985729727 -0.011440146390613502 0 0.0071883062027865074 -0.010441332948235493 0 0.0079179157985729727 -0.011440146390613502 0 0.006464867733542233 -0.011502095456169585 0 0.0071883062027865074 -0.010441332948235493 0 0.0063476669091448003 -0.0091463389891274765 0 0.007145124121100241 -0.009341647138594783 0 0.0031424423958550649 -0.015595995619849125 0 0.0033080934978828402 -0.017579262571526987 0 0.0082551918903904873 -0.010642768060408526 0 0.007145124121100241 -0.009341647138594783 0 0.010058228192759722 -0.010789619514930508 0 0.0033080934978828402 -0.017579262571526987 0 0.0011722429588581506 -0.021536989366943919 0 0.0033080934978828402 -0.017579262571526987 0 0.0050077545248152456 -0.016781333144037947 0 0.0026421237801908812 -0.021392840985518382 0 0.0021460432943154347 -0.021430479611448238 0 0.0021550264358128719 -0.021297199204247375 0 0.0082551918903904873 -0.010642768060408526 0 0.0090292958481171404 -0.011141262225378324 0 0.0079179157985729727 -0.011440146390613502 0 0.0082551918903904873 -0.010642768060408526 0 0.010058228192759722 -0.010789619514930508 0 0.0090292958481171404 -0.011141262225378324 0 0.0085792875504673381 -0.014044887555436366 0 0.010058228192759722 -0.010789619514930508 0 0.0090292958481171404 -0.011141262225378324 0 0.0057127387623025746 -0.020729038165965236 0 0.0050077545248152456 -0.016781333144037947 0 0.0041357952465696677 -0.022562656736796523 0 0.0040732987316288438 -0.022660962263759857 0 0.0040365819059317515 -0.02262781748744553 0 0.0085792875504673381 -0.014044887555436366 0 0.0090292958481171404 -0.011141262225378324 0 0.0079179157985729727 -0.011440146390613502 0 0.0045342731094236699 -0.013972449737387493 0 0.0085792875504673381 -0.014044887555436366 0 0.006464867733542233 -0.011502095456169585 0 0.0085792875504673381 -0.014044887555436366 0 0.0079179157985729727 -0.011440146390613502 0 0.006464867733542233 -0.011502095456169585 0 0.0045342731094236699 -0.013972449737387493 0 0.006464867733542233 -0.011502095456169585 0 0.0042222470425358691 -0.010773891675630864 0 0.0045342731094236699 -0.013972449737387493 0 0.0013148831344805727 -0.01121133991082396 0 0.0042222470425358691 -0.010773891675630864 0 0.0045342731094236699 -0.013972449737387493 0 0.00016539941071447458 -0.014074738648443738 0 0.0013148831344805727 -0.01121133991082396 0 0.0013148831344805727 -0.01121133991082396 0 0.0042222470425358691 -0.010773891675630864 0 0.0023315443004965049 -0.008132744486631838 0 0.0063476669091448003 -0.0091463389891274765 0 0.0042222470425358691 -0.010773891675630864 0 0.0023315443004965049 -0.008132744486631838 0 0.0063476669091448003 -0.0091463389891274765 0 0.006464867733542233 -0.011502095456169585 0 0.0042222470425358691 -0.010773891675630864 0 8.0333336350336219e-05 -0.02018532872093682 0 1.231780588395642e-06 -0.019201082478183636 0 3.397430708128405e-05 -0.017961629131956092 0 0.0031424423958550649 -0.015595995619849125 0 0.0012822906322684149 -0.01294154048720399 0 -4.3349903847433307e-07 -0.014158013341427344 0 1.231780588395642e-06 -0.019201082478183636 0 3.397430708128405e-05 -0.017961629131956092 0 0.00029901822868502297 -0.022132784963109112 0 1.231780588395642e-06 -0.019201082478183636 0 0.00022428017636682873 -0.023070356083375737 0 8.0333336350336219e-05 -0.02018532872093682 0 0.00011835011893322086 -0.020623420365428635 0 1.231780588395642e-06 -0.019201082478183636 0 0.00011835011893322086 -0.020623420365428635 0 0.00029901822868502297 -0.022132784963109112 0 1.231780588395642e-06 -0.019201082478183636 0 1.231780588395642e-06 -0.019201082478183636 0 0.00022428017636682873 -0.023070356083375737 0 -1.4639352737172813e-06 -0.02601108819854003 0 0.00022428017636682873 -0.023070356083375737 0 -0.00024041934381978283 -0.024098743757801144 0 -1.4639352737172813e-06 -0.02601108819854003 0 0.00022428017636682873 -0.023070356083375737 0 -2.9815713164737682e-05 -0.02299981455438279 0 -0.00024041934381978283 -0.024098743757801144 0 0.0021460432943154347 -0.021430479611448238 0 0.0014922114221950359 -0.021420933400186977 0 0.0016526515989366154 -0.021170972882726329 0 0.00029901822868502297 -0.022132784963109112 0 0.00022428017636682873 -0.023070356083375737 0 -2.9815713164737682e-05 -0.02299981455438279 0 0.0021460432943154347 -0.021430479611448238 0 0.0021550264358128719 -0.021297199204247375 0 0.0016526515989366154 -0.021170972882726329 0 0.0011722429588581506 -0.021536989366943919 0 -9.4015650765629861e-05 -0.025240565468334281 0 -9.4015650765629861e-05 -0.025240565468334281 0 -0.00058055909575308506 -0.025974307013588913 0 -0.00088940454671580067 -0.028388384814624214 0 -0.0010217553219336161 -0.028610260948798 0 -0.00082354775551327075 -0.028591627150962348 0 0.0017839095522158449 -0.025861477172628457 0 0.00054547099231458287 -0.031755475418102003 0 0.0024057694987759783 -0.031941296683722337 0 0.0022955295133662858 -0.031668936976418649 0 0.0018165080807866459 -0.031736522585704557 0 -0.0010217553219336161 -0.028610260948798 0 -0.00082354775551327075 -0.028591627150962348 0 -0.00066990133302944255 -0.02881585540797893 0 -9.4015650765629861e-05 -0.025240565468334281 0 0.0017839095522158449 -0.025861477172628457 0 -0.00082354775551327075 -0.028591627150962348 0 -0.00066990133302944255 -0.02881585540797893 0 -0.00071121905289856869 -0.028560987887508108 0 -0.00088940454671580067 -0.028388384814624214 0 -0.00082354775551327075 -0.028591627150962348 0 -0.00071121905289856869 -0.028560987887508108 0 0.0022955295133662858 -0.031668936976418649 0 0.0018165080807866459 -0.031736522585704557 0 0.002045199332859684 -0.031575726872078484 0 0.00054547099231458287 -0.031755475418102003 0 0.0016845194964847294 -0.031351891146101596 0 0.0050077545248152456 -0.016781333144037947 0 0.0017839095522158449 -0.025861477172628457 0 0.0017839095522158449 -0.025861477172628457 0 0.0035635102847612504 -0.029429443818378229 0 0.0040732987316288438 -0.022660962263759857 0 0.0039537739430151016 -0.022665124360715307 0 0.0040365819059317515 -0.02262781748744553 0 0.0024057694987759783 -0.031941296683722337 0 0.0022955295133662858 -0.031668936976418649 0 0.0027325334074394031 -0.031439462708172564 0 0.0039537739430151016 -0.022665124360715307 0 0.0040365819059317515 -0.02262781748744553 0 0.0040091303163855172 -0.022593719970259545 0 -0.00064089248014688081 -0.033293782049843151 0 -0.00059894436145386089 -0.033282287396017865 0 -0.00051501971986244138 -0.033213166278165229 0 -0.00072377588682993356 -0.033325636060380859 0 -0.00076084814064245054 -0.033337201141703389 0 -0.0008900452106173595 -0.033268000924794046 0 -0.00072377588682993356 -0.033325636060380859 0 -0.00064089248014688081 -0.033293782049843151 0 -0.00076084814064245054 -0.033337201141703389 0 -0.00072377588682993356 -0.033325636060380859 0 -0.00064089248014688081 -0.033293782049843151 0 -0.00051501971986244138 -0.033213166278165229 0 -0.00066990133302944255 -0.02881585540797893 0 -0.00042605355355673156 -0.028468446131425705 0 -0.0001619415654691156 -0.028440945115074313 0 0.00054547099231458287 -0.031755475418102003 0 -0.00062059857544269001 -0.030834089598787633 0 -0.00064089248014688081 -0.033293782049843151 0 -0.00059894436145386089 -0.033282287396017865 0 -0.00076084814064245054 -0.033337201141703389 0 -0.00066990133302944255 -0.02881585540797893 0 -0.00071121905289856869 -0.028560987887508108 0 -0.00042605355355673156 -0.028468446131425705 0 -9.4015650765629861e-05 -0.025240565468334281 0 -0.00073109718794214557 -0.028790519597624437 0 -0.0013496740515399747 -0.028365574417789415 0 -0.00042605355355673156 -0.028468446131425705 0 -0.00080195911813147843 -0.028178822532026488 0 -0.00042605355355673156 -0.028468446131425705 0 -0.00080195911813147843 -0.028178822532026488 0 -0.00047921117512543586 -0.028162462004975582 0 -0.00088940454671580067 -0.028388384814624214 0 -0.00071121905289856869 -0.028560987887508108 0 -0.00042605355355673156 -0.028468446131425705 0 -0.0013496740515399747 -0.028365574417789415 0 -0.00080195911813147843 -0.028178822532026488 0 -0.00097722577228463768 -0.02766357065059432 0 -0.00080195911813147843 -0.028178822532026488 0 -0.00047921117512543586 -0.028162462004975582 0 -0.00097722577228463768 -0.02766357065059432 0 -0.00047921117512543586 -0.028162462004975582 0 -0.0001619415654691156 -0.028440945115074313 0 -0.00015015373110988583 -0.027883884786270269 0 -0.0001619415654691156 -0.028440945115074313 0 -0.00015015373110988583 -0.027883884786270269 0 0.00010921791639840255 -0.028839040785871423 0 -0.00042605355355673156 -0.028468446131425705 0 -0.00047921117512543586 -0.028162462004975582 0 -0.0001619415654691156 -0.028440945115074313 0 -0.00015015373110988583 -0.027883884786270269 0 -9.8924362235366882e-05 -0.026307096889624692 0 0.00010921791639840255 -0.028839040785871423 0 -1.4639352737172813e-06 -0.02601108819854003 0 -9.8924362235366882e-05 -0.026307096889624692 0 -0.00010755813562671867 -0.031210113334375313 0 -0.00015015373110988583 -0.027883884786270269 0 -0.00097722577228463768 -0.02766357065059432 0 -9.8924362235366882e-05 -0.026307096889624692 0 -0.00047921117512543586 -0.028162462004975582 0 -0.00015015373110988583 -0.027883884786270269 0 -0.00097722577228463768 -0.02766357065059432 0 -0.00058055909575308506 -0.025974307013588913 0 -0.0001924405836537449 -0.026069351563004769 0 -0.00024041934381978283 -0.024098743757801144 0 -1.4639352737172813e-06 -0.02601108819854003 0 -9.8924362235366882e-05 -0.026307096889624692 0 -9.8924362235366882e-05 -0.026307096889624692 0 -0.00010755813562671867 -0.031210113334375313 0 0.00010921791639840255 -0.028839040785871423 0 -1.4639352737172813e-06 -0.02601108819854003 0 -0.00010755813562671867 -0.031210113334375313 0 1.8712900123194434e-06 -0.035114886517888258 0 -9.4678037447619431e-05 -0.031033851774465451 0 -0.00035674701612114368 -0.030811362660593974 0 -0.00010755813562671867 -0.031210113334375313 0 -0.0011357491887551915 -0.032788523091412954 0 -0.00039997349943487727 -0.03359352558803172 0 -0.00010755813562671867 -0.031210113334375313 0 0.00014610952794058327 -0.033642431872900065 0 1.8712900123194434e-06 -0.035114886517888258 0 -0.00010755813562671867 -0.031210113334375313 0 0.00014610952794058327 -0.033642431872900065 0 -0.00039997349943487727 -0.03359352558803172 0 0.00014610952794058327 -0.033642431872900065 0 -0.00039997349943487727 -0.03359352558803172 0 6.2388405461529206e-05 -0.034361933012335276 0 0.00014610952794058327 -0.033642431872900065 0 6.2388405461529206e-05 -0.034361933012335276 0 0.00014823173103780204 -0.034882634194090857 0 -0.00039997349943487727 -0.03359352558803172 0 -0.00028517512841686707 -0.034092592351395869 0 6.2388405461529206e-05 -0.034361933012335276 0 -0.00039997349943487727 -0.03359352558803172 0 -0.00059517225243166079 -0.033766401379672725 0 -0.00028517512841686707 -0.034092592351395869 0 -0.00028517512841686707 -0.034092592351395869 0 6.2388405461529206e-05 -0.034361933012335276 0 0.00013645974256368468 -0.034733737516843478 0 -0.0011357491887551915 -0.032788523091412954 0 -0.0008900452106173595 -0.033268000924794046 0 -0.00086959941634052172 -0.033408207189379958 0 -0.00076084814064245054 -0.033337201141703389 0 -0.0011357491887551915 -0.032788523091412954 0 -0.0008900452106173595 -0.033268000924794046 0 -0.00062059857544269001 -0.030834089598787633 0 -0.00035674701612114368 -0.030811362660593974 0 -0.0011357491887551915 -0.032788523091412954 0 -0.00039997349943487727 -0.03359352558803172 0 -0.00086959941634052172 -0.033408207189379958 0 -0.00039997349943487727 -0.03359352558803172 0 -0.00059517225243166079 -0.033766401379672725 0 -0.00080304080417553409 -0.033561290734404302 0 -0.00039997349943487727 -0.03359352558803172 0 -0.00080304080417553409 -0.033561290734404302 0 -0.00086959941634052172 -0.033408207189379958 0 -0.00059517225243166079 -0.033766401379672725 0 -0.00080304080417553409 -0.033561290734404302 0 -0.001041230227221847 -0.03338493471733546 0 -0.00080304080417553409 -0.033561290734404302 0 -0.00075337150751773776 -0.033391319871002377 0 -0.001041230227221847 -0.03338493471733546 0 -0.00080304080417553409 -0.033561290734404302 0 -0.00086959941634052172 -0.033408207189379958 0 -0.00075337150751773776 -0.033391319871002377 0 -0.00072377588682993356 -0.033325636060380859 0 -0.0008900452106173595 -0.033268000924794046 0 -0.00086959941634052172 -0.033408207189379958 0 -0.00072377588682993356 -0.033325636060380859 0 -0.00086959941634052172 -0.033408207189379958 0 -0.00075337150751773776 -0.033391319871002377 0 -0.0011066850418107526 -0.031884158520515675 0 -9.6748250276221774e-05 -0.032450167165813726 0 -0.00075337150751773776 -0.033391319871002377 0 -0.00104760130507715 -0.031927949256243482 0 -0.00051501971986244138 -0.033213166278165229 0 -0.00072377588682993356 -0.033325636060380859 0 -0.00075337150751773776 -0.033391319871002377 0 -0.00051501971986244138 -0.033213166278165229 0 -0.001041230227221847 -0.03338493471733546 0 -0.0013442287555561266 -0.031585581435180705 0 -0.00104760130507715 -0.031927949256243482 0 -0.00075337150751773776 -0.033391319871002377 0 -0.001041230227221847 -0.03338493471733546 0 -0.00104760130507715 -0.031927949256243482 0 -0.0010515684295415426 -0.033384652960310367 0 -0.0011451009766116137 -0.032663875722002203 0 -0.001041230227221847 -0.03338493471733546 0 -0.00071536298126769892 -0.033847132928689058 0 -0.00089969273368293711 -0.034237967912136125 0 -0.00059517225243166079 -0.033766401379672725 0 -0.001041230227221847 -0.03338493471733546 0 -0.00071536298126769892 -0.033847132928689058 0 -0.0013442287555561266 -0.031585581435180705 0 -0.00104760130507715 -0.031927949256243482 0 -0.00052394623506957314 -0.031151527163839302 0 -0.0011451009766116137 -0.032663875722002203 0 -0.0011158047411406341 -0.033946300972227644 0 -0.0013442287555561266 -0.031585581435180705 0 -0.00052394623506957314 -0.031151527163839302 0 -0.0014862706759165289 -0.030121287501955009 0 -0.00089969273368293711 -0.034237967912136125 0 -0.00050381696386075806 -0.034324438279580198 0 -0.00084193566743038617 -0.034642141739795802 0 -0.00071536298126769892 -0.033847132928689058 0 -0.00089969273368293711 -0.034237967912136125 0 -0.00058586303487676245 -0.034121729946972448 0 -0.00089969273368293711 -0.034237967912136125 0 -0.00058586303487676245 -0.034121729946972448 0 -0.00050381696386075806 -0.034324438279580198 0 -0.00029506838477112913 -0.030476127967243676 0 -0.00052394623506957314 -0.031151527163839302 0 -0.0014862706759165289 -0.030121287501955009 0 -0.00104760130507715 -0.031927949256243482 0 -0.00052394623506957314 -0.031151527163839302 0 0.00039788307111188263 -0.031527470468440288 0 -0.00052394623506957314 -0.031151527163839302 0 0.00039788307111188263 -0.031527470468440288 0 0.00031894078054238228 -0.030572190608071856 0 -0.00029506838477112913 -0.030476127967243676 0 -0.00052394623506957314 -0.031151527163839302 0 0.00031894078054238228 -0.030572190608071856 0 -0.00028517512841686707 -0.034092592351395869 0 7.8293812525687243e-06 -0.034847861822243885 0 0.00013645974256368468 -0.034733737516843478 0 -0.00028517512841686707 -0.034092592351395869 0 -0.0002281330288212602 -0.034112189313246305 0 -0.00035353534287916043 -0.034126389845713041 0 -0.00020216884574271248 -0.034253916318862807 0 -0.00022949665611294624 -0.034174610576050042 0 -0.00028517512841686707 -0.034092592351395869 0 -0.00050840569759062065 -0.033970703113654722 0 -0.00035353534287916043 -0.034126389845713041 0 -0.00059517225243166079 -0.033766401379672725 0 -0.00028517512841686707 -0.034092592351395869 0 -0.00050840569759062065 -0.033970703113654722 0 -0.00059517225243166079 -0.033766401379672725 0 -0.00071536298126769892 -0.033847132928689058 0 -0.00050840569759062065 -0.033970703113654722 0 -0.00050840569759062065 -0.033970703113654722 0 -0.00058586303487676245 -0.034121729946972448 0 -0.00035353534287916043 -0.034126389845713041 0 -0.00071536298126769892 -0.033847132928689058 0 -0.00050840569759062065 -0.033970703113654722 0 -0.00058586303487676245 -0.034121729946972448 0 -0.00050381696386075806 -0.034324438279580198 0 4.9886938812923605e-06 -0.034504896084945766 0 -0.00084193566743038617 -0.034642141739795802 0 -0.00050381696386075806 -0.034324438279580198 0 -0.00035353534287916043 -0.034126389845713041 0 -0.0002468602467370305 -0.034367925696337003 0 -0.00054517337795969949 -0.034209601796621782 0 -0.00055186172284533053 -0.036841471515732173 0 -0.00058586303487676245 -0.034121729946972448 0 -0.00050381696386075806 -0.034324438279580198 0 -0.00035353534287916043 -0.034126389845713041 0 -0.0002281330288212602 -0.034112189313246305 0 -0.00035353534287916043 -0.034126389845713041 0 -0.0002468602467370305 -0.034367925696337003 0 -0.0002281330288212602 -0.034112189313246305 0 -0.0002468602467370305 -0.034367925696337003 0 -2.3594606976687731e-05 -0.034341703142117153 0 -0.00075552825449818066 -0.039108306612384791 0 -0.0010297203866503472 -0.040083969086173503 0 -0.00027995118505000908 -0.040054139426257088 0 -0.00055186172284533053 -0.036841471515732173 0 -0.0011158047411406341 -0.033946300972227644 0 -0.00075552825449818066 -0.039108306612384791 0 -0.0016942049863889839 -0.039927985545732292 0 -0.0010297203866503472 -0.040083969086173503 0 -0.00075552825449818066 -0.039108306612384791 0 -0.0016942049863889839 -0.039927985545732292 0 -0.0022969768770248634 -0.039318941021666262 0 -0.0016942049863889839 -0.039927985545732292 0 -0.0014407140471304665 -0.040545361511005733 0 -0.0021774176752264261 -0.040587558018898864 0 -0.0016942049863889839 -0.039927985545732292 0 -0.0014407140471304665 -0.040545361511005733 0 -0.0010297203866503472 -0.040083969086173503 0 -0.0014407140471304665 -0.040545361511005733 0 -0.0010297203866503472 -0.040083969086173503 0 -0.000635735299971984 -0.040686346558351426 0 -0.0010297203866503472 -0.040083969086173503 0 -0.000635735299971984 -0.040686346558351426 0 -0.00027995118505000908 -0.040054139426257088 0 0.00090657219959411057 -0.028845078717010912 0 -0.0011158047411406341 -0.033946300972227644 0 -0.00029506838477112913 -0.030476127967243676 0 0.00044268118909338841 -0.029767176479016177 0 -0.0014862706759165289 -0.030121287501955009 0 0.00044268118909338841 -0.029767176479016177 0 0.00096561882576071643 -0.029582800922759816 0 0.00076429108240163061 -0.029829536572137331 0 0.00044268118909338841 -0.029767176479016177 0 0.00076429108240163061 -0.029829536572137331 0 0.00061032485677930861 -0.02986559235282614 0 -0.00029506838477112913 -0.030476127967243676 0 0.00044268118909338841 -0.029767176479016177 0 0.00031894078054238228 -0.030572190608071856 0 -0.0011158047411406341 -0.033946300972227644 0 -0.00050981121301113715 -0.035435766221561159 0 0.00096561882576071643 -0.029582800922759816 0 0.00076429108240163061 -0.029829536572137331 0 0.0011884194152315453 -0.030248731563348424 0 0.00076429108240163061 -0.029829536572137331 0 0.0011884194152315453 -0.030248731563348424 0 0.00080677682556859844 -0.030111761481351505 0 -0.0016942049863889839 -0.039927985545732292 0 -0.0022969768770248634 -0.039318941021666262 0 -0.0021774176752264261 -0.040587558018898864 0 0.00090836676635055774 -0.029935375741749821 0 -0.00059871897569131641 -0.030402257156130014 0 0.00080677682556859844 -0.030111761481351505 0 0.00069253165585071805 -0.029969849172206412 0 0.0006751167906738219 -0.029956363235704823 0 0.00076429108240163061 -0.029829536572137331 0 0.00080677682556859844 -0.030111761481351505 0 0.00069253165585071805 -0.029969849172206412 0 0.00076429108240163061 -0.029829536572137331 0 0.00069253165585071805 -0.029969849172206412 0 0.00061032485677930861 -0.02986559235282614 0 0.00061032485677930861 -0.02986559235282614 0 0.00068983741035878211 -0.029912787207643794 0 0.00064511310805687215 -0.029765345185542896 0 0.00044268118909338841 -0.029767176479016177 0 0.00061032485677930861 -0.02986559235282614 0 0.00064511310805687215 -0.029765345185542896 0 0.00069253165585071805 -0.029969849172206412 0 0.00061032485677930861 -0.02986559235282614 0 0.00068983741035878211 -0.029912787207643794 0 0.00068983741035878211 -0.029912787207643794 0 0.00074275864750126739 -0.029936130656513592 0 0.00069714932669744545 -0.029880154752226055 0 0.00069253165585071805 -0.029969849172206412 0 0.00068983741035878211 -0.029912787207643794 0 0.0006751167906738219 -0.029956363235704823 0 -0.00016320611738491862 -0.030471104664884136 0 -0.00059871897569131641 -0.030402257156130014 0 0.00068983741035878211 -0.029912787207643794 0 0.00064511310805687215 -0.029765345185542896 0 0.00074275864750126739 -0.029936130656513592 0 0.00068731889852270017 -0.029715921717168525 0 0.00064052080058852234 -0.029922231015210663 0 0.00074275864750126739 -0.029936130656513592 0 0.00068731889852270017 -0.029715921717168525 0 0.00064511310805687215 -0.029765345185542896 0 0.00074275864750126739 -0.029936130656513592 0 0.00068731889852270017 -0.029715921717168525 0 0.00064511310805687215 -0.029765345185542896 0 0.000707508900826532 -0.029571675631161427 0 0.00044268118909338841 -0.029767176479016177 0 0.00080241026090435729 -0.029813706292420354 0 0.00031894078054238228 -0.030572190608071856 0 0.00044268118909338841 -0.029767176479016177 0 0.00080241026090435729 -0.029813706292420354 0 0.000707508900826532 -0.029571675631161427 0 0.00044268118909338841 -0.029767176479016177 0 0.00064511310805687215 -0.029765345185542896 0 0.000707508900826532 -0.029571675631161427 0 0.00080241026090435729 -0.029813706292420354 0 0.0025113697294293327 -0.029555444303312507 0 0.0015904152052918386 -0.030134139737324612 0 0.00080241026090435729 -0.029813706292420354 0 0.000707508900826532 -0.029571675631161427 0 0.00033157382465892675 -0.028713034771932773 0 0.00076787091406311256 -0.029727305222502245 0 0.0014781433419499364 -0.029173896843698515 0 0.000707508900826532 -0.029571675631161427 0 0.00052290707576743093 -0.02952723082085168 0 0.00033157382465892675 -0.028713034771932773 0 0.00068731889852270017 -0.029715921717168525 0 0.000707508900826532 -0.029571675631161427 0 0.00052290707576743093 -0.02952723082085168 0 0.00068731889852270017 -0.029715921717168525 0 0.00052290707576743093 -0.02952723082085168 0 0.00064052080058852234 -0.029922231015210663 0 0.00052290707576743093 -0.02952723082085168 0 0.00028148232693197081 -0.029893789474185865 0 0.00064052080058852234 -0.029922231015210663 0 0.00052290707576743093 -0.02952723082085168 0 0.00025036916444491961 -0.029515525540813121 0 0.00028148232693197081 -0.029893789474185865 0 0.00025036916444491961 -0.029515525540813121 0 -0.00014261507193877055 -0.029859675484029666 0 0.00033157382465892675 -0.028713034771932773 0 -0.00014261507193877055 -0.029859675484029666 0 0.00033157382465892675 -0.028713034771932773 0 -0.0011743582896227842 -0.030421772220722249 0 0.0002659418580078784 -0.028739870813626233 0 8.8134663811797936e-05 -0.028397763814400977 0 0.00025036916444491961 -0.029515525540813121 0 -0.00014261507193877055 -0.029859675484029666 0 0.00028148232693197081 -0.029893789474185865 0 0.00052290707576743093 -0.02952723082085168 0 0.00025036916444491961 -0.029515525540813121 0 0.00033157382465892675 -0.028713034771932773 0 0.0017844687624483889 -0.026859257492935447 0 0.0012160042146978701 -0.02783956057921412 0 0.0013083798874902572 -0.026500625932726618 0 0.0012160042146978701 -0.02783956057921412 0 0.00033157382465892675 -0.028713034771932773 0 0.0013083798874902572 -0.026500625932726618 0 0.0017844687624483889 -0.026859257492935447 0 0.0018845839349235949 -0.02765733606546104 0 0.0012160042146978701 -0.02783956057921412 0 0.0028428958596872938 -0.028709148566575707 0 0.0014781433419499364 -0.029173896843698515 0 0.0018845839349235949 -0.02765733606546104 0 0.0012160042146978701 -0.02783956057921412 0 0.00048063455892316553 -0.028805248325743663 0 0.0039775146727015556 -0.029331962596552404 0 0.0036704518005853488 -0.029952547861878905 0 0.0025113697294293327 -0.029555444303312507 0 0.0012160042146978701 -0.02783956057921412 0 0.00033157382465892675 -0.028713034771932773 0 0.00048063455892316553 -0.028805248325743663 0 0.00080241026090435729 -0.029813706292420354 0 0.00033157382465892675 -0.028713034771932773 0 0.00048063455892316553 -0.028805248325743663 0 0.002211929847551271 -0.030061800761408512 0 0.0021610848171279245 -0.030422928737353694 0 0.0015904152052918386 -0.030134139737324612 0 0.0025113697294293327 -0.029555444303312507 0 0.002211929847551271 -0.030061800761408512 0 0.0015904152052918386 -0.030134139737324612 0 0.002536964818429265 -0.030147896334388535 0 0.0026603611171374724 -0.030534792661797309 0 0.0030467929015166981 -0.030190014482471807 0 0.0025113697294293327 -0.029555444303312507 0 0.002211929847551271 -0.030061800761408512 0 0.002536964818429265 -0.030147896334388535 0 0.0025113697294293327 -0.029555444303312507 0 0.002536964818429265 -0.030147896334388535 0 0.0030467929015166981 -0.030190014482471807 0 0.002211929847551271 -0.030061800761408512 0 0.002536964818429265 -0.030147896334388535 0 0.0021610848171279245 -0.030422928737353694 0 0.0026603611171374724 -0.030534792661797309 0 0.0021610848171279245 -0.030422928737353694 0 0.0022266400452355052 -0.030894383389516351 0 0.002536964818429265 -0.030147896334388535 0 0.0026603611171374724 -0.030534792661797309 0 0.0021610848171279245 -0.030422928737353694 0 0.0021610848171279245 -0.030422928737353694 0 0.0015904152052918386 -0.030134139737324612 0 0.0018028716095034193 -0.03073143316542359 0 0.0021610848171279245 -0.030422928737353694 0 0.0022266400452355052 -0.030894383389516351 0 0.0018028716095034193 -0.03073143316542359 0 0.0036704518005853488 -0.029952547861878905 0 0.0025113697294293327 -0.029555444303312507 0 0.0030467929015166981 -0.030190014482471807 0 0.003685155363886498 -0.030578612369817942 0 0.0036704518005853488 -0.029952547861878905 0 0.0030467929015166981 -0.030190014482471807 0 0.0026603611171374724 -0.030534792661797309 0 0.0031282543645315894 -0.030661693112467591 0 0.002719343352210322 -0.030944514068130959 0 0.0026603611171374724 -0.030534792661797309 0 0.0030467929015166981 -0.030190014482471807 0 0.0031282543645315894 -0.030661693112467591 0 0.003685155363886498 -0.030578612369817942 0 0.0030467929015166981 -0.030190014482471807 0 0.0031282543645315894 -0.030661693112467591 0 0.0033026983896008453 -0.031044259321451367 0 0.0035635102847612504 -0.029429443818378229 0 0.003685155363886498 -0.030578612369817942 0 0.0031282543645315894 -0.030661693112467591 0 0.0032206918574657546 -0.031436942198436846 0 0.0031282543645315894 -0.030661693112467591 0 0.0032206918574657546 -0.031436942198436846 0 0.002719343352210322 -0.030944514068130959 0 0.0032206918574657546 -0.031436942198436846 0 0.002719343352210322 -0.030944514068130959 0 0.0024836345202146112 -0.031182244382984715 0 0.0022955295133662858 -0.031668936976418649 0 0.0027325334074394031 -0.031439462708172564 0 0.0021705479908113797 -0.031445713440005574 0 0.0032206918574657546 -0.031436942198436846 0 0.0024836345202146112 -0.031182244382984715 0 0.0021705479908113797 -0.031445713440005574 0 0.0035635102847612504 -0.029429443818378229 0 0.0020900383395020396 -0.031388777715649345 0 0.0022266400452355052 -0.030894383389516351 0 0.0017407431992002434 -0.031210726001624521 0 0.0018028716095034193 -0.03073143316542359 0 0.002107840109804623 -0.031228978645877817 0 0.0022266400452355052 -0.030894383389516351 0 0.0017407431992002434 -0.031210726001624521 0 0.002107840109804623 -0.031228978645877817 0 0.0019433931717118794 -0.03140089835550823 0 0.0017407431992002434 -0.031210726001624521 0 0.0022266400452355052 -0.030894383389516351 0 0.002719343352210322 -0.030944514068130959 0 0.0024836345202146112 -0.031182244382984715 0 0.0026603611171374724 -0.030534792661797309 0 0.0022266400452355052 -0.030894383389516351 0 0.002719343352210322 -0.030944514068130959 0 0.002107840109804623 -0.031228978645877817 0 0.0022266400452355052 -0.030894383389516351 0 0.0024836345202146112 -0.031182244382984715 0 0.0016555060210823569 -0.031877755581090017 0 0.0019433931717118794 -0.03140089835550823 0 0.002045199332859684 -0.031575726872078484 0 0.0022955295133662858 -0.031668936976418649 0 0.0021705479908113797 -0.031445713440005574 0 0.002045199332859684 -0.031575726872078484 0 0.002107840109804623 -0.031228978645877817 0 0.0024836345202146112 -0.031182244382984715 0 0.0021705479908113797 -0.031445713440005574 0 0.0021705479908113797 -0.031445713440005574 0 0.0019433931717118794 -0.03140089835550823 0 0.002045199332859684 -0.031575726872078484 0 0.002107840109804623 -0.031228978645877817 0 0.0021705479908113797 -0.031445713440005574 0 0.0019433931717118794 -0.03140089835550823 0 0.0016555060210823569 -0.031877755581090017 0 0.0013200006852352028 -0.031049939132353373 0 0.00039788307111188263 -0.031527470468440288 0 0.0016555060210823569 -0.031877755581090017 0 0.0017407431992002434 -0.031210726001624521 0 0.0013200006852352028 -0.031049939132353373 0 0.00054547099231458287 -0.031755475418102003 0 -9.6748250276221774e-05 -0.032450167165813726 0 0.0016555060210823569 -0.031877755581090017 0 0.0019433931717118794 -0.03140089835550823 0 0.0017407431992002434 -0.031210726001624521 0 0.0017407431992002434 -0.031210726001624521 0 0.0013200006852352028 -0.031049939132353373 0 0.0018028716095034193 -0.03073143316542359 0 0.0013200006852352028 -0.031049939132353373 0 0.00039788307111188263 -0.031527470468440288 0 0.00078644024671270507 -0.030645101475968869 0 0.00039788307111188263 -0.031527470468440288 0 0.00078644024671270507 -0.030645101475968869 0 0.00031894078054238228 -0.030572190608071856 0 0.00080241026090435729 -0.029813706292420354 0 0.00078644024671270507 -0.030645101475968869 0 0.00031894078054238228 -0.030572190608071856 0 0.00080241026090435729 -0.029813706292420354 0 0.00078644024671270507 -0.030645101475968869 0 0.0015904152052918386 -0.030134139737324612 0 0.0013200006852352028 -0.031049939132353373 0 0.0015904152052918386 -0.030134139737324612 0 0.0018028716095034193 -0.03073143316542359 0 0.0013200006852352028 -0.031049939132353373 0 0.00078644024671270507 -0.030645101475968869 0 0.0015904152052918386 -0.030134139737324612 0 -1.3534403282045085e-06 -0.044996390555930264 0 -9.3074958950806305e-05 -0.044036892965826128 0 1.8712900123194434e-06 -0.035114886517888258 0 -9.3074958950806305e-05 -0.044036892965826128 0 -9.1725234721834139e-05 -0.040883620370556442 0 1.8712900123194434e-06 -0.035114886517888258 0 -1.0733818536579396e-08 -0.044999944413318615 0 -7.551580943305743e-05 -0.044943950612910358 0 1.3592493280770976e-08 -0.045000008977295863 0 -8.5426682729666379e-06 -0.044990908827497157 0 -2.8796445050101163e-08 -0.044999966526831574 0 -0.00019964291871813595 -0.044877516377153349 0 7.8077403781322019e-07 -0.04499879021776574 0 -0.00015937044065206178 -0.044894946477932268 0 -0.00019964291871813595 -0.044877516377153349 0 -0.00016784738225173563 -0.044858045615032038 0 -0.00015937044065206178 -0.044894946477932268 0 -0.00019964291871813595 -0.044877516377153349 0 7.8077403781322019e-07 -0.04499879021776574 0 -0.00033703186515688315 -0.044695062212933859 0 7.8077403781322019e-07 -0.04499879021776574 0 -1.3534403282045085e-06 -0.044996390555930264 0 -9.3074958950806305e-05 -0.044036892965826128 0 7.8077403781322019e-07 -0.04499879021776574 0 -9.3074958950806305e-05 -0.044036892965826128 0 -0.00033703186515688315 -0.044695062212933859 0 -7.3933789558954403e-05 -0.04378351859923317 0 -0.00010832482529862806 -0.042734311616153473 0 -9.1725234721834139e-05 -0.040883620370556442 0 -0.0001268699563312446 -0.038066667205533457 0 0.00017327509690817983 -0.037451966314010966 0 -0.00019964291871813595 -0.044877516377153349 0 -0.00033703186515688315 -0.044695062212933859 0 -0.00020839306526023504 -0.044822290350677585 0 -0.00010832482529862806 -0.042734311616153473 0 -6.2499729698250431e-05 -0.041387515045728969 0 -0.00020839306526023504 -0.044822290350677585 0 -0.00016784738225173563 -0.044858045615032038 0 -0.00015247950597949394 -0.044837105070144545 0 -0.00019964291871813595 -0.044877516377153349 0 -0.00020839306526023504 -0.044822290350677585 0 -0.00016784738225173563 -0.044858045615032038 0 -6.2499729698250431e-05 -0.041387515045728969 0 1.6822776179948296e-05 -0.040961974396030131 0 -0.00020839306526023504 -0.044822290350677585 0 -0.00015296260036773944 -0.044805443043179932 0 -0.00015247950597949394 -0.044837105070144545 0 -9.1725234721834139e-05 -0.040883620370556442 0 0.00017327509690817983 -0.037451966314010966 0 1.8712900123194434e-06 -0.035114886517888258 0 -0.0001268699563312446 -0.038066667205533457 0 0.00017327509690817983 -0.037451966314010966 0 0.0002010882386531205 -0.036584077093660121 0 0.00028898084007589545 -0.036171238252023064 0 0.00017327509690817983 -0.037451966314010966 0 0.0002010882386531205 -0.036584077093660121 0 0.00028898084007589545 -0.036171238252023064 0 0.00024610511897387805 -0.036269403174631329 0 0.0002010882386531205 -0.036584077093660121 0 0.00028898084007589545 -0.036171238252023064 0 0.00017327509690817983 -0.037451966314010966 0 1.8712900123194434e-06 -0.035114886517888258 0 0.00028898084007589545 -0.036171238252023064 0 1.8712900123194434e-06 -0.035114886517888258 0 0.00014823173103780204 -0.034882634194090857 0 0.00014610952794058327 -0.033642431872900065 0 1.8712900123194434e-06 -0.035114886517888258 0 0.00014823173103780204 -0.034882634194090857 0 6.2388405461529206e-05 -0.034361933012335276 0 0.00014823173103780204 -0.034882634194090857 0 0.00010002864164771368 -0.035128270229366244 0 0.00028898084007589545 -0.036171238252023064 0 0.00014823173103780204 -0.034882634194090857 0 0.00010002864164771368 -0.035128270229366244 0 0.00028898084007589545 -0.036171238252023064 0 0.00010002864164771368 -0.035128270229366244 0 0.00023644380636649999 -0.036043665289734086 0 0.00028898084007589545 -0.036171238252023064 0 0.00023644380636649999 -0.036043665289734086 0 0.00024610511897387805 -0.036269403174631329 0 0.00019975740492119066 -0.035335637593670102 0 -6.4026825118747714e-05 -0.035087121512847805 0 0.00010002864164771368 -0.035128270229366244 0 0.00013645974256368468 -0.034733737516843478 0 6.025510079791234e-05 -0.034827922880652465 0 6.2388405461529206e-05 -0.034361933012335276 0 0.00010002864164771368 -0.035128270229366244 0 0.00013645974256368468 -0.034733737516843478 0 7.8293812525687243e-06 -0.034847861822243885 0 0.00013645974256368468 -0.034733737516843478 0 8.6422051011185395e-05 -0.034860436659913743 0 0.00013645974256368468 -0.034733737516843478 0 8.6422051011185395e-05 -0.034860436659913743 0 6.025510079791234e-05 -0.034827922880652465 0 8.6422051011185395e-05 -0.034860436659913743 0 6.025510079791234e-05 -0.034827922880652465 0 0.00013924254671970264 -0.034937960507651772 0 6.025510079791234e-05 -0.034827922880652465 0 0.00013924254671970264 -0.034937960507651772 0 0.00016039875909617149 -0.034925194974394641 0 0.00023644380636649999 -0.036043665289734086 0 0.00024435878713090903 -0.036188935008186617 0 0.00024610511897387805 -0.036269403174631329 0 -6.4026825118747714e-05 -0.035087121512847805 0 -0.00021316173890114964 -0.038780757831070975 0 -0.0003327893887403864 -0.036947658139828275 0 0.00037066507050436705 -0.040933738715631086 0 8.6422051011185395e-05 -0.034860436659913743 0 0.00013924254671970264 -0.034937960507651772 0 6.2665011123788492e-05 -0.034939829878689647 0 0.00013924254671970264 -0.034937960507651772 0 6.2665011123788492e-05 -0.034939829878689647 0 0.00016753187233279647 -0.034966277385412095 0 -0.0010724014669194917 -0.040853065149832231 0 -0.00050434056430662642 -0.041510336705314108 0 0.00034608023875514941 -0.040625463654790757 0 0.00053623737672823819 -0.037602694957708779 0 -0.00021316173890114964 -0.038780757831070975 0 -0.00055186172284533053 -0.036841471515732173 0 -0.0003327893887403864 -0.036947658139828275 0 7.8293812525687243e-06 -0.034847861822243885 0 8.6422051011185395e-05 -0.034860436659913743 0 6.2665011123788492e-05 -0.034939829878689647 0 -0.00022949665611294624 -0.034174610576050042 0 -0.0003327893887403864 -0.036947658139828275 0 -0.0010870289623220836 -0.038354030153030044 0 -0.00012517992715306139 -0.038193681973208389 0 0.00047557973518660653 -0.038884791265069239 0 -0.00075552825449818066 -0.039108306612384791 0 -0.00027995118505000908 -0.040054139426257088 0 0.00067419274738213263 -0.039643089457762813 0 -0.00055186172284533053 -0.036841471515732173 0 -3.7765974800309024e-05 -0.041148255600982203 0 -0.0003327893887403864 -0.036947658139828275 0 -3.7765974800309024e-05 -0.041148255600982203 0 0.00034093805059793263 -0.040636064254373758 0 -0.00027995118505000908 -0.040054139426257088 0 0.00067419274738213263 -0.039643089457762813 0 -0.000635735299971984 -0.040686346558351426 0 0.00034093805059793263 -0.040636064254373758 0 -0.00027995118505000908 -0.040054139426257088 0 -3.7765974800309024e-05 -0.041148255600982203 0 0.00033691105628731911 -0.042391616792307366 0 0.00034093805059793263 -0.040636064254373758 0 0.0013973981350750729 -0.04052159436005829 0 0.00099660399423455079 -0.041193940040501531 0 0.00034093805059793263 -0.040636064254373758 0 0.00067419274738213263 -0.039643089457762813 0 0.0013973981350750729 -0.04052159436005829 0 -0.00050434056430662642 -0.041510336705314108 0 0.00033357588160212509 -0.041304774025440832 0 0.00034608023875514941 -0.040625463654790757 0 -3.7765974800309024e-05 -0.041148255600982203 0 -0.0001105972557941934 -0.042909370156950108 0 -0.00050434056430662642 -0.041510336705314108 0 0.00033357588160212509 -0.041304774025440832 0 0.00051743079223302217 -0.041862685955260479 0 0.00033357588160212509 -0.041304774025440832 0 0.00094523984710512764 -0.041416296699310851 0 0.00034608023875514941 -0.040625463654790757 0 0.00033357588160212509 -0.041304774025440832 0 0.00051743079223302217 -0.041862685955260479 0 0.00094523984710512764 -0.041416296699310851 0 -0.0010562945509651274 -0.043728812423397941 0 -0.00065202513001575237 -0.043899632159020208 0 -0.00074556974363698973 -0.044124112089248269 0 -0.00065202513001575237 -0.043899632159020208 0 -0.00074556974363698973 -0.044124112089248269 0 -0.00047867439303841042 -0.04417947039833825 0 -0.00065202513001575237 -0.043899632159020208 0 -0.00047867439303841042 -0.04417947039833825 0 -0.00027664800288822405 -0.04406408472875549 0 -0.0001105972557941934 -0.042909370156950108 0 0.00026761383956774154 -0.043952977722964609 0 -0.00047867439303841042 -0.04417947039833825 0 -0.00027664800288822405 -0.04406408472875549 0 -0.00028636077040659289 -0.04436123850071795 0 0.00051743079223302217 -0.041862685955260479 0 0.0015389827606706245 -0.042213750916877207 0 0.00094523984710512764 -0.041416296699310851 0 -0.00013554609213349165 -0.044937310391401933 0 -0.00017849710425498272 -0.044873347518702318 0 -0.00012062077540115647 -0.044876415425769589 0 0.00026761383956774154 -0.043952977722964609 0 0.00049607439069396264 -0.043319348041321058 0 -0.00017849710425498272 -0.044873347518702318 0 -0.00015653732121503607 -0.044800915834146762 0 -0.00012062077540115647 -0.044876415425769589 0 -0.00015653732121503607 -0.044800915834146762 0 -0.00012509938436742544 -0.044741711699842153 0 -0.00011855850330703395 -0.044744918099663189 0 -0.00017849710425498272 -0.044873347518702318 0 -0.00015653732121503607 -0.044800915834146762 0 -0.00022758021784552318 -0.044787852039627034 0 -0.00056394925970604259 -0.044768315889619568 0 0.00037066507050436705 -0.040933738715631086 0 0.00049607439069396264 -0.043319348041321058 0 0.00037066507050436705 -0.040933738715631086 0 0.00013924254671970264 -0.034937960507651772 0 0.00016753187233279647 -0.034966277385412095 0 0.00015049435580902191 -0.034943320941413274 0 0.00037066507050436705 -0.040933738715631086 0 -0.00021316173890114964 -0.038780757831070975 0 -0.00021316173890114964 -0.038780757831070975 0 1.6822776179948296e-05 -0.040961974396030131 0 -0.00015653732121503607 -0.044800915834146762 0 -0.00011855850330703395 -0.044744918099663189 0 -0.00015296260036773944 -0.044805443043179932 0 0.00024435878713090903 -0.036188935008186617 0 0.00024610511897387805 -0.036269403174631329 0 0.0002010882386531205 -0.036584077093660121 0 -0.00015653732121503607 -0.044800915834146762 0 -0.00015296260036773944 -0.044805443043179932 0 -0.00015247950597949394 -0.044837105070144545 0 -0.00016784738225173563 -0.044858045615032038 0 -0.00015247950597949394 -0.044837105070144545 0 -6.6897076535253416e-05 -0.044919110210325595 0 -0.00015247950597949394 -0.044837105070144545 0 -6.6897076535253416e-05 -0.044919110210325595 0 -0.00012062077540115647 -0.044876415425769589 0 -0.00015653732121503607 -0.044800915834146762 0 -0.00015247950597949394 -0.044837105070144545 0 -0.00012062077540115647 -0.044876415425769589 0 -0.00013554609213349165 -0.044937310391401933 0 -0.00012062077540115647 -0.044876415425769589 0 -6.5417536511478392e-05 -0.044930499211712563 0 0.00026761383956774154 -0.043952977722964609 0 -0.00010520299170102853 -0.04504346742619942 0 -7.626795493121736e-05 -0.044949940423996936 0 -5.2396572845455246e-05 -0.044966944895644095 0 -2.9288454218366303e-05 -0.044985615693449416 0 -0.00013554609213349165 -0.044937310391401933 0 -5.2396572845455246e-05 -0.044966944895644095 0 -6.5417536511478392e-05 -0.044930499211712563 0 -5.2396572845455246e-05 -0.044966944895644095 0 -2.3803666506624183e-05 -0.044971346320589065 0 -1.8455240074150367e-05 -0.044978579490427904 0 -5.2396572845455246e-05 -0.044966944895644095 0 -6.5417536511478392e-05 -0.044930499211712563 0 -2.3803666506624183e-05 -0.044971346320589065 0 -6.6897076535253416e-05 -0.044919110210325595 0 -6.5417536511478392e-05 -0.044930499211712563 0 -2.3803666506624183e-05 -0.044971346320589065 0 -6.6897076535253416e-05 -0.044919110210325595 0 -0.00012062077540115647 -0.044876415425769589 0 -6.5417536511478392e-05 -0.044930499211712563 0 -6.6897076535253416e-05 -0.044919110210325595 0 -2.3803666506624183e-05 -0.044971346320589065 0 -3.4299064366398762e-09 -0.044999941084126902 0 -2.3803666506624183e-05 -0.044971346320589065 0 -3.6748898776038673e-06 -0.044986341862581519 0 -1.8455240074150367e-05 -0.044978579490427904 0 -2.3803666506624183e-05 -0.044971346320589065 0 -4.326776948885727e-09 -0.04499998511069956 0 -3.6748898776038673e-06 -0.044986341862581519 0 -2.3803666506624183e-05 -0.044971346320589065 0 -4.326776948885727e-09 -0.04499998511069956 0 -3.4299064366398762e-09 -0.044999941084126902 0 -1.647641108929562e-05 -0.044979323721220488 0 -3.4299064366398762e-09 -0.044999941084126902 0 -2.8796445050101163e-08 -0.044999966526831574 0 -6.6897076535253416e-05 -0.044919110210325595 0 -1.647641108929562e-05 -0.044979323721220488 0 -3.4299064366398762e-09 -0.044999941084126902 0 -7.6147654839156195e-05 -0.044929182260102847 0 -7.551580943305743e-05 -0.044943950612910358 0 -6.6897076535253416e-05 -0.044919110210325595 0 -1.647641108929562e-05 -0.044979323721220488 0 -8.5426682729666379e-06 -0.044990908827497157 0 -0.00016784738225173563 -0.044858045615032038 0 -6.6897076535253416e-05 -0.044919110210325595 0 -0.00015937044065206178 -0.044894946477932268 0 -1.647641108929562e-05 -0.044979323721220488 0 -8.5426682729666379e-06 -0.044990908827497157 0 -2.8796445050101163e-08 -0.044999966526831574 0 -4.2538959037806599e-08 -0.04499974757829743 0 1.1307644961945513e-05 -0.044883765772374691 0 8.1084405049023898e-08 -0.044999602826049687 0 1.1307644961945513e-05 -0.044883765772374691 0 2.1730238683201557e-05 -0.044849832539427974 0 6.337256464433563e-05 -0.044702154668317534 0 -4.2538959037806599e-08 -0.04499974757829743 0 1.1307644961945513e-05 -0.044883765772374691 0 2.1730238683201557e-05 -0.044849832539427974 0 -0.00021133410829791619 -0.044947667599536008 0 0.00065739145579599785 -0.04406461195695692 0 2.1730238683201557e-05 -0.044849832539427974 0 0.00013739114536421662 -0.044457480729050938 0 6.337256464433563e-05 -0.044702154668317534 0 2.1730238683201557e-05 -0.044849832539427974 0 4.8960042955892016e-05 -0.044881741969564022 0 3.1063677468583196e-05 -0.04491747750283856 0 2.1730238683201557e-05 -0.044849832539427974 0 4.8960042955892016e-05 -0.044881741969564022 0 6.3713998696887089e-05 -0.044867979066969481 0 4.8960042955892016e-05 -0.044881741969564022 0 6.8643577777857784e-05 -0.044910126945610293 0 3.1063677468583196e-05 -0.04491747750283856 0 2.1730238683201557e-05 -0.044849832539427974 0 3.1063677468583196e-05 -0.04491747750283856 0 1.92729831143599e-06 -0.044955184485182716 0 -4.2538959037806599e-08 -0.04499974757829743 0 2.1730238683201557e-05 -0.044849832539427974 0 1.92729831143599e-06 -0.044955184485182716 0 -4.2538959037806599e-08 -0.04499974757829743 0 1.92729831143599e-06 -0.044955184485182716 0 -5.5492202334786427e-09 -0.044999992203797419 0 -5.5492202334786427e-09 -0.044999992203797419 0 -3.6748898776038673e-06 -0.044986341862581519 0 1.1829701344688059e-05 -0.044965155081620627 0 1.92729831143599e-06 -0.044955184485182716 0 -5.5492202334786427e-09 -0.044999992203797419 0 1.1829701344688059e-05 -0.044965155081620627 0 -4.326776948885727e-09 -0.04499998511069956 0 -5.5492202334786427e-09 -0.044999992203797419 0 -3.6748898776038673e-06 -0.044986341862581519 0 -3.6748898776038673e-06 -0.044986341862581519 0 5.6609616980238519e-06 -0.044973584031249673 0 -1.8455240074150367e-05 -0.044978579490427904 0 -3.6748898776038673e-06 -0.044986341862581519 0 1.1829701344688059e-05 -0.044965155081620627 0 5.6609616980238519e-06 -0.044973584031249673 0 6.8643577777857784e-05 -0.044910126945610293 0 1.1829701344688059e-05 -0.044965155081620627 0 5.6609616980238519e-06 -0.044973584031249673 0 3.1063677468583196e-05 -0.04491747750283856 0 1.92729831143599e-06 -0.044955184485182716 0 1.1829701344688059e-05 -0.044965155081620627 0 6.8643577777857784e-05 -0.044910126945610293 0 3.1063677468583196e-05 -0.04491747750283856 0 1.1829701344688059e-05 -0.044965155081620627 0 6.8643577777857784e-05 -0.044910126945610293 0 5.6609616980238519e-06 -0.044973584031249673 0 -2.9288454218366303e-05 -0.044985615693449416 0 6.8643577777857784e-05 -0.044910126945610293 0 -2.2221434814666717e-05 -0.044529782012054889 0 4.2081614465753763e-05 -0.044868512763953955 0 6.6279174486528328e-05 -0.044862873237643965 0 -8.0919342862331641e-05 -0.044837252809102848 0 -5.2396572845455246e-05 -0.044966944895644095 0 -1.8455240074150367e-05 -0.044978579490427904 0 -2.9288454218366303e-05 -0.044985615693449416 0 5.6609616980238519e-06 -0.044973584031249673 0 -1.8455240074150367e-05 -0.044978579490427904 0 -2.9288454218366303e-05 -0.044985615693449416 0 0.00026761383956774154 -0.043952977722964609 0 -8.0919342862331641e-05 -0.044837252809102848 0 -0.00027664800288822405 -0.04406408472875549 0 -2.2221434814666717e-05 -0.044529782012054889 0 -0.00028636077040659289 -0.04436123850071795 0 -2.2221434814666717e-05 -0.044529782012054889 0 -0.00022987370832355542 -0.044546559742505674 0 -0.00028636077040659289 -0.04436123850071795 0 -2.2221434814666717e-05 -0.044529782012054889 0 -0.00019354496496092698 -0.044762978979534018 0 4.2081614465753763e-05 -0.044868512763953955 0 -2.2221434814666717e-05 -0.044529782012054889 0 -0.00022987370832355542 -0.044546559742505674 0 -0.00019354496496092698 -0.044762978979534018 0 0.0012198646307416299 -0.043500503965685181 0 -0.0003870758804766217 -0.045014055041847925 0 0.001811266041784344 -0.042527884172924739 0 0.0022973617588778581 -0.043119917918177153 0 0.0016874120852252196 -0.043101809801363453 0 0.0012198646307416299 -0.043500503965685181 0 0.00065739145579599785 -0.04406461195695692 0 7.5207219067101387e-05 -0.044856491052072282 0 4.2081614465753763e-05 -0.044868512763953955 0 6.3713998696887089e-05 -0.044867979066969481 0 4.8960042955892016e-05 -0.044881741969564022 0 6.8643577777857784e-05 -0.044910126945610293 0 5.7761298127310597e-05 -0.044880569039312208 0 6.8643577777857784e-05 -0.044910126945610293 0 4.2081614465753763e-05 -0.044868512763953955 0 5.7761298127310597e-05 -0.044880569039312208 0 4.2081614465753763e-05 -0.044868512763953955 0 5.7761298127310597e-05 -0.044880569039312208 0 6.3713998696887089e-05 -0.044867979066969481 0 4.8960042955892016e-05 -0.044881741969564022 0 5.7761298127310597e-05 -0.044880569039312208 0 6.3713998696887089e-05 -0.044867979066969481 0 2.1730238683201557e-05 -0.044849832539427974 0 0.0002092655960119299 -0.044504069575487359 0 0.00013739114536421662 -0.044457480729050938 0 9.2817402182946833e-05 -0.044139294476739761 0 0.00013739114536421662 -0.044457480729050938 0 4.101618821941558e-05 -0.044139050351386155 0 0.00065739145579599785 -0.04406461195695692 0 0.00028396757386969058 -0.044241666966499366 0 0.00013739114536421662 -0.044457480729050938 0 4.101618821941558e-05 -0.044139050351386155 0 9.4770406455317593e-05 -0.044398739503555405 0 4.101618821941558e-05 -0.044139050351386155 0 -1.5098849953575251e-05 -0.043935422851033398 0 2.9097173193069288e-05 -0.044142371621321341 0 9.2817402182946833e-05 -0.044139294476739761 0 4.101618821941558e-05 -0.044139050351386155 0 -4.7189560764173803e-05 -0.043817428231266956 0 0.00065739145579599785 -0.04406461195695692 0 0.0009056658407534129 -0.043434378279657071 0 4.101618821941558e-05 -0.044139050351386155 0 -1.5098849953575251e-05 -0.043935422851033398 0 -4.7189560764173803e-05 -0.043817428231266956 0 -1.5098849953575251e-05 -0.043935422851033398 0 -4.7189560764173803e-05 -0.043817428231266956 0 -6.8405831022569613e-05 -0.043643698711430569 0 -6.8486601186274124e-05 -0.043492847149546224 0 -4.7189560764173803e-05 -0.043817428231266956 0 -6.8405831022569613e-05 -0.043643698711430569 0 -7.6724436685868665e-05 -0.043407032325367606 0 -6.8486601186274124e-05 -0.043492847149546224 0 -6.8405831022569613e-05 -0.043643698711430569 0 -7.6724436685868665e-05 -0.043407032325367606 0 4.1589156673126158e-05 -0.043292276552249452 0 -6.6191307571140883e-05 -0.04324029501577261 0 -7.6724436685868665e-05 -0.043407032325367606 0 -6.8486601186274124e-05 -0.043492847149546224 0 4.1589156673126158e-05 -0.043292276552249452 0 0.0012301981206764795 -0.042760612524653879 0 0.00089471966445931557 -0.042241402948576832 0 0.00065075696601723447 -0.042800692564515623 0 0.0010258332886207177 -0.04312036690912608 0 0.0012301981206764795 -0.042760612524653879 0 0.00065075696601723447 -0.042800692564515623 0 0.00043286441956363582 -0.043310045826579283 0 0.0009056658407534129 -0.043434378279657071 0 0.001811266041784344 -0.042527884172924739 0 0.0012301981206764795 -0.042760612524653879 0 0.0016874120852252196 -0.043101809801363453 0 0.0010258332886207177 -0.04312036690912608 0 0.0012301981206764795 -0.042760612524653879 0 0.0016874120852252196 -0.043101809801363453 0 0.0012198646307416299 -0.043500503965685181 0 0.00081708702474644435 -0.042897175408922683 0 0.0012198646307416299 -0.043500503965685181 0 0.0013839080017437717 -0.041877073124116045 0 -0.00022987370832355542 -0.044546559742505674 0 -0.00019354496496092698 -0.044762978979534018 0 -0.00044915839920504089 -0.044475425640633962 0 0.0027595486568136713 -0.042143554487275699 0 0.0020859580072038059 -0.041355238730321216 0 0.0014336217228906284 -0.041828464850650268 0 0.001811266041784344 -0.042527884172924739 0 0.0012301981206764795 -0.042760612524653879 0 0.00089471966445931557 -0.042241402948576832 0 -0.00022987370832355542 -0.044546559742505674 0 -0.00044915839920504089 -0.044475425640633962 0 -0.00028636077040659289 -0.04436123850071795 0 -0.00047867439303841042 -0.04417947039833825 0 -0.00044915839920504089 -0.044475425640633962 0 -0.00028636077040659289 -0.04436123850071795 0 0.00033691105628731911 -0.042391616792307366 0 0.00081708702474644435 -0.042897175408922683 0 0.0013973981350750729 -0.04052159436005829 0 0.0020859580072038059 -0.041355238730321216 0 0.00099660399423455079 -0.041193940040501531 0 -0.00074556974363698973 -0.044124112089248269 0 -0.00047867439303841042 -0.04417947039833825 0 -0.00044915839920504089 -0.044475425640633962 0 0.0020859580072038059 -0.041355238730321216 0 0.0014336217228906284 -0.041828464850650268 0 0.00099660399423455079 -0.041193940040501531 0 0.00089471966445931557 -0.042241402948576832 0 0.00014703617273971353 -0.042529347810465495 0 0.00065075696601723447 -0.042800692564515623 0 0.0013839080017437717 -0.041877073124116045 0 -0.00014085639074374045 -0.041692057748186934 0 0.00089471966445931557 -0.042241402948576832 0 -0.00014370838697828453 -0.041833481662703814 0 0.00014703617273971353 -0.042529347810465495 0 0.0014336217228906284 -0.041828464850650268 0 0.00099660399423455079 -0.041193940040501531 0 2.1360859112856531e-05 -0.041531743056950739 0 -0.000635735299971984 -0.040686346558351426 0 0.00034093805059793263 -0.040636064254373758 0 2.1360859112856531e-05 -0.041531743056950739 0 0.00034093805059793263 -0.040636064254373758 0 0.00099660399423455079 -0.041193940040501531 0 2.1360859112856531e-05 -0.041531743056950739 0 -0.00014370838697828453 -0.041833481662703814 0 0.00014703617273971353 -0.042529347810465495 0 -0.00045919385869901233 -0.042409750727875201 0 -0.00023922915349703595 -0.042823180748674888 0 0.00020132014556337567 -0.043190154261589363 0 1.8245005718770078e-05 -0.043383448776609455 0 0.00014703617273971353 -0.042529347810465495 0 -0.00023922915349703595 -0.042823180748674888 0 -0.00045919385869901233 -0.042409750727875201 0 0.00014703617273971353 -0.042529347810465495 0 -0.00023922915349703595 -0.042823180748674888 0 0.00020132014556337567 -0.043190154261589363 0 0.00014703617273971353 -0.042529347810465495 0 0.00065075696601723447 -0.042800692564515623 0 0.00020132014556337567 -0.043190154261589363 0 0.00043286441956363582 -0.043310045826579283 0 0.00020765687970988235 -0.043217144032529187 0 0.0010258332886207177 -0.04312036690912608 0 0.00065075696601723447 -0.042800692564515623 0 0.00020132014556337567 -0.043190154261589363 0 0.00020132014556337567 -0.043190154261589363 0 4.1589156673126158e-05 -0.043292276552249452 0 0.00010530567541954073 -0.043222362122449162 0 0.00010530567541954073 -0.043222362122449162 0 1.8245005718770078e-05 -0.043383448776609455 0 0.00019986557516911044 -0.042717328868055772 0 0.00020132014556337567 -0.043190154261589363 0 0.00010530567541954073 -0.043222362122449162 0 1.8245005718770078e-05 -0.043383448776609455 0 -6.8486601186274124e-05 -0.043492847149546224 0 0.00020132014556337567 -0.043190154261589363 0 4.1589156673126158e-05 -0.043292276552249452 0 4.1589156673126158e-05 -0.043292276552249452 0 0.00010530567541954073 -0.043222362122449162 0 4.9791750209286049e-05 -0.043135110404187008 0 4.1589156673126158e-05 -0.043292276552249452 0 4.9791750209286049e-05 -0.043135110404187008 0 -6.6191307571140883e-05 -0.04324029501577261 0 0.00050760784371216478 -0.041178075889424355 0 0.00034440755353904747 -0.041543730141470281 0 0.00039559723145809111 -0.041934532487487623 0 0.00034440755353904747 -0.041543730141470281 0 0.00039559723145809111 -0.041934532487487623 0 0.00044061222170937455 -0.042089976436424724 0 0.0001486115226573023 -0.042155289912618438 0 0.00018315845900648844 -0.04262228526413122 0 0.00050760784371216478 -0.041178075889424355 0 0.00039559723145809111 -0.041934532487487623 0 0.00019986557516911044 -0.042717328868055772 0 0.00010530567541954073 -0.043222362122449162 0 4.9791750209286049e-05 -0.043135110404187008 0 0.00019986557516911044 -0.042717328868055772 0 4.9791750209286049e-05 -0.043135110404187008 0 0.00019986557516911044 -0.042717328868055772 0 -0.00010843654704185276 -0.043024108631925267 0 0.00039559723145809111 -0.041934532487487623 0 0.00019986557516911044 -0.042717328868055772 0 0.00044061222170937455 -0.042089976436424724 0 0.00019986557516911044 -0.042717328868055772 0 0.00044061222170937455 -0.042089976436424724 0 -6.0343920292025076e-05 -0.041794849767303507 0 0.00044061222170937455 -0.042089976436424724 0 0.00031890935927267599 -0.041827208846345956 0 -6.0343920292025076e-05 -0.041794849767303507 0 0.00034440755353904747 -0.041543730141470281 0 0.00018692330751224394 -0.041038967395316532 0 0.00030488268729555128 -0.041000855556399075 0 0.00044061222170937455 -0.042089976436424724 0 0.00045293359223267667 -0.041981639498906646 0 0.00031890935927267599 -0.041827208846345956 0 0.00034440755353904747 -0.041543730141470281 0 0.00044061222170937455 -0.042089976436424724 0 0.00045293359223267667 -0.041981639498906646 0 0.00033636700528709201 -0.041533688567649225 0 0.00034845260448145433 -0.041505712165164695 0 0.00018692330751224394 -0.041038967395316532 0 0.00029089152076147701 -0.040923698645103777 0 0.00030488268729555128 -0.041000855556399075 0 0.00045293359223267667 -0.041981639498906646 0 0.00046071116818245124 -0.041597545702246858 0 0.00031890935927267599 -0.041827208846345956 0 0.00018692330751224394 -0.041038967395316532 0 0.00029089152076147701 -0.040923698645103777 0 0.00039300738749074019 -0.040862872352102848 0 0.00034845260448145433 -0.041505712165164695 0 0.00057177460739109189 -0.041156841846530311 0 0.00034169684446147032 -0.04089352385930952 0 0.00038089236756892931 -0.040912196399529491 0 0.00031007788521253502 -0.040883506079447553 0 0.00029089152076147701 -0.040923698645103777 0 0.00034169684446147032 -0.04089352385930952 0 0.00031007788521253502 -0.040883506079447553 0 0.00029089152076147701 -0.040923698645103777 0 0.00039300738749074019 -0.040862872352102848 0 0.00034169684446147032 -0.04089352385930952 0 0.00039300738749074019 -0.040862872352102848 0 0.00034169684446147032 -0.04089352385930952 0 0.00038089236756892931 -0.040912196399529491 0 0.00039300738749074019 -0.040862872352102848 0 0.00046261961589842546 -0.04101219727962168 0 0.00076614608651849809 -0.041200522506334769 0 0.00038089236756892931 -0.040912196399529491 0 0.00046261961589842546 -0.04101219727962168 0 0.00032202128506019921 -0.041005144974556165 0 0.00039300738749074019 -0.040862872352102848 0 0.00038089236756892931 -0.040912196399529491 0 0.00046261961589842546 -0.04101219727962168 0 0.00057177460739109189 -0.041156841846530311 0 0.00084187831292450554 -0.041445051086970781 0 0.00046261961589842546 -0.04101219727962168 0 0.00032202128506019921 -0.041005144974556165 0 0.00044830146776616127 -0.041270756059919131 0 0.00083421312511125208 -0.041233099522996954 0 0.0010675271511594116 -0.041490705111275512 0 0.00093249748266728343 -0.041670921584471568 0 0.00083421312511125208 -0.041233099522996954 0 0.0010675271511594116 -0.041490705111275512 0 0.0013310934883119438 -0.041437782348383093 0 0.00057177460739109189 -0.041156841846530311 0 0.00072748133533352178 -0.042198939353500504 0 0.0010675271511594116 -0.041490705111275512 0 0.0013310934883119438 -0.041437782348383093 0 0.001138041841192284 -0.041696065162445388 0 0.00046071116818245124 -0.041597545702246858 0 0.00017326631139413676 -0.041634180978507816 0 -4.9476468563523626e-05 -0.041364581731863137 0 0.00046071116818245124 -0.041597545702246858 0 0.00017326631139413676 -0.041634180978507816 0 0.00031890935927267599 -0.041827208846345956 0 0.00017326631139413676 -0.041634180978507816 0 0.00031890935927267599 -0.041827208846345956 0 -6.0343920292025076e-05 -0.041794849767303507 0 0.00072748133533352178 -0.042198939353500504 0 -0.00022268610230557332 -0.043020926925906568 0 -0.00017950451238162246 -0.044213312352146407 0 -5.7915822990760295e-05 -0.04412053601066647 0 -0.00026641333341405403 -0.043984072122749296 0 0.00017326631139413676 -0.041634180978507816 0 -4.9476468563523626e-05 -0.041364581731863137 0 -6.0343920292025076e-05 -0.041794849767303507 0 0.0013788897544779579 -0.041606200980431218 0 0.0017439760917511743 -0.041750902916914009 0 0.0014175221868954545 -0.041977443116857027 0 0.00072748133533352178 -0.042198939353500504 0 0.00081874662870013229 -0.04297525408841598 0 -0.00017950451238162246 -0.044213312352146407 0 -5.5844044476492628e-05 -0.044231322089086145 0 -5.7915822990760295e-05 -0.04412053601066647 0 -5.5844044476492628e-05 -0.044231322089086145 0 -5.7915822990760295e-05 -0.04412053601066647 0 -5.6977085152217204e-06 -0.04415671994491193 0 -5.7915822990760295e-05 -0.04412053601066647 0 -2.8037828783042723e-05 -0.044169351790893777 0 -5.6977085152217204e-06 -0.04415671994491193 0 -5.7915822990760295e-05 -0.04412053601066647 0 -4.0634493701354183e-05 -0.0437407521248609 0 -2.8037828783042723e-05 -0.044169351790893777 0 -4.0634493701354183e-05 -0.0437407521248609 0 -1.7959622020168346e-05 -0.043967772905771585 0 -2.8037828783042723e-05 -0.044169351790893777 0 -5.7915822990760295e-05 -0.04412053601066647 0 -0.00026641333341405403 -0.043984072122749296 0 -4.0634493701354183e-05 -0.0437407521248609 0 0.00019986557516911044 -0.042717328868055772 0 -6.0343920292025076e-05 -0.041794849767303507 0 -0.00010843654704185276 -0.043024108631925267 0 -0.00026641333341405403 -0.043984072122749296 0 -4.0634493701354183e-05 -0.0437407521248609 0 -0.00010843654704185276 -0.043024108631925267 0 -0.00022268610230557332 -0.043020926925906568 0 -0.00010737336754884384 -0.042993712961646835 0 -4.0634493701354183e-05 -0.0437407521248609 0 -0.00010843654704185276 -0.043024108631925267 0 -9.3971067308770616e-05 -0.043431177673704247 0 -4.0634493701354183e-05 -0.0437407521248609 0 -9.3971067308770616e-05 -0.043431177673704247 0 -6.8405831022569613e-05 -0.043643698711430569 0 -7.6724436685868665e-05 -0.043407032325367606 0 -6.6191307571140883e-05 -0.04324029501577261 0 -9.3971067308770616e-05 -0.043431177673704247 0 -0.00010843654704185276 -0.043024108631925267 0 -6.6191307571140883e-05 -0.04324029501577261 0 -9.3971067308770616e-05 -0.043431177673704247 0 4.9791750209286049e-05 -0.043135110404187008 0 -0.00010843654704185276 -0.043024108631925267 0 -6.6191307571140883e-05 -0.04324029501577261 0 -7.6724436685868665e-05 -0.043407032325367606 0 -9.3971067308770616e-05 -0.043431177673704247 0 -6.8405831022569613e-05 -0.043643698711430569 0 -4.0634493701354183e-05 -0.0437407521248609 0 -6.8405831022569613e-05 -0.043643698711430569 0 -1.7959622020168346e-05 -0.043967772905771585 0 -1.5098849953575251e-05 -0.043935422851033398 0 -6.8405831022569613e-05 -0.043643698711430569 0 -1.7959622020168346e-05 -0.043967772905771585 0 -1.7959622020168346e-05 -0.043967772905771585 0 2.9097173193069288e-05 -0.044142371621321341 0 4.7576117617012626e-05 -0.04430633844948377 0 -1.5098849953575251e-05 -0.043935422851033398 0 -1.7959622020168346e-05 -0.043967772905771585 0 2.9097173193069288e-05 -0.044142371621321341 0 4.101618821941558e-05 -0.044139050351386155 0 2.9097173193069288e-05 -0.044142371621321341 0 9.4770406455317593e-05 -0.044398739503555405 0 9.4770406455317593e-05 -0.044398739503555405 0 4.7576117617012626e-05 -0.04430633844948377 0 8.9724942898882301e-05 -0.044624116243183957 0 2.9097173193069288e-05 -0.044142371621321341 0 9.4770406455317593e-05 -0.044398739503555405 0 4.7576117617012626e-05 -0.04430633844948377 0 4.7576117617012626e-05 -0.04430633844948377 0 6.2085582991434966e-05 -0.044573140840489182 0 8.9724942898882301e-05 -0.044624116243183957 0 4.7576117617012626e-05 -0.04430633844948377 0 -2.8037828783042723e-05 -0.044169351790893777 0 6.2085582991434966e-05 -0.044573140840489182 0 -1.7959622020168346e-05 -0.043967772905771585 0 4.7576117617012626e-05 -0.04430633844948377 0 -2.8037828783042723e-05 -0.044169351790893777 0 -2.8037828783042723e-05 -0.044169351790893777 0 -0.00011479598630146363 -0.044712141279746064 0 6.2085582991434966e-05 -0.044573140840489182 0 -0.00011479598630146363 -0.044712141279746064 0 4.0975348529405479e-06 -0.044828868120351029 0 6.2085582991434966e-05 -0.044573140840489182 0 -3.2194099364864634e-05 -0.04417752638268034 0 -0.00011945878032887241 -0.044504331931469833 0 -5.5844044476492628e-05 -0.044231322089086145 0 -5.6977085152217204e-06 -0.04415671994491193 0 2.356023161896336e-05 -0.044260541833549646 0 -0.00011479598630146363 -0.044712141279746064 0 4.0975348529405479e-06 -0.044828868120351029 0 -6.9672506902335136e-05 -0.044906582989963868 0 -0.00011945878032887241 -0.044504331931469833 0 0.0010019444705199011 -0.044151287097492116 0 4.0975348529405479e-06 -0.044828868120351029 0 6.2085582991434966e-05 -0.044573140840489182 0 7.2775830440773026e-05 -0.044863870510585775 0 6.2085582991434966e-05 -0.044573140840489182 0 7.5851112942466675e-05 -0.044818183990303212 0 7.2775830440773026e-05 -0.044863870510585775 0 7.5851112942466675e-05 -0.044818183990303212 0 7.2775830440773026e-05 -0.044863870510585775 0 5.8440846044276252e-05 -0.044930785740223335 0 7.2775830440773026e-05 -0.044863870510585775 0 5.8440846044276252e-05 -0.044930785740223335 0 7.69779054199769e-05 -0.044939800959027616 0 5.8440846044276252e-05 -0.044930785740223335 0 4.48790594682663e-08 -0.044999714013888692 0 1.8540179141610527e-07 -0.045000158095777253 0 7.5851112942466675e-05 -0.044818183990303212 0 5.8440846044276252e-05 -0.044930785740223335 0 4.48790594682663e-08 -0.044999714013888692 0 7.5851112942466675e-05 -0.044818183990303212 0 4.48790594682663e-08 -0.044999714013888692 0 8.1084405049023898e-08 -0.044999602826049687 0 7.5851112942466675e-05 -0.044818183990303212 0 8.9724942898882301e-05 -0.044624116243183957 0 8.1084405049023898e-08 -0.044999602826049687 0 6.2085582991434966e-05 -0.044573140840489182 0 7.5851112942466675e-05 -0.044818183990303212 0 8.9724942898882301e-05 -0.044624116243183957 0 9.4770406455317593e-05 -0.044398739503555405 0 8.9724942898882301e-05 -0.044624116243183957 0 6.337256464433563e-05 -0.044702154668317534 0 8.9724942898882301e-05 -0.044624116243183957 0 6.337256464433563e-05 -0.044702154668317534 0 8.1084405049023898e-08 -0.044999602826049687 0 0.00013739114536421662 -0.044457480729050938 0 9.4770406455317593e-05 -0.044398739503555405 0 6.337256464433563e-05 -0.044702154668317534 0 1.1307644961945513e-05 -0.044883765772374691 0 6.337256464433563e-05 -0.044702154668317534 0 8.1084405049023898e-08 -0.044999602826049687 0 -0.0026866495071169718 -0.033098057663014442 0 -0.002529404820485756 -0.033034120279328075 0 -0.0027566807707526736 -0.033241270603924095 0 -0.0027238134950627554 -0.033095131209511484 0 -0.0027954933470820337 -0.033059710904044699 0 -0.0028869373581869185 -0.033122632164071492 0 -0.0027238134950627554 -0.033095131209511484 0 -0.0026866495071169718 -0.033098057663014442 0 -0.0027954933470820337 -0.033059710904044699 0 -0.0027238134950627554 -0.033095131209511484 0 -0.0026344695772380169 -0.033079286735590525 0 -0.002529404820485756 -0.033034120279328075 0 -0.0027238134950627554 -0.033095131209511484 0 -0.0026866495071169718 -0.033098057663014442 0 -0.002529404820485756 -0.033034120279328075 0 -0.0027954933470820337 -0.033059710904044699 0 -0.0028056568496309105 -0.033038689943526357 0 -0.0026963792379860753 -0.033042553009362367 0 -0.0027954933470820337 -0.033059710904044699 0 -0.0027566807707526736 -0.033241270603924095 0 -0.0028056568496309105 -0.033038689943526357 0 -0.0026866495071169718 -0.033098057663014442 0 -0.0027954933470820337 -0.033059710904044699 0 -0.0027566807707526736 -0.033241270603924095 0 -0.0027954933470820337 -0.033059710904044699 0 -0.0029214957965475654 -0.033136213216365 0 -0.0028869373581869185 -0.033122632164071492 0 -0.0027954933470820337 -0.033059710904044699 0 -0.0029214957965475654 -0.033136213216365 0 -0.0026963792379860753 -0.033042553009362367 0 -0.0029214957965475654 -0.033136213216365 0 -0.0026963792379860753 -0.033042553009362367 0 -0.0028673516420421037 -0.033324562321696359 0 -0.0029214957965475654 -0.033136213216365 0 -0.0031911639518567951 -0.0332929594335791 0 -0.0028673516420421037 -0.033324562321696359 0 -0.0029214957965475654 -0.033136213216365 0 -0.0028869373581869185 -0.033122632164071492 0 -0.0031911639518567951 -0.0332929594335791 0 -0.0028869373581869185 -0.033122632164071492 0 -0.0026472534529343762 -0.033028077920700713 0 -0.0031911639518567951 -0.0332929594335791 0 -0.0027649186432356018 -0.032872214536587917 0 -0.0031911639518567951 -0.0332929594335791 0 -0.0028514446028287247 -0.032833041482113981 0 -0.0029092198879353366 -0.033211130227797522 0 -0.003084047965068924 -0.033157999493098736 0 -0.0027238134950627554 -0.033095131209511484 0 -0.0028869373581869185 -0.033122632164071492 0 -0.0026472534529343762 -0.033028077920700713 0 -0.0027649186432356018 -0.032872214536587917 0 -0.0025923024956310717 -0.032663071426123312 0 -0.0028514446028287247 -0.032833041482113981 0 -0.0025923024956310717 -0.032663071426123312 0 -0.002339142221359882 -0.032752257274393674 0 -0.0023526510799478685 -0.032451981234637654 0 -0.0027649186432356018 -0.032872214536587917 0 -0.0025923024956310717 -0.032663071426123312 0 -0.002339142221359882 -0.032752257274393674 0 -0.0026472534529343762 -0.033028077920700713 0 -0.0025638585928193501 -0.033047903609726648 0 -0.0026301065029118173 -0.033073717224604414 0 -0.0027649186432356018 -0.032872214536587917 0 -0.002339142221359882 -0.032752257274393674 0 -0.0023046393040661683 -0.032978025451588552 0 -0.0029092198879353366 -0.033211130227797522 0 -0.0013333117867677185 -0.031393186218281958 0 -0.0013060378428085898 -0.032140822258446271 0 -0.0016125659754446589 -0.032368825380365875 0 -0.0014851228408833885 -0.032252820515975118 0 -0.0013333117867677185 -0.031393186218281958 0 -0.0022560530912874685 -0.032771381366313503 0 -0.0018204115059138172 -0.032353134482204275 0 -0.0013060378428085898 -0.032140822258446271 0 -0.0016125659754446589 -0.032368825380365875 0 -0.0026472534529343762 -0.033028077920700713 0 -0.0026301065029118173 -0.033073717224604414 0 -0.0026344695772380169 -0.033079286735590525 0 -0.0026301065029118173 -0.033073717224604414 0 -0.0026344695772380169 -0.033079286735590525 0 -0.002529404820485756 -0.033034120279328075 0 -0.0027238134950627554 -0.033095131209511484 0 -0.0026472534529343762 -0.033028077920700713 0 -0.0026344695772380169 -0.033079286735590525 0 -0.0013163962113167918 -0.032211013047531767 0 -0.0010621360915155588 -0.032175255283867256 0 -0.0013060378428085898 -0.032140822258446271 0 -0.0014851228408833885 -0.032252820515975118 0 -0.0022020426205831721 -0.033322445278825115 0 -0.0014851228408833885 -0.032252820515975118 0 -0.0022020426205831721 -0.033322445278825115 0 -0.002529404820485756 -0.033034120279328075 0 -0.0013060378428085898 -0.032140822258446271 0 -0.00065226462084138823 -0.031092512515242619 0 0.0001800742189636389 -0.031119981076698177 0 -0.0022560530912874685 -0.032771381366313503 0 -0.0023701787736557828 -0.032912822777691059 0 -0.00065226462084138823 -0.031092512515242619 0 0.0001800742189636389 -0.031119981076698177 0 -0.00018647491342792336 -0.030469490148710261 0 0.00034583168487664921 -0.029811460123344669 0 8.8134663811797936e-05 -0.028397763814400977 0 -0.0018204115059138172 -0.032353134482204275 0 -0.0013060378428085898 -0.032140822258446271 0 -0.0011743582896227842 -0.030421772220722249 0 0.0020321165277373695 -0.026117850009756766 0 0.0019415914794622838 -0.026395897640488837 0 0.0013083798874902572 -0.026500625932726618 0 -0.0013060378428085898 -0.032140822258446271 0 -0.00065226462084138823 -0.031092512515242619 0 -0.0011743582896227842 -0.030421772220722249 0 0.0019415914794622838 -0.026395897640488837 0 0.0017844687624483889 -0.026859257492935447 0 0.0013083798874902572 -0.026500625932726618 0 0.0001800742189636389 -0.031119981076698177 0 -0.00018647491342792336 -0.030469490148710261 0 0.00039823735340092654 -0.030305972145477457 0 -0.00065226462084138823 -0.031092512515242619 0 -0.0011743582896227842 -0.030421772220722249 0 -0.00018647491342792336 -0.030469490148710261 0 -0.00014261507193877055 -0.029859675484029666 0 -0.0011743582896227842 -0.030421772220722249 0 -0.00018647491342792336 -0.030469490148710261 0 -0.00018647491342792336 -0.030469490148710261 0 0.00028148232693197081 -0.029893789474185865 0 0.00039823735340092654 -0.030305972145477457 0 -0.00014261507193877055 -0.029859675484029666 0 -0.00018647491342792336 -0.030469490148710261 0 0.00028148232693197081 -0.029893789474185865 0 0.00028148232693197081 -0.029893789474185865 0 0.00064052080058852234 -0.029922231015210663 0 0.00039823735340092654 -0.030305972145477457 0 0.0001800742189636389 -0.031119981076698177 0 0.00039823735340092654 -0.030305972145477457 0 0.00081073531281871953 -0.030150303917083499 0 0.00064052080058852234 -0.029922231015210663 0 0.00039823735340092654 -0.030305972145477457 0 0.00081073531281871953 -0.030150303917083499 0 -0.002529404820485756 -0.033034120279328075 0 -0.0027566807707526736 -0.033241270603924095 0 -0.0028987218085079363 -0.03368006271795726 0 -0.0010621360915155588 -0.032175255283867256 0 -0.0011449800731048721 -0.032014409464844178 0 -0.0022020426205831721 -0.033322445278825115 0 -0.002529404820485756 -0.033034120279328075 0 -0.0028987218085079363 -0.03368006271795726 0 -0.0027723537062364005 -0.033468069232227636 0 -0.0027566807707526736 -0.033241270603924095 0 -0.0028056568496309105 -0.033038689943526357 0 -0.0027723537062364005 -0.033468069232227636 0 -0.0027566807707526736 -0.033241270603924095 0 -0.0028987218085079363 -0.03368006271795726 0 -0.0027723537062364005 -0.033468069232227636 0 -0.0028987218085079363 -0.03368006271795726 0 -0.0027477022857130134 -0.033804769980007775 0 -0.0028987218085079363 -0.03368006271795726 0 -0.0027477022857130134 -0.033804769980007775 0 -0.0025027728156399448 -0.032807079036174421 0 -0.0011449800731048721 -0.032014409464844178 0 -0.00059871897569131641 -0.030402257156130014 0 0.00081073531281871953 -0.030150303917083499 0 0.00074275864750126739 -0.029936130656513592 0 0.00069714932669744545 -0.029880154752226055 0 0.00064052080058852234 -0.029922231015210663 0 0.00081073531281871953 -0.030150303917083499 0 0.00074275864750126739 -0.029936130656513592 0 -0.0027477022857130134 -0.033804769980007775 0 -0.0025027728156399448 -0.032807079036174421 0 -0.0012664525645379328 -0.035545233522459571 0 -0.00050981121301113715 -0.035435766221561159 0 0.0002552597989453865 -0.037232115944983706 0 -0.00059871897569131641 -0.030402257156130014 0 0.0002552597989453865 -0.037232115944983706 0 -0.0025027728156399448 -0.032807079036174421 0 0.00079489259917481616 -0.035417649777084045 0 -0.0012664525645379328 -0.035545233522459571 0 0.00080677682556859844 -0.030111761481351505 0 0.00016112367356611198 -0.03045116573454372 0 0.0013578567060494949 -0.031580359113949096 0 0.0011884194152315453 -0.030248731563348424 0 0.00080677682556859844 -0.030111761481351505 0 0.0013578567060494949 -0.031580359113949096 0 0.00079489259917481616 -0.035417649777084045 0 -0.0012664525645379328 -0.035545233522459571 0 0.00094805307171005318 -0.037947594091136239 0 -0.0012664525645379328 -0.035545233522459571 0 0.00094805307171005318 -0.037947594091136239 0 -0.0022012949650164464 -0.037950047502657146 0 0.0002552597989453865 -0.037232115944983706 0 0.00063378079681872886 -0.039339728548766821 0 -0.0027477022857130134 -0.033804769980007775 0 -0.0012664525645379328 -0.035545233522459571 0 -0.0022012949650164464 -0.037950047502657146 0 -0.0027633991270722925 -0.033947568933853069 0 -0.0024065135972067228 -0.035462935445755267 0 -0.0027723537062364005 -0.033468069232227636 0 -0.0027477022857130134 -0.033804769980007775 0 -0.0028056568496309105 -0.033038689943526357 0 -0.000635735299971984 -0.040686346558351426 0 2.1360859112856531e-05 -0.041531743056950739 0 -0.0014979491934095546 -0.041262111439126413 0 -0.00014370838697828453 -0.041833481662703814 0 -0.0014979491934095546 -0.041262111439126413 0 -0.0012393950096358463 -0.042054007724966543 0 -0.00014085639074374045 -0.041692057748186934 0 -0.0014280286874099526 -0.041284260768727397 0 -0.0014407140471304665 -0.040545361511005733 0 -0.000635735299971984 -0.040686346558351426 0 -0.0014979491934095546 -0.041262111439126413 0 -0.0021774176752264261 -0.040587558018898864 0 -0.0020238722954971978 -0.041883706759694356 0 -0.0014979491934095546 -0.041262111439126413 0 -0.0014407140471304665 -0.040545361511005733 0 -0.0021774176752264261 -0.040587558018898864 0 -0.0014979491934095546 -0.041262111439126413 0 -0.0020238722954971978 -0.041883706759694356 0 -0.0012393950096358463 -0.042054007724966543 0 -0.00097379576506206671 -0.042790959707250713 0 0.0002552597989453865 -0.037232115944983706 0 -0.00027011704039164267 -0.042275303958941683 0 0.00040313836505388034 -0.040491569113529087 0 0.00041650761695320032 -0.04057928710632748 0 0.00040793911842137808 -0.040549974037489757 0 -0.0020238722954971978 -0.041883706759694356 0 -0.0014979491934095546 -0.041262111439126413 0 -0.0012393950096358463 -0.042054007724966543 0 -0.00014370838697828453 -0.041833481662703814 0 -0.0012393950096358463 -0.042054007724966543 0 -0.00045919385869901233 -0.042409750727875201 0 -0.0012393950096358463 -0.042054007724966543 0 -0.00045919385869901233 -0.042409750727875201 0 -0.00097379576506206671 -0.042790959707250713 0 -0.00023922915349703595 -0.042823180748674888 0 1.8245005718770078e-05 -0.043383448776609455 0 -0.00097379576506206671 -0.042790959707250713 0 0.0001486115226573023 -0.042155289912618438 0 -0.00027011704039164267 -0.042275303958941683 0 -0.00023922915349703595 -0.042823180748674888 0 -0.00045919385869901233 -0.042409750727875201 0 -0.00097379576506206671 -0.042790959707250713 0 0.00050760784371216478 -0.041178075889424355 0 0.00041650761695320032 -0.04057928710632748 0 0.00037598277278531981 -0.040641597047931743 0 0.00041650761695320032 -0.04057928710632748 0 0.00040793911842137808 -0.040549974037489757 0 0.00037598277278531981 -0.040641597047931743 0 0.00040793911842137808 -0.040549974037489757 0 0.00047821449874370196 -0.040336131960235951 0 0.00037598277278531981 -0.040641597047931743 0 0.00063378079681872886 -0.039339728548766821 0 0.0005673661642960668 -0.040071252284706829 0 0.00047821449874370196 -0.040336131960235951 0 0.00035954253528200039 -0.040964076343316502 0 0.00014239591473859934 -0.040964379611556141 0 0.00047821449874370196 -0.040336131960235951 0 0.00037598277278531981 -0.040641597047931743 0 0.00035954253528200039 -0.040964076343316502 0 0.00050760784371216478 -0.041178075889424355 0 0.00037598277278531981 -0.040641597047931743 0 0.00035954253528200039 -0.040964076343316502 0 0.00050760784371216478 -0.041178075889424355 0 0.00034440755353904747 -0.041543730141470281 0 0.00035954253528200039 -0.040964076343316502 0 -0.0022012949650164464 -0.037950047502657146 0 -0.00046500308489675279 -0.039345742534270062 0 -0.00075611218355983105 -0.040753436915244676 0 0.00094805307171005318 -0.037947594091136239 0 -0.0022012949650164464 -0.037950047502657146 0 -0.00046500308489675279 -0.039345742534270062 0 0.00094805307171005318 -0.037947594091136239 0 0.00047821449874370196 -0.040336131960235951 0 -0.00046500308489675279 -0.039345742534270062 0 0.00047821449874370196 -0.040336131960235951 0 -0.00046500308489675279 -0.039345742534270062 0 -0.00075611218355983105 -0.040753436915244676 0 0.00047821449874370196 -0.040336131960235951 0 -0.00075611218355983105 -0.040753436915244676 0 0.00014239591473859934 -0.040964379611556141 0 -0.0028056568496309105 -0.033038689943526357 0 -0.0018453962673641926 -0.03311968660263228 0 -0.0026963792379860753 -0.033042553009362367 0 -0.0024065135972067228 -0.035462935445755267 0 -0.0012972268919226844 -0.036945352145331976 0 -0.0018453962673641926 -0.03311968660263228 0 -0.0026963792379860753 -0.033042553009362367 0 -0.0028673516420421037 -0.033324562321696359 0 -0.0018453962673641926 -0.03311968660263228 0 -0.00029478590428737045 -0.035797505436207619 0 -0.002189763521876682 -0.034975592507168217 0 -0.0018453962673641926 -0.03311968660263228 0 -0.002189763521876682 -0.034975592507168217 0 -0.0028673516420421037 -0.033324562321696359 0 0.00014239591473859934 -0.040964379611556141 0 0.00017062477417542112 -0.041109842302488563 0 0.00028033055105505382 -0.041079354786191034 0 -0.0012972268919226844 -0.036945352145331976 0 -0.0001551422050510466 -0.038488776785056099 0 -0.00075611218355983105 -0.040753436915244676 0 0.00014239591473859934 -0.040964379611556141 0 0.00017062477417542112 -0.041109842302488563 0 -0.00029478590428737045 -0.035797505436207619 0 -0.002189763521876682 -0.034975592507168217 0 -0.0013552212292903361 -0.038374887443594553 0 -0.002189763521876682 -0.034975592507168217 0 -0.0013552212292903361 -0.038374887443594553 0 -0.003881788151004705 -0.038005847439071858 0 0.00034440755353904747 -0.041543730141470281 0 0.00035954253528200039 -0.040964076343316502 0 0.00028033055105505382 -0.041079354786191034 0 0.00035954253528200039 -0.040964076343316502 0 0.00014239591473859934 -0.040964379611556141 0 0.00028033055105505382 -0.041079354786191034 0 0.00017062477417542112 -0.041109842302488563 0 0.00028033055105505382 -0.041079354786191034 0 0.00017875356469386356 -0.040855325261709097 0 0.00028033055105505382 -0.041079354786191034 0 0.00030488268729555128 -0.041000855556399075 0 0.00017875356469386356 -0.040855325261709097 0 0.00034440755353904747 -0.041543730141470281 0 0.00028033055105505382 -0.041079354786191034 0 0.00030488268729555128 -0.041000855556399075 0 0.00031007788521253502 -0.040883506079447553 0 0.00029250544087921555 -0.040911623732718616 0 0.0002503691148984573 -0.040869949387445363 0 0.00029089152076147701 -0.040923698645103777 0 0.00030488268729555128 -0.041000855556399075 0 0.00029250544087921555 -0.040911623732718616 0 0.00029089152076147701 -0.040923698645103777 0 0.00031007788521253502 -0.040883506079447553 0 0.00029250544087921555 -0.040911623732718616 0 0.00030488268729555128 -0.041000855556399075 0 0.00029250544087921555 -0.040911623732718616 0 0.0002503691148984573 -0.040869949387445363 0 0.00031007788521253502 -0.040883506079447553 0 0.0002503691148984573 -0.040869949387445363 0 0.00025295729559302786 -0.040862202008485664 0 0.0002503691148984573 -0.040869949387445363 0 0.00017875356469386356 -0.040855325261709097 0 0.00020382250596791428 -0.040737423814369358 0 0.00017875356469386356 -0.040855325261709097 0 0.00020382250596791428 -0.040737423814369358 0 0.00026165043974003929 -0.040301256336171695 0 0.00030488268729555128 -0.041000855556399075 0 0.0002503691148984573 -0.040869949387445363 0 0.00017875356469386356 -0.040855325261709097 0 0.0002503691148984573 -0.040869949387445363 0 0.00020382250596791428 -0.040737423814369358 0 0.00025295729559302786 -0.040862202008485664 0 0.00020382250596791428 -0.040737423814369358 0 0.00026165043974003929 -0.040301256336171695 0 5.9729386805532872e-05 -0.040928180779785217 0 0.00020382250596791428 -0.040737423814369358 0 0.00012781578917868161 -0.041032780254312472 0 5.9729386805532872e-05 -0.040928180779785217 0 0.00012781578917868161 -0.041032780254312472 0 5.9729386805532872e-05 -0.040928180779785217 0 -0.00019550046506384576 -0.041245977725108664 0 0.00020382250596791428 -0.040737423814369358 0 0.00012781578917868161 -0.041032780254312472 0 0.00025295729559302786 -0.040862202008485664 0 0.00012781578917868161 -0.041032780254312472 0 0.00025295729559302786 -0.040862202008485664 0 0.00032202128506019921 -0.041005144974556165 0 0.00038089236756892931 -0.040912196399529491 0 0.00031007788521253502 -0.040883506079447553 0 0.00032202128506019921 -0.041005144974556165 0 0.00031007788521253502 -0.040883506079447553 0 0.00025295729559302786 -0.040862202008485664 0 0.00032202128506019921 -0.041005144974556165 0 -0.0013552212292903361 -0.038374887443594553 0 -0.0022226999249074274 -0.039846584657950872 0 -0.003881788151004705 -0.038005847439071858 0 -0.0013552212292903361 -0.038374887443594553 0 -0.00042641922280300167 -0.041119343332004399 0 -0.0022226999249074274 -0.039846584657950872 0 -0.0013552212292903361 -0.038374887443594553 0 0.00026165043974003929 -0.040301256336171695 0 -0.00042641922280300167 -0.041119343332004399 0 0.00017062477417542112 -0.041109842302488563 0 0.00017875356469386356 -0.040855325261709097 0 0.00026165043974003929 -0.040301256336171695 0 -0.00029478590428737045 -0.035797505436207619 0 -0.0013552212292903361 -0.038374887443594553 0 0.00026165043974003929 -0.040301256336171695 0 -0.0001551422050510466 -0.038488776785056099 0 0.0002624912737769074 -0.040133537332796329 0 0.00026165043974003929 -0.040301256336171695 0 5.9729386805532872e-05 -0.040928180779785217 0 -0.00042641922280300167 -0.041119343332004399 0 5.9729386805532872e-05 -0.040928180779785217 0 -0.00042641922280300167 -0.041119343332004399 0 -0.00019550046506384576 -0.041245977725108664 0 -0.00042641922280300167 -0.041119343332004399 0 -0.00030005034693264949 -0.041216696210684176 0 -0.00029626570528985927 -0.041231659655399037 0 -0.00042641922280300167 -0.041119343332004399 0 -0.0022226999249074274 -0.039846584657950872 0 -0.0034509661821261564 -0.042065475940848807 0 -0.00096589965540962836 -0.041624598177554581 0 -0.0013315764075451676 -0.038495431889959734 0 -0.0035767325078214949 -0.031559234179081373 0 -0.0034203635194760022 -0.031616207237814963 0 -0.0033833977405591169 -0.031511932415203898 0 -0.0013315764075451676 -0.038495431889959734 0 -0.0039857897630675839 -0.03466364756693336 0 -0.0035767325078214949 -0.031559234179081373 0 -0.0034203635194760022 -0.031616207237814963 0 -0.0036283770566741922 -0.032136939599147311 0 -0.0022226999249074274 -0.039846584657950872 0 -0.0034509661821261564 -0.042065475940848807 0 -0.003881788151004705 -0.038005847439071858 0 -0.0034203635194760022 -0.031616207237814963 0 -0.0032227837881100107 -0.031634498954391889 0 -0.0033628780835842113 -0.031445566576793926 0 -0.0027114495860394673 -0.032272523689599063 0 -0.0030010770068748622 -0.034958286277925056 0 -0.0034203635194760022 -0.031616207237814963 0 -0.0032227837881100107 -0.031634498954391889 0 -0.0032478727954989104 -0.031906699634209321 0 -0.0030291230040121898 -0.031623533056842429 0 -0.0032478727954989104 -0.031906699634209321 0 -0.0028470831521913713 -0.03176643197619404 0 -0.0030291230040121898 -0.031623533056842429 0 -0.0029329589020352714 -0.031485278890355677 0 -0.0027898621842249245 -0.03153918537882109 0 -0.0030291230040121898 -0.031623533056842429 0 -0.0029329589020352714 -0.031485278890355677 0 -0.0031211243697849803 -0.031459558210671791 0 -0.0032227837881100107 -0.031634498954391889 0 -0.0031211243697849803 -0.031459558210671791 0 -0.0033628780835842113 -0.031445566576793926 0 -0.0030291230040121898 -0.031623533056842429 0 -0.0032227837881100107 -0.031634498954391889 0 -0.0031211243697849803 -0.031459558210671791 0 -0.0030291230040121898 -0.031623533056842429 0 -0.0032227837881100107 -0.031634498954391889 0 -0.0032478727954989104 -0.031906699634209321 0 -0.0028704310477869338 -0.032020358144155395 0 -0.0032478727954989104 -0.031906699634209321 0 -0.0028470831521913713 -0.03176643197619404 0 -0.0028704310477869338 -0.032020358144155395 0 -0.0032478727954989104 -0.031906699634209321 0 -0.0030747589406324377 -0.032212859563051775 0 -0.0028704310477869338 -0.032020358144155395 0 -0.0030747589406324377 -0.032212859563051775 0 -0.0027902393567418408 -0.03224797922645363 0 -0.0034203635194760022 -0.031616207237814963 0 -0.0032478727954989104 -0.031906699634209321 0 -0.0036283770566741922 -0.032136939599147311 0 -0.0032478727954989104 -0.031906699634209321 0 -0.0030747589406324377 -0.032212859563051775 0 -0.0036283770566741922 -0.032136939599147311 0 -0.0030747589406324377 -0.032212859563051775 0 -0.0036283770566741922 -0.032136939599147311 0 -0.0031870157051872936 -0.03273328021161552 0 -0.002189763521876682 -0.034975592507168217 0 -0.003881788151004705 -0.038005847439071858 0 -0.0034570478868090359 -0.033566802079833688 0 -0.0036283770566741922 -0.032136939599147311 0 -0.0031870157051872936 -0.03273328021161552 0 -0.0034570478868090359 -0.033566802079833688 0 -0.0039857897630675839 -0.03466364756693336 0 -0.0034597216280069687 -0.033885428306374324 0 -0.0030747589406324377 -0.032212859563051775 0 -0.0031870157051872936 -0.03273328021161552 0 -0.0029560884954831193 -0.032475470681933981 0 -0.0030747589406324377 -0.032212859563051775 0 -0.0029560884954831193 -0.032475470681933981 0 -0.0027902393567418408 -0.03224797922645363 0 -0.0029560884954831193 -0.032475470681933981 0 -0.0029556643744785994 -0.032762829878750989 0 -0.0027346129257875985 -0.032468269169370782 0 -0.0031870157051872936 -0.03273328021161552 0 -0.0029560884954831193 -0.032475470681933981 0 -0.0029556643744785994 -0.032762829878750989 0 -0.0031870157051872936 -0.03273328021161552 0 -0.0029556643744785994 -0.032762829878750989 0 -0.0031054062927299911 -0.033083703153631232 0 -0.0031054062927299911 -0.033083703153631232 0 -0.0031911639518567951 -0.0332929594335791 0 -0.0028514446028287247 -0.032833041482113981 0 -0.0029556643744785994 -0.032762829878750989 0 -0.0031054062927299911 -0.033083703153631232 0 -0.0028514446028287247 -0.032833041482113981 0 -0.0029556643744785994 -0.032762829878750989 0 -0.0028514446028287247 -0.032833041482113981 0 -0.0027346129257875985 -0.032468269169370782 0 -0.0031054062927299911 -0.033083703153631232 0 -0.0031911639518567951 -0.0332929594335791 0 -0.0034570478868090359 -0.033566802079833688 0 -0.0031911639518567951 -0.0332929594335791 0 -0.0028673516420421037 -0.033324562321696359 0 -0.0034570478868090359 -0.033566802079833688 0 -0.002189763521876682 -0.034975592507168217 0 -0.0028673516420421037 -0.033324562321696359 0 -0.0034570478868090359 -0.033566802079833688 0 -0.0031870157051872936 -0.03273328021161552 0 -0.0031054062927299911 -0.033083703153631232 0 -0.0034570478868090359 -0.033566802079833688 0 -0.0025607429247212917 -0.032467619202285629 0 -0.0023526510799478685 -0.032451981234637654 0 -0.002319073275362757 -0.032197671345709923 0 -0.0025923024956310717 -0.032663071426123312 0 -0.0025607429247212917 -0.032467619202285629 0 -0.0023526510799478685 -0.032451981234637654 0 -0.0025923024956310717 -0.032663071426123312 0 -0.0025607429247212917 -0.032467619202285629 0 -0.0028514446028287247 -0.032833041482113981 0 -0.0025607429247212917 -0.032467619202285629 0 -0.0028514446028287247 -0.032833041482113981 0 -0.0027346129257875985 -0.032468269169370782 0 -0.0025607429247212917 -0.032467619202285629 0 -0.0027346129257875985 -0.032468269169370782 0 -0.0025538685468299246 -0.032144287500972882 0 -0.0029560884954831193 -0.032475470681933981 0 -0.0027346129257875985 -0.032468269169370782 0 -0.0027902393567418408 -0.03224797922645363 0 -0.0027346129257875985 -0.032468269169370782 0 -0.0027902393567418408 -0.03224797922645363 0 -0.0025538685468299246 -0.032144287500972882 0 -0.0025607429247212917 -0.032467619202285629 0 -0.0025538685468299246 -0.032144287500972882 0 -0.002319073275362757 -0.032197671345709923 0 -0.0025538685468299246 -0.032144287500972882 0 -0.002319073275362757 -0.032197671345709923 0 -0.0023701814703431293 -0.031768704877591668 0 -0.0023701814703431293 -0.031768704877591668 0 -0.002660066225199962 -0.031901203909067623 0 -0.0026088003974119481 -0.031608417464594751 0 -0.0025538685468299246 -0.032144287500972882 0 -0.0023701814703431293 -0.031768704877591668 0 -0.002660066225199962 -0.031901203909067623 0 -0.0028704310477869338 -0.032020358144155395 0 -0.0027902393567418408 -0.03224797922645363 0 -0.002660066225199962 -0.031901203909067623 0 -0.0027902393567418408 -0.03224797922645363 0 -0.0025538685468299246 -0.032144287500972882 0 -0.002660066225199962 -0.031901203909067623 0 -0.0028704310477869338 -0.032020358144155395 0 -0.002660066225199962 -0.031901203909067623 0 -0.0028470831521913713 -0.03176643197619404 0 -0.0028470831521913713 -0.03176643197619404 0 -0.0026088003974119481 -0.031608417464594751 0 -0.0027898621842249245 -0.03153918537882109 0 -0.002660066225199962 -0.031901203909067623 0 -0.0028470831521913713 -0.03176643197619404 0 -0.0026088003974119481 -0.031608417464594751 0 -0.0026088003974119481 -0.031608417464594751 0 -0.0027898621842249245 -0.03153918537882109 0 -0.0026872495709433109 -0.031378244388332387 0 -0.0030291230040121898 -0.031623533056842429 0 -0.0028470831521913713 -0.03176643197619404 0 -0.0027898621842249245 -0.03153918537882109 0 -0.0029329589020352714 -0.031485278890355677 0 -0.0027898621842249245 -0.03153918537882109 0 -0.002817828480220573 -0.031422388387952492 0 -0.0022306562444118897 -0.03143116657210334 0 -0.0023701814703431293 -0.031768704877591668 0 -0.0024206916810551394 -0.031505941850366787 0 -0.0023701814703431293 -0.031768704877591668 0 -0.0026088003974119481 -0.031608417464594751 0 -0.0024206916810551394 -0.031505941850366787 0 -0.0026088003974119481 -0.031608417464594751 0 -0.0024206916810551394 -0.031505941850366787 0 -0.0025442152066119505 -0.03138129070619005 0 -0.0025442152066119505 -0.03138129070619005 0 -0.0027817600695501129 -0.031272283866236407 0 -0.0023727641501703491 -0.031160953035498835 0 -0.0029872057981069908 -0.031900449489326736 0 -0.0022443418117860272 -0.031020414566570356 0 -0.0024206916810551394 -0.031505941850366787 0 -0.0023458529491614663 -0.031324217207266906 0 -0.0025442152066119505 -0.03138129070619005 0 -0.0023458529491614663 -0.031324217207266906 0 -0.0025442152066119505 -0.03138129070619005 0 -0.0023727641501703491 -0.031160953035498835 0 -0.0028860398971000969 -0.031377856679868664 0 -0.0028059918907890734 -0.031318591744630073 0 -0.0027815447578484541 -0.031258355193730741 0 -0.0028860398971000969 -0.031377856679868664 0 -0.0028059918907890734 -0.031318591744630073 0 -0.002817828480220573 -0.031422388387952492 0 -0.0029329589020352714 -0.031485278890355677 0 -0.0028860398971000969 -0.031377856679868664 0 -0.002817828480220573 -0.031422388387952492 0 -0.0027898621842249245 -0.03153918537882109 0 -0.002817828480220573 -0.031422388387952492 0 -0.0026872495709433109 -0.031378244388332387 0 -0.0028059918907890734 -0.031318591744630073 0 -0.0026872495709433109 -0.031378244388332387 0 -0.0027817600695501129 -0.031272283866236407 0 -0.0028059918907890734 -0.031318591744630073 0 -0.002817828480220573 -0.031422388387952492 0 -0.0026872495709433109 -0.031378244388332387 0 -0.0025442152066119505 -0.03138129070619005 0 -0.0026872495709433109 -0.031378244388332387 0 -0.0027817600695501129 -0.031272283866236407 0 -0.0026088003974119481 -0.031608417464594751 0 -0.0025442152066119505 -0.03138129070619005 0 -0.0026872495709433109 -0.031378244388332387 0 -0.0029317496372463408 -0.031753431827718406 0 -0.0029872057981069908 -0.031900449489326736 0 -0.0029872057981069908 -0.031900449489326736 0 -0.0025678822411122891 -0.031917068605909329 0 -0.0030357417405548811 -0.033677366159405385 0 -0.0031056862619497296 -0.033055899496188694 0 -0.0026442567159003379 -0.032634752345708812 0 -0.0030357417405548811 -0.033677366159405385 0 -0.0031056862619497296 -0.033055899496188694 0 -0.0034656675065590581 -0.033411512948195735 0 -0.0023727641501703491 -0.031160953035498835 0 -0.002494355760467176 -0.030966605899545033 0 -0.0023050020893623049 -0.030966849705450071 0 -0.0026201934519914844 -0.03124858680829553 0 -0.0023727641501703491 -0.031160953035498835 0 -0.002494355760467176 -0.030966605899545033 0 -0.002494355760467176 -0.030966605899545033 0 -0.0023407617105904235 -0.030712219420932368 0 -0.0023050020893623049 -0.030966849705450071 0 -0.0031056862619497296 -0.033055899496188694 0 -0.0026442567159003379 -0.032634752345708812 0 -0.0033587242210982673 -0.031771003364723015 0 -0.0026442567159003379 -0.032634752345708812 0 -0.0023016194656855513 -0.031576795543406241 0 -0.0033587242210982673 -0.031771003364723015 0 -0.0023016194656855513 -0.031576795543406241 0 -0.0033587242210982673 -0.031771003364723015 0 -0.0027604395411235921 -0.031236051676919112 0 -0.0025678822411122891 -0.031917068605909329 0 -0.0023312136289834976 -0.031123695956319003 0 0.00012296430570029443 -0.040765533040166106 0 0.00039398766570241886 -0.040625908519213265 0 8.2039083349998553e-05 -0.040464422078202646 0 0.00012296430570029443 -0.040765533040166106 0 -4.7021175240801053e-05 -0.040690473925847473 0 8.2039083349998553e-05 -0.040464422078202646 0 0.00012296430570029443 -0.040765533040166106 0 -2.9272866807051189e-05 -0.04095846296796065 0 -4.7021175240801053e-05 -0.040690473925847473 0 -0.0014883428377065293 -0.036168089894619046 0 -0.0016936589650624089 -0.037412372250225853 0 0.00012296430570029443 -0.040765533040166106 0 0.00039398766570241886 -0.040625908519213265 0 0.00013675534341478577 -0.040940739753868582 0 -0.0031056862619497296 -0.033055899496188694 0 -0.0033587242210982673 -0.031771003364723015 0 -0.0036969400412757291 -0.032905212533899407 0 0.00012296430570029443 -0.040765533040166106 0 0.00013675534341478577 -0.040940739753868582 0 -2.9272866807051189e-05 -0.04095846296796065 0 0.00013675534341478577 -0.040940739753868582 0 3.578440628445908e-05 -0.040886273445745067 0 5.1601916439729736e-05 -0.040944571052872775 0 0.00013675534341478577 -0.040940739753868582 0 5.1601916439729736e-05 -0.040944571052872775 0 -2.9272866807051189e-05 -0.04095846296796065 0 -0.0016936589650624089 -0.037412372250225853 0 -0.0030010770068748622 -0.034958286277925056 0 -0.0036969400412757291 -0.032905212533899407 0 -0.0034656675065590581 -0.033411512948195735 0 -0.0040204564698544691 -0.034006423647598517 0 -0.0031056862619497296 -0.033055899496188694 0 -0.0036969400412757291 -0.032905212533899407 0 -0.0034656675065590581 -0.033411512948195735 0 -0.0029872057981069908 -0.031900449489326736 0 -0.0030010770068748622 -0.034958286277925056 0 -0.0027815447578484541 -0.031258355193730741 0 -0.0031211243697849803 -0.031459558210671791 0 -0.0033628780835842113 -0.031445566576793926 0 -0.0030357417405548811 -0.033677366159405385 0 -0.0034656675065590581 -0.033411512948195735 0 -0.0040204564698544691 -0.034006423647598517 0 -0.0028860398971000969 -0.031377856679868664 0 -0.0027815447578484541 -0.031258355193730741 0 -0.0031211243697849803 -0.031459558210671791 0 -0.0029329589020352714 -0.031485278890355677 0 -0.0028860398971000969 -0.031377856679868664 0 -0.0031211243697849803 -0.031459558210671791 0 -0.0013315764075451676 -0.038495431889959734 0 2.6700961734646221e-05 -0.041592736447276832 0 5.3919447408804805e-05 -0.040871628758216608 0 3.578440628445908e-05 -0.040886273445745067 0 5.1601916439729736e-05 -0.040944571052872775 0 -0.0013315764075451676 -0.038495431889959734 0 -0.0030010770068748622 -0.034958286277925056 0 -0.00030005034693264949 -0.041216696210684176 0 -0.00029626570528985927 -0.041231659655399037 0 -0.00018593118841514134 -0.041252519655991929 0 -0.00042641922280300167 -0.041119343332004399 0 -0.00029626570528985927 -0.041231659655399037 0 -0.00019550046506384576 -0.041245977725108664 0 -0.00029626570528985927 -0.041231659655399037 0 -0.00019550046506384576 -0.041245977725108664 0 -0.00024386196969718391 -0.041290505296198876 0 -0.00031254916979850443 -0.04141588341432071 0 -0.00024386196969718391 -0.041290505296198876 0 -0.00033631174649910277 -0.041043271639204244 0 -0.00019550046506384576 -0.041245977725108664 0 -0.00031254916979850443 -0.04141588341432071 0 -0.00024386196969718391 -0.041290505296198876 0 2.6700961734646221e-05 -0.041592736447276832 0 -6.8486710030899454e-05 -0.040765388236263779 0 -0.00024386196969718391 -0.041290505296198876 0 -0.00018593118841514134 -0.041252519655991929 0 -2.9272866807051189e-05 -0.04095846296796065 0 -0.00029626570528985927 -0.041231659655399037 0 -0.00024386196969718391 -0.041290505296198876 0 -0.00018593118841514134 -0.041252519655991929 0 0.00012781578917868161 -0.041032780254312472 0 0.00032202128506019921 -0.041005144974556165 0 0.00021252574750460504 -0.04129703864209322 0 0.00021252574750460504 -0.04129703864209322 0 0.00044830146776616127 -0.041270756059919131 0 0.00050975121165768294 -0.041701209206705614 0 0.00032202128506019921 -0.041005144974556165 0 0.00021252574750460504 -0.04129703864209322 0 0.00044830146776616127 -0.041270756059919131 0 -0.00019550046506384576 -0.041245977725108664 0 -0.00031254916979850443 -0.04141588341432071 0 -3.4283887677164145e-05 -0.041314216912063467 0 0.00021252574750460504 -0.04129703864209322 0 -3.4283887677164145e-05 -0.041314216912063467 0 0.0001186795489440705 -0.04159264165982994 0 0.00012781578917868161 -0.041032780254312472 0 0.00021252574750460504 -0.04129703864209322 0 -3.4283887677164145e-05 -0.041314216912063467 0 0.00012781578917868161 -0.041032780254312472 0 -0.00019550046506384576 -0.041245977725108664 0 -3.4283887677164145e-05 -0.041314216912063467 0 -0.00031254916979850443 -0.04141588341432071 0 0.0001186795489440705 -0.04159264165982994 0 9.5120385958698375e-05 -0.041929360679230768 0 -0.00031254916979850443 -0.04141588341432071 0 -3.4283887677164145e-05 -0.041314216912063467 0 0.0001186795489440705 -0.04159264165982994 0 0.0001186795489440705 -0.04159264165982994 0 0.00035974419164088128 -0.041935358766853593 0 0.00050975121165768294 -0.041701209206705614 0 0.00021252574750460504 -0.04129703864209322 0 0.0001186795489440705 -0.04159264165982994 0 0.00050975121165768294 -0.041701209206705614 0 0.0001186795489440705 -0.04159264165982994 0 0.00035974419164088128 -0.041935358766853593 0 9.5120385958698375e-05 -0.041929360679230768 0 0.00050117729318002009 -0.04220260535412787 0 0.0004031150866740951 -0.04232748815279154 0 0.000581269425208413 -0.042458031821355845 0 0.00050117729318002009 -0.04220260535412787 0 0.0004031150866740951 -0.04232748815279154 0 0.00027433963035274457 -0.042161158535065739 0 0.00050117729318002009 -0.04220260535412787 0 0.00035974419164088128 -0.041935358766853593 0 0.0006177331841128339 -0.042057919467899767 0 0.00050117729318002009 -0.04220260535412787 0 0.00035974419164088128 -0.041935358766853593 0 0.00027433963035274457 -0.042161158535065739 0 0.00035974419164088128 -0.041935358766853593 0 0.00027433963035274457 -0.042161158535065739 0 9.5120385958698375e-05 -0.041929360679230768 0 0.00014876010913630858 -0.042192367063803658 0 0.00027433963035274457 -0.042161158535065739 0 9.5120385958698375e-05 -0.041929360679230768 0 0.00014876010913630858 -0.042192367063803658 0 -2.3695490528664213e-05 -0.042285841381031121 0 0.00023536223869531511 -0.042372430830470369 0 0.0004031150866740951 -0.04232748815279154 0 0.00027433963035274457 -0.042161158535065739 0 0.00023536223869531511 -0.042372430830470369 0 0.00014876010913630858 -0.042192367063803658 0 0.00027433963035274457 -0.042161158535065739 0 0.00023536223869531511 -0.042372430830470369 0 -0.00031254916979850443 -0.04141588341432071 0 -2.3695490528664213e-05 -0.042285841381031121 0 9.5120385958698375e-05 -0.041929360679230768 0 -0.00031254916979850443 -0.04141588341432071 0 -0.00067185095157420939 -0.040952191586117209 0 -0.00033631174649910277 -0.041043271639204244 0 -0.00031205561560869715 -0.041474297711287078 0 -0.00038680913230981182 -0.041571206655318195 0 -0.00064013674992525484 -0.040931185903263619 0 -0.00067185095157420939 -0.040952191586117209 0 -0.00033631174649910277 -0.041043271639204244 0 0.00014876010913630858 -0.042192367063803658 0 -2.3695490528664213e-05 -0.042285841381031121 0 9.5120385958698375e-05 -0.041929360679230768 0 -0.00064013674992525484 -0.040931185903263619 0 -0.00033631174649910277 -0.041043271639204244 0 -0.00040349691651542051 -0.040827156704869076 0 -0.00064013674992525484 -0.040931185903263619 0 -0.00040287905304115527 -0.040627947494704698 0 -0.00049315177662956789 -0.040378238664475374 0 -0.00064013674992525484 -0.040931185903263619 0 -0.0007177729471929869 -0.040829031873212504 0 -0.0005663602983202998 -0.040758939060661269 0 -0.00064013674992525484 -0.040931185903263619 0 -0.00067185095157420939 -0.040952191586117209 0 -0.0007177729471929869 -0.040829031873212504 0 -0.00080913682012712259 -0.040915176086755378 0 5.7178681345321499e-05 -0.040628499121892023 0 -0.00064013674992525484 -0.040931185903263619 0 -0.00040349691651542051 -0.040827156704869076 0 -0.00040287905304115527 -0.040627947494704698 0 -2.3695490528664213e-05 -0.042285841381031121 0 0.00023536223869531511 -0.042372430830470369 0 0.00037269966131157185 -0.042836648913289817 0 0.00023536223869531511 -0.042372430830470369 0 0.0003818156783608796 -0.042482472138587184 0 0.00037269966131157185 -0.042836648913289817 0 -0.00038680913230981182 -0.041571206655318195 0 0.00031683343353212099 -0.041895237513752744 0 0.00052120883371859059 -0.04259398342046862 0 0.00037269966131157185 -0.042836648913289817 0 0.0007190717275568642 -0.042645351272578014 0 0.00052120883371859059 -0.04259398342046862 0 0.0003818156783608796 -0.042482472138587184 0 0.00037269966131157185 -0.042836648913289817 0 0.00031683343353212099 -0.041895237513752744 0 0.00062415936607949896 -0.042441607704139635 0 0.00052120883371859059 -0.04259398342046862 0 0.0003818156783608796 -0.042482472138587184 0 0.000581269425208413 -0.042458031821355845 0 0.0004031150866740951 -0.04232748815279154 0 0.00023536223869531511 -0.042372430830470369 0 0.0003818156783608796 -0.042482472138587184 0 0.0004031150866740951 -0.04232748815279154 0 0.0003818156783608796 -0.042482472138587184 0 0.000581269425208413 -0.042458031821355845 0 -2.9272866807051189e-05 -0.04095846296796065 0 -0.00033631174649910277 -0.041043271639204244 0 -0.00023951824808951644 -0.040759708416370562 0 -0.00024386196969718391 -0.041290505296198876 0 -2.9272866807051189e-05 -0.04095846296796065 0 -0.00033631174649910277 -0.041043271639204244 0 -0.00023951824808951644 -0.040759708416370562 0 -0.00040287905304115527 -0.040627947494704698 0 -0.00021532018166852928 -0.040454989779299871 0 -0.00033631174649910277 -0.041043271639204244 0 -0.00023951824808951644 -0.040759708416370562 0 -0.00040349691651542051 -0.040827156704869076 0 -0.00023951824808951644 -0.040759708416370562 0 -0.00040349691651542051 -0.040827156704869076 0 -0.00040287905304115527 -0.040627947494704698 0 -2.9272866807051189e-05 -0.04095846296796065 0 -0.00023951824808951644 -0.040759708416370562 0 -4.7021175240801053e-05 -0.040690473925847473 0 -0.00023951824808951644 -0.040759708416370562 0 -4.7021175240801053e-05 -0.040690473925847473 0 -0.00021532018166852928 -0.040454989779299871 0 -0.00021532018166852928 -0.040454989779299871 0 -0.00011387315909772504 -0.040147970459781052 0 8.2039083349998553e-05 -0.040464422078202646 0 -4.7021175240801053e-05 -0.040690473925847473 0 -0.00021532018166852928 -0.040454989779299871 0 8.2039083349998553e-05 -0.040464422078202646 0 -0.00021532018166852928 -0.040454989779299871 0 -0.00011387315909772504 -0.040147970459781052 0 -0.00049315177662956789 -0.040378238664475374 0 -0.00040287905304115527 -0.040627947494704698 0 -0.00021532018166852928 -0.040454989779299871 0 -0.00049315177662956789 -0.040378238664475374 0 5.7178681345321499e-05 -0.040628499121892023 0 0.00088448266190688588 -0.040775354123413411 0 0.00064514277964505676 -0.040039310021736885 0 0.00098480200619107945 -0.039898232441586634 0 0.00090787347657924158 -0.040162250193914541 0 0.00033086257836030796 -0.039940555990782119 0 5.7178681345321499e-05 -0.040628499121892023 0 0.00057811191853952989 -0.04157940796971183 0 0.00059668033313067836 -0.0415033961983046 0 0.00054837546420378189 -0.041509205839146246 0 0.0010446071474598119 -0.04258769694162351 0 0.0008342445137645315 -0.042496897119947169 0 0.0008248292316469306 -0.042049270683956065 0 0.00031683343353212099 -0.041895237513752744 0 0.00074046762580321987 -0.041839585358414727 0 0.0010446071474598119 -0.04258769694162351 0 0.0007190717275568642 -0.042645351272578014 0 0.0008342445137645315 -0.042496897119947169 0 0.00057811191853952989 -0.04157940796971183 0 0.00068572563447789881 -0.041539879277944849 0 0.00059668033313067836 -0.0415033961983046 0 0.00031683343353212099 -0.041895237513752744 0 5.7178681345321499e-05 -0.040628499121892023 0 0.00068572563447789881 -0.041539879277944849 0 0.00059668033313067836 -0.0415033961983046 0 0.00063269904250153118 -0.041439080047231902 0 0.00068572563447789881 -0.041539879277944849 0 0.00063269904250153118 -0.041439080047231902 0 0.00075025529445570441 -0.041422610960241003 0 0.00059668033313067836 -0.0415033961983046 0 0.00056774246653361988 -0.04146822423731527 0 0.00063269904250153118 -0.041439080047231902 0 0.00059668033313067836 -0.0415033961983046 0 0.00056774246653361988 -0.04146822423731527 0 0.00054837546420378189 -0.041509205839146246 0 0.00057563526281902827 -0.041392462136617486 0 0.00056774246653361988 -0.04146822423731527 0 0.00063269904250153118 -0.041439080047231902 0 0.00057563526281902827 -0.041392462136617486 0 0.00056774246653361988 -0.04146822423731527 0 0.00058570609609462918 -0.04144293170678616 0 0.00057563526281902827 -0.041392462136617486 0 0.00063269904250153118 -0.041439080047231902 0 0.00068519906160430417 -0.041295225943270834 0 0.00063269904250153118 -0.041439080047231902 0 0.00068519906160430417 -0.041295225943270834 0 0.00075025529445570441 -0.041422610960241003 0 0.00057636019729957028 -0.041370596140876688 0 0.00061246772590332042 -0.041265662220063296 0 0.00057563526281902827 -0.041392462136617486 0 0.00068519906160430417 -0.041295225943270834 0 0.00065497631365443504 -0.041044086765742248 0 0.00057563526281902827 -0.041392462136617486 0 0.00058570609609462918 -0.04144293170678616 0 0.00061558698125755578 -0.041492743868160188 0 0.00057563526281902827 -0.041392462136617486 0 0.00061558698125755578 -0.041492743868160188 0 0.0005560325563339877 -0.041473865405117542 0 0.00064514277964505676 -0.040039310021736885 0 0.00064798315387814198 -0.040299296636976102 0 0.00090787347657924158 -0.040162250193914541 0 0.00064514277964505676 -0.040039310021736885 0 0.00064798315387814198 -0.040299296636976102 0 0.00044455516151031404 -0.040248593417899922 0 0.00068519906160430417 -0.041295225943270834 0 0.00075025529445570441 -0.041422610960241003 0 0.00080340379749632479 -0.04118246366389542 0 0.00064798315387814198 -0.040299296636976102 0 0.00090787347657924158 -0.040162250193914541 0 0.00084584751874196718 -0.040466847101012067 0 0.00088448266190688588 -0.040775354123413411 0 0.00080821556478801631 -0.040838410215775722 0 0.00068519906160430417 -0.041295225943270834 0 0.00080340379749632479 -0.04118246366389542 0 0.00065497631365443504 -0.041044086765742248 0 0.00080821556478801631 -0.040838410215775722 0 0.00076136300617963442 -0.040893399784313056 0 0.00084584751874196718 -0.040466847101012067 0 0.00059251828451236191 -0.040543708347270183 0 0.00074796183880908513 -0.040887195583918214 0 0.00064798315387814198 -0.040299296636976102 0 0.00084584751874196718 -0.040466847101012067 0 0.00059251828451236191 -0.040543708347270183 0 0.00064798315387814198 -0.040299296636976102 0 0.00059251828451236191 -0.040543708347270183 0 0.00041678942854886142 -0.040403669134920529 0 0.00059251828451236191 -0.040543708347270183 0 0.00037375585044819941 -0.040582386540757714 0 0.00041678942854886142 -0.040403669134920529 0 0.00059251828451236191 -0.040543708347270183 0 0.00037375585044819941 -0.040582386540757714 0 0.00050373953475059017 -0.040743993715627438 0 0.00041678942854886142 -0.040403669134920529 0 0.00030250803602734853 -0.040328829208842648 0 0.00026149826712789748 -0.040445476996766094 0 0.00037375585044819941 -0.040582386540757714 0 0.00041678942854886142 -0.040403669134920529 0 0.00026149826712789748 -0.040445476996766094 0 0.00064514277964505676 -0.040039310021736885 0 0.00044455516151031404 -0.040248593417899922 0 0.0002553927426358459 -0.040191039983866958 0 0.00064798315387814198 -0.040299296636976102 0 0.00041678942854886142 -0.040403669134920529 0 0.00044455516151031404 -0.040248593417899922 0 0.00030250803602734853 -0.040328829208842648 0 0.00044455516151031404 -0.040248593417899922 0 0.0002553927426358459 -0.040191039983866958 0 0.00041678942854886142 -0.040403669134920529 0 0.00030250803602734853 -0.040328829208842648 0 0.00044455516151031404 -0.040248593417899922 0 0.00030250803602734853 -0.040328829208842648 0 0.0002553927426358459 -0.040191039983866958 0 0.00014076378774857616 -0.040355067626204881 0 0.0002553927426358459 -0.040191039983866958 0 0.00014076378774857616 -0.040355067626204881 0 2.2871366939483005e-05 -0.040337720190474116 0 0.00014076378774857616 -0.040355067626204881 0 6.4496433688384115e-05 -0.040438867025904567 0 1.9300325851590476e-05 -0.040397915793984655 0 0.00014076378774857616 -0.040355067626204881 0 6.4496433688384115e-05 -0.040438867025904567 0 0.00015900461567140529 -0.040465547666178922 0 0.00014076378774857616 -0.040355067626204881 0 0.00026149826712789748 -0.040445476996766094 0 0.00015900461567140529 -0.040465547666178922 0 0.00030250803602734853 -0.040328829208842648 0 0.00014076378774857616 -0.040355067626204881 0 0.00026149826712789748 -0.040445476996766094 0 0.00037375585044819941 -0.040582386540757714 0 0.00026149826712789748 -0.040445476996766094 0 0.00020242644736471088 -0.040584896204656752 0 0.00026149826712789748 -0.040445476996766094 0 0.00020242644736471088 -0.040584896204656752 0 0.00015900461567140529 -0.040465547666178922 0 0.00020242644736471088 -0.040584896204656752 0 0.00015900461567140529 -0.040465547666178922 0 3.1812560661355991e-05 -0.040553725266280774 0 6.4496433688384115e-05 -0.040438867025904567 0 0.00015900461567140529 -0.040465547666178922 0 3.1812560661355991e-05 -0.040553725266280774 0 3.1812560661355991e-05 -0.040553725266280774 0 -5.3833267143135932e-05 -0.040485082911439804 0 -0.00014500794333672373 -0.040548517284119609 0 6.4496433688384115e-05 -0.040438867025904567 0 3.1812560661355991e-05 -0.040553725266280774 0 -5.7353185598565494e-06 -0.040447670460464408 0 3.1812560661355991e-05 -0.040553725266280774 0 -5.7353185598565494e-06 -0.040447670460464408 0 -5.3833267143135932e-05 -0.040485082911439804 0 -5.7353185598565494e-06 -0.040447670460464408 0 -5.3833267143135932e-05 -0.040485082911439804 0 -5.4026636769209309e-05 -0.040403681226622856 0 -5.3833267143135932e-05 -0.040485082911439804 0 -0.00010672543223154554 -0.040421776349233052 0 -0.00014500794333672373 -0.040548517284119609 0 -0.00010672543223154554 -0.040421776349233052 0 -0.00015770161500571934 -0.040370226923066292 0 -0.00014500794333672373 -0.040548517284119609 0 -5.3833267143135932e-05 -0.040485082911439804 0 -0.00010672543223154554 -0.040421776349233052 0 -5.4026636769209309e-05 -0.040403681226622856 0 -0.00010672543223154554 -0.040421776349233052 0 -0.0001288771468838985 -0.040365220206192182 0 -0.00010032219955114425 -0.040359653653657519 0 -0.00010672543223154554 -0.040421776349233052 0 -0.00010032219955114425 -0.040359653653657519 0 -5.4026636769209309e-05 -0.040403681226622856 0 -0.00013938331807656387 -0.04032270554872399 0 -0.00010032219955114425 -0.040359653653657519 0 2.2871366939483005e-05 -0.040337720190474116 0 -0.00010672543223154554 -0.040421776349233052 0 -0.0001288771468838985 -0.040365220206192182 0 -0.00015770161500571934 -0.040370226923066292 0 -0.0007773658913805769 -0.038138610237923615 0 -0.00051280757548476 -0.036542799110215726 0 -0.00012554316162027534 -0.040344867352248161 0 -0.00013938331807656387 -0.04032270554872399 0 -0.00010032219955114425 -0.040359653653657519 0 -0.0001288771468838985 -0.040365220206192182 0 -0.00015770161500571934 -0.040370226923066292 0 -0.00013938331807656387 -0.04032270554872399 0 -0.0001288771468838985 -0.040365220206192182 0 -0.00012554316162027534 -0.040344867352248161 0 -0.00013938331807656387 -0.04032270554872399 0 -0.0001288771468838985 -0.040365220206192182 0 -0.00012554316162027534 -0.040344867352248161 0 -0.00010032219955114425 -0.040359653653657519 0 -0.00010032219955114425 -0.040359653653657519 0 2.2871366939483005e-05 -0.040337720190474116 0 -5.4026636769209309e-05 -0.040403681226622856 0 2.2871366939483005e-05 -0.040337720190474116 0 1.9300325851590476e-05 -0.040397915793984655 0 -5.4026636769209309e-05 -0.040403681226622856 0 0.00014076378774857616 -0.040355067626204881 0 2.2871366939483005e-05 -0.040337720190474116 0 1.9300325851590476e-05 -0.040397915793984655 0 6.4496433688384115e-05 -0.040438867025904567 0 -5.7353185598565494e-06 -0.040447670460464408 0 1.9300325851590476e-05 -0.040397915793984655 0 -5.7353185598565494e-06 -0.040447670460464408 0 1.9300325851590476e-05 -0.040397915793984655 0 -5.4026636769209309e-05 -0.040403681226622856 0 -0.002452390689063862 -0.030233005603246276 0 -0.0023021062013313144 -0.030067025009397275 0 -0.0022740439565565192 -0.030168798127435999 0 -0.00015770161500571934 -0.040370226923066292 0 -0.00013859802103830625 -0.040313677428069218 0 -0.0004150962505271073 -0.040615420878465369 0 -0.00015770161500571934 -0.040370226923066292 0 -0.0004150962505271073 -0.040615420878465369 0 -0.00014500794333672373 -0.040548517284119609 0 -0.00051280757548476 -0.036542799110215726 0 -0.001420828606691558 -0.035486283350108304 0 -0.0025450624819489329 -0.030280739280215643 0 -0.002452390689063862 -0.030233005603246276 0 -0.0023021062013313144 -0.030067025009397275 0 -0.00051280757548476 -0.036542799110215726 0 -0.0011196069404399221 -0.033172689180074627 0 -0.0026053733610950603 -0.030248140959102922 0 -0.002452390689063862 -0.030233005603246276 0 -0.0024717189396886285 -0.030340945871876784 0 -0.002452390689063862 -0.030233005603246276 0 -0.0023085999615173923 -0.030289264318494845 0 -0.0022740439565565192 -0.030168798127435999 0 -0.0024717189396886285 -0.030340945871876784 0 -0.0023705950580912402 -0.030458195515180298 0 -0.0023085999615173923 -0.030289264318494845 0 -0.002452390689063862 -0.030233005603246276 0 -0.0024717189396886285 -0.030340945871876784 0 -0.0023085999615173923 -0.030289264318494845 0 -0.0026053733610950603 -0.030248140959102922 0 -0.0024717189396886285 -0.030340945871876784 0 -0.0025905814875712024 -0.030511880914510427 0 -0.0024717189396886285 -0.030340945871876784 0 -0.0025905814875712024 -0.030511880914510427 0 -0.0023705950580912402 -0.030458195515180298 0 0.0002553927426358459 -0.040191039983866958 0 -0.00013938331807656387 -0.04032270554872399 0 2.2871366939483005e-05 -0.040337720190474116 0 0.00029319989592887044 -0.040558440116397289 0 -0.00051280757548476 -0.036542799110215726 0 -0.0026053733610950603 -0.030248140959102922 0 -0.0025905814875712024 -0.030511880914510427 0 -0.0029557911777573012 -0.030768117681775582 0 -0.00051280757548476 -0.036542799110215726 0 -0.0011623082943665762 -0.035065144096327022 0 0.00092131947437630536 -0.039186515722595405 0 0.0005488375615287207 -0.039644518797907737 0 0.00063767987373127954 -0.040082212570139206 0 0.00025574368256444172 -0.03988456970362201 0 0.00069164233462904151 -0.039601025665592995 0 0.00050301232861474658 -0.039876228301983702 0 -0.00051280757548476 -0.036542799110215726 0 0.00038423067729369373 -0.039945424751325342 0 -0.0025905814875712024 -0.030511880914510427 0 -0.0029557911777573012 -0.030768117681775582 0 -0.0025558345504187304 -0.030805856943224259 0 -0.0023705950580912402 -0.030458195515180298 0 -0.0025558345504187304 -0.030805856943224259 0 -0.0022218106132307438 -0.03058593261559461 0 -0.0025905814875712024 -0.030511880914510427 0 -0.0023705950580912402 -0.030458195515180298 0 -0.0025558345504187304 -0.030805856943224259 0 -0.0023016194656855513 -0.031576795543406241 0 -0.0025558345504187304 -0.030805856943224259 0 -0.0022218106132307438 -0.03058593261559461 0 -0.0023312136289834976 -0.031123695956319003 0 -0.0022210108565178014 -0.030648568640290537 0 -0.0023016194656855513 -0.031576795543406241 0 -0.0025558345504187304 -0.030805856943224259 0 -0.0027604395411235921 -0.031236051676919112 0 -0.0014883428377065293 -0.036168089894619046 0 -0.0011623082943665762 -0.035065144096327022 0 -0.0033587242210982673 -0.031771003364723015 0 -0.0029557911777573012 -0.030768117681775582 0 -0.0027604395411235921 -0.031236051676919112 0 -0.0029557911777573012 -0.030768117681775582 0 -0.0025558345504187304 -0.030805856943224259 0 -0.0027604395411235921 -0.031236051676919112 0 0.00039398766570241886 -0.040625908519213265 0 8.2039083349998553e-05 -0.040464422078202646 0 0.0003271723530880663 -0.040096466962561222 0 0.00039398766570241886 -0.040625908519213265 0 0.00063767987373127954 -0.040082212570139206 0 0.0003271723530880663 -0.040096466962561222 0 8.2039083349998553e-05 -0.040464422078202646 0 0.00011923406670557481 -0.040165138305022628 0 0.0003271723530880663 -0.040096466962561222 0 -0.00011387315909772504 -0.040147970459781052 0 0.00025574368256444172 -0.03988456970362201 0 0.00011923406670557481 -0.040165138305022628 0 -0.00011387315909772504 -0.040147970459781052 0 8.2039083349998553e-05 -0.040464422078202646 0 0.00011923406670557481 -0.040165138305022628 0 0.00033086257836030796 -0.039940555990782119 0 0.00029319989592887044 -0.040558440116397289 0 0.00025574368256444172 -0.03988456970362201 0 0.00011923406670557481 -0.040165138305022628 0 0.0003271723530880663 -0.040096466962561222 0 0.00025574368256444172 -0.03988456970362201 0 0.00050301232861474658 -0.039876228301983702 0 0.0003271723530880663 -0.040096466962561222 0 0.0005488375615287207 -0.039644518797907737 0 0.00063767987373127954 -0.040082212570139206 0 0.0003271723530880663 -0.040096466962561222 0 0.00038423067729369373 -0.039945424751325342 0 0.00039478840313708993 -0.039980993332248152 0 2.1831136547663824e-09 -0.044999980683678283 0 1.8167441455941126e-05 -0.044991020877764382 0 1.3934390506383317e-05 -0.04499893963833685 0 1.8167441455941126e-05 -0.044991020877764382 0 1.3934390506383317e-05 -0.04499893963833685 0 3.0919689590576861e-05 -0.044990480058259667 0 0.00033330608843630245 -0.044471580814943998 0 0.00086740313001888508 -0.044042679997914162 0 0.00052534820612941489 -0.043948428987463539 0 0.00078004313752943262 -0.044519284901128844 0 0.001389061514472994 -0.044125903916969904 0 2.1831136547663824e-09 -0.044999980683678283 0 1.3934390506383317e-05 -0.04499893963833685 0 1.0671936501584487e-08 -0.045000016227922872 0 0.00033330608843630245 -0.044471580814943998 0 1.3766436586254343e-07 -0.044999744885486213 0 0.00052534820612941489 -0.043948428987463539 0 -3.5234836582112697e-07 -0.044998899422180674 0 9.3973314106348438e-05 -0.04490679688440545 0 -3.5234836582112697e-07 -0.044998899422180674 0 9.3973314106348438e-05 -0.04490679688440545 0 1.8540179141610527e-07 -0.045000158095777253 0 9.3973314106348438e-05 -0.04490679688440545 0 1.8540179141610527e-07 -0.045000158095777253 0 7.69779054199769e-05 -0.044939800959027616 0 5.8440846044276252e-05 -0.044930785740223335 0 1.8540179141610527e-07 -0.045000158095777253 0 7.69779054199769e-05 -0.044939800959027616 0 7.2775830440773026e-05 -0.044863870510585775 0 7.69779054199769e-05 -0.044939800959027616 0 6.7105243808157516e-05 -0.044948151428131244 0 9.3973314106348438e-05 -0.04490679688440545 0 0.00078004313752943262 -0.044519284901128844 0 0.001156553914943944 -0.045050842884802121 0 9.3973314106348438e-05 -0.04490679688440545 0 7.69779054199769e-05 -0.044939800959027616 0 6.7105243808157516e-05 -0.044948151428131244 0 0.00078004313752943262 -0.044519284901128844 0 0.001156553914943944 -0.045050842884802121 0 0.001389061514472994 -0.044125903916969904 0 6.763262392876051e-05 -0.044846470020333033 0 0.0006879055109756825 -0.04515214777916237 0 0.00052534820612941489 -0.043948428987463539 0 9.3973314106348438e-05 -0.04490679688440545 0 0.00078004313752943262 -0.044519284901128844 0 0.001156553914943944 -0.045050842884802121 0 0.0024054622082466341 -0.044559068697949608 0 0.001389061514472994 -0.044125903916969904 0 0.0024054622082466341 -0.044559068697949608 0 0.0018045465994221868 -0.043560243955602942 0 0.001389061514472994 -0.044125903916969904 0 4.0975348529405479e-06 -0.044828868120351029 0 7.2775830440773026e-05 -0.044863870510585775 0 6.7105243808157516e-05 -0.044948151428131244 0 0.001156553914943944 -0.045050842884802121 0 0.0025055363641623965 -0.045574746960620763 0 0.0024054622082466341 -0.044559068697949608 0 0.0006879055109756825 -0.04515214777916237 0 0.0010019444705199011 -0.044151287097492116 0 4.0975348529405479e-06 -0.044828868120351029 0 6.7105243808157516e-05 -0.044948151428131244 0 -6.9672506902335136e-05 -0.044906582989963868 0 0.0010019444705199011 -0.044151287097492116 0 0.0023145892298813532 -0.043411577911437765 0 0.0021669331239802599 -0.041906019464721833 0 0.0022589943624704142 -0.042369922585118028 0 0.0017886350434090483 -0.042206819695806599 0 0.0022589943624704142 -0.042369922585118028 0 0.0019913673251100686 -0.042693247246696139 0 0.0017886350434090483 -0.042206819695806599 0 0.0023145892298813532 -0.043411577911437765 0 0.002254009421496209 -0.043225326253807032 0 0.0022589943624704142 -0.042369922585118028 0 0.0019913673251100686 -0.042693247246696139 0 0.0022246414693092844 -0.043188272318133498 0 0.0024054622082466341 -0.044559068697949608 0 0.0022246414693092844 -0.043188272318133498 0 0.0018045465994221868 -0.043560243955602942 0 0.0022246414693092844 -0.043188272318133498 0 0.0021401282329141964 -0.043064510125316022 0 0.0019553265400364117 -0.042931777569781497 0 0.0019913673251100686 -0.042693247246696139 0 0.0022246414693092844 -0.043188272318133498 0 0.0019553265400364117 -0.042931777569781497 0 0.0022246414693092844 -0.043188272318133498 0 0.0019798041236376686 -0.043142806848022894 0 0.0021401282329141964 -0.043064510125316022 0 0.00052534820612941489 -0.043948428987463539 0 0.001389061514472994 -0.044125903916969904 0 0.0017111769573801294 -0.043160728924316855 0 0.00052534820612941489 -0.043948428987463539 0 0.0017111769573801294 -0.043160728924316855 0 0.0017222890178035192 -0.043049406958939662 0 0.0018045465994221868 -0.043560243955602942 0 0.001389061514472994 -0.044125903916969904 0 0.0017111769573801294 -0.043160728924316855 0 0.0018045465994221868 -0.043560243955602942 0 0.0017111769573801294 -0.043160728924316855 0 0.0019798041236376686 -0.043142806848022894 0 0.0022246414693092844 -0.043188272318133498 0 0.0018045465994221868 -0.043560243955602942 0 0.0019798041236376686 -0.043142806848022894 0 0.0017111769573801294 -0.043160728924316855 0 0.0019798041236376686 -0.043142806848022894 0 0.0017763418676712899 -0.043079480763585851 0 0.00089719603566468372 -0.043957983659273406 0 0.00086740313001888508 -0.044042679997914162 0 0.00078636967616295948 -0.043765786939205763 0 0.0010315437917311017 -0.043661004855835309 0 0.00083759408844995926 -0.04341510680331194 0 0.00086740313001888508 -0.044042679997914162 0 0.00036955461686094933 -0.04410313539681239 0 1.8167441455941126e-05 -0.044991020877764382 0 3.0919689590576861e-05 -0.044990480058259667 0 3.0066427449331901e-05 -0.044979432392451529 0 0.0010315437917311017 -0.043661004855835309 0 0.0012747288764380135 -0.04355504879194437 0 0.0010570274260701964 -0.043485253729430393 0 0.00086740313001888508 -0.044042679997914162 0 0.0016879971136331369 -0.043307732923457853 0 0.0019798041236376686 -0.043142806848022894 0 0.0017763418676712899 -0.043079480763585851 0 0.0021401282329141964 -0.043064510125316022 0 0.0021401282329141964 -0.043064510125316022 0 0.0017866686528162843 -0.043184466689865184 0 0.0019553265400364117 -0.042931777569781497 0 0.0016879971136331369 -0.043307732923457853 0 0.0011510428722718018 -0.042985246893874646 0 0.0017866686528162843 -0.043184466689865184 0 0.0016462872525684191 -0.042894251469023502 0 0.0019553265400364117 -0.042931777569781497 0 0.00079981597007354314 -0.042585043857548598 0 0.00077573306587421691 -0.042575355964406932 0 0.00076913116724067914 -0.042587125408874507 0 0.0017866686528162843 -0.043184466689865184 0 0.0013306363341267988 -0.042962413481389315 0 0.0016462872525684191 -0.042894251469023502 0 0.0011510428722718018 -0.042985246893874646 0 0.0010800011199485742 -0.042760485145348873 0 0.0013306363341267988 -0.042962413481389315 0 0.0016462872525684191 -0.042894251469023502 0 0.0014671346769175723 -0.042622475925151518 0 0.0016462872525684191 -0.042894251469023502 0 0.0014671346769175723 -0.042622475925151518 0 0.0017400082593695321 -0.04259624395486817 0 0.0013306363341267988 -0.042962413481389315 0 0.0014671346769175723 -0.042622475925151518 0 0.0011332659191573983 -0.042450453471939556 0 0.0014671346769175723 -0.042622475925151518 0 0.0014478669535280416 -0.04225163457927935 0 0.0011332659191573983 -0.042450453471939556 0 0.0014671346769175723 -0.042622475925151518 0 0.0017400082593695321 -0.04259624395486817 0 0.0014478669535280416 -0.04225163457927935 0 0.0016462872525684191 -0.042894251469023502 0 0.0017400082593695321 -0.04259624395486817 0 0.0019553265400364117 -0.042931777569781497 0 0.0019913673251100686 -0.042693247246696139 0 0.0017400082593695321 -0.04259624395486817 0 0.0019553265400364117 -0.042931777569781497 0 0.0017400082593695321 -0.04259624395486817 0 0.0017886350434090483 -0.042206819695806599 0 0.0014478669535280416 -0.04225163457927935 0 0.0019913673251100686 -0.042693247246696139 0 0.0017400082593695321 -0.04259624395486817 0 0.0017886350434090483 -0.042206819695806599 0 0.0017439760917511743 -0.041750902916914009 0 0.0021669331239802599 -0.041906019464721833 0 0.0017886350434090483 -0.042206819695806599 0 0.0017439760917511743 -0.041750902916914009 0 0.0017886350434090483 -0.042206819695806599 0 0.0014175221868954545 -0.041977443116857027 0 0.00081874662870013229 -0.04297525408841598 0 0.0010019444705199011 -0.044151287097492116 0 0.00072748133533352178 -0.042198939353500504 0 0.0013914481793900211 -0.04177739300577369 0 0.0013310934883119438 -0.041437782348383093 0 0.0013726705066976028 -0.041780425634700094 0 0.001138041841192284 -0.041696065162445388 0 0.0013726705066976028 -0.041780425634700094 0 0.0014478669535280416 -0.04225163457927935 0 0.00098751873065689865 -0.042063113058307074 0 0.0017886350434090483 -0.042206819695806599 0 0.0014175221868954545 -0.041977443116857027 0 0.0014478669535280416 -0.04225163457927935 0 0.0013914481793900211 -0.04177739300577369 0 0.0014410040607175966 -0.042248431517019319 0 0.00097952498197733675 -0.04202603948277496 0 0.00084187831292450554 -0.041445051086970781 0 0.0014478669535280416 -0.04225163457927935 0 0.00098751873065689865 -0.042063113058307074 0 0.0011332659191573983 -0.042450453471939556 0 0.0013726705066976028 -0.041780425634700094 0 0.00098751873065689865 -0.042063113058307074 0 0.001138041841192284 -0.041696065162445388 0 0.00098751873065689865 -0.042063113058307074 0 0.001138041841192284 -0.041696065162445388 0 0.00093249748266728343 -0.041670921584471568 0 0.0010675271511594116 -0.041490705111275512 0 0.001138041841192284 -0.041696065162445388 0 0.00093249748266728343 -0.041670921584471568 0 0.00044830146776616127 -0.041270756059919131 0 0.00076614608651849809 -0.041200522506334769 0 0.00050975121165768294 -0.041701209206705614 0 0.00046261961589842546 -0.04101219727962168 0 0.00044830146776616127 -0.041270756059919131 0 0.00076614608651849809 -0.041200522506334769 0 0.00098751873065689865 -0.042063113058307074 0 0.00076614608651849809 -0.041200522506334769 0 0.00050975121165768294 -0.041701209206705614 0 0.00098751873065689865 -0.042063113058307074 0 0.00050975121165768294 -0.041701209206705614 0 0.0006177331841128339 -0.042057919467899767 0 0.00035974419164088128 -0.041935358766853593 0 0.00050975121165768294 -0.041701209206705614 0 0.0006177331841128339 -0.042057919467899767 0 0.00050117729318002009 -0.04220260535412787 0 0.0006177331841128339 -0.042057919467899767 0 0.00075505805981472486 -0.042355617402815127 0 0.00050117729318002009 -0.04220260535412787 0 0.00075505805981472486 -0.042355617402815127 0 0.000581269425208413 -0.042458031821355845 0 0.00098751873065689865 -0.042063113058307074 0 0.0006177331841128339 -0.042057919467899767 0 0.00075505805981472486 -0.042355617402815127 0 0.00098751873065689865 -0.042063113058307074 0 0.00075505805981472486 -0.042355617402815127 0 0.0011332659191573983 -0.042450453471939556 0 0.00075505805981472486 -0.042355617402815127 0 0.0011332659191573983 -0.042450453471939556 0 0.00082687265363701374 -0.042576022295949645 0 0.00077573306587421691 -0.042575355964406932 0 0.00077172298172009364 -0.042573676524240218 0 0.00076913116724067914 -0.042587125408874507 0 0.00077573306587421691 -0.042575355964406932 0 0.00082687265363701374 -0.042576022295949645 0 0.00077172298172009364 -0.042573676524240218 0 0.0013306363341267988 -0.042962413481389315 0 0.0011332659191573983 -0.042450453471939556 0 0.00082687265363701374 -0.042576022295949645 0 0.0010800011199485742 -0.042760485145348873 0 0.00084879535038500449 -0.042618392295282984 0 0.00082687265363701374 -0.042576022295949645 0 0.00077172298172009364 -0.042573676524240218 0 0.00075060931310610686 -0.042589338620464205 0 0.00077172298172009364 -0.042573676524240218 0 0.00075060931310610686 -0.042589338620464205 0 0.00071410808042362292 -0.042541195721348665 0 0.00075060931310610686 -0.042589338620464205 0 0.0007190717275568642 -0.042645351272578014 0 0.00071410808042362292 -0.042541195721348665 0 0.00075060931310610686 -0.042589338620464205 0 0.0007190717275568642 -0.042645351272578014 0 0.00073542168227352987 -0.042546546735256777 0 0.00052120883371859059 -0.04259398342046862 0 0.0007190717275568642 -0.042645351272578014 0 0.000581269425208413 -0.042458031821355845 0 0.00075505805981472486 -0.042355617402815127 0 0.000581269425208413 -0.042458031821355845 0 0.00073542168227352987 -0.042546546735256777 0 0.0007190717275568642 -0.042645351272578014 0 0.000581269425208413 -0.042458031821355845 0 0.00073542168227352987 -0.042546546735256777 0 0.00082687265363701374 -0.042576022295949645 0 0.00075060931310610686 -0.042589338620464205 0 0.00073542168227352987 -0.042546546735256777 0 0.00075505805981472486 -0.042355617402815127 0 0.00082687265363701374 -0.042576022295949645 0 0.00073542168227352987 -0.042546546735256777 0 0.0008342445137645315 -0.042496897119947169 0 0.00071410808042362292 -0.042541195721348665 0 0.0008248292316469306 -0.042049270683956065 0 0.0007190717275568642 -0.042645351272578014 0 0.0008342445137645315 -0.042496897119947169 0 0.00071410808042362292 -0.042541195721348665 0 0.00071410808042362292 -0.042541195721348665 0 0.00075548499389718098 -0.042576469523678183 0 0.00075904176892132354 -0.042613363469420538 0 0.00077172298172009364 -0.042573676524240218 0 0.00071410808042362292 -0.042541195721348665 0 0.00075548499389718098 -0.042576469523678183 0 0.00077172298172009364 -0.042573676524240218 0 0.00076913116724067914 -0.042587125408874507 0 0.00075548499389718098 -0.042576469523678183 0 0.00076913116724067914 -0.042587125408874507 0 0.00075548499389718098 -0.042576469523678183 0 0.00076436836651754068 -0.042594561262893488 0 0.00075548499389718098 -0.042576469523678183 0 0.00076436836651754068 -0.042594561262893488 0 0.00075904176892132354 -0.042613363469420538 0 0.00075904176892132354 -0.042613363469420538 0 0.00076460456799415377 -0.042609888898010997 0 0.00076791546050822669 -0.042603933348446553 0 0.00076913116724067914 -0.042587125408874507 0 0.00076436836651754068 -0.042594561262893488 0 0.00076791546050822669 -0.042603933348446553 0 0.00076436836651754068 -0.042594561262893488 0 0.00075904176892132354 -0.042613363469420538 0 0.00076791546050822669 -0.042603933348446553 0 0.00071410808042362292 -0.042541195721348665 0 0.00044327665173704345 -0.041700719693950693 0 0.0008248292316469306 -0.042049270683956065 0 0.00074046762580321987 -0.041839585358414727 0 0.00052066155410526575 -0.041527407130331227 0 0.00056774246653361988 -0.04146822423731527 0 0.00054837546420378189 -0.041509205839146246 0 0.00052954520545373408 -0.041538273987170332 0 0.00071269171306182497 -0.042510491625608771 0 0.00061246595777815157 -0.042195278209474642 0 0.00044327665173704345 -0.041700719693950693 0 0.0008248292316469306 -0.042049270683956065 0 0.00052954520545373408 -0.041538273987170332 0 0.00056774246653361988 -0.04146822423731527 0 0.00058570609609462918 -0.04144293170678616 0 0.00052954520545373408 -0.041538273987170332 0 0.00059665954244551443 -0.041489639917884805 0 0.00057621525714978967 -0.04131857492236022 0 0.00058570609609462918 -0.04144293170678616 0 0.00042815167491119251 -0.041391906966244521 0 0.00052047425449882766 -0.041334567405748271 0 0.00075904176892132354 -0.042613363469420538 0 0.00076460456799415377 -0.042609888898010997 0 0.0007631703867528102 -0.042606177876772823 0 0.00058570609609462918 -0.04144293170678616 0 0.00052954520545373408 -0.041538273987170332 0 0.00042815167491119251 -0.041391906966244521 0 0.00044327665173704345 -0.041700719693950693 0 0.00052954520545373408 -0.041538273987170332 0 0.00042815167491119251 -0.041391906966244521 0 0.00061246595777815157 -0.042195278209474642 0 0.00058806893718571669 -0.041897772647016121 0 0.00076460456799415377 -0.042609888898010997 0 0.00076392917275487182 -0.042609940158231968 0 0.0007631703867528102 -0.042606177876772823 0 0.00076460456799415377 -0.042609888898010997 0 0.00076392917275487182 -0.042609940158231968 0 0.0007674422485908878 -0.042609202500062719 0 0.00076392917275487182 -0.042609940158231968 0 0.0007631703867528102 -0.042606177876772823 0 0.00076217706126415277 -0.042608423958922004 0 0.00076217706126415277 -0.042608423958922004 0 0.00076240335136701636 -0.042610852177448984 0 0.00076059990364853852 -0.042609550686167029 0 0.00076392917275487182 -0.042609940158231968 0 0.00076217706126415277 -0.042608423958922004 0 0.00076240335136701636 -0.042610852177448984 0 0.00076392917275487182 -0.042609940158231968 0 0.00076240335136701636 -0.042610852177448984 0 0.00076427769207063144 -0.042612143331974529 0 0.00076392917275487182 -0.042609940158231968 0 0.00076427769207063144 -0.042612143331974529 0 0.0007674422485908878 -0.042609202500062719 0 0.00076427769207063144 -0.042612143331974529 0 0.0007674422485908878 -0.042609202500062719 0 0.00076686835949756147 -0.042613917527722658 0 0.0007674422485908878 -0.042609202500062719 0 0.00077019732592043737 -0.042606165664335512 0 0.00076686835949756147 -0.042613917527722658 0 0.00076460456799415377 -0.042609888898010997 0 0.0007674422485908878 -0.042609202500062719 0 0.00076791546050822669 -0.042603933348446553 0 0.0007674422485908878 -0.042609202500062719 0 0.00076791546050822669 -0.042603933348446553 0 0.00077019732592043737 -0.042606165664335512 0 0.00076913116724067914 -0.042587125408874507 0 0.00076791546050822669 -0.042603933348446553 0 0.00077019732592043737 -0.042606165664335512 0 0.0011510428722718018 -0.042985246893874646 0 0.00065680346165970663 -0.042523374387653051 0 0.00077134990249292171 -0.042613089799242221 0 0.00076913116724067914 -0.042587125408874507 0 0.00077019732592043737 -0.042606165664335512 0 0.00077134990249292171 -0.042613089799242221 0 0.00076873048052332536 -0.042612927288746799 0 0.00077019732592043737 -0.042606165664335512 0 0.00077134990249292171 -0.042613089799242221 0 0.00076873048052332536 -0.042612927288746799 0 0.00076648277263393272 -0.042619208678140647 0 0.0011510428722718018 -0.042985246893874646 0 0.00089297962856389485 -0.043091080864983471 0 0.00076873048052332536 -0.042612927288746799 0 0.00077019732592043737 -0.042606165664335512 0 0.00076686835949756147 -0.042613917527722658 0 0.00076873048052332536 -0.042612927288746799 0 0.00076648277263393272 -0.042619208678140647 0 0.00076686835949756147 -0.042613917527722658 0 0.0010315437917311017 -0.043661004855835309 0 0.0010570274260701964 -0.043485253729430393 0 0.00083759408844995926 -0.04341510680331194 0 0.00076648277263393272 -0.042619208678140647 0 0.00076114021505909444 -0.04262558690754685 0 0.00076686835949756147 -0.042613917527722658 0 0.00076112055420965918 -0.042624507436361592 0 0.00076114021505909444 -0.04262558690754685 0 0.00076686835949756147 -0.042613917527722658 0 0.00089297962856389485 -0.043091080864983471 0 0.00036955461686094933 -0.04410313539681239 0 1.8167441455941126e-05 -0.044991020877764382 0 3.0066427449331901e-05 -0.044979432392451529 0 1.7412401797299945e-05 -0.044988078225309487 0 1.9577527561462254e-05 -0.044977809156324974 0 1.9814282252835257e-05 -0.04497691726619326 0 1.7412401797299945e-05 -0.044988078225309487 0 0.00036955461686094933 -0.04410313539681239 0 -2.6737544135571692e-05 -0.045068575068718794 0 0.00046274577796575917 -0.043921263868745647 0 0.00036955461686094933 -0.04410313539681239 0 0.00046274577796575917 -0.043921263868745647 0 0.00068750728403869173 -0.043030571942338572 0 0.00046274577796575917 -0.043921263868745647 0 0.00025436804087586746 -0.044472336332570084 0 1.9577527561462254e-05 -0.044977809156324974 0 2.0085978734456594e-05 -0.044984704585486465 0 1.7412401797299945e-05 -0.044988078225309487 0 0.0005117032673003371 -0.044011979635568042 0 0.00044934033168143682 -0.043799569316190765 0 0.00055814877273905564 -0.043736970217336073 0 2.0085978734456594e-05 -0.044984704585486465 0 2.1558744062578938e-05 -0.044986984386641664 0 1.9317140568276442e-05 -0.044988786482205556 0 0.00076112055420965918 -0.042624507436361592 0 0.00076686835949756147 -0.042613917527722658 0 0.00076203812529187934 -0.042615946502382596 0 0.00076427769207063144 -0.042612143331974529 0 0.00076686835949756147 -0.042613917527722658 0 0.00076203812529187934 -0.042615946502382596 0 0.00076427769207063144 -0.042612143331974529 0 0.00076203812529187934 -0.042615946502382596 0 0.00076038826743038954 -0.04261360819951087 0 0.00068750728403869173 -0.043030571942338572 0 0.00066639694498159241 -0.04316582941804243 0 0.00076240335136701636 -0.042610852177448984 0 0.00076427769207063144 -0.042612143331974529 0 0.00076038826743038954 -0.04261360819951087 0 0.00076240335136701636 -0.042610852177448984 0 0.00076038826743038954 -0.04261360819951087 0 0.00076059990364853852 -0.042609550686167029 0 0.00066639694498159241 -0.04316582941804243 0 0.00062222533600776362 -0.042875812535875489 0 0.00066639694498159241 -0.04316582941804243 0 0.00026566361712119081 -0.044260140740654035 0 0.00026566361712119081 -0.044260140740654035 0 0.00026511295848321279 -0.044297870505490118 0 0.00052595318665906885 -0.043633578165307163 0 0.00048467698364035484 -0.043669278494183894 0 0.00047456981731629547 -0.043612987919133796 0 0.00025436804087586746 -0.044472336332570084 0 0.00026566361712119081 -0.044260140740654035 0 0.00044934033168143682 -0.043799569316190765 0 0.00055814877273905564 -0.043736970217336073 0 0.000389533389508281 -0.043585032868602151 0 0.00055814877273905564 -0.043736970217336073 0 0.00060828018147016224 -0.043424265710258196 0 0.000389533389508281 -0.043585032868602151 0 2.0085978734456594e-05 -0.044984704585486465 0 2.2883187501317614e-05 -0.044986081181514079 0 2.1558744062578938e-05 -0.044986984386641664 0 2.1558744062578938e-05 -0.044986984386641664 0 2.4153687437187074e-05 -0.04498917246209793 0 1.9317140568276442e-05 -0.044988786482205556 0 2.4153687437187074e-05 -0.04498917246209793 0 1.558122547857532e-05 -0.044990347276817375 0 1.0891435885760886e-05 -0.044994394535284275 0 2.4153687437187074e-05 -0.04498917246209793 0 1.0891435885760886e-05 -0.044994394535284275 0 1.9317140568276442e-05 -0.044988786482205556 0 2.4153687437187074e-05 -0.04498917246209793 0 2.8022062579503706e-05 -0.044976898426414121 0 1.558122547857532e-05 -0.044990347276817375 0 3.9442050242565709e-05 -0.044983624616301496 0 2.4153687437187074e-05 -0.04498917246209793 0 2.8022062579503706e-05 -0.044976898426414121 0 2.2883187501317614e-05 -0.044986081181514079 0 2.1558744062578938e-05 -0.044986984386641664 0 2.4153687437187074e-05 -0.04498917246209793 0 0.00026566361712119081 -0.044260140740654035 0 -0.00011636681290574383 -0.044844483964500449 0 3.9442050242565709e-05 -0.044983624616301496 0 2.8022062579503706e-05 -0.044976898426414121 0 4.85980862700376e-05 -0.044950522877669929 0 2.8022062579503706e-05 -0.044976898426414121 0 4.85980862700376e-05 -0.044950522877669929 0 2.1111062184649193e-05 -0.044949098058548742 0 2.8022062579503706e-05 -0.044976898426414121 0 -3.6288825384918018e-08 -0.044999914544621135 0 1.558122547857532e-05 -0.044990347276817375 0 2.8022062579503706e-05 -0.044976898426414121 0 -3.6288825384918018e-08 -0.044999914544621135 0 2.1111062184649193e-05 -0.044949098058548742 0 -3.6288825384918018e-08 -0.044999914544621135 0 1.0891435885760886e-05 -0.044994394535284275 0 2.6412732946338766e-08 -0.045000007663532779 0 -3.6288825384918018e-08 -0.044999914544621135 0 1.558122547857532e-05 -0.044990347276817375 0 1.0891435885760886e-05 -0.044994394535284275 0 1.0891435885760886e-05 -0.044994394535284275 0 2.6412732946338766e-08 -0.045000007663532779 0 1.7412401797299945e-05 -0.044988078225309487 0 1.0891435885760886e-05 -0.044994394535284275 0 1.9317140568276442e-05 -0.044988786482205556 0 1.7412401797299945e-05 -0.044988078225309487 0 2.0085978734456594e-05 -0.044984704585486465 0 1.9317140568276442e-05 -0.044988786482205556 0 1.7412401797299945e-05 -0.044988078225309487 0 2.1831136547663824e-09 -0.044999980683678283 0 1.8167441455941126e-05 -0.044991020877764382 0 1.7412401797299945e-05 -0.044988078225309487 0 2.1831136547663824e-09 -0.044999980683678283 0 2.6412732946338766e-08 -0.045000007663532779 0 1.7412401797299945e-05 -0.044988078225309487 0 4.1945487089269779e-06 -0.044998741449623104 0 4.9675523427061908e-09 -0.044999999100015953 0 8.7827370984648774e-09 -0.044999997228494827 0 4.1945487089269779e-06 -0.044998741449623104 0 1.1400013439301259e-05 -0.044995383512501846 0 3.5960355361562752e-06 -0.045000930509724105 0 4.1945487089269779e-06 -0.044998741449623104 0 4.9675523427061908e-09 -0.044999999100015953 0 3.5960355361562752e-06 -0.045000930509724105 0 1.1400013439301259e-05 -0.044995383512501846 0 1.1275010407163612e-05 -0.044973969764598117 0 1.2947731836920195e-05 -0.044969139257467129 0 1.5372275361779563e-06 -0.045027797312327193 0 5.8617462630372253e-06 -0.04488086495573794 0 0.0002014343566163189 -0.044349912717168496 0 0.00024481845305118804 -0.044370614487439362 0 1.1400013439301259e-05 -0.044995383512501846 0 1.1275010407163612e-05 -0.044973969764598117 0 1.0023041122273566e-05 -0.044997253844268489 0 0.00053045659915982137 -0.043618575016622009 0 0.00049143744694961128 -0.043608425024833662 0 0.00049899710002283284 -0.043703665051398104 0 0.0002014343566163189 -0.044349912717168496 0 0.00026843833610036083 -0.044197358552930478 0 2.6219636485758942e-05 -0.044788415232150741 0 1.7131665236581349e-05 -0.044802577406836679 0 4.7008963236517093e-05 -0.044878309210570053 0 0.00049143744694961128 -0.043608425024833662 0 0.00048822829050350526 -0.043567156092922187 0 0.0004834906108287817 -0.043557596083710501 0 0.00053045659915982137 -0.043618575016622009 0 0.00049143744694961128 -0.043608425024833662 0 0.00048822829050350526 -0.043567156092922187 0 0.0002014343566163189 -0.044349912717168496 0 5.8617462630372253e-06 -0.04488086495573794 0 4.9675523427061908e-09 -0.044999999100015953 0 3.5960355361562752e-06 -0.045000930509724105 0 -1.4107724587063576e-09 -0.045000003024083593 0 5.8617462630372253e-06 -0.04488086495573794 0 -8.9813898393774169e-07 -0.04495671210421559 0 5.8617462630372253e-06 -0.04488086495573794 0 -5.3428815657648297e-08 -0.045000148195572992 0 7.2126901807238142e-06 -0.044982346965123453 0 2.4078029115481435e-06 -0.045000241393211168 0 -2.4332689966825448e-10 -0.044999990892934168 0 1.7131665236581349e-05 -0.044802577406836679 0 -8.2655036747498549e-06 -0.044911766814793037 0 4.7008963236517093e-05 -0.044878309210570053 0 -3.6288825384918018e-08 -0.044999914544621135 0 -8.2655036747498549e-06 -0.044911766814793037 0 2.1111062184649193e-05 -0.044949098058548742 0 6.6202752643239524e-10 -0.045000006235170142 0 2.4078029115481435e-06 -0.045000241393211168 0 -2.4332689966825448e-10 -0.044999990892934168 0 -8.2655036747498549e-06 -0.044911766814793037 0 2.1111062184649193e-05 -0.044949098058548742 0 4.7008963236517093e-05 -0.044878309210570053 0 -1.8859301795589861e-09 -0.04499998224471715 0 -8.9813898393774169e-07 -0.04495671210421559 0 0.00047456981731629547 -0.043612987919133796 0 0.00048822829050350526 -0.043567156092922187 0 0.00049494235225542302 -0.04358533089723543 0 4.85980862700376e-05 -0.044950522877669929 0 2.1111062184649193e-05 -0.044949098058548742 0 4.7008963236517093e-05 -0.044878309210570053 0 0.00026511295848321279 -0.044297870505490118 0 0.00026843833610036083 -0.044197358552930478 0 0.00048822829050350526 -0.043567156092922187 0 0.00049494235225542302 -0.04358533089723543 0 0.0004834906108287817 -0.043557596083710501 0 0.00049494235225542302 -0.04358533089723543 0 0.00051037398380804604 -0.043550261267035775 0 0.0004834906108287817 -0.043557596083710501 0 0.00052595318665906885 -0.043633578165307163 0 0.00047456981731629547 -0.043612987919133796 0 0.00049494235225542302 -0.04358533089723543 0 0.00066639694498159241 -0.04316582941804243 0 0.00054534067793791778 -0.043462393082036969 0 0.00052595318665906885 -0.043633578165307163 0 0.00049494235225542302 -0.04358533089723543 0 0.00053091110984480416 -0.043583094742283536 0 0.0006215187620577015 -0.043037272596082067 0 0.00058644944338182177 -0.043262823794485573 0 0.00047585815465546417 -0.043140790799324875 0 0.00049494235225542302 -0.04358533089723543 0 0.00053091110984480416 -0.043583094742283536 0 0.00051037398380804604 -0.043550261267035775 0 0.00053091110984480416 -0.043583094742283536 0 0.00051037398380804604 -0.043550261267035775 0 0.00053613754931798943 -0.04350306740438438 0 0.00058644944338182177 -0.043262823794485573 0 0.00053119431357112298 -0.043484325030239378 0 0.00050065907020901404 -0.043366062538445979 0 0.00054534067793791778 -0.043462393082036969 0 0.00054293596574454936 -0.043481558264467417 0 0.00058644944338182177 -0.043262823794485573 0 0.00053119431357112298 -0.043484325030239378 0 0.00053613754931798943 -0.04350306740438438 0 0.00052576362566318408 -0.043490312578606825 0 0.00052800126558677875 -0.043497670734394762 0 0.00051783806163779942 -0.043488393704817829 0 0.00052576362566318408 -0.043490312578606825 0 0.00053119431357112298 -0.043484325030239378 0 0.00051783806163779942 -0.043488393704817829 0 0.00052576362566318408 -0.043490312578606825 0 0.00053613754931798943 -0.04350306740438438 0 0.00052800126558677875 -0.043497670734394762 0 0.00052576362566318408 -0.043490312578606825 0 0.00053119431357112298 -0.043484325030239378 0 0.00053613754931798943 -0.04350306740438438 0 0.00053613754931798943 -0.04350306740438438 0 0.00052751531745033999 -0.043506808796082166 0 0.0005207062771593107 -0.043518503080709509 0 0.00053613754931798943 -0.04350306740438438 0 0.00052751531745033999 -0.043506808796082166 0 0.00052796855405644588 -0.043501903604588436 0 0.00053613754931798943 -0.04350306740438438 0 0.00052796855405644588 -0.043501903604588436 0 0.00052800126558677875 -0.043497670734394762 0 0.00052796855405644588 -0.043501903604588436 0 0.00052380187657265404 -0.043498760168844207 0 0.00052324899333728149 -0.043503113982072204 0 0.00052796855405644588 -0.043501903604588436 0 0.00052432907843059701 -0.04350615457715639 0 0.00052324899333728149 -0.043503113982072204 0 0.00052751531745033999 -0.043506808796082166 0 0.00052796855405644588 -0.043501903604588436 0 0.00052432907843059701 -0.04350615457715639 0 0.00052380187657265404 -0.043498760168844207 0 0.00052800126558677875 -0.043497670734394762 0 0.00051783806163779942 -0.043488393704817829 0 0.00052796855405644588 -0.043501903604588436 0 0.00052380187657265404 -0.043498760168844207 0 0.00052800126558677875 -0.043497670734394762 0 0.0005207062771593107 -0.043518503080709509 0 0.00050781990092606472 -0.043535456266952023 0 0.00051861498624435445 -0.043508452232715107 0 0.00052432907843059701 -0.04350615457715639 0 0.0005207062771593107 -0.043518503080709509 0 0.00051861498624435445 -0.043508452232715107 0 0.00052751531745033999 -0.043506808796082166 0 0.00052432907843059701 -0.04350615457715639 0 0.0005207062771593107 -0.043518503080709509 0 0.00051037398380804604 -0.043550261267035775 0 0.0005207062771593107 -0.043518503080709509 0 0.00050781990092606472 -0.043535456266952023 0 0.00051037398380804604 -0.043550261267035775 0 0.00053613754931798943 -0.04350306740438438 0 0.0005207062771593107 -0.043518503080709509 0 0.00047802166692334491 -0.043613689886961078 0 0.00050051434766476305 -0.043460522491989909 0 0.0004834906108287817 -0.043557596083710501 0 0.00051595476823319288 -0.043498227473576567 0 0.00051861498624435445 -0.043508452232715107 0 0.00049143744694961128 -0.043608425024833662 0 0.0004834906108287817 -0.043557596083710501 0 0.00044337984106728075 -0.043662885704459128 0 0.00051037398380804604 -0.043550261267035775 0 0.00050781990092606472 -0.043535456266952023 0 0.0004834906108287817 -0.043557596083710501 0 0.00050781990092606472 -0.043535456266952023 0 0.0004834906108287817 -0.043557596083710501 0 0.00051861498624435445 -0.043508452232715107 0 0.00049143744694961128 -0.043608425024833662 0 0.00044337984106728075 -0.043662885704459128 0 0.00049899710002283284 -0.043703665051398104 0 0.00051595476823319288 -0.043498227473576567 0 0.00051988155135264185 -0.043503269996009251 0 0.00051861498624435445 -0.043508452232715107 0 0.00051595476823319288 -0.043498227473576567 0 0.00051988155135264185 -0.043503269996009251 0 0.00051987465936638195 -0.043513949268188565 0 0.00051988155135264185 -0.043503269996009251 0 0.00051971153599250967 -0.043501552042247406 0 0.00051251808048738108 -0.043509052147228409 0 0.00051971153599250967 -0.043501552042247406 0 0.00051322347155090839 -0.043497611527007408 0 0.00051251808048738108 -0.043509052147228409 0 0.00051988155135264185 -0.043503269996009251 0 0.00051971153599250967 -0.043501552042247406 0 0.00052324899333728149 -0.043503113982072204 0 0.00052380187657265404 -0.043498760168844207 0 0.00051971153599250967 -0.043501552042247406 0 0.00051322347155090839 -0.043497611527007408 0 0.00052380187657265404 -0.043498760168844207 0 0.00051971153599250967 -0.043501552042247406 0 0.00052324899333728149 -0.043503113982072204 0 0.00052432907843059701 -0.04350615457715639 0 0.00052324899333728149 -0.043503113982072204 0 0.00051861498624435445 -0.043508452232715107 0 0.00051988155135264185 -0.043503269996009251 0 0.00052324899333728149 -0.043503113982072204 0 0.00051861498624435445 -0.043508452232715107 0 0.0004993915497492694 -0.043496107073041808 0 0.00048780400665887413 -0.043508772416989472 0 0.00051251808048738108 -0.043509052147228409 0 0.0004993915497492694 -0.043496107073041808 0 0.0004886034825117312 -0.043479183440283675 0 0.00050227512775237015 -0.043485103008293224 0 0.0004993915497492694 -0.043496107073041808 0 0.00051322347155090839 -0.043497611527007408 0 0.00050227512775237015 -0.043485103008293224 0 0.0004993915497492694 -0.043496107073041808 0 0.00051322347155090839 -0.043497611527007408 0 0.00051251808048738108 -0.043509052147228409 0 0.0004993915497492694 -0.043496107073041808 0 0.00048111699637339689 -0.043489478586242108 0 0.00048780400665887413 -0.043508772416989472 0 0.00048111699637339689 -0.043489478586242108 0 0.00046762551395322519 -0.043463079866056603 0 0.00045835276019030006 -0.043496802461244335 0 0.00048111699637339689 -0.043489478586242108 0 0.00045835276019030006 -0.043496802461244335 0 0.00048780400665887413 -0.043508772416989472 0 0.0004993915497492694 -0.043496107073041808 0 0.00048111699637339689 -0.043489478586242108 0 0.0004886034825117312 -0.043479183440283675 0 0.00046762551395322519 -0.043463079866056603 0 0.00048710924704941738 -0.043461549324240852 0 0.00045038342235399732 -0.043442687044268763 0 0.0004886034825117312 -0.043479183440283675 0 0.00048710924704941738 -0.043461549324240852 0 0.00050227512775237015 -0.043485103008293224 0 0.00040362372296310364 -0.043522788916274362 0 0.0004678108291171683 -0.042441184560399449 0 0.0004886034825117312 -0.043479183440283675 0 0.00046762551395322519 -0.043463079866056603 0 0.00048710924704941738 -0.043461549324240852 0 0.00048111699637339689 -0.043489478586242108 0 0.0004886034825117312 -0.043479183440283675 0 0.00046762551395322519 -0.043463079866056603 0 0.00052692667964200808 -0.04346462206824684 0 0.00040362372296310364 -0.043522788916274362 0 0.00048710924704941738 -0.043461549324240852 0 0.00050227512775237015 -0.043485103008293224 0 0.00051783806163779942 -0.043488393704817829 0 0.00034339841521729031 -0.043421390729697112 0 0.00041085617190844508 -0.043405224006751911 0 0.00046882175966977383 -0.043426250702204787 0 0.00053119431357112298 -0.043484325030239378 0 0.00034339841521729031 -0.043421390729697112 0 0.00046882175966977383 -0.043426250702204787 0 0.00053119431357112298 -0.043484325030239378 0 0.00048710924704941738 -0.043461549324240852 0 0.00051783806163779942 -0.043488393704817829 0 0.00051322347155090839 -0.043497611527007408 0 0.00050227512775237015 -0.043485103008293224 0 0.00051783806163779942 -0.043488393704817829 0 0.00052380187657265404 -0.043498760168844207 0 0.00051322347155090839 -0.043497611527007408 0 0.00051783806163779942 -0.043488393704817829 0 0.00053119431357112298 -0.043484325030239378 0 0.00046882175966977383 -0.043426250702204787 0 0.00050065907020901404 -0.043366062538445979 0 0.00041085617190844508 -0.043405224006751911 0 0.00046882175966977383 -0.043426250702204787 0 0.0004528960197519859 -0.043373524293146774 0 0.00041085617190844508 -0.043405224006751911 0 0.00042966444524088253 -0.043302918878050906 0 0.00033119690905178894 -0.043245552259444896 0 0.00058644944338182177 -0.043262823794485573 0 0.00050065907020901404 -0.043366062538445979 0 0.00042966444524088253 -0.043302918878050906 0 0.00046882175966977383 -0.043426250702204787 0 0.00050065907020901404 -0.043366062538445979 0 0.0004528960197519859 -0.043373524293146774 0 0.0004784689863790331 -0.04359718449412664 0 0.00048541457594203558 -0.042492917555838762 0 0.00050065907020901404 -0.043366062538445979 0 0.0004528960197519859 -0.043373524293146774 0 0.00042966444524088253 -0.043302918878050906 0 0.00041085617190844508 -0.043405224006751911 0 0.0004528960197519859 -0.043373524293146774 0 0.00042966444524088253 -0.043302918878050906 0 0.00058644944338182177 -0.043262823794485573 0 0.00042966444524088253 -0.043302918878050906 0 0.00047585815465546417 -0.043140790799324875 0 0.00042966444524088253 -0.043302918878050906 0 0.00047585815465546417 -0.043140790799324875 0 0.00033119690905178894 -0.043245552259444896 0 0.00076217706126415277 -0.042608423958922004 0 0.00076059990364853852 -0.042609550686167029 0 0.00076026123412843054 -0.042605846552655979 0 0.00062222533600776362 -0.042875812535875489 0 0.00048541457594203558 -0.042492917555838762 0 0.00058806893718571669 -0.041897772647016121 0 0.00048541457594203558 -0.042492917555838762 0 0.00042815167491119251 -0.041391906966244521 0 0.00041234360674121762 -0.041326930349043146 0 0.00048261777934339826 -0.041310528802847503 0 0.0007631703867528102 -0.042606177876772823 0 0.00076217706126415277 -0.042608423958922004 0 0.00076026123412843054 -0.042605846552655979 0 0.00034339841521729031 -0.043421390729697112 0 0.00041085617190844508 -0.043405224006751911 0 0.00034703111179662662 -0.043255385307862569 0 0.00034339841521729031 -0.043421390729697112 0 0.00034703111179662662 -0.043255385307862569 0 0.00016897330511536743 -0.043381020889811765 0 0.00048541457594203558 -0.042492917555838762 0 0.0004678108291171683 -0.042441184560399449 0 0.00041234360674121762 -0.041326930349043146 0 0.00048261777934339826 -0.041310528802847503 0 0.00048254247842759553 -0.041277112643119292 0 0.00048261777934339826 -0.041310528802847503 0 0.00052047425449882766 -0.041334567405748271 0 0.00049035929345174175 -0.04127828262788729 0 0.00048261777934339826 -0.041310528802847503 0 0.00049035929345174175 -0.04127828262788729 0 0.00048254247842759553 -0.041277112643119292 0 0.00042815167491119251 -0.041391906966244521 0 0.00048261777934339826 -0.041310528802847503 0 0.00052047425449882766 -0.041334567405748271 0 0.00058570609609462918 -0.04144293170678616 0 0.00066008397091052147 -0.041508280065910542 0 0.00061558698125755578 -0.041492743868160188 0 0.00066008397091052147 -0.041508280065910542 0 0.00065318678709674058 -0.041536982123440987 0 0.00061558698125755578 -0.041492743868160188 0 0.00066008397091052147 -0.041508280065910542 0 0.00065318678709674058 -0.041536982123440987 0 0.00067416896402259228 -0.041558081258362148 0 0.00065318678709674058 -0.041536982123440987 0 0.00067416896402259228 -0.041558081258362148 0 0.00064873229647149705 -0.041572014394850761 0 0.00057621525714978967 -0.04131857492236022 0 0.00057413725456336112 -0.041917008516274175 0 0.00057413725456336112 -0.041917008516274175 0 0.00074227854164713488 -0.0414872113310688 0 0.00084033900636500689 -0.041686033012973578 0 0.00092080800716215819 -0.041601653365955747 0 0.00064873229647149705 -0.041572014394850761 0 0.00084033900636500689 -0.041686033012973578 0 0.00092597511985935996 -0.041625004972985401 0 0.00092080800716215819 -0.041601653365955747 0 0.0010051043675606253 -0.041706566022812946 0 0.00065126985248793073 -0.042281548843125683 0 0.00084033900636500689 -0.041686033012973578 0 0.00091991338660213807 -0.041631905212095401 0 0.00098794079016582457 -0.041862390212676126 0 0.00046762551395322519 -0.043463079866056603 0 0.00044544876410312982 -0.043445863720165276 0 0.00045835276019030006 -0.043496802461244335 0 0.00065126985248793073 -0.042281548843125683 0 0.00057413725456336112 -0.041917008516274175 0 0.00075503558698536194 -0.042164895918191891 0 0.00078819591411388831 -0.042309677261129906 0 0.00059466302585178506 -0.042280365222420992 0 0.00057413725456336112 -0.041917008516274175 0 0.0004678108291171683 -0.042441184560399449 0 0.00065126985248793073 -0.042281548843125683 0 0.0004678108291171683 -0.042441184560399449 0 0.00046762551395322519 -0.043463079866056603 0 0.00044544876410312982 -0.043445863720165276 0 0.00045038342235399732 -0.043442687044268763 0 0.00065126985248793073 -0.042281548843125683 0 0.00073374054269572156 -0.042751235688703072 0 0.00084033900636500689 -0.041686033012973578 0 0.00078609604279253266 -0.041863561803750081 0 0.00069120348954997449 -0.041727781015987384 0 0.00084033900636500689 -0.041686033012973578 0 0.00098794079016582457 -0.041862390212676126 0 0.00078609604279253266 -0.041863561803750081 0 0.00098794079016582457 -0.041862390212676126 0 0.00078609604279253266 -0.041863561803750081 0 0.00085752342168149724 -0.042053488841523129 0 0.00078609604279253266 -0.041863561803750081 0 0.00085752342168149724 -0.042053488841523129 0 0.0007066128422318316 -0.041989198222007529 0 0.00073374054269572156 -0.042751235688703072 0 0.00076437084118285634 -0.042755380917801969 0 0.00098794079016582457 -0.041862390212676126 0 0.0010628248128228962 -0.042122472273682439 0 0.00085752342168149724 -0.042053488841523129 0 0.0010628248128228962 -0.042122472273682439 0 0.00085752342168149724 -0.042053488841523129 0 0.0009090522715199061 -0.042316925820971095 0 0.00085752342168149724 -0.042053488841523129 0 0.0009090522715199061 -0.042316925820971095 0 0.00068737917231899111 -0.042228559031683613 0 0.0007594165090792081 -0.042250783551419882 0 0.00068964603956169922 -0.042262407686276808 0 0.00058954731726553063 -0.042444233178545253 0 0.00063302364491300215 -0.042368790673623466 0 0.00062220100111334245 -0.04240650502328111 0 0.00063302364491300215 -0.042368790673623466 0 0.00068737917231899111 -0.042228559031683613 0 0.00062220100111334245 -0.04240650502328111 0 0.00058954731726553063 -0.042444233178545253 0 0.00063302364491300215 -0.042368790673623466 0 0.00063784869375436406 -0.042417556920037749 0 0.0007594165090792081 -0.042250783551419882 0 0.00073243878195497253 -0.043287243753583358 0 0.0010628248128228962 -0.042122472273682439 0 0.0009090522715199061 -0.042316925820971095 0 0.0011278076194354636 -0.042412207403723978 0 0.00046569291995761456 -0.043536176662211913 0 0.00047170423088991595 -0.043583081670916901 0 0.00049524673143734967 -0.043566319968832257 0 0.00076437084118285634 -0.042755380917801969 0 0.00073243878195497253 -0.043287243753583358 0 0.00047170423088991595 -0.043583081670916901 0 0.0005049190292196066 -0.043604626727964009 0 0.00049524673143734967 -0.043566319968832257 0 0.0005049190292196066 -0.043604626727964009 0 0.00049524673143734967 -0.043566319968832257 0 0.00052170748395060057 -0.043566667873138606 0 0.00073243878195497253 -0.043287243753583358 0 0.00051026340790947232 -0.044724703374921758 0 0.00049524673143734967 -0.043566319968832257 0 0.0004999754530624394 -0.043535727774303687 0 0.00052170748395060057 -0.043566667873138606 0 0.00046569291995761456 -0.043536176662211913 0 0.0004999754530624394 -0.043535727774303687 0 0.00048780400665887413 -0.043508772416989472 0 0.00046569291995761456 -0.043536176662211913 0 0.00049524673143734967 -0.043566319968832257 0 0.0004999754530624394 -0.043535727774303687 0 0.00045835276019030006 -0.043496802461244335 0 0.00046569291995761456 -0.043536176662211913 0 0.00048780400665887413 -0.043508772416989472 0 0.0004999754530624394 -0.043535727774303687 0 0.00048780400665887413 -0.043508772416989472 0 0.00051251808048738108 -0.043509052147228409 0 0.0004999754530624394 -0.043535727774303687 0 0.00051251808048738108 -0.043509052147228409 0 0.00051684106748471821 -0.043530253194438505 0 0.00051251808048738108 -0.043509052147228409 0 0.00051987465936638195 -0.043513949268188565 0 0.00051684106748471821 -0.043530253194438505 0 0.00051987465936638195 -0.043513949268188565 0 0.00053415265593911767 -0.043533701168941667 0 0.00051684106748471821 -0.043530253194438505 0 0.00051988155135264185 -0.043503269996009251 0 0.00051251808048738108 -0.043509052147228409 0 0.00051987465936638195 -0.043513949268188565 0 0.0003040710067173335 -0.044223495941651564 0 0.00024481845305118804 -0.044370614487439362 0 0.00050051434766476305 -0.043460522491989909 0 0.0003040710067173335 -0.044223495941651564 0 0.00051595476823319288 -0.043498227473576567 0 0.00051987465936638195 -0.043513949268188565 0 0.00053415265593911767 -0.043533701168941667 0 0.00044337984106728075 -0.043662885704459128 0 0.00043225200254449673 -0.043816451821981656 0 0.00049899710002283284 -0.043703665051398104 0 0.0003040710067173335 -0.044223495941651564 0 0.00031966431267667849 -0.044034423078200227 0 0.00053415265593911767 -0.043533701168941667 0 0.00051684106748471821 -0.043530253194438505 0 0.00052170748395060057 -0.043566667873138606 0 0.0004999754530624394 -0.043535727774303687 0 0.00051684106748471821 -0.043530253194438505 0 0.00052170748395060057 -0.043566667873138606 0 0.00010183193129920253 -0.044727669337711648 0 0.00011527434332293949 -0.044813738630904897 0 0.00022082209819935964 -0.044763391912177986 0 9.8623810301381373e-06 -0.044903552986358619 0 0.00011527434332293949 -0.044813738630904897 0 0.00014658826053154579 -0.044857538694165519 0 0.00051026340790947232 -0.044724703374921758 0 0.00031966431267667849 -0.044034423078200227 0 9.8623810301381373e-06 -0.044903552986358619 0 0.00010183193129920253 -0.044727669337711648 0 0.00011527434332293949 -0.044813738630904897 0 9.8623810301381373e-06 -0.044903552986358619 0 0.00014658826053154579 -0.044857538694165519 0 0.00015871395360062408 -0.044909542311987245 0 9.1234210109795435e-05 -0.044965507986716162 0 3.5138842656125204e-05 -0.045000363651418282 0 3.8891110890425976e-05 -0.044986352043504936 0 0.00012821988092518309 -0.044918098312257106 0 0.00010802736944242679 -0.04499589910488036 0 0.00014658826053154579 -0.044857538694165519 0 0.00015871395360062408 -0.044909542311987245 0 0.00022082209819935964 -0.044763391912177986 0 0.00016433054975186734 -0.044962157489816516 0 0.00015871395360062408 -0.044909542311987245 0 0.00022082209819935964 -0.044763391912177986 0 0.00011527434332293949 -0.044813738630904897 0 0.00014658826053154579 -0.044857538694165519 0 0.00022082209819935964 -0.044763391912177986 0 3.5138842656125204e-05 -0.045000363651418282 0 2.5437602857039212e-05 -0.044996841849543348 0 3.8891110890425976e-05 -0.044986352043504936 0 0.0003040710067173335 -0.044223495941651564 0 0.00010802736944242679 -0.04499589910488036 0 3.5138842656125204e-05 -0.045000363651418282 0 2.0779158757539499e-05 -0.044999652090068419 0 2.5437602857039212e-05 -0.044996841849543348 0 0.00022864941052718992 -0.044513687418145383 0 0.00010183193129920253 -0.044727669337711648 0 0.00022082209819935964 -0.044763391912177986 0 1.9919987153036865e-05 -0.044996322196327862 0 3.5138842656125204e-05 -0.045000363651418282 0 2.0779158757539499e-05 -0.044999652090068419 0 2.0779158757539499e-05 -0.044999652090068419 0 1.139353141478568e-05 -0.045000014373962061 0 2.5437602857039212e-05 -0.044996841849543348 0 1.139353141478568e-05 -0.045000014373962061 0 2.5437602857039212e-05 -0.044996841849543348 0 1.2737201226253666e-05 -0.044987101625967543 0 2.5437602857039212e-05 -0.044996841849543348 0 1.2737201226253666e-05 -0.044987101625967543 0 3.8891110890425976e-05 -0.044986352043504936 0 3.5741218424573915e-05 -0.044962483742694487 0 1.2737201226253666e-05 -0.044987101625967543 0 3.8891110890425976e-05 -0.044986352043504936 0 -2.8429217704023712e-08 -0.04499993314838948 0 1.2737201226253666e-05 -0.044987101625967543 0 1.5464644423417684e-08 -0.045000004324204361 0 1.139353141478568e-05 -0.045000014373962061 0 1.5464644423417684e-08 -0.045000004324204361 0 8.7827370984648774e-09 -0.044999997228494827 0 1.139353141478568e-05 -0.045000014373962061 0 1.2737201226253666e-05 -0.044987101625967543 0 1.5464644423417684e-08 -0.045000004324204361 0 1.139353141478568e-05 -0.045000014373962061 0 1.0928477376064661e-05 -0.044999138073305703 0 8.7827370984648774e-09 -0.044999997228494827 0 2.0779158757539499e-05 -0.044999652090068419 0 1.139353141478568e-05 -0.045000014373962061 0 1.0928477376064661e-05 -0.044999138073305703 0 1.9919987153036865e-05 -0.044996322196327862 0 2.0779158757539499e-05 -0.044999652090068419 0 1.0928477376064661e-05 -0.044999138073305703 0 1.9919987153036865e-05 -0.044996322196327862 0 1.0928477376064661e-05 -0.044999138073305703 0 1.0023041122273566e-05 -0.044997253844268489 0 1.1400013439301259e-05 -0.044995383512501846 0 1.0928477376064661e-05 -0.044999138073305703 0 1.0023041122273566e-05 -0.044997253844268489 0 4.1945487089269779e-06 -0.044998741449623104 0 1.1400013439301259e-05 -0.044995383512501846 0 8.7827370984648774e-09 -0.044999997228494827 0 1.1400013439301259e-05 -0.044995383512501846 0 1.0928477376064661e-05 -0.044999138073305703 0 8.7827370984648774e-09 -0.044999997228494827 0 0.00019934227338959287 -0.041342043537817084 0 4.5338917513468757e-05 -0.04100439862982011 0 0.00029377339181583905 -0.041011061258443421 0 0.00042689568498540867 -0.041241781783947905 0 0.00019934227338959287 -0.041342043537817084 0 0.00029377339181583905 -0.041011061258443421 0 0.00042689568498540867 -0.041241781783947905 0 0.00019934227338959287 -0.041342043537817084 0 0.00042464476710148634 -0.04170092123498409 0 0.00019934227338959287 -0.041342043537817084 0 0.000147481066365983 -0.041724031258447293 0 0.00042464476710148634 -0.04170092123498409 0 0.00019934227338959287 -0.041342043537817084 0 -0.00013398827615529793 -0.041246122884213872 0 0.000147481066365983 -0.041724031258447293 0 -0.00013398827615529793 -0.041246122884213872 0 -0.00017865412164452739 -0.041783425412271979 0 -0.00044832373932348599 -0.041349825874914287 0 -0.000652723389857027 -0.042159978038190382 0 -0.00022126003043483242 -0.036612288971055673 0 -0.00013398827615529793 -0.041246122884213872 0 -0.0001486574106638517 -0.040928114908513336 0 -0.00034973179594907628 -0.040939568604033812 0 -0.00013398827615529793 -0.041246122884213872 0 -0.00034973179594907628 -0.040939568604033812 0 -0.00045186179657777641 -0.041301267218250955 0 0.00019934227338959287 -0.041342043537817084 0 -0.00013398827615529793 -0.041246122884213872 0 4.5338917513468757e-05 -0.04100439862982011 0 -0.00013398827615529793 -0.041246122884213872 0 4.5338917513468757e-05 -0.04100439862982011 0 -0.0001486574106638517 -0.040928114908513336 0 4.5338917513468757e-05 -0.04100439862982011 0 -6.8229054862384167e-05 -0.040738979359077089 0 0.00013604411539635283 -0.040767901665507839 0 4.5338917513468757e-05 -0.04100439862982011 0 -0.0001486574106638517 -0.040928114908513336 0 -6.8229054862384167e-05 -0.040738979359077089 0 -0.0001486574106638517 -0.040928114908513336 0 -0.00022593826743205311 -0.040754482618706817 0 -6.8229054862384167e-05 -0.040738979359077089 0 -0.00034973179594907628 -0.040939568604033812 0 -0.00022593826743205311 -0.040754482618706817 0 -0.0004150962505271073 -0.040615420878465369 0 -0.0001486574106638517 -0.040928114908513336 0 -0.00034973179594907628 -0.040939568604033812 0 -0.00022593826743205311 -0.040754482618706817 0 -0.00022593826743205311 -0.040754482618706817 0 -0.0004150962505271073 -0.040615420878465369 0 -0.00014500794333672373 -0.040548517284119609 0 3.1812560661355991e-05 -0.040553725266280774 0 -6.8229054862384167e-05 -0.040738979359077089 0 0.00013604411539635283 -0.040767901665507839 0 -0.00022593826743205311 -0.040754482618706817 0 -6.8229054862384167e-05 -0.040738979359077089 0 -0.00014500794333672373 -0.040548517284119609 0 3.1812560661355991e-05 -0.040553725266280774 0 -6.8229054862384167e-05 -0.040738979359077089 0 -0.00014500794333672373 -0.040548517284119609 0 0.00020242644736471088 -0.040584896204656752 0 3.1812560661355991e-05 -0.040553725266280774 0 0.00013604411539635283 -0.040767901665507839 0 0.00020242644736471088 -0.040584896204656752 0 0.00013604411539635283 -0.040767901665507839 0 0.00033872609791393051 -0.040772831477766648 0 4.5338917513468757e-05 -0.04100439862982011 0 0.00013604411539635283 -0.040767901665507839 0 0.00029377339181583905 -0.041011061258443421 0 0.00013604411539635283 -0.040767901665507839 0 0.00029377339181583905 -0.041011061258443421 0 0.00033872609791393051 -0.040772831477766648 0 0.00029377339181583905 -0.041011061258443421 0 0.0005532809738649666 -0.04095783580398258 0 0.00033872609791393051 -0.040772831477766648 0 0.00042689568498540867 -0.041241781783947905 0 0.00029377339181583905 -0.041011061258443421 0 0.0005532809738649666 -0.04095783580398258 0 0.0005532809738649666 -0.04095783580398258 0 0.00033872609791393051 -0.040772831477766648 0 0.00050373953475059017 -0.040743993715627438 0 0.00037375585044819941 -0.040582386540757714 0 0.00020242644736471088 -0.040584896204656752 0 0.00033872609791393051 -0.040772831477766648 0 0.00037375585044819941 -0.040582386540757714 0 0.00033872609791393051 -0.040772831477766648 0 0.00050373953475059017 -0.040743993715627438 0 0.00059251828451236191 -0.040543708347270183 0 0.00050373953475059017 -0.040743993715627438 0 0.00074796183880908513 -0.040887195583918214 0 0.0005532809738649666 -0.04095783580398258 0 0.00050373953475059017 -0.040743993715627438 0 0.00074796183880908513 -0.040887195583918214 0 0.00080340379749632479 -0.04118246366389542 0 0.00074796183880908513 -0.040887195583918214 0 0.00065497631365443504 -0.041044086765742248 0 0.00074796183880908513 -0.040887195583918214 0 0.00078391548886874501 -0.040963384806427285 0 0.00065497631365443504 -0.041044086765742248 0 0.00064144695469802067 -0.041273580115897629 0 0.00061246772590332042 -0.041265662220063296 0 0.0005532809738649666 -0.04095783580398258 0 0.00078391548886874501 -0.040963384806427285 0 0.00067575771433767259 -0.041272315264248384 0 0.0005532809738649666 -0.04095783580398258 0 0.00074796183880908513 -0.040887195583918214 0 0.00078391548886874501 -0.040963384806427285 0 0.00061558698125755578 -0.041492743868160188 0 0.0005560325563339877 -0.041473865405117542 0 0.00057947486180340703 -0.041541305224741497 0 0.00050864033781198421 -0.041567640534646559 0 0.0005560325563339877 -0.041473865405117542 0 0.00057947486180340703 -0.041541305224741497 0 0.00057947486180340703 -0.041541305224741497 0 0.00064873229647149705 -0.041572014394850761 0 0.00057348069083709111 -0.041671110287880751 0 0.00050864033781198421 -0.041567640534646559 0 0.00057947486180340703 -0.041541305224741497 0 0.00057348069083709111 -0.041671110287880751 0 0.00061558698125755578 -0.041492743868160188 0 0.00057947486180340703 -0.041541305224741497 0 0.00064873229647149705 -0.041572014394850761 0 0.00065318678709674058 -0.041536982123440987 0 0.00061558698125755578 -0.041492743868160188 0 0.00064873229647149705 -0.041572014394850761 0 0.00064873229647149705 -0.041572014394850761 0 0.00069120348954997449 -0.041727781015987384 0 0.00057348069083709111 -0.041671110287880751 0 0.00084033900636500689 -0.041686033012973578 0 0.00064873229647149705 -0.041572014394850761 0 0.00069120348954997449 -0.041727781015987384 0 0.00069120348954997449 -0.041727781015987384 0 0.00057348069083709111 -0.041671110287880751 0 0.00062454164554410054 -0.041852613704163912 0 0.00057348069083709111 -0.041671110287880751 0 0.00053954852416935228 -0.0417647488041396 0 0.00062454164554410054 -0.041852613704163912 0 0.00078609604279253266 -0.041863561803750081 0 0.00069120348954997449 -0.041727781015987384 0 0.00062454164554410054 -0.041852613704163912 0 0.00042689568498540867 -0.041241781783947905 0 0.0005532809738649666 -0.04095783580398258 0 0.00067575771433767259 -0.041272315264248384 0 0.00057348069083709111 -0.041671110287880751 0 0.00045547617417250765 -0.041681849407081646 0 0.00053954852416935228 -0.0417647488041396 0 0.00050864033781198421 -0.041567640534646559 0 0.00057348069083709111 -0.041671110287880751 0 0.00045547617417250765 -0.041681849407081646 0 0.00064144695469802067 -0.041273580115897629 0 0.00055873701730703744 -0.041479550179988452 0 0.00045547617417250765 -0.041681849407081646 0 0.00053954852416935228 -0.0417647488041396 0 0.00051854081925832031 -0.041849596697786928 0 0.00055873701730703744 -0.041479550179988452 0 0.0004334150219835133 -0.041688344382089813 0 0.00045547617417250765 -0.041681849407081646 0 0.00051854081925832031 -0.041849596697786928 0 0.00042464476710148634 -0.04170092123498409 0 0.00042689568498540867 -0.041241781783947905 0 0.00067575771433767259 -0.041272315264248384 0 0.00042464476710148634 -0.04170092123498409 0 0.00051854081925832031 -0.041849596697786928 0 0.00040329861889041256 -0.041987209610376421 0 0.00042464476710148634 -0.04170092123498409 0 0.00053954852416935228 -0.0417647488041396 0 0.00051854081925832031 -0.041849596697786928 0 0.00062454164554410054 -0.041852613704163912 0 0.00051854081925832031 -0.041849596697786928 0 0.00061561137870057574 -0.042045337275582677 0 0.0005392724582746007 -0.042084331828821472 0 0.00051854081925832031 -0.041849596697786928 0 0.0005392724582746007 -0.042084331828821472 0 0.00040329861889041256 -0.041987209610376421 0 0.00078609604279253266 -0.041863561803750081 0 0.0007066128422318316 -0.041989198222007529 0 0.00062454164554410054 -0.041852613704163912 0 0.00051854081925832031 -0.041849596697786928 0 0.00062454164554410054 -0.041852613704163912 0 0.00061561137870057574 -0.042045337275582677 0 0.0007066128422318316 -0.041989198222007529 0 0.00062454164554410054 -0.041852613704163912 0 0.00061561137870057574 -0.042045337275582677 0 0.0007066128422318316 -0.041989198222007529 0 0.00061561137870057574 -0.042045337275582677 0 0.00068737917231899111 -0.042228559031683613 0 0.00085752342168149724 -0.042053488841523129 0 0.0007066128422318316 -0.041989198222007529 0 0.00068737917231899111 -0.042228559031683613 0 0.00061561137870057574 -0.042045337275582677 0 0.00068737917231899111 -0.042228559031683613 0 0.00062102931190133282 -0.042259503765079802 0 0.0006487096275359025 -0.042431920151000127 0 0.00062102931190133282 -0.042259503765079802 0 0.00062220100111334245 -0.04240650502328111 0 0.00068737917231899111 -0.042228559031683613 0 0.00062102931190133282 -0.042259503765079802 0 0.00062220100111334245 -0.04240650502328111 0 0.0005392724582746007 -0.042084331828821472 0 0.00053571296286821662 -0.042252941213438915 0 0.00040329861889041256 -0.041987209610376421 0 0.00062102931190133282 -0.042259503765079802 0 0.0005392724582746007 -0.042084331828821472 0 0.00053571296286821662 -0.042252941213438915 0 0.00061561137870057574 -0.042045337275582677 0 0.00062102931190133282 -0.042259503765079802 0 0.0005392724582746007 -0.042084331828821472 0 0.0006487096275359025 -0.042431920151000127 0 0.00062102931190133282 -0.042259503765079802 0 0.00053571296286821662 -0.042252941213438915 0 0.00036416184127448578 -0.042313846578608871 0 0.00053571296286821662 -0.042252941213438915 0 0.00035671533642888471 -0.042175312449140814 0 0.00036416184127448578 -0.042313846578608871 0 0.00035671533642888471 -0.042175312449140814 0 9.6036857592571285e-05 -0.042101708157899147 0 0.00067635440012282831 -0.038813461642366952 0 0.00041959055503915603 -0.038521148234323503 0 0.00035671533642888471 -0.042175312449140814 0 0.00040329861889041256 -0.041987209610376421 0 9.6036857592571285e-05 -0.042101708157899147 0 0.00053571296286821662 -0.042252941213438915 0 0.00035671533642888471 -0.042175312449140814 0 0.00040329861889041256 -0.041987209610376421 0 0.00040329861889041256 -0.041987209610376421 0 0.000147481066365983 -0.041724031258447293 0 9.6036857592571285e-05 -0.042101708157899147 0 0.00040329861889041256 -0.041987209610376421 0 0.000147481066365983 -0.041724031258447293 0 0.00042464476710148634 -0.04170092123498409 0 -0.00013398827615529793 -0.041246122884213872 0 0.000147481066365983 -0.041724031258447293 0 -0.00017865412164452739 -0.041783425412271979 0 0.000147481066365983 -0.041724031258447293 0 -0.00017865412164452739 -0.041783425412271979 0 9.6036857592571285e-05 -0.042101708157899147 0 0.00066956204535761421 -0.034884857634348856 0 0.00049018791889358687 -0.034810002005722672 0 0.00053888882424561464 -0.034674339629693074 0 0.0003444757440233552 -0.038633375484154547 0 -0.00022126003043483242 -0.036612288971055673 0 0.0003444757440233552 -0.038633375484154547 0 0.00041959055503915603 -0.038521148234323503 0 0.0007324338811009859 -0.035330317671934744 0 0.00079925721844752542 -0.035083165410544466 0 0.00057797290472317089 -0.035119714639746953 0 0.00066956204535761421 -0.034884857634348856 0 0.00079925721844752542 -0.035083165410544466 0 0.00057797290472317089 -0.035119714639746953 0 0.00066956204535761421 -0.034884857634348856 0 0.00057797290472317089 -0.035119714639746953 0 0.00042777145151442808 -0.034960182951751295 0 0.00057797290472317089 -0.035119714639746953 0 0.00038509114217656068 -0.035184534759040785 0 0.00042777145151442808 -0.034960182951751295 0 0.00038509114217656068 -0.035184534759040785 0 0.00020314147024996199 -0.035048659544486958 0 0.00042777145151442808 -0.034960182951751295 0 0.00013531464034088084 -0.035034385669828083 0 0.00021625694739870721 -0.034776606468500879 0 1.219380326936664e-06 -0.034783503890789748 0 0.00013531464034088084 -0.035034385669828083 0 0.00041301299140597374 -0.035018948155736425 0 0.00021625694739870721 -0.034776606468500879 0 0.00035229904946183511 -0.035039975672507932 0 0.00033356070753388326 -0.035239027698665062 0 0.00020314147024996199 -0.035048659544486958 0 0.00013775593410247618 -0.034898101887362531 0 0.00025649598462522779 -0.034878014210085378 0 0.00020314147024996199 -0.035048659544486958 0 0.00025649598462522779 -0.034878014210085378 0 0.00042777145151442808 -0.034960182951751295 0 0.00021625694739870721 -0.034776606468500879 0 -2.7187359383538885e-05 -0.034537133910228827 0 1.219380326936664e-06 -0.034783503890789748 0 0.00020314147024996199 -0.035048659544486958 0 0.00013775593410247618 -0.034898101887362531 0 5.5266233158980656e-06 -0.034880088115478242 0 0.00033356070753388326 -0.035239027698665062 0 -0.00017148733374135823 -0.032741895538361744 0 8.2459925372915818e-05 -0.0347845884581785 0 0.00013775593410247618 -0.034898101887362531 0 0.00025649598462522779 -0.034878014210085378 0 8.2459925372915818e-05 -0.0347845884581785 0 0.00013775593410247618 -0.034898101887362531 0 5.5266233158980656e-06 -0.034880088115478242 0 -0.0012372998978841569 -0.030995868008622814 0 -0.00017148733374135823 -0.032741895538361744 0 -0.0017527242372193308 -0.029067250300431023 0 -0.0018401572425195004 -0.029181944537507574 0 -0.0020233239091759464 -0.029237155050678868 0 -0.0012372998978841569 -0.030995868008622814 0 -0.00080142714997600976 -0.031426268506558983 0 8.2459925372915818e-05 -0.0347845884581785 0 0.00025649598462522779 -0.034878014210085378 0 0.00032088056901747583 -0.034723852371193811 0 -0.0012372998978841569 -0.030995868008622814 0 -0.0014584462300807639 -0.028998892352673215 0 -0.0018401572425195004 -0.029181944537507574 0 -0.0017061672706532535 -0.029130089409308408 0 -0.0017506822377936534 -0.029278312153637118 0 -0.0017357682057458242 -0.028986443078864926 0 -0.0018401572425195004 -0.029181944537507574 0 -0.0017061672706532535 -0.029130089409308408 0 -0.0017357682057458242 -0.028986443078864926 0 -0.0017061672706532535 -0.029130089409308408 0 -0.0015862360958836645 -0.029042195706588256 0 0.00066956204535761421 -0.034884857634348856 0 0.00042777145151442808 -0.034960182951751295 0 0.00049018791889358687 -0.034810002005722672 0 0.00025649598462522779 -0.034878014210085378 0 0.00042777145151442808 -0.034960182951751295 0 0.00032088056901747583 -0.034723852371193811 0 0.00042777145151442808 -0.034960182951751295 0 0.00032088056901747583 -0.034723852371193811 0 0.00049018791889358687 -0.034810002005722672 0 0.00032088056901747583 -0.034723852371193811 0 0.00049018791889358687 -0.034810002005722672 0 0.00053888882424561464 -0.034674339629693074 0 -0.00080142714997600976 -0.031426268506558983 0 -0.00022126003043483242 -0.036612288971055673 0 -0.00034973179594907628 -0.040939568604033812 0 -0.00045186179657777641 -0.041301267218250955 0 -0.00068732957857258587 -0.04087768032355131 0 -0.00022126003043483242 -0.036612288971055673 0 -0.0020786413795598172 -0.033313116295196649 0 -0.0022951264645696625 -0.029453852011164107 0 -0.0020426900074461086 -0.029516072546529722 0 -0.0021474900047853975 -0.029699905001254214 0 -0.0020426900074461086 -0.029516072546529722 0 -0.0020188149576691613 -0.02964288199750716 0 -0.0021709274867541834 -0.029658333427240627 0 -0.0014651443005500751 -0.028849035573646598 0 -0.0020786413795598172 -0.033313116295196649 0 -0.0020233239091759464 -0.029237155050678868 0 -0.0022951264645696625 -0.029453852011164107 0 -0.0020426900074461086 -0.029516072546529722 0 -0.0020233239091759464 -0.029237155050678868 0 -0.0020426900074461086 -0.029516072546529722 0 -0.0018996297340214375 -0.029364246907807551 0 -0.0018401572425195004 -0.029181944537507574 0 -0.0020233239091759464 -0.029237155050678868 0 -0.0018996297340214375 -0.029364246907807551 0 -0.0017061672706532535 -0.029130089409308408 0 -0.0017506822377936534 -0.029278312153637118 0 -0.0015636288612513795 -0.029185571949940994 0 -0.0018401572425195004 -0.029181944537507574 0 -0.0018996297340214375 -0.029364246907807551 0 -0.0017506822377936534 -0.029278312153637118 0 -0.0018996297340214375 -0.029364246907807551 0 -0.0017506822377936534 -0.029278312153637118 0 -0.0018022412872569977 -0.029457676243838587 0 -0.0017506822377936534 -0.029278312153637118 0 -0.0018022412872569977 -0.029457676243838587 0 -0.0016628061203917848 -0.029368117607939732 0 -0.0018022412872569977 -0.029457676243838587 0 -0.0018617761013574052 -0.029684406625700648 0 -0.0016498297861016575 -0.029546500954315318 0 -0.0018022412872569977 -0.029457676243838587 0 -0.0016498297861016575 -0.029546500954315318 0 -0.0016628061203917848 -0.029368117607939732 0 -0.0018022412872569977 -0.029457676243838587 0 -0.0019308162938873595 -0.029532811462573423 0 -0.0018617761013574052 -0.029684406625700648 0 -0.0020426900074461086 -0.029516072546529722 0 -0.0018996297340214375 -0.029364246907807551 0 -0.0019308162938873595 -0.029532811462573423 0 -0.0018996297340214375 -0.029364246907807551 0 -0.0018022412872569977 -0.029457676243838587 0 -0.0019308162938873595 -0.029532811462573423 0 -0.0020426900074461086 -0.029516072546529722 0 -0.0019308162938873595 -0.029532811462573423 0 -0.0020188149576691613 -0.02964288199750716 0 -0.0020188149576691613 -0.02964288199750716 0 -0.0018617761013574052 -0.029684406625700648 0 -0.0020766378642131773 -0.029838439206699031 0 -0.0019308162938873595 -0.029532811462573423 0 -0.0020188149576691613 -0.02964288199750716 0 -0.0018617761013574052 -0.029684406625700648 0 -0.0018617761013574052 -0.029684406625700648 0 -0.0017033241529167751 -0.029750917627268201 0 -0.0016498297861016575 -0.029546500954315318 0 -0.0017033241529167751 -0.029750917627268201 0 -0.0018288903412602008 -0.029908430114417746 0 -0.0016525294923365077 -0.029927986296225676 0 -0.0018617761013574052 -0.029684406625700648 0 -0.0017033241529167751 -0.029750917627268201 0 -0.0018288903412602008 -0.029908430114417746 0 -0.0018288903412602008 -0.029908430114417746 0 -0.0020766378642131773 -0.029838439206699031 0 -0.0019512790984605459 -0.030074302477664832 0 -0.0018617761013574052 -0.029684406625700648 0 -0.0018288903412602008 -0.029908430114417746 0 -0.0020766378642131773 -0.029838439206699031 0 -0.002312597194993193 -0.029369610516429195 0 -0.0018538311008278266 -0.030270941825163215 0 -0.0020791096393065643 -0.030027336137733555 0 -0.0020780448005722992 -0.030113095429640545 0 -0.0019512790984605459 -0.030074302477664832 0 -0.0020791096393065643 -0.030027336137733555 0 -0.0021701629057175012 -0.030074713431724156 0 -0.0021510571217451132 -0.029952586135629431 0 -0.0020791096393065643 -0.030027336137733555 0 -0.0021701629057175012 -0.030074713431724156 0 -0.0020780448005722992 -0.030113095429640545 0 -0.0023021062013313144 -0.030067025009397275 0 -0.0021701629057175012 -0.030074713431724156 0 -0.0021510571217451132 -0.029952586135629431 0 -0.0023021062013313144 -0.030067025009397275 0 -0.0021701629057175012 -0.030074713431724156 0 -0.0022740439565565192 -0.030168798127435999 0 -0.00034973179594907628 -0.040939568604033812 0 -0.0004150962505271073 -0.040615420878465369 0 -0.00068732957857258587 -0.04087768032355131 0 -0.001420828606691558 -0.035486283350108304 0 -0.0020786413795598172 -0.033313116295196649 0 -0.002312597194993193 -0.029369610516429195 0 -0.0020786413795598172 -0.033313116295196649 0 -0.0020188149576691613 -0.02964288199750716 0 -0.0020766378642131773 -0.029838439206699031 0 -0.0021709274867541834 -0.029658333427240627 0 -0.0011998397258497959 -0.029583458231105943 0 -0.0011940977864957573 -0.029843930557341598 0 -0.0014600504352979791 -0.029710358247965456 0 -0.00099147048761435833 -0.028326150313487203 0 -0.00059295623947225003 -0.028162483107660768 0 -0.0011998397258497959 -0.029583458231105943 0 -0.0011940977864957573 -0.029843930557341598 0 -0.00082253210090601028 -0.029502828963107141 0 0.00023811888039298372 -0.025792636080169035 0 -0.00096009488027397468 -0.027260486576207252 0 -1.8944066560596726e-05 -0.024992285315736249 0 0.00023811888039298372 -0.025792636080169035 0 0.0001579973650478414 -0.026723510762481015 0 -0.00096009488027397468 -0.027260486576207252 0 0.0008280928962825317 -0.024262371038565798 0 0.00020448386280685915 -0.022159064402884041 0 0.00023811888039298372 -0.025792636080169035 0 -1.8944066560596726e-05 -0.024992285315736249 0 0.0011322162211514579 -0.025956365986355291 0 0.0001579973650478414 -0.026723510762481015 0 0.00072828394354733036 -0.027157936159937508 0 0.00096850859932550869 -0.025927803704526031 0 0.00023811888039298372 -0.025792636080169035 0 0.0001579973650478414 -0.026723510762481015 0 0.00096850859932550869 -0.025927803704526031 0 0.0001579973650478414 -0.026723510762481015 0 -0.00012307443186430371 -0.02745986574919845 0 -0.00096009488027397468 -0.027260486576207252 0 0.0001579973650478414 -0.026723510762481015 0 0.00072828394354733036 -0.027157936159937508 0 -0.00012307443186430371 -0.02745986574919845 0 0.00072828394354733036 -0.027157936159937508 0 -0.00012307443186430371 -0.02745986574919845 0 0.00012860368441637704 -0.028082620185383086 0 0.00072828394354733036 -0.027157936159937508 0 0.00046801647631162987 -0.028240801654571438 0 0.00012860368441637704 -0.028082620185383086 0 -1.5233833124655152e-05 -0.024042024854920182 0 -0.00022210099892633757 -0.024114578295195293 0 -0.00012307443186430371 -0.02745986574919845 0 -0.00096009488027397468 -0.027260486576207252 0 -0.00063559660185707578 -0.02806318855394406 0 -0.0011940977864957573 -0.029843930557341598 0 -0.0014536302824158392 -0.029911095312091077 0 -0.0014600504352979791 -0.029710358247965456 0 -0.0017033241529167751 -0.029750917627268201 0 -0.0016525294923365077 -0.029927986296225676 0 -0.0014600504352979791 -0.029710358247965456 0 -0.0014536302824158392 -0.029911095312091077 0 -0.0016525294923365077 -0.029927986296225676 0 -0.0014600504352979791 -0.029710358247965456 0 -0.0017033241529167751 -0.029750917627268201 0 -0.0014600504352979791 -0.029710358247965456 0 -0.0016498297861016575 -0.029546500954315318 0 -0.0014600504352979791 -0.029710358247965456 0 -0.0014871669754454536 -0.029510323746863104 0 -0.0016498297861016575 -0.029546500954315318 0 -0.0014600504352979791 -0.029710358247965456 0 -0.0013225138974984978 -0.029429797122922024 0 -0.0014871669754454536 -0.029510323746863104 0 -0.0011998397258497959 -0.029583458231105943 0 -0.0014600504352979791 -0.029710358247965456 0 -0.0013225138974984978 -0.029429797122922024 0 -0.0013225138974984978 -0.029429797122922024 0 -0.0014871669754454536 -0.029510323746863104 0 -0.0015187107800380226 -0.029343231824576679 0 -0.0013225138974984978 -0.029429797122922024 0 -0.0015187107800380226 -0.029343231824576679 0 -0.0013416072723759103 -0.029176832835985985 0 -0.0014871669754454536 -0.029510323746863104 0 -0.0016498297861016575 -0.029546500954315318 0 -0.0015187107800380226 -0.029343231824576679 0 -0.0016498297861016575 -0.029546500954315318 0 -0.0015187107800380226 -0.029343231824576679 0 -0.0016628061203917848 -0.029368117607939732 0 -0.0017506822377936534 -0.029278312153637118 0 -0.0016628061203917848 -0.029368117607939732 0 -0.0015636288612513795 -0.029185571949940994 0 -0.0015187107800380226 -0.029343231824576679 0 -0.0016628061203917848 -0.029368117607939732 0 -0.0015636288612513795 -0.029185571949940994 0 -0.0015636288612513795 -0.029185571949940994 0 -0.0013416072723759103 -0.029176832835985985 0 -0.0013535079759474575 -0.029003891488136722 0 -0.0015187107800380226 -0.029343231824576679 0 -0.0015636288612513795 -0.029185571949940994 0 -0.0013416072723759103 -0.029176832835985985 0 -0.00099410348158886501 -0.029024325299662736 0 -0.0019496977213587102 -0.028301279570671439 0 -0.0013416072723759103 -0.029176832835985985 0 -0.0010400008496336327 -0.028944849127065138 0 -0.0011193397031081737 -0.029322032343297607 0 -0.0013416072723759103 -0.029176832835985985 0 -0.0010400008496336327 -0.028944849127065138 0 -0.0013535079759474575 -0.029003891488136722 0 -0.0010400008496336327 -0.028944849127065138 0 -0.0011193397031081737 -0.029322032343297607 0 -0.00090512419623276852 -0.029161113602230414 0 -0.0013225138974984978 -0.029429797122922024 0 -0.0013416072723759103 -0.029176832835985985 0 -0.0011193397031081737 -0.029322032343297607 0 -0.0011998397258497959 -0.029583458231105943 0 -0.0011193397031081737 -0.029322032343297607 0 -0.00082253210090601028 -0.029502828963107141 0 -0.0011998397258497959 -0.029583458231105943 0 -0.0013225138974984978 -0.029429797122922024 0 -0.0011193397031081737 -0.029322032343297607 0 -0.00082253210090601028 -0.029502828963107141 0 -0.00090512419623276852 -0.029161113602230414 0 -0.00054279994851598825 -0.028829495370089723 0 -1.8944066560596726e-05 -0.024992285315736249 0 0.001447002885956833 -0.024313386005064008 0 0.0011322162211514579 -0.025956365986355291 0 -0.0011193397031081737 -0.029322032343297607 0 -0.00082253210090601028 -0.029502828963107141 0 -0.00090512419623276852 -0.029161113602230414 0 -0.00059295623947225003 -0.028162483107660768 0 0.00086087100349571525 -0.02086764677624238 0 -0.00082253210090601028 -0.029502828963107141 0 -0.00054279994851598825 -0.028829495370089723 0 -3.0929735062309199e-05 -0.02850358492022111 0 -0.0010400008496336327 -0.028944849127065138 0 -0.00090512419623276852 -0.029161113602230414 0 -0.00054279994851598825 -0.028829495370089723 0 -0.0010400008496336327 -0.028944849127065138 0 -0.00054279994851598825 -0.028829495370089723 0 -0.00071177609026513793 -0.028358029330963815 0 -0.0010400008496336327 -0.028944849127065138 0 -0.00071177609026513793 -0.028358029330963815 0 -0.0012422029549901273 -0.028018186550017397 0 -0.00054279994851598825 -0.028829495370089723 0 -0.00071177609026513793 -0.028358029330963815 0 -3.0929735062309199e-05 -0.02850358492022111 0 0.00055632557655099888 -0.018879065886032172 0 0.00086087100349571525 -0.02086764677624238 0 -0.00071177609026513793 -0.028358029330963815 0 -0.00069095527201225413 -0.027441887980014294 0 -3.0929735062309199e-05 -0.02850358492022111 0 0.0021390499961251109 -0.011659523815574963 0 0.0015239807577688612 -0.011459290386315673 0 0.0014399981513737322 -0.010895080341565314 0 -0.00071177609026513793 -0.028358029330963815 0 -0.0012422029549901273 -0.028018186550017397 0 -0.00069095527201225413 -0.027441887980014294 0 -0.0012422029549901273 -0.028018186550017397 0 -0.0016233450234123313 -0.027326338953489755 0 -0.0021640255501022905 -0.028031364644563364 0 -0.0010400008496336327 -0.028944849127065138 0 -0.0012422029549901273 -0.028018186550017397 0 -0.0021640255501022905 -0.028031364644563364 0 -0.0012422029549901273 -0.028018186550017397 0 -0.0016233450234123313 -0.027326338953489755 0 -0.00069095527201225413 -0.027441887980014294 0 -0.0016233450234123313 -0.027326338953489755 0 -0.0023671248022558325 -0.026791360049721411 0 -0.0014920594753665252 -0.026380729482109639 0 0.00055632557655099888 -0.018879065886032172 0 -0.00021729163193893918 -0.022955689163229407 0 -0.0016233450234123313 -0.027326338953489755 0 -0.00069095527201225413 -0.027441887980014294 0 -0.0014920594753665252 -0.026380729482109639 0 0.0021074142457807748 -0.012411278672574884 0 0.0021390499961251109 -0.011659523815574963 0 0.0029029484669043362 -0.012693604788050941 0 0.0021074142457807748 -0.012411278672574884 0 0.0017219535897565184 -0.012525716890983463 0 0.0016492274546033303 -0.012050810824038138 0 0.0021074142457807748 -0.012411278672574884 0 0.0021390499961251109 -0.011659523815574963 0 0.0016492274546033303 -0.012050810824038138 0 0.0021390499961251109 -0.011659523815574963 0 0.0015239807577688612 -0.011459290386315673 0 0.0016492274546033303 -0.012050810824038138 0 -0.0015862360958836645 -0.029042195706588256 0 -0.0013535079759474575 -0.029003891488136722 0 -0.0015726422263853234 -0.028905911661258245 0 -0.0015636288612513795 -0.029185571949940994 0 -0.0015862360958836645 -0.029042195706588256 0 -0.0013535079759474575 -0.029003891488136722 0 -0.0017357682057458242 -0.028986443078864926 0 -0.0015862360958836645 -0.029042195706588256 0 -0.0015726422263853234 -0.028905911661258245 0 -0.0017061672706532535 -0.029130089409308408 0 -0.0015636288612513795 -0.029185571949940994 0 -0.0015862360958836645 -0.029042195706588256 0 -0.0019496977213587102 -0.028301279570671439 0 -0.0015661989241249608 -0.029186073073830369 0 -0.0016233450234123313 -0.027326338953489755 0 -0.0021640255501022905 -0.028031364644563364 0 -0.0023671248022558325 -0.026791360049721411 0 -0.0021640255501022905 -0.028031364644563364 0 -0.0023671248022558325 -0.026791360049721411 0 -0.003214288558984587 -0.027177127600033487 0 -0.0022142589875982703 -0.02867428720973772 0 -0.0015661989241249608 -0.029186073073830369 0 -0.001019085765207579 -0.03023470214668144 0 -0.00031804853035170719 -0.029949751956090006 0 -4.1783037438518732e-05 -0.030174935623248387 0 -0.0015661989241249608 -0.029186073073830369 0 -0.00017148733374135823 -0.032741895538361744 0 -0.0011533198595690306 -0.030828571220711972 0 -0.00085663971945018017 -0.030696347552402112 0 -0.00097961778263679447 -0.030601000683467588 0 -0.0012372998978841569 -0.030995868008622814 0 -0.0015661989241249608 -0.029186073073830369 0 -2.7187359383538885e-05 -0.034537133910228827 0 1.219380326936664e-06 -0.034783503890789748 0 -0.00020842933976299432 -0.034781582897132096 0 -0.00017148733374135823 -0.032741895538361744 0 -0.00038924849015261714 -0.032929815472529496 0 -0.001019085765207579 -0.03023470214668144 0 -4.1783037438518732e-05 -0.030174935623248387 0 -0.00073805334214073091 -0.03112611109519197 0 -0.001019085765207579 -0.03023470214668144 0 -0.0012308454547485844 -0.030572683842819078 0 -0.00073805334214073091 -0.03112611109519197 0 -0.001019085765207579 -0.03023470214668144 0 -0.0012308454547485844 -0.030572683842819078 0 -0.0017386939726259174 -0.030506214350250908 0 -0.0012308454547485844 -0.030572683842819078 0 -0.0012550257869495341 -0.031015905102498357 0 -0.0014638334806056387 -0.030862789680237066 0 -0.0012308454547485844 -0.030572683842819078 0 -0.0012550257869495341 -0.031015905102498357 0 -0.00073805334214073091 -0.03112611109519197 0 -0.0013975386584942344 -0.033182774250283251 0 -0.00038924849015261714 -0.032929815472529496 0 -0.0014838332184515964 -0.032150730455406479 0 -0.0013573492785103438 -0.031493693398768598 0 -0.00073805334214073091 -0.03112611109519197 0 -0.00039934575336547054 -0.035012671495913458 0 -0.00014577328742311751 -0.034973596998800704 0 -0.00020842933976299432 -0.034781582897132096 0 -0.0012550257869495341 -0.031015905102498357 0 -0.0013573492785103438 -0.031493693398768598 0 -0.00073805334214073091 -0.03112611109519197 0 -0.00014577328742311751 -0.034973596998800704 0 1.219380326936664e-06 -0.034783503890789748 0 -0.00020842933976299432 -0.034781582897132096 0 -0.00014577328742311751 -0.034973596998800704 0 0.00013531464034088084 -0.035034385669828083 0 1.219380326936664e-06 -0.034783503890789748 0 -0.00012356863529512744 -0.021873302639866612 0 -0.00021729163193893918 -0.022955689163229407 0 0.0021074142457807748 -0.012411278672574884 0 0.0019408194454863506 -0.013068415758882984 0 0.0029029484669043362 -0.012693604788050941 0 -0.002173534282890994 -0.03104767259545347 0 -0.0026788629233059666 -0.030988781437020833 0 -0.0019793877534515689 -0.03083721894590025 0 -0.002173534282890994 -0.03104767259545347 0 -0.0026788629233059666 -0.030988781437020833 0 -0.0023397881219374287 -0.031228473544976678 0 0.0021074142457807748 -0.012411278672574884 0 0.0019408194454863506 -0.013068415758882984 0 0.0017219535897565184 -0.012525716890983463 0 -0.0026788629233059666 -0.030988781437020833 0 -0.0017530047574637457 -0.030485174937436146 0 -0.0019793877534515689 -0.03083721894590025 0 -0.0017530047574637457 -0.030485174937436146 0 -0.0016259322184248106 -0.030665758586908985 0 -0.0019793877534515689 -0.03083721894590025 0 -0.0012308454547485844 -0.030572683842819078 0 -0.0016259322184248106 -0.030665758586908985 0 -0.0014638334806056387 -0.030862789680237066 0 -0.0012308454547485844 -0.030572683842819078 0 -0.0017386939726259174 -0.030506214350250908 0 -0.0016259322184248106 -0.030665758586908985 0 -0.0022142589875982703 -0.02867428720973772 0 -0.00021729163193893918 -0.022955689163229407 0 -0.00021729163193893918 -0.022955689163229407 0 0.00052555363689313697 -0.02524801295186593 0 -0.0012550257869495341 -0.031015905102498357 0 -0.0014638334806056387 -0.030862789680237066 0 -0.0016535098752745187 -0.031052433057187589 0 -0.0016259322184248106 -0.030665758586908985 0 -0.0014638334806056387 -0.030862789680237066 0 -0.0017229567324146286 -0.030882403635869957 0 -0.0017229567324146286 -0.030882403635869957 0 -0.0016535098752745187 -0.031052433057187589 0 -0.0019017738052094898 -0.030996240602511431 0 -0.0014638334806056387 -0.030862789680237066 0 -0.0017229567324146286 -0.030882403635869957 0 -0.0016535098752745187 -0.031052433057187589 0 -0.0016259322184248106 -0.030665758586908985 0 -0.0017229567324146286 -0.030882403635869957 0 -0.0019793877534515689 -0.03083721894590025 0 -0.0017229567324146286 -0.030882403635869957 0 -0.0019793877534515689 -0.03083721894590025 0 -0.0019017738052094898 -0.030996240602511431 0 -0.0016535098752745187 -0.031052433057187589 0 -0.0019017738052094898 -0.030996240602511431 0 -0.0019647478909794488 -0.031187910572041049 0 -0.002173534282890994 -0.03104767259545347 0 -0.0019793877534515689 -0.03083721894590025 0 -0.0019017738052094898 -0.030996240602511431 0 -0.002173534282890994 -0.03104767259545347 0 -0.0019017738052094898 -0.030996240602511431 0 -0.0019647478909794488 -0.031187910572041049 0 -0.0020562976854240507 -0.031445347891121085 0 -0.0016534352597333878 -0.031369722276141418 0 -0.0017870903994022522 -0.031694597826595027 0 -0.0014838332184515964 -0.032150730455406479 0 -0.0017870903994022522 -0.031694597826595027 0 -0.002774992079181182 -0.031475781005078252 0 -0.0019647478909794488 -0.031187910572041049 0 -0.0020562976854240507 -0.031445347891121085 0 -0.0016534352597333878 -0.031369722276141418 0 -0.0019647478909794488 -0.031187910572041049 0 -0.0020562976854240507 -0.031445347891121085 0 -0.0023397881219374287 -0.031228473544976678 0 -0.0013975386584942344 -0.033182774250283251 0 -0.0029443255362480289 -0.031187385274430306 0 -0.0012550257869495341 -0.031015905102498357 0 -0.0013573492785103438 -0.031493693398768598 0 -0.0016534352597333878 -0.031369722276141418 0 -0.0012550257869495341 -0.031015905102498357 0 -0.0016535098752745187 -0.031052433057187589 0 -0.0016534352597333878 -0.031369722276141418 0 -0.0016535098752745187 -0.031052433057187589 0 -0.0019647478909794488 -0.031187910572041049 0 -0.0016534352597333878 -0.031369722276141418 0 -0.0013573492785103438 -0.031493693398768598 0 -0.0016534352597333878 -0.031369722276141418 0 -0.0017870903994022522 -0.031694597826595027 0 -0.0014838332184515964 -0.032150730455406479 0 -0.0013573492785103438 -0.031493693398768598 0 -0.0017870903994022522 -0.031694597826595027 0 -0.0020562976854240507 -0.031445347891121085 0 -0.0017870903994022522 -0.031694597826595027 0 -0.002774992079181182 -0.031475781005078252 0 -0.0020562976854240507 -0.031445347891121085 0 -0.0023397881219374287 -0.031228473544976678 0 -0.002774992079181182 -0.031475781005078252 0 -0.002173534282890994 -0.03104767259545347 0 -0.0019647478909794488 -0.031187910572041049 0 -0.0023397881219374287 -0.031228473544976678 0 -0.0026788629233059666 -0.030988781437020833 0 -0.0023397881219374287 -0.031228473544976678 0 -0.002774992079181182 -0.031475781005078252 0 -0.00012356863529512744 -0.021873302639866612 0 -0.0011972538974007079 -0.022687026014937699 0 -0.0026788629233059666 -0.030988781437020833 0 -0.002774992079181182 -0.031475781005078252 0 -0.0031702689398149641 -0.031397110862286956 0 -0.0030226722895546759 -0.03172966595686625 0 -0.002774992079181182 -0.031475781005078252 0 -0.0031702689398149641 -0.031397110862286956 0 -0.0030226722895546759 -0.03172966595686625 0 -0.0031702689398149641 -0.031397110862286956 0 -0.0032381690744472127 -0.031615026901626382 0 0.0019408194454863506 -0.013068415758882984 0 0.00093218922971586985 -0.013538104739230604 0 0.0011825951489510698 -0.012571830766995438 0 0.0019408194454863506 -0.013068415758882984 0 0.0017219535897565184 -0.012525716890983463 0 0.0011825951489510698 -0.012571830766995438 0 0.00093218922971586985 -0.013538104739230604 0 0.0011825951489510698 -0.012571830766995438 0 0.00023935119646815138 -0.0131108385292927 0 0.0011825951489510698 -0.012571830766995438 0 0.00023935119646815138 -0.0131108385292927 0 0.00019770862189945034 -0.012353496442928269 0 0.00023935119646815138 -0.0131108385292927 0 0.00019770862189945034 -0.012353496442928269 0 -0.0007649488938210057 -0.012948084289109986 0 0.00093218922971586985 -0.013538104739230604 0 0.00023935119646815138 -0.0131108385292927 0 -0.00023799831745470126 -0.014079717785967994 0 -0.0011972538974007079 -0.022687026014937699 0 -0.0025654035039873349 -0.019683235697732296 0 -0.0031702689398149641 -0.031397110862286956 0 -0.0032381690744472127 -0.031615026901626382 0 -0.0034642507437754153 -0.031546877319305257 0 -0.0034178284979035356 -0.03166509829075155 0 -0.0032381690744472127 -0.031615026901626382 0 -0.0034642507437754153 -0.031546877319305257 0 -0.0016648136279807254 -0.022101871037695162 0 -0.0025654035039873349 -0.019683235697732296 0 -0.0025654035039873349 -0.019683235697732296 0 -0.0010603892589326255 -0.010637907991918102 0 0.00023935119646815138 -0.0131108385292927 0 -0.00023799831745470126 -0.014079717785967994 0 -0.0007649488938210057 -0.012948084289109986 0 -8.0496601511616459e-05 -0.011081529647840817 0 -0.0013617565983071291 -0.010702665596849575 0 -0.00087647434115088426 -0.0099812099234615221 0 0.00012800829804509231 -0.011507974808684559 0 -8.0496601511616459e-05 -0.011081529647840817 0 -0.0013617565983071291 -0.010702665596849575 0 -0.0012004244938922718 -0.01048109905419546 0 -0.0017851033721825735 -0.0097887219569181196 0 -0.001551924035385673 -0.010082637104972855 0 -0.0013537864087327116 -0.009897783827079976 0 -0.001727767849596479 -0.0099411760906901372 0 -0.00087647434115088426 -0.0099812099234615221 0 -0.0014718373022899196 -0.0094172507624794132 0 -0.0017684014618373305 -0.0097753320506608465 0 -0.0013617565983071291 -0.010702665596849575 0 -0.00087647434115088426 -0.0099812099234615221 0 -0.0017684014618373305 -0.0097753320506608465 0 0.00019770862189945034 -0.012353496442928269 0 -0.0007649488938210057 -0.012948084289109986 0 -0.00016006313853366024 -0.011446598864124314 0 -0.0007649488938210057 -0.012948084289109986 0 -0.00016006313853366024 -0.011446598864124314 0 -0.0013975945065698454 -0.011364589009777045 0 -0.0010603892589326255 -0.010637907991918102 0 -0.0013280332624307403 -0.010591782416004827 0 -0.0013280332624307403 -0.010591782416004827 0 -0.001734337446729345 -0.0095807491930392057 0 -0.0013975945065698454 -0.011364589009777045 0 -0.0017175173852550861 -0.0095577033709706594 0 -0.0010248760014488695 -0.0098247152693322886 0 -0.00016006313853366024 -0.011446598864124314 0 -0.0013975945065698454 -0.011364589009777045 0 -0.00045383526351239293 -0.010581106709387937 0 -0.0013975945065698454 -0.011364589009777045 0 -0.00045383526351239293 -0.010581106709387937 0 -0.0010248760014488695 -0.0098247152693322886 0 -0.00045383526351239293 -0.010581106709387937 0 0.00039408744622731052 -0.010904565376144463 0 -3.9260137614806005e-05 -0.010045998454602641 0 0.00039408744622731052 -0.010904565376144463 0 0.00065164840760098346 -0.010254927105496926 0 -3.9260137614806005e-05 -0.010045998454602641 0 -0.00016006313853366024 -0.011446598864124314 0 -0.00045383526351239293 -0.010581106709387937 0 0.00039408744622731052 -0.010904565376144463 0 0.00039408744622731052 -0.010904565376144463 0 0.0012654453425200876 -0.010695224348665815 0 0.00065164840760098346 -0.010254927105496926 0 0.0012654453425200876 -0.010695224348665815 0 0.0013274354369690843 -0.010000678724377885 0 0.00065164840760098346 -0.010254927105496926 0 0.0019055203049075653 -0.012334973031738512 0 0.0002066310904412959 -0.01681331066312753 0 0.0012783544751057356 -0.011197855249133604 0 0.0015239807577688612 -0.011459290386315673 0 0.0014399981513737322 -0.010895080341565314 0 0.0019055203049075653 -0.012334973031738512 0 0.00086087100349571525 -0.02086764677624238 0 0.00039408744622731052 -0.010904565376144463 0 0.0012654453425200876 -0.010695224348665815 0 0.0011479945075272592 -0.011593722199192816 0 0.0012783544751057356 -0.011197855249133604 0 0.0015239807577688612 -0.011459290386315673 0 0.0011479945075272592 -0.011593722199192816 0 0.0019055203049075653 -0.012334973031738512 0 0.0014247147062411961 -0.0112578878869765 0 0.0011825951489510698 -0.012571830766995438 0 0.0011479945075272592 -0.011593722199192816 0 0.00056446229050171259 -0.0117952964683913 0 0.0011825951489510698 -0.012571830766995438 0 0.0011479945075272592 -0.011593722199192816 0 0.0016492274546033303 -0.012050810824038138 0 0.0015239807577688612 -0.011459290386315673 0 0.0011479945075272592 -0.011593722199192816 0 0.0016492274546033303 -0.012050810824038138 0 0.0017219535897565184 -0.012525716890983463 0 0.0011825951489510698 -0.012571830766995438 0 0.0016492274546033303 -0.012050810824038138 0 0.0011825951489510698 -0.012571830766995438 0 0.00019770862189945034 -0.012353496442928269 0 0.00056446229050171259 -0.0117952964683913 0 0.00019770862189945034 -0.012353496442928269 0 -0.00016006313853366024 -0.011446598864124314 0 0.00056446229050171259 -0.0117952964683913 0 -0.00016006313853366024 -0.011446598864124314 0 0.00039408744622731052 -0.010904565376144463 0 0.00056446229050171259 -0.0117952964683913 0 0.00039408744622731052 -0.010904565376144463 0 0.0011479945075272592 -0.011593722199192816 0 0.00056446229050171259 -0.0117952964683913 0 -0.0017894346618643178 -0.0091087988941504702 0 -0.0018536300781979234 -0.0090170467367758703 0 -0.0019214263317150137 -0.0092934862497075759 0 -0.0017948633356277153 -0.0090464360406188188 0 -0.0017894346618643178 -0.0091087988941504702 0 -0.0018536300781979234 -0.0090170467367758703 0 -0.0017948633356277153 -0.0090464360406188188 0 -0.0017980316229291497 -0.0088414562211270153 0 -0.0018536300781979234 -0.0090170467367758703 0 -0.0019608470279429834 -0.00871987522158197 0 -0.0017980316229291497 -0.0088414562211270153 0 -0.0018536300781979234 -0.0090170467367758703 0 -0.0019608470279429834 -0.00871987522158197 0 -0.0018536300781979234 -0.0090170467367758703 0 -0.0020262114836289264 -0.0090046356770661553 0 -0.0013527679501996006 -0.0057806693176325648 0 -0.0023276928357734267 -0.010148376789161416 0 -0.0020262114836289264 -0.0090046356770661553 0 -0.0020201085389812208 -0.0094076058261746386 0 -0.0019214263317150137 -0.0092934862497075759 0 -0.0018536300781979234 -0.0090170467367758703 0 -0.0020262114836289264 -0.0090046356770661553 0 -0.0019214263317150137 -0.0092934862497075759 0 -0.0022247416112408033 -0.0098601057291667817 0 -0.0020201085389812208 -0.0094076058261746386 0 -0.0018966398806550607 -0.0099111325003546288 0 -0.0020201085389812208 -0.0094076058261746386 0 -0.0018966398806550607 -0.0099111325003546288 0 -0.0017684014618373305 -0.0097753320506608465 0 -0.0023276928357734267 -0.010148376789161416 0 -0.001961043041649881 -0.0091351623906045891 0 -0.0020163935856832905 -0.010214613806075568 0 -0.0022247416112408033 -0.0098601057291667817 0 -0.0018966398806550607 -0.0099111325003546288 0 -0.0020163935856832905 -0.010214613806075568 0 -0.0018397277093834424 -0.01010801828359933 0 -0.0018966398806550607 -0.0099111325003546288 0 -0.0013537864087327116 -0.009897783827079976 0 -0.001727767849596479 -0.0099411760906901372 0 -0.0017684014618373305 -0.0097753320506608465 0 -0.0018966398806550607 -0.0099111325003546288 0 -0.001727767849596479 -0.0099411760906901372 0 -0.0017684014618373305 -0.0097753320506608465 0 -0.0018397277093834424 -0.01010801828359933 0 -0.0017038270606188348 -0.010167630459376485 0 -0.001727767849596479 -0.0099411760906901372 0 -0.0018397277093834424 -0.01010801828359933 0 -0.0018966398806550607 -0.0099111325003546288 0 -0.001727767849596479 -0.0099411760906901372 0 -0.0017038270606188348 -0.010167630459376485 0 -0.001551924035385673 -0.010082637104972855 0 -0.001727767849596479 -0.0099411760906901372 0 -0.0020201085389812208 -0.0094076058261746386 0 -0.0017684014618373305 -0.0097753320506608465 0 -0.0018004109156099627 -0.0094381721893376756 0 -0.0014718373022899196 -0.0094172507624794132 0 -0.0017684014618373305 -0.0097753320506608465 0 -0.0018004109156099627 -0.0094381721893376756 0 -0.0018004109156099627 -0.0094381721893376756 0 -0.0019160835536697922 -0.0093421797229876306 0 -0.0017175173852550861 -0.0095577033709706594 0 -0.0014718373022899196 -0.0094172507624794132 0 -0.0018004109156099627 -0.0094381721893376756 0 -0.0017175173852550861 -0.0095577033709706594 0 -0.0020201085389812208 -0.0094076058261746386 0 -0.0018004109156099627 -0.0094381721893376756 0 -0.0019160835536697922 -0.0093421797229876306 0 -0.0020201085389812208 -0.0094076058261746386 0 -0.0019160835536697922 -0.0093421797229876306 0 -0.0019214263317150137 -0.0092934862497075759 0 -0.0019160835536697922 -0.0093421797229876306 0 -0.0019214263317150137 -0.0092934862497075759 0 -0.0018889714092543302 -0.009360590049979637 0 -0.0019343138841097268 -0.0093164257051163227 0 -0.0018214045838054497 -0.0093262654845599723 0 -0.0019160835536697922 -0.0093421797229876306 0 -0.0019457257403647855 -0.0091689015730681989 0 -0.0019418534211116691 -0.009150472965147257 0 -0.0020015697922913943 -0.0091062088305922679 0 -0.0019457257403647855 -0.0091689015730681989 0 -0.0019557720587821442 -0.009017624562144071 0 -0.0023682953368490576 -0.007774978755881244 0 -0.0018214045838054497 -0.0093262654845599723 0 -0.0019457257403647855 -0.0091689015730681989 0 -0.0019557720587821442 -0.009017624562144071 0 -0.0019418534211116691 -0.009150472965147257 0 -0.0016709642168208757 -0.0093243685008431009 0 -0.0017894346618643178 -0.0091087988941504702 0 -0.0018889714092543302 -0.009360590049979637 0 -0.0023682953368490576 -0.007774978755881244 0 -0.0015183388290008273 -0.0095994616052533406 0 -0.0017894346618643178 -0.0091087988941504702 0 -0.0019214263317150137 -0.0092934862497075759 0 -0.0018889714092543302 -0.009360590049979637 0 -0.0019190071204515334 -0.0087979241118441645 0 -0.0019496501013498706 -0.0090026851969457443 0 -0.0019617586405646804 -0.0089218554021968256 0 -0.0019190071204515334 -0.0087979241118441645 0 -0.0019557720587821442 -0.009017624562144071 0 -0.0019496501013498706 -0.0090026851969457443 0 -0.0019557720587821442 -0.009017624562144071 0 -0.0019418534211116691 -0.009150472965147257 0 -0.0019496501013498706 -0.0090026851969457443 0 -0.0019418534211116691 -0.009150472965147257 0 -0.0019496501013498706 -0.0090026851969457443 0 -0.0019004896749147903 -0.0092012080497979997 0 -0.0019496501013498706 -0.0090026851969457443 0 -0.0019079264030143755 -0.0089697111435143809 0 -0.0019617586405646804 -0.0089218554021968256 0 -0.0019496501013498706 -0.0090026851969457443 0 -0.0019004896749147903 -0.0092012080497979997 0 -0.0019079264030143755 -0.0089697111435143809 0 -0.0019004896749147903 -0.0092012080497979997 0 -0.0017753224954057171 -0.008969974667230372 0 -0.0019079264030143755 -0.0089697111435143809 0 -0.0019160835536697922 -0.0093421797229876306 0 -0.0019004896749147903 -0.0092012080497979997 0 -0.0017175173852550861 -0.0095577033709706594 0 -0.0019160835536697922 -0.0093421797229876306 0 -0.0019418534211116691 -0.009150472965147257 0 -0.0019004896749147903 -0.0092012080497979997 0 -0.0019004896749147903 -0.0092012080497979997 0 -0.0017175173852550861 -0.0095577033709706594 0 -0.0017753224954057171 -0.008969974667230372 0 -0.0017175173852550861 -0.0095577033709706594 0 -0.0017753224954057171 -0.008969974667230372 0 -0.0013036542999931987 -0.0091234209434895783 0 -0.0018298186428509992 -0.0089731088831078876 0 -0.0012490708336342299 -0.0085558131906112011 0 -0.0017753224954057171 -0.008969974667230372 0 -0.0018291456031355679 -0.0089374464379122429 0 -0.0017359691428673308 -0.0089518426731607301 0 -0.0018291456031355679 -0.0089374464379122429 0 -0.0017858329391337285 -0.0088964968680142319 0 -0.0017359691428673308 -0.0089518426731607301 0 -0.0024923529543821776 -0.0092128201045252704 0 -0.0022120023833738203 -0.0091944881814284493 0 -0.0024353315135935026 -0.0093926275603646008 0 -0.0024923529543821776 -0.0092128201045252704 0 -0.0026814795787931467 -0.0093828817455268096 0 -0.0024353315135935026 -0.0093926275603646008 0 -0.0018291456031355679 -0.0089374464379122429 0 -0.0017858329391337285 -0.0088964968680142319 0 -0.0019385277036678755 -0.0089110714011382246 0 -0.0022545330035758731 -0.0088771341727482776 0 -0.0020312688831896799 -0.0090790162042791982 0 -0.0017753224954057171 -0.008969974667230372 0 -0.0018291456031355679 -0.0089374464379122429 0 -0.0019079264030143755 -0.0089697111435143809 0 -0.0018291456031355679 -0.0089374464379122429 0 -0.0019079264030143755 -0.0089697111435143809 0 -0.0019385277036678755 -0.0089110714011382246 0 -0.0019079264030143755 -0.0089697111435143809 0 -0.0019617586405646804 -0.0089218554021968256 0 -0.0019385277036678755 -0.0089110714011382246 0 -0.0019617586405646804 -0.0089218554021968256 0 -0.0019385277036678755 -0.0089110714011382246 0 -0.0019402994073029959 -0.009049354898287296 0 -0.0020312688831896799 -0.0090790162042791982 0 -0.0019457484553152384 -0.0090482229047837131 0 -0.0019190071204515334 -0.0087979241118441645 0 -0.0019617586405646804 -0.0089218554021968256 0 -0.0019402994073029959 -0.009049354898287296 0 0.00014522226351204522 -0.0092925623131757847 0 -7.2506988258365892e-06 -0.0090820607662082352 0 0.00024041478992085314 -0.0088365436188381167 0 0.00014522226351204522 -0.0092925623131757847 0 0.00024041478992085314 -0.0088365436188381167 0 0.00049989608298365987 -0.0094898256657943644 0 0.00014522226351204522 -0.0092925623131757847 0 -7.2506988258365892e-06 -0.0090820607662082352 0 -0.00017674192027531766 -0.0093937466719951675 0 -7.2506988258365892e-06 -0.0090820607662082352 0 0.00024041478992085314 -0.0088365436188381167 0 -0.00026806756170842541 -0.008929756058925568 0 -0.00029193448410501203 -0.017691529475624274 0 -0.0003713192973695186 -0.018179492733794239 0 -6.6361806425469286e-05 -0.017979521215202666 0 0.00048439512932990013 -0.0214374408016033 0 0.00020448386280685915 -0.022159064402884041 0 0.00026041510466905473 -0.017806882675628369 0 -0.00029193448410501203 -0.017691529475624274 0 -6.6361806425469286e-05 -0.017979521215202666 0 0.00026041510466905473 -0.017806882675628369 0 -0.00029193448410501203 -0.017691529475624274 0 -0.00021107020218694641 -0.017209368543414566 0 -1.8944066560596726e-05 -0.024992285315736249 0 0.001447002885956833 -0.024313386005064008 0 0.0014327125380509962 -0.022159842787632184 0 0.00048439512932990013 -0.0214374408016033 0 0.0002066310904412959 -0.01681331066312753 0 0.0013274354369690843 -0.010000678724377885 0 0.000725166592715899 -0.0099022435881834774 0 0.00049989608298365987 -0.0094898256657943644 0 0.001447002885956833 -0.024313386005064008 0 0.0017147976572021708 -0.022511790723391104 0 0.0014327125380509962 -0.022159842787632184 0 0.0019273743073469777 -0.013804580686306933 0 0.0010280627867989384 -0.019198342400532288 0 -0.00020950062213118527 -0.017613476903198144 0 0.0002066310904412959 -0.01681331066312753 0 0.00086087100349571525 -0.02086764677624238 0 0.0013274354369690843 -0.010000678724377885 0 0.00065164840760098346 -0.010254927105496926 0 0.000725166592715899 -0.0099022435881834774 0 0.00024041478992085314 -0.0088365436188381167 0 0.0013274354369690843 -0.010000678724377885 0 0.00049989608298365987 -0.0094898256657943644 0 -0.00025465338215305793 -0.013136676152724545 0 0.0002066310904412959 -0.01681331066312753 0 0.00065164840760098346 -0.010254927105496926 0 0.00042342329429619432 -0.0098752997118153624 0 0.000725166592715899 -0.0099022435881834774 0 0.00042342329429619432 -0.0098752997118153624 0 0.000725166592715899 -0.0099022435881834774 0 0.00049989608298365987 -0.0094898256657943644 0 0.00042342329429619432 -0.0098752997118153624 0 0.00049989608298365987 -0.0094898256657943644 0 0.00018918706726572945 -0.0096074632048451149 0 0.00018918706726572945 -0.0096074632048451149 0 -3.9260137614806005e-05 -0.010045998454602641 0 -0.00017674192027531766 -0.0093937466719951675 0 0.00014522226351204522 -0.0092925623131757847 0 0.00018918706726572945 -0.0096074632048451149 0 -0.00017674192027531766 -0.0093937466719951675 0 0.00014522226351204522 -0.0092925623131757847 0 0.00049989608298365987 -0.0094898256657943644 0 0.00018918706726572945 -0.0096074632048451149 0 0.00042342329429619432 -0.0098752997118153624 0 0.00018918706726572945 -0.0096074632048451149 0 -3.9260137614806005e-05 -0.010045998454602641 0 0.00065164840760098346 -0.010254927105496926 0 0.00042342329429619432 -0.0098752997118153624 0 -3.9260137614806005e-05 -0.010045998454602641 0 -0.00045383526351239293 -0.010581106709387937 0 -3.9260137614806005e-05 -0.010045998454602641 0 -0.00053039366294849969 -0.009702445638318442 0 -0.00045383526351239293 -0.010581106709387937 0 -0.00053039366294849969 -0.009702445638318442 0 -0.0010248760014488695 -0.0098247152693322886 0 -0.00053039366294849969 -0.009702445638318442 0 -0.0010248760014488695 -0.0098247152693322886 0 -0.00074298967565943497 -0.0092207961169607118 0 -0.00053039366294849969 -0.009702445638318442 0 -0.00017674192027531766 -0.0093937466719951675 0 -0.00074298967565943497 -0.0092207961169607118 0 -3.9260137614806005e-05 -0.010045998454602641 0 -0.00053039366294849969 -0.009702445638318442 0 -0.00017674192027531766 -0.0093937466719951675 0 -0.0017175173852550861 -0.0095577033709706594 0 -0.0010248760014488695 -0.0098247152693322886 0 -0.0013036542999931987 -0.0091234209434895783 0 -0.0010248760014488695 -0.0098247152693322886 0 -0.0013036542999931987 -0.0091234209434895783 0 -0.00074298967565943497 -0.0092207961169607118 0 -0.0017753224954057171 -0.008969974667230372 0 -0.0013036542999931987 -0.0091234209434895783 0 -0.0012647027698014222 -0.0085015780916549554 0 -0.0013036542999931987 -0.0091234209434895783 0 -0.00080110340169381911 -0.0087589915066319853 0 -0.0012647027698014222 -0.0085015780916549554 0 -0.0013036542999931987 -0.0091234209434895783 0 -0.00074298967565943497 -0.0092207961169607118 0 -0.00080110340169381911 -0.0087589915066319853 0 0.00024041478992085314 -0.0088365436188381167 0 -0.00026806756170842541 -0.008929756058925568 0 -0.0005848005993552859 -0.0083467599498910621 0 -0.00017674192027531766 -0.0093937466719951675 0 -0.00074298967565943497 -0.0092207961169607118 0 -0.00026806756170842541 -0.008929756058925568 0 -7.2506988258365892e-06 -0.0090820607662082352 0 -0.00017674192027531766 -0.0093937466719951675 0 -0.00026806756170842541 -0.008929756058925568 0 -0.00080110340169381911 -0.0087589915066319853 0 -0.00026806756170842541 -0.008929756058925568 0 -0.0005848005993552859 -0.0083467599498910621 0 -0.00074298967565943497 -0.0092207961169607118 0 -0.00080110340169381911 -0.0087589915066319853 0 -0.00026806756170842541 -0.008929756058925568 0 -0.00053303022632280629 -0.0080218348201493445 0 -0.0005848005993552859 -0.0083467599498910621 0 -0.0012647027698014222 -0.0085015780916549554 0 -0.00025465338215305793 -0.013136676152724545 0 -0.0018285156030230687 -0.010308971784425702 0 0.00024041478992085314 -0.0088365436188381167 0 -0.00053303022632280629 -0.0080218348201493445 0 -0.0005848005993552859 -0.0083467599498910621 0 -0.00080110340169381911 -0.0087589915066319853 0 -0.0005848005993552859 -0.0083467599498910621 0 -0.0012647027698014222 -0.0085015780916549554 0 -0.0018285156030230687 -0.010308971784425702 0 -0.0012490708336342299 -0.0085558131906112011 0 -0.0022545330035758731 -0.0088771341727482776 0 -0.0018285156030230687 -0.010308971784425702 0 -0.0017858329391337285 -0.0088964968680142319 0 -0.0016767066455373554 -0.0089295166625058091 0 -0.0017359691428673308 -0.0089518426731607301 0 -0.0024923529543821776 -0.0092128201045252704 0 -0.0028288025246473187 -0.0091842742258400889 0 -0.0026814795787931467 -0.0093828817455268096 0 -0.0023384232428831789 -0.0098194437482479018 0 -0.0021150394079329088 -0.010283715831636987 0 -0.002342887541746619 -0.010171528853316052 0 -0.0023384232428831789 -0.0098194437482479018 0 -0.002342887541746619 -0.010171528853316052 0 -0.002640016144849309 -0.010265291660477429 0 -0.0018285156030230687 -0.010308971784425702 0 -0.0025565638943621091 -0.0096286036060731009 0 -0.00093435594566811011 -0.014126168144510117 0 -0.0014127870038607095 -0.014049775931329399 0 -0.0015476364745051873 -0.01451404734773539 0 -0.0018285156030230687 -0.010308971784425702 0 -0.0011207603884323296 -0.015999222616001851 0 -0.00043795140918701821 -0.016793462122435057 0 -0.0011207603884323296 -0.015999222616001851 0 -0.0023384232428831789 -0.0098194437482479018 0 -0.0030444365113824002 -0.010149245838072097 0 -0.002640016144849309 -0.010265291660477429 0 -0.0018285156030230687 -0.010308971784425702 0 -0.00043795140918701821 -0.016793462122435057 0 -0.00053380369589427191 -0.014135724066016452 0 -0.001692159802947594 -0.01265348302747598 0 -0.00019452946535165048 -0.012991853996232747 0 0.00026041510466905473 -0.017806882675628369 0 0.00013548356404341762 -0.018240422166305486 0 -6.6361806425469286e-05 -0.017979521215202666 0 -0.00025465338215305793 -0.013136676152724545 0 -0.00043795140918701821 -0.016793462122435057 0 -0.00043795140918701821 -0.016793462122435057 0 0.00020448386280685915 -0.022159064402884041 0 0.00053923658106210589 -0.019782390289303651 0 -0.00051361397396208796 -0.019625027061558432 0 -9.3542306906434369e-05 -0.020192968917384653 0 0.00013548356404341762 -0.018240422166305486 0 -0.0003713192973695186 -0.018179492733794239 0 -6.6361806425469286e-05 -0.017979521215202666 0 -1.5233833124655152e-05 -0.024042024854920182 0 0.00020448386280685915 -0.022159064402884041 0 -0.00066987919255478284 -0.020552722520729105 0 -0.00051361397396208796 -0.019625027061558432 0 -9.3542306906434369e-05 -0.020192968917384653 0 -0.00066987919255478284 -0.020552722520729105 0 0.00022622533765531309 -0.020868088852188001 0 -0.00082479087246330608 -0.021502908547478404 0 -0.00066987919255478284 -0.020552722520729105 0 -9.3542306906434369e-05 -0.020192968917384653 0 0.00022622533765531309 -0.020868088852188001 0 0.00053923658106210589 -0.019782390289303651 0 -9.3542306906434369e-05 -0.020192968917384653 0 0.00022622533765531309 -0.020868088852188001 0 -0.00024610777815822288 -0.01835105419163785 0 -0.00062194565748465846 -0.019622418829203719 0 -0.0016476643088851968 -0.019189024681126071 0 -0.0011207603884323296 -0.015999222616001851 0 -0.00022210099892633757 -0.024114578295195293 0 -0.0011207603884323296 -0.015999222616001851 0 -0.0016131284308359107 -0.01429677536741974 0 -0.00062194565748465846 -0.019622418829203719 0 -0.0016476643088851968 -0.019189024681126071 0 -0.0017095579199068647 -0.019582421170528847 0 -0.0016131284308359107 -0.01429677536741974 0 -0.0017970074255846183 -0.020557751551066164 0 -0.00062194565748465846 -0.019622418829203719 0 -0.0010021388473790134 -0.020876544236961725 0 -0.0017095579199068647 -0.019582421170528847 0 -0.0017970074255846183 -0.020557751551066164 0 -0.00020618786090687984 -0.025578623765126707 0 -0.0032394720417600375 -0.010632549808771215 0 -0.0034291694506759425 -0.011196201903069237 0 -0.0029313850882375383 -0.011001632960951257 0 -0.0032394720417600375 -0.010632549808771215 0 -0.0029313850882375383 -0.011001632960951257 0 -0.0026675105832420264 -0.01062975948953801 0 -0.0034291694506759425 -0.011196201903069237 0 -0.0029313850882375383 -0.011001632960951257 0 -0.0028859349214172933 -0.011397758913262564 0 -0.0029313850882375383 -0.011001632960951257 0 -0.002507219140639855 -0.011112406986477448 0 -0.0028859349214172933 -0.011397758913262564 0 -0.0029313850882375383 -0.011001632960951257 0 -0.0026675105832420264 -0.01062975948953801 0 -0.002507219140639855 -0.011112406986477448 0 -0.0032394720417600375 -0.010632549808771215 0 -0.0026675105832420264 -0.01062975948953801 0 -0.002640016144849309 -0.010265291660477429 0 -0.0030444365113824002 -0.010149245838072097 0 -0.0032394720417600375 -0.010632549808771215 0 -0.002640016144849309 -0.010265291660477429 0 -0.002342887541746619 -0.010171528853316052 0 -0.002640016144849309 -0.010265291660477429 0 -0.0023084617110065496 -0.010319052235219849 0 -0.0026675105832420264 -0.01062975948953801 0 -0.002640016144849309 -0.010265291660477429 0 -0.0023084617110065496 -0.010319052235219849 0 -0.0021150394079329088 -0.010283715831636987 0 -0.0023084617110065496 -0.010319052235219849 0 -0.0020961819242728691 -0.010272686646157854 0 -0.0021150394079329088 -0.010283715831636987 0 -0.002342887541746619 -0.010171528853316052 0 -0.0023084617110065496 -0.010319052235219849 0 -0.0023474564818438157 -0.010629880090429289 0 -0.0020961819242728691 -0.010272686646157854 0 -0.002117625066410376 -0.010900075375375738 0 -0.0023084617110065496 -0.010319052235219849 0 -0.0023474564818438157 -0.010629880090429289 0 -0.0020961819242728691 -0.010272686646157854 0 -0.0026675105832420264 -0.01062975948953801 0 -0.0023084617110065496 -0.010319052235219849 0 -0.0023474564818438157 -0.010629880090429289 0 -0.0025565638943621091 -0.0096286036060731009 0 -0.0023988214391866005 -0.0098129763093051676 0 -0.0021150394079329088 -0.010283715831636987 0 -0.0022650342219332968 -0.0099568629020051359 0 -0.0024698687505501997 -0.009715830990779533 0 -0.0021150394079329088 -0.010283715831636987 0 -0.0020961819242728691 -0.010272686646157854 0 -0.0022650342219332968 -0.0099568629020051359 0 -0.0022650342219332968 -0.0099568629020051359 0 -0.0023194627426390124 -0.0096339053993958652 0 -0.0024698687505501997 -0.009715830990779533 0 -0.0020961819242728691 -0.010272686646157854 0 -0.0016068978485292221 -0.011019502855661882 0 -0.002117625066410376 -0.010900075375375738 0 -0.0020831009274148884 -0.010249199120304642 0 -0.0019710203377074557 -0.01034797146631394 0 -0.0020961819242728691 -0.010272686646157854 0 -0.0022650342219332968 -0.0099568629020051359 0 -0.0023194627426390124 -0.0096339053993958652 0 -0.0016068978485292221 -0.011019502855661882 0 -0.002117625066410376 -0.010900075375375738 0 -0.0020873800428654094 -0.011412618228228507 0 -0.0023474564818438157 -0.010629880090429289 0 -0.002117625066410376 -0.010900075375375738 0 -0.002507219140639855 -0.011112406986477448 0 -0.0026675105832420264 -0.01062975948953801 0 -0.0023474564818438157 -0.010629880090429289 0 -0.002507219140639855 -0.011112406986477448 0 -0.002117625066410376 -0.010900075375375738 0 -0.002507219140639855 -0.011112406986477448 0 -0.0020873800428654094 -0.011412618228228507 0 -0.0020873800428654094 -0.011412618228228507 0 -0.0020496122891349262 -0.012038123958353322 0 -0.0025656565124504019 -0.011807036268177572 0 -0.002507219140639855 -0.011112406986477448 0 -0.0020873800428654094 -0.011412618228228507 0 -0.0025656565124504019 -0.011807036268177572 0 -0.0016354103080930516 -0.011521298832252513 0 -0.0020496122891349262 -0.012038123958353322 0 -0.001428172533905268 -0.011697047605310061 0 -0.0020873800428654094 -0.011412618228228507 0 -0.0016354103080930516 -0.011521298832252513 0 -0.0020496122891349262 -0.012038123958353322 0 -0.0016068978485292221 -0.011019502855661882 0 -0.0016354103080930516 -0.011521298832252513 0 -0.001237417412392911 -0.011618251397059094 0 -0.0016068978485292221 -0.011019502855661882 0 -0.0020873800428654094 -0.011412618228228507 0 -0.0016354103080930516 -0.011521298832252513 0 -0.00131496259400653 -0.011700566331994469 0 -0.0013195437404164166 -0.011607702438492523 0 -0.0014004523815781846 -0.011608866751003892 0 -0.00131496259400653 -0.011700566331994469 0 -0.001428172533905268 -0.011697047605310061 0 -0.0014004523815781846 -0.011608866751003892 0 -0.0015349500251894393 -0.0111950185742617 0 -0.0015528376702620946 -0.011864335346946323 0 -0.00131496259400653 -0.011700566331994469 0 -0.0011699440094954262 -0.011727397639621261 0 -0.0013195437404164166 -0.011607702438492523 0 -0.0020496122891349262 -0.012038123958353322 0 -0.0027979095886269839 -0.012408680129767501 0 -0.0025656565124504019 -0.011807036268177572 0 -0.0015349500251894393 -0.0111950185742617 0 -0.0011014097798440689 -0.019058345210892228 0 -0.0011014097798440689 -0.019058345210892228 0 -0.002760701696232791 -0.015906141270605079 0 -0.0027979095886269839 -0.012408680129767501 0 -0.0031302262700379376 -0.011780154024141211 0 -0.0025656565124504019 -0.011807036268177572 0 -0.00030470177498651121 -0.024043425952935762 0 -0.0014448371871847491 -0.021960474331571136 0 -0.0021731454340323079 -0.024930981435817172 0 -0.0014448371871847491 -0.021960474331571136 0 -0.0021731454340323079 -0.024930981435817172 0 -0.0034412938450804034 -0.022791131578135431 0 -0.0034291694506759425 -0.011196201903069237 0 -0.0031302262700379376 -0.011780154024141211 0 -0.0028859349214172933 -0.011397758913262564 0 -0.0017970074255846183 -0.020557751551066164 0 -0.002760701696232791 -0.015906141270605079 0 -0.0025756817358493257 -0.019884014889614554 0 -0.0014448371871847491 -0.021960474331571136 0 -0.0034412938450804034 -0.022791131578135431 0 -0.0017970074255846183 -0.020557751551066164 0 -0.0017681768454734766 -0.027159589296988387 0 -0.002507219140639855 -0.011112406986477448 0 -0.0025656565124504019 -0.011807036268177572 0 -0.0028859349214172933 -0.011397758913262564 0 -0.0031302262700379376 -0.011780154024141211 0 -0.0025656565124504019 -0.011807036268177572 0 -0.0028859349214172933 -0.011397758913262564 0 -0.0017430988897314938 -0.0093048781133897099 0 -0.0019402994073029959 -0.009049354898287296 0 -0.0020037318415703376 -0.0094765304569925241 0 -0.0019402994073029959 -0.009049354898287296 0 -0.0020037318415703376 -0.0094765304569925241 0 -0.0021752696586563583 -0.0094001764353273554 0 -0.0022120023833738203 -0.0091944881814284493 0 -0.0019402994073029959 -0.009049354898287296 0 -0.0021752696586563583 -0.0094001764353273554 0 -0.0021752696586563583 -0.0094001764353273554 0 -0.0023067702740889782 -0.0095808847939192407 0 -0.0021845007719950823 -0.0096188478474122305 0 -0.0020037318415703376 -0.0094765304569925241 0 -0.0021752696586563583 -0.0094001764353273554 0 -0.0021845007719950823 -0.0096188478474122305 0 -0.0021752696586563583 -0.0094001764353273554 0 -0.0023067702740889782 -0.0095808847939192407 0 -0.0023263226942458171 -0.0094829334603903463 0 -0.0023067702740889782 -0.0095808847939192407 0 -0.0023916745481913576 -0.0096206538299588602 0 -0.002377838668412016 -0.0096376648011359083 0 -0.0023067702740889782 -0.0095808847939192407 0 -0.002377838668412016 -0.0096376648011359083 0 -0.0023215660814193124 -0.0096594689227060236 0 -0.0023067702740889782 -0.0095808847939192407 0 -0.0023263226942458171 -0.0094829334603903463 0 -0.0023916745481913576 -0.0096206538299588602 0 -0.0022120023833738203 -0.0091944881814284493 0 -0.0023263226942458171 -0.0094829334603903463 0 -0.0024353315135935026 -0.0093926275603646008 0 -0.0022120023833738203 -0.0091944881814284493 0 -0.0021752696586563583 -0.0094001764353273554 0 -0.0023263226942458171 -0.0094829334603903463 0 -0.0026814795787931467 -0.0093828817455268096 0 -0.0024353315135935026 -0.0093926275603646008 0 -0.0024698687505501997 -0.009715830990779533 0 -0.0023263226942458171 -0.0094829334603903463 0 -0.0024353315135935026 -0.0093926275603646008 0 -0.0024698687505501997 -0.009715830990779533 0 -0.0023194627426390124 -0.0096339053993958652 0 -0.0024698687505501997 -0.009715830990779533 0 -0.0024147687469027769 -0.0096432459733483498 0 -0.0023263226942458171 -0.0094829334603903463 0 -0.0024698687505501997 -0.009715830990779533 0 -0.0023916745481913576 -0.0096206538299588602 0 -0.0024698687505501997 -0.009715830990779533 0 -0.0023916745481913576 -0.0096206538299588602 0 -0.0024147687469027769 -0.0096432459733483498 0 -0.0023916745481913576 -0.0096206538299588602 0 -0.002377838668412016 -0.0096376648011359083 0 -0.0024147687469027769 -0.0096432459733483498 0 -0.0023194627426390124 -0.0096339053993958652 0 -0.0024147687469027769 -0.0096432459733483498 0 -0.0024253418018500067 -0.0096630000325520302 0 -0.002377838668412016 -0.0096376648011359083 0 -0.0024253418018500067 -0.0096630000325520302 0 -0.0023215660814193124 -0.0096594689227060236 0 -0.0019710203377074557 -0.01034797146631394 0 -0.0019722168509120172 -0.010689834589161741 0 -0.0013974404246674687 -0.011347075035358036 0 -0.0019722168509120172 -0.010689834589161741 0 -0.002377838668412016 -0.0096376648011359083 0 -0.0024147687469027769 -0.0096432459733483498 0 -0.0024253418018500067 -0.0096630000325520302 0 -0.001428172533905268 -0.011697047605310061 0 -0.001418661090742784 -0.011685738257497141 0 -0.0014576520140968275 -0.011646546823614674 0 -0.0016354103080930516 -0.011521298832252513 0 -0.001428172533905268 -0.011697047605310061 0 -0.001418661090742784 -0.011685738257497141 0 -0.001428172533905268 -0.011697047605310061 0 -0.0014576520140968275 -0.011646546823614674 0 -0.0014004523815781846 -0.011608866751003892 0 -0.0019722168509120172 -0.010689834589161741 0 -0.0018283692451648776 -0.011026698102451746 0 -0.001418661090742784 -0.011685738257497141 0 -0.0014576520140968275 -0.011646546823614674 0 -0.001544336182173226 -0.01162721535225068 0 -0.0014576520140968275 -0.011646546823614674 0 -0.001544336182173226 -0.01162721535225068 0 -0.0014979537351003408 -0.011479322174427618 0 -0.002325760757771841 -0.010124675676576529 0 -0.0021621246036467793 -0.010362064582037336 0 -0.0019499359729206424 -0.010203796202718029 0 -0.0021621246036467793 -0.010362064582037336 0 -0.0019499359729206424 -0.010203796202718029 0 -0.0017962779208347439 -0.010412224657178577 0 -0.0024253418018500067 -0.0096630000325520302 0 -0.0023215660814193124 -0.0096594689227060236 0 -0.0022562609767504617 -0.0097651942348653473 0 -0.0019722168509120172 -0.010689834589161741 0 -0.002206397202178989 -0.009874846021252312 0 -0.0023215660814193124 -0.0096594689227060236 0 -0.0021845007719950823 -0.0096188478474122305 0 -0.0022562609767504617 -0.0097651942348653473 0 -0.0023067702740889782 -0.0095808847939192407 0 -0.0023215660814193124 -0.0096594689227060236 0 -0.0021845007719950823 -0.0096188478474122305 0 -0.0021845007719950823 -0.0096188478474122305 0 -0.0022562609767504617 -0.0097651942348653473 0 -0.0019637179143613655 -0.0098918996871760912 0 -0.0019499359729206424 -0.010203796202718029 0 -0.0017962779208347439 -0.010412224657178577 0 -0.0015722926775361484 -0.010268762210536003 0 -0.002206397202178989 -0.009874846021252312 0 -0.0017251039847797217 -0.010097096360174499 0 -0.0020037318415703376 -0.0094765304569925241 0 -0.0021845007719950823 -0.0096188478474122305 0 -0.0019637179143613655 -0.0098918996871760912 0 -0.0018067073201923571 -0.0095777890604702848 0 -0.0020037318415703376 -0.0094765304569925241 0 -0.0019637179143613655 -0.0098918996871760912 0 -0.0015602953385850055 -0.010607900344418371 0 -0.0017308932073544351 -0.011039195786822435 0 -0.0015465958676339679 -0.010950223598579485 0 -0.0013953884163156432 -0.010790127348590309 0 -0.0015602953385850055 -0.010607900344418371 0 -0.0015465958676339679 -0.010950223598579485 0 -0.0017962779208347439 -0.010412224657178577 0 -0.0015722926775361484 -0.010268762210536003 0 -0.0015602953385850055 -0.010607900344418371 0 -0.0017962779208347439 -0.010412224657178577 0 -0.0015602953385850055 -0.010607900344418371 0 -0.0019941265917781475 -0.010633622883579875 0 -0.0015602953385850055 -0.010607900344418371 0 -0.0017308932073544351 -0.011039195786822435 0 -0.0019941265917781475 -0.010633622883579875 0 -0.0017426662430675849 -0.011059590204994595 0 -0.0018195284492332389 -0.011024673475588701 0 -0.0017308932073544351 -0.011039195786822435 0 -0.0016086779110456417 -0.011226468786776357 0 -0.0016638019048009736 -0.011427623729304686 0 -0.0016086779110456417 -0.011226468786776357 0 -0.0016638019048009736 -0.011427623729304686 0 -0.0014979537351003408 -0.011479322174427618 0 -0.001544336182173226 -0.01162721535225068 0 -0.0016638019048009736 -0.011427623729304686 0 -0.0014979537351003408 -0.011479322174427618 0 -0.0021621246036467793 -0.010362064582037336 0 -0.0017962779208347439 -0.010412224657178577 0 -0.0019941265917781475 -0.010633622883579875 0 -0.0018283692451648776 -0.011026698102451746 0 -0.0018195284492332389 -0.011024673475588701 0 -0.0014979537351003408 -0.011479322174427618 0 -0.0014004523815781846 -0.011608866751003892 0 -0.0013904243426232012 -0.011490345717401252 0 -0.0014576520140968275 -0.011646546823614674 0 -0.0014979537351003408 -0.011479322174427618 0 -0.0014004523815781846 -0.011608866751003892 0 -0.0016086779110456417 -0.011226468786776357 0 -0.0014979537351003408 -0.011479322174427618 0 -0.0014957853826040493 -0.011337611828628658 0 -0.0014979537351003408 -0.011479322174427618 0 -0.0014957853826040493 -0.011337611828628658 0 -0.0013904243426232012 -0.011490345717401252 0 -0.0016086779110456417 -0.011226468786776357 0 -0.0014957853826040493 -0.011337611828628658 0 -0.0015569004866533833 -0.011256824641962636 0 -0.0014957853826040493 -0.011337611828628658 0 -0.001507012904866905 -0.011304387133376169 0 -0.0015569004866533833 -0.011256824641962636 0 -0.001507012904866905 -0.011304387133376169 0 -0.0015328097740523365 -0.011268811378632768 0 -0.001530610010213351 -0.011346707306028455 0 -0.001507012904866905 -0.011304387133376169 0 -0.0015328097740523365 -0.011268811378632768 0 -0.0015569004866533833 -0.011256824641962636 0 -0.0015328097740523365 -0.011268811378632768 0 -0.0016349694433374356 -0.011179799930340463 0 -0.0015569004866533833 -0.011256824641962636 0 -0.0016129281292613211 -0.011215174040300003 0 -0.0015328097740523365 -0.011268811378632768 0 -0.0016349694433374356 -0.011179799930340463 0 -0.0016086779110456417 -0.011226468786776357 0 -0.0016349694433374356 -0.011179799930340463 0 -0.0015569004866533833 -0.011256824641962636 0 -0.0017308932073544351 -0.011039195786822435 0 -0.0016349694433374356 -0.011179799930340463 0 -0.0015642791447803637 -0.011099529307608371 0 -0.0017308932073544351 -0.011039195786822435 0 -0.0016086779110456417 -0.011226468786776357 0 -0.0016349694433374356 -0.011179799930340463 0 -0.0016129281292613211 -0.011215174040300003 0 -0.0016349694433374356 -0.011179799930340463 0 -0.0016032234210492128 -0.011175504306359942 0 -0.0016349694433374356 -0.011179799930340463 0 -0.0016032234210492128 -0.011175504306359942 0 -0.0015642791447803637 -0.011099529307608371 0 -0.0016129281292613211 -0.011215174040300003 0 -0.0015806960641437597 -0.01120339428917728 0 -0.0016032234210492128 -0.011175504306359942 0 -0.0014495819534504587 -0.011280497551850569 0 -0.0015806960641437597 -0.01120339428917728 0 -0.0015642791447803637 -0.011099529307608371 0 -0.0015806960641437597 -0.01120339428917728 0 -0.0016032234210492128 -0.011175504306359942 0 -0.0015642791447803637 -0.011099529307608371 0 -0.0017308932073544351 -0.011039195786822435 0 -0.0015642791447803637 -0.011099529307608371 0 -0.0015465958676339679 -0.010950223598579485 0 -0.0013460002644846388 -0.010977259753149397 0 -0.0015642791447803637 -0.011099529307608371 0 -0.0015465958676339679 -0.010950223598579485 0 -0.00092209011794036361 -0.030240282493197983 0 -0.00098469294133646376 -0.030121752336721198 0 -0.0010511162857160521 -0.030254263975178743 0 -0.00092209011794036361 -0.030240282493197983 0 -0.00098469294133646376 -0.030121752336721198 0 -0.00084947658784646632 -0.030097608602797636 0 -0.00098469294133646376 -0.030121752336721198 0 -0.0010031585737559417 -0.029981607166102989 0 -0.00084947658784646632 -0.030097608602797636 0 -0.0010511162857160521 -0.030254263975178743 0 -0.0011237193797416754 -0.030129435103413659 0 -0.0011888319278713345 -0.03024054461309969 0 -0.0011237193797416754 -0.030129435103413659 0 -0.0011888319278713345 -0.03024054461309969 0 -0.001171472758862626 -0.030115930196860055 0 -0.00098469294133646376 -0.030121752336721198 0 -0.0010511162857160521 -0.030254263975178743 0 -0.0010538807709742685 -0.03008763811767038 0 -0.0010511162857160521 -0.030254263975178743 0 -0.0011237193797416754 -0.030129435103413659 0 -0.0010538807709742685 -0.03008763811767038 0 -0.0010538807709742685 -0.03008763811767038 0 -0.0010954758243299115 -0.029944316170427789 0 -0.0010031585737559417 -0.029981607166102989 0 -0.0011237193797416754 -0.030129435103413659 0 -0.0010538807709742685 -0.03008763811767038 0 -0.0010954758243299115 -0.029944316170427789 0 -0.0020009706985762757 -0.027974054827093996 0 -0.0019779640524912783 -0.028641868788228417 0 -0.0011237193797416754 -0.030129435103413659 0 -0.0010954758243299115 -0.029944316170427789 0 -0.001171472758862626 -0.030115930196860055 0 -0.0011014097798440689 -0.019058345210892228 0 -0.00094813886491893829 -0.021178216657986641 0 -0.0011014097798440689 -0.019058345210892228 0 -0.0020009706985762757 -0.027974054827093996 0 -0.00092594275982708007 -0.029797858122973565 0 -0.0010031585737559417 -0.029981607166102989 0 -0.00084947658784646632 -0.030097608602797636 0 -0.00092594275982708007 -0.029797858122973565 0 -0.0010954758243299115 -0.029944316170427789 0 -0.0010031585737559417 -0.029981607166102989 0 -0.00098469294133646376 -0.030121752336721198 0 -0.0010538807709742685 -0.03008763811767038 0 -0.0010031585737559417 -0.029981607166102989 0 -0.0013195437404164166 -0.011607702438492523 0 -0.0013904243426232012 -0.011490345717401252 0 -0.0012434829911318788 -0.011558859995592538 0 -0.0011699440094954262 -0.011727397639621261 0 -0.0013195437404164166 -0.011607702438492523 0 -0.0012434829911318788 -0.011558859995592538 0 -0.0013195437404164166 -0.011607702438492523 0 -0.0014004523815781846 -0.011608866751003892 0 -0.0013904243426232012 -0.011490345717401252 0 -0.0014957853826040493 -0.011337611828628658 0 -0.0013904243426232012 -0.011490345717401252 0 -0.0013757327018807664 -0.011384902117923873 0 -0.00092209011794036361 -0.030240282493197983 0 -0.00084947658784646632 -0.030097608602797636 0 -0.00090601235486977873 -0.030278997313640071 0 -0.00094813886491893829 -0.021178216657986641 0 -0.0012473112640748671 -0.020592276047577223 0 -0.0013904243426232012 -0.011490345717401252 0 -0.0012434829911318788 -0.011558859995592538 0 -0.0013757327018807664 -0.011384902117923873 0 -0.00092209011794036361 -0.030240282493197983 0 -0.00090601235486977873 -0.030278997313640071 0 -0.00092909694037426004 -0.030387776708830586 0 -0.0014957853826040493 -0.011337611828628658 0 -0.001507012904866905 -0.011304387133376169 0 -0.0013757327018807664 -0.011384902117923873 0 -0.001507012904866905 -0.011304387133376169 0 -0.0013757327018807664 -0.011384902117923873 0 -0.001530610010213351 -0.011346707306028455 0 -0.0012473112640748671 -0.020592276047577223 0 -0.0010046417517362671 -0.021674057283037396 0 -0.00095313735040518323 -0.030333470771630913 0 -0.00090601235486977873 -0.030278997313640071 0 -0.0010380825217664673 -0.030257608205278275 0 -0.00095313735040518323 -0.030333470771630913 0 -0.00090601235486977873 -0.030278997313640071 0 -0.00092909694037426004 -0.030387776708830586 0 -0.00089927447192893954 -0.030552091868240719 0 -0.00095313735040518323 -0.030333470771630913 0 -0.00092909694037426004 -0.030387776708830586 0 -0.00092209011794036361 -0.030240282493197983 0 -0.0010511162857160521 -0.030254263975178743 0 -0.00092909694037426004 -0.030387776708830586 0 -0.0010511162857160521 -0.030254263975178743 0 -0.0010644162511765161 -0.030484009682209282 0 -0.0012047765532242586 -0.030410079884208015 0 -0.0010511162857160521 -0.030254263975178743 0 -0.00092909694037426004 -0.030387776708830586 0 -0.0010644162511765161 -0.030484009682209282 0 -0.00089927447192893954 -0.030552091868240719 0 -0.001162520280400998 -0.030713355424354067 0 -0.0010644162511765161 -0.030484009682209282 0 -0.00089927447192893954 -0.030552091868240719 0 -0.00092909694037426004 -0.030387776708830586 0 -0.0010644162511765161 -0.030484009682209282 0 -0.001162520280400998 -0.030713355424354067 0 -0.001311095203221964 -0.030891545018499625 0 -0.001311642331720739 -0.030736270374446477 0 -0.001162520280400998 -0.030713355424354067 0 -0.0012301488705095353 -0.03059076721280506 0 -0.001311642331720739 -0.030736270374446477 0 -0.0012301488705095353 -0.03059076721280506 0 -0.001311642331720739 -0.030736270374446477 0 -0.0013208115281109368 -0.030649974278405288 0 -0.001162520280400998 -0.030713355424354067 0 -0.0010644162511765161 -0.030484009682209282 0 -0.0012301488705095353 -0.03059076721280506 0 -0.0014217887946374216 -0.030879588573767471 0 -0.0014127859554090665 -0.03072143137045117 0 -0.0015322966629117377 -0.030896781146077655 0 -0.0014217887946374216 -0.030879588573767471 0 -0.001311642331720739 -0.030736270374446477 0 -0.0014127859554090665 -0.03072143137045117 0 -0.001311095203221964 -0.030891545018499625 0 -0.0014217887946374216 -0.030879588573767471 0 -0.001311642331720739 -0.030736270374446477 0 -0.0012301488705095353 -0.03059076721280506 0 -0.0013208115281109368 -0.030649974278405288 0 -0.0013286618067210427 -0.030549907807190642 0 -0.0013208115281109368 -0.030649974278405288 0 -0.0014127859554090665 -0.03072143137045117 0 -0.0013286618067210427 -0.030549907807190642 0 -0.001311642331720739 -0.030736270374446477 0 -0.0013208115281109368 -0.030649974278405288 0 -0.0014127859554090665 -0.03072143137045117 0 -0.0014127859554090665 -0.03072143137045117 0 -0.0013286618067210427 -0.030549907807190642 0 -0.0014735953843966778 -0.030590919831726019 0 -0.0013286618067210427 -0.030549907807190642 0 -0.0013440483265864461 -0.030423598122742396 0 -0.0014735953843966778 -0.030590919831726019 0 -0.0013440483265864461 -0.030423598122742396 0 -0.0014336064476710209 -0.030370477374174736 0 -0.0014735953843966778 -0.030590919831726019 0 -0.0010644162511765161 -0.030484009682209282 0 -0.0012301488705095353 -0.03059076721280506 0 -0.0012047765532242586 -0.030410079884208015 0 -0.0012301488705095353 -0.03059076721280506 0 -0.0013286618067210427 -0.030549907807190642 0 -0.0012047765532242586 -0.030410079884208015 0 -0.0013440483265864461 -0.030423598122742396 0 -0.0012047765532242586 -0.030410079884208015 0 -0.001284232068226908 -0.030310216507144383 0 -0.0013286618067210427 -0.030549907807190642 0 -0.0013440483265864461 -0.030423598122742396 0 -0.0012047765532242586 -0.030410079884208015 0 -0.0010511162857160521 -0.030254263975178743 0 -0.0012047765532242586 -0.030410079884208015 0 -0.0011888319278713345 -0.03024054461309969 0 -0.0011888319278713345 -0.03024054461309969 0 -0.001171472758862626 -0.030115930196860055 0 -0.0012770642116614365 -0.030151163017182347 0 -0.0016379139616276882 -0.029935735115753901 0 -0.0014535320732321653 -0.030226787155775366 0 -0.0011888319278713345 -0.03024054461309969 0 -0.0012770642116614365 -0.030151163017182347 0 -0.001284232068226908 -0.030310216507144383 0 -0.0012047765532242586 -0.030410079884208015 0 -0.0011888319278713345 -0.03024054461309969 0 -0.001284232068226908 -0.030310216507144383 0 -0.0013440483265864461 -0.030423598122742396 0 -0.001284232068226908 -0.030310216507144383 0 -0.0014336064476710209 -0.030370477374174736 0 -0.0016379139616276882 -0.029935735115753901 0 -0.0014385950088328231 -0.030630453329609005 0 -0.0019779640524912783 -0.028641868788228417 0 -0.0011260674997190267 -0.031121242658450732 0 -0.0013144886679078956 -0.030704671888273669 0 -0.0014935528391556549 -0.030842992438523807 0 -0.0015463054207865243 -0.030774621619055191 0 -0.0013144886679078956 -0.030704671888273669 0 -0.0012975011303266628 -0.03063356011294632 0 -0.0015463054207865243 -0.030774621619055191 0 -0.0012564811177080907 -0.030195403641835452 0 -0.001284232068226908 -0.030310216507144383 0 -0.0014336064476710209 -0.030370477374174736 0 -0.00080949523851654281 -0.030696451410621162 0 -0.0003212184463175913 -0.03086245252749931 0 -0.00053649740093682262 -0.03041192866985197 0 -0.00080949523851654281 -0.030696451410621162 0 -0.0003212184463175913 -0.03086245252749931 0 -0.0010563675914477294 -0.031030306444578409 0 -0.0021731454340323079 -0.024930981435817172 0 -0.0042908052387889955 -0.025723028917338405 0 -0.0034412938450804034 -0.022791131578135431 0 -0.0020009706985762757 -0.027974054827093996 0 -0.0016379139616276882 -0.029935735115753901 0 -0.0016318879720759447 -0.02867360646836201 0 -0.0020313455352220038 -0.028948263471562572 0 -0.001995685903670484 -0.028818300805003173 0 -0.0010954758243299115 -0.029944316170427789 0 -0.001171472758862626 -0.030115930196860055 0 -0.0012770642116614365 -0.030151163017182347 0 -0.0016379139616276882 -0.029935735115753901 0 -0.0019779640524912783 -0.028641868788228417 0 -0.0014162092212403941 -0.030852662612306677 0 -0.0015693375566577898 -0.030574892169226604 0 -0.0011796183064601037 -0.030713513235870387 0 -0.0014162092212403941 -0.030852662612306677 0 -0.0016612733767065021 -0.030804460907481519 0 -0.0015693375566577898 -0.030574892169226604 0 -0.0014162092212403941 -0.030852662612306677 0 -0.0011796183064601037 -0.030713513235870387 0 -0.0010563675914477294 -0.031030306444578409 0 -0.0015693375566577898 -0.030574892169226604 0 -0.0011796183064601037 -0.030713513235870387 0 -0.00099836090445027011 -0.030401893923650888 0 -0.00080949523851654281 -0.030696451410621162 0 -0.0011796183064601037 -0.030713513235870387 0 -0.00099836090445027011 -0.030401893923650888 0 -0.00080949523851654281 -0.030696451410621162 0 -0.0011796183064601037 -0.030713513235870387 0 -0.0010563675914477294 -0.031030306444578409 0 -0.0011260674997190267 -0.031121242658450732 0 -0.0016751579197351878 -0.030955281769137644 0 -0.0014935528391556549 -0.030842992438523807 0 -0.0015463054207865243 -0.030774621619055191 0 -0.0016517939726544291 -0.030950962402693454 0 -0.0014162092212403941 -0.030852662612306677 0 -0.0010563675914477294 -0.031030306444578409 0 -0.0015795569681329282 -0.031055888804629981 0 -0.0015463054207865243 -0.030774621619055191 0 -0.0017421478153452547 -0.030899363992022841 0 -0.0016517939726544291 -0.030950962402693454 0 -0.0014162092212403941 -0.030852662612306677 0 -0.0016612733767065021 -0.030804460907481519 0 -0.0015795569681329282 -0.031055888804629981 0 -0.0016303583850939647 -0.030796144177513193 0 -0.001753641814668685 -0.030961592735309733 0 -0.0016294926233565035 -0.030640318761100228 0 -0.0016239894472795866 -0.030873058034558473 0 -0.0017686344267231436 -0.031006847208544571 0 -0.0017421478153452547 -0.030899363992022841 0 -0.0016517939726544291 -0.030950962402693454 0 -0.0017686344267231436 -0.031006847208544571 0 -0.0014385950088328231 -0.030630453329609005 0 -0.0016303583850939647 -0.030796144177513193 0 -0.0014336064476710209 -0.030370477374174736 0 -0.0016294926233565035 -0.030640318761100228 0 -0.0014735953843966778 -0.030590919831726019 0 -0.0016294926233565035 -0.030640318761100228 0 -0.0015266018889172049 -0.030749381788059405 0 -0.0016239894472795866 -0.030873058034558473 0 -0.0014127859554090665 -0.03072143137045117 0 -0.0014735953843966778 -0.030590919831726019 0 -0.0015266018889172049 -0.030749381788059405 0 -0.0016294926233565035 -0.030640318761100228 0 -0.0014735953843966778 -0.030590919831726019 0 -0.0015266018889172049 -0.030749381788059405 0 -0.0014127859554090665 -0.03072143137045117 0 -0.0015266018889172049 -0.030749381788059405 0 -0.0015322966629117377 -0.030896781146077655 0 -0.0015266018889172049 -0.030749381788059405 0 -0.0016239894472795866 -0.030873058034558473 0 -0.0015322966629117377 -0.030896781146077655 0 -0.0016239894472795866 -0.030873058034558473 0 -0.0015322966629117377 -0.030896781146077655 0 -0.0016495670067569511 -0.031044107680481041 0 -0.0017339362187661846 -0.031230815199347891 0 -0.0017686344267231436 -0.031006847208544571 0 -0.0016495670067569511 -0.031044107680481041 0 -0.0016239894472795866 -0.030873058034558473 0 -0.0017686344267231436 -0.031006847208544571 0 -0.0016495670067569511 -0.031044107680481041 0 -0.0018275947315760895 -0.031254795287910038 0 -0.0017686344267231436 -0.031006847208544571 0 -0.0018909122183139824 -0.031194643332254194 0 -0.0017686344267231436 -0.031006847208544571 0 -0.0018909122183139824 -0.031194643332254194 0 -0.0018740335874908153 -0.031051061623887752 0 -0.0018909122183139824 -0.031194643332254194 0 -0.0018740335874908153 -0.031051061623887752 0 -0.0019787910671778641 -0.031127897357847104 0 -0.0020308324829373219 -0.031339608107809891 0 -0.0018909122183139824 -0.031194643332254194 0 -0.0019787910671778641 -0.031127897357847104 0 -0.0018740335874908153 -0.031051061623887752 0 -0.0019787910671778641 -0.031127897357847104 0 -0.0019682704257231684 -0.030929289113199334 0 -0.0016751579197351878 -0.030955281769137644 0 -0.0018448668373609294 -0.031047853390394807 0 -0.0017421478153452547 -0.030899363992022841 0 -0.0017686344267231436 -0.031006847208544571 0 -0.0018740335874908153 -0.031051061623887752 0 -0.0022306562444118897 -0.03143116657210334 0 -0.0023458529491614663 -0.031324217207266906 0 -0.0021616427461439102 -0.031138507793609924 0 -0.0023458529491614663 -0.031324217207266906 0 -0.0023727641501703491 -0.031160953035498835 0 -0.0021616427461439102 -0.031138507793609924 0 -0.0020308324829373219 -0.031339608107809891 0 -0.0019787910671778641 -0.031127897357847104 0 -0.0021616427461439102 -0.031138507793609924 0 -0.0022306562444118897 -0.03143116657210334 0 -0.0020308324829373219 -0.031339608107809891 0 -0.0021616427461439102 -0.031138507793609924 0 -0.0019787910671778641 -0.031127897357847104 0 -0.0021616427461439102 -0.031138507793609924 0 -0.0019682704257231684 -0.030929289113199334 0 -0.0021616427461439102 -0.031138507793609924 0 -0.0023050020893623049 -0.030966849705450071 0 -0.0021454692198105583 -0.030891510227628618 0 -0.0023727641501703491 -0.031160953035498835 0 -0.0021616427461439102 -0.031138507793609924 0 -0.0023050020893623049 -0.030966849705450071 0 -0.0023407617105904235 -0.030712219420932368 0 -0.0023050020893623049 -0.030966849705450071 0 -0.0021454692198105583 -0.030891510227628618 0 -0.0021454692198105583 -0.030891510227628618 0 -0.0021082101856200507 -0.030681624174095236 0 -0.0019682704257231684 -0.030929289113199334 0 -0.0021616427461439102 -0.031138507793609924 0 -0.0021454692198105583 -0.030891510227628618 0 -0.0019682704257231684 -0.030929289113199334 0 -0.0023407617105904235 -0.030712219420932368 0 -0.0021454692198105583 -0.030891510227628618 0 -0.0021082101856200507 -0.030681624174095236 0 -0.0016612733767065021 -0.030804460907481519 0 -0.0015795569681329282 -0.031055888804629981 0 -0.0018049641127906367 -0.030885058055291743 0 -0.0015795569681329282 -0.031055888804629981 0 -0.0018740335874908153 -0.031051061623887752 0 -0.0018049641127906367 -0.030885058055291743 0 -0.0018049641127906367 -0.030885058055291743 0 -0.0019682704257231684 -0.030929289113199334 0 -0.0018672539619483521 -0.030657826824213988 0 -0.0018740335874908153 -0.031051061623887752 0 -0.0018049641127906367 -0.030885058055291743 0 -0.0019682704257231684 -0.030929289113199334 0 -0.0021082101856200507 -0.030681624174095236 0 -0.0019682704257231684 -0.030929289113199334 0 -0.0018672539619483521 -0.030657826824213988 0 -0.0016612733767065021 -0.030804460907481519 0 -0.0018049641127906367 -0.030885058055291743 0 -0.0018672539619483521 -0.030657826824213988 0 -0.0016612733767065021 -0.030804460907481519 0 -0.0015693375566577898 -0.030574892169226604 0 -0.0018672539619483521 -0.030657826824213988 0 -0.0015693375566577898 -0.030574892169226604 0 -0.0018672539619483521 -0.030657826824213988 0 -0.0018151543492963445 -0.030370361836877545 0 -0.0018672539619483521 -0.030657826824213988 0 -0.0020051199660542983 -0.030424939419396915 0 -0.0018151543492963445 -0.030370361836877545 0 -0.0021082101856200507 -0.030681624174095236 0 -0.0018672539619483521 -0.030657826824213988 0 -0.0020051199660542983 -0.030424939419396915 0 -0.0020051199660542983 -0.030424939419396915 0 -0.0018151543492963445 -0.030370361836877545 0 -0.0017757411910574918 -0.030164534313301516 0 -0.0018151543492963445 -0.030370361836877545 0 -0.0017757411910574918 -0.030164534313301516 0 -0.0016213946743693331 -0.030160559809867541 0 -0.0023407617105904235 -0.030712219420932368 0 -0.0021082101856200507 -0.030681624174095236 0 -0.0022218106132307438 -0.03058593261559461 0 -0.0021082101856200507 -0.030681624174095236 0 -0.0020051199660542983 -0.030424939419396915 0 -0.0022218106132307438 -0.03058593261559461 0 -0.0020051199660542983 -0.030424939419396915 0 -0.0022218106132307438 -0.03058593261559461 0 -0.0021634885495102271 -0.030372643901672929 0 -0.0023705950580912402 -0.030458195515180298 0 -0.0022218106132307438 -0.03058593261559461 0 -0.0021634885495102271 -0.030372643901672929 0 -0.0023705950580912402 -0.030458195515180298 0 -0.0023085999615173923 -0.030289264318494845 0 -0.0021634885495102271 -0.030372643901672929 0 -0.0023085999615173923 -0.030289264318494845 0 -0.0021634885495102271 -0.030372643901672929 0 -0.0021655939181715934 -0.030206655872553233 0 -0.0021634885495102271 -0.030372643901672929 0 -0.002029986861404313 -0.030240255144278451 0 -0.0021655939181715934 -0.030206655872553233 0 -0.0020051199660542983 -0.030424939419396915 0 -0.0021634885495102271 -0.030372643901672929 0 -0.002029986861404313 -0.030240255144278451 0 -0.0021701629057175012 -0.030074713431724156 0 -0.0020780448005722992 -0.030113095429640545 0 -0.0021655939181715934 -0.030206655872553233 0 -0.002029986861404313 -0.030240255144278451 0 -0.0020780448005722992 -0.030113095429640545 0 -0.0019512790984605459 -0.030074302477664832 0 -0.002029986861404313 -0.030240255144278451 0 -0.0020780448005722992 -0.030113095429640545 0 -0.0021655939181715934 -0.030206655872553233 0 -0.0021701629057175012 -0.030074713431724156 0 -0.0021655939181715934 -0.030206655872553233 0 -0.0022740439565565192 -0.030168798127435999 0 -0.0023085999615173923 -0.030289264318494845 0 -0.0021655939181715934 -0.030206655872553233 0 -0.0022740439565565192 -0.030168798127435999 0 -0.0020051199660542983 -0.030424939419396915 0 -0.002029986861404313 -0.030240255144278451 0 -0.0017757411910574918 -0.030164534313301516 0 -0.002029986861404313 -0.030240255144278451 0 -0.0017757411910574918 -0.030164534313301516 0 -0.0019512790984605459 -0.030074302477664832 0 -0.0018288903412602008 -0.029908430114417746 0 -0.0017757411910574918 -0.030164534313301516 0 -0.0019512790984605459 -0.030074302477664832 0 -0.0018288903412602008 -0.029908430114417746 0 -0.0016525294923365077 -0.029927986296225676 0 -0.0017757411910574918 -0.030164534313301516 0 -0.0016525294923365077 -0.029927986296225676 0 -0.0017757411910574918 -0.030164534313301516 0 -0.0014626605943991451 -0.03009884009249264 0 -0.0017757411910574918 -0.030164534313301516 0 -0.0014626605943991451 -0.03009884009249264 0 -0.0016213946743693331 -0.030160559809867541 0 -0.0014321583517915208 -0.029521829014718073 0 -0.0016076289243875238 -0.030084069725892035 0 -0.0014536302824158392 -0.029911095312091077 0 -0.0016525294923365077 -0.029927986296225676 0 -0.0014626605943991451 -0.03009884009249264 0 -0.0011940977864957573 -0.029843930557341598 0 -0.0014536302824158392 -0.029911095312091077 0 -0.0014626605943991451 -0.03009884009249264 0 -0.0013875675146255463 -0.028884884375620874 0 -0.00063559660185707578 -0.02806318855394406 0 -0.00063211515411816098 -0.028698231237870984 0 -0.00096009488027397468 -0.027260486576207252 0 -0.0013875675146255463 -0.028884884375620874 0 -0.00063559660185707578 -0.02806318855394406 0 -0.00099147048761435833 -0.028326150313487203 0 -0.0014321583517915208 -0.029521829014718073 0 -0.00063559660185707578 -0.02806318855394406 0 -0.00063211515411816098 -0.028698231237870984 0 -7.4514260286917194e-05 -0.028475880970241767 0 0.00046801647631162987 -0.028240801654571438 0 0.00012860368441637704 -0.028082620185383086 0 0.00027978870682728436 -0.028345174065403763 0 0.00028015154214933261 -0.026868795610929773 0 -0.00011231198305625225 -0.025854068252864588 0 0.00012860368441637704 -0.028082620185383086 0 0.00024135820127374274 -0.028320124004836109 0 -7.4514260286917194e-05 -0.028475880970241767 0 -0.00022210099892633757 -0.024114578295195293 0 -0.00011231198305625225 -0.025854068252864588 0 -0.00063559660185707578 -0.02806318855394406 0 0.00012860368441637704 -0.028082620185383086 0 -7.4514260286917194e-05 -0.028475880970241767 0 -0.00012307443186430371 -0.02745986574919845 0 -0.00063559660185707578 -0.02806318855394406 0 0.00012860368441637704 -0.028082620185383086 0 -0.00063211515411816098 -0.028698231237870984 0 -7.4514260286917194e-05 -0.028475880970241767 0 -0.00032188059942738059 -0.028887003901817639 0 -0.00012124064190570713 -0.028722243244426553 0 -7.4514260286917194e-05 -0.028475880970241767 0 -0.00032188059942738059 -0.028887003901817639 0 -0.00011231198305625225 -0.025854068252864588 0 -0.00047956184756261551 -0.026632693740683788 0 7.9011066146149193e-05 -0.028387374710094036 0 -7.4514260286917194e-05 -0.028475880970241767 0 0.0001428210329040019 -0.028513827680534953 0 -0.00049625849609322994 -0.025243665512712444 0 -0.00055922853540516643 -0.025280697769374558 0 -0.00051615594853304065 -0.025361386581024405 0 -0.00011231198305625225 -0.025854068252864588 0 -0.00020618786090687984 -0.025578623765126707 0 -0.00012124064190570713 -0.028722243244426553 0 -7.4514260286917194e-05 -0.028475880970241767 0 0.0001428210329040019 -0.028513827680534953 0 -0.00020618786090687984 -0.025578623765126707 0 -0.00033323331829595562 -0.027764943862115071 0 -0.00012124064190570713 -0.028722243244426553 0 0.0001428210329040019 -0.028513827680534953 0 7.362328080990347e-05 -0.028771054762150583 0 -0.00022210099892633757 -0.024114578295195293 0 -0.00020618786090687984 -0.025578623765126707 0 0.00041861384746600267 -0.029199678508972909 0 0.00012173848858308616 -0.02852158726361459 0 7.362328080990347e-05 -0.028771054762150583 0 7.362328080990347e-05 -0.028771054762150583 0 -0.00032188059942738059 -0.028887003901817639 0 -0.00018206702059819115 -0.029360424590251274 0 -0.00012124064190570713 -0.028722243244426553 0 7.362328080990347e-05 -0.028771054762150583 0 -0.00032188059942738059 -0.028887003901817639 0 -0.00032188059942738059 -0.028887003901817639 0 -0.00018206702059819115 -0.029360424590251274 0 -0.00065422643083730089 -0.029152434790297378 0 0.00041861384746600267 -0.029199678508972909 0 7.362328080990347e-05 -0.028771054762150583 0 -0.00018206702059819115 -0.029360424590251274 0 -0.0013875675146255463 -0.028884884375620874 0 -0.00063211515411816098 -0.028698231237870984 0 -0.00065422643083730089 -0.029152434790297378 0 -0.0013875675146255463 -0.028884884375620874 0 -0.00065422643083730089 -0.029152434790297378 0 -0.00076110775884900134 -0.029840081373369336 0 -0.00018206702059819115 -0.029360424590251274 0 -0.00065422643083730089 -0.029152434790297378 0 -0.00076110775884900134 -0.029840081373369336 0 -0.00063211515411816098 -0.028698231237870984 0 -0.00032188059942738059 -0.028887003901817639 0 -0.00065422643083730089 -0.029152434790297378 0 -0.00018206702059819115 -0.029360424590251274 0 -0.00076110775884900134 -0.029840081373369336 0 2.3662070958358121e-05 -0.030141147472857323 0 0.00041861384746600267 -0.029199678508972909 0 -0.00018206702059819115 -0.029360424590251274 0 2.3662070958358121e-05 -0.030141147472857323 0 -0.00076110775884900134 -0.029840081373369336 0 2.3662070958358121e-05 -0.030141147472857323 0 -0.00053649740093682262 -0.03041192866985197 0 -0.0019779640524912783 -0.028641868788228417 0 -0.0017681768454734766 -0.027159589296988387 0 -0.0003212184463175913 -0.03086245252749931 0 2.3662070958358121e-05 -0.030141147472857323 0 -0.00053649740093682262 -0.03041192866985197 0 -0.00076110775884900134 -0.029840081373369336 0 -0.00053649740093682262 -0.03041192866985197 0 -0.00099836090445027011 -0.030401893923650888 0 -0.00080949523851654281 -0.030696451410621162 0 -0.00053649740093682262 -0.03041192866985197 0 -0.00099836090445027011 -0.030401893923650888 0 -0.0015693375566577898 -0.030574892169226604 0 -0.00099836090445027011 -0.030401893923650888 0 -0.0016213946743693331 -0.030160559809867541 0 -0.0015693375566577898 -0.030574892169226604 0 -0.0018151543492963445 -0.030370361836877545 0 -0.0016213946743693331 -0.030160559809867541 0 -0.0013875675146255463 -0.028884884375620874 0 -0.00076110775884900134 -0.029840081373369336 0 -0.0016213946743693331 -0.030160559809867541 0 -0.00076110775884900134 -0.029840081373369336 0 -0.00099836090445027011 -0.030401893923650888 0 -0.0016213946743693331 -0.030160559809867541 0 
</DataArray>
</PointData>
<CellData Scalars="region_id,cross_section_updated," Vectors="" Tensors="stress,">
<DataArray type="Float64" Name="region_id" format="ascii">
5 5 5 5 5 6 5 6 5 5 5 6 5 5 5 5 5 5 5 5 5 5 5 5 6 5 5 6 5 5 5 5 5 5 6 5 5 5 5 5 5 5 5 5 5 5 5 5 5 5 5 6 5 6 5 5 5 5 5 5 5 5 5 5 5 5 5 5 6 5 5 5 5 5 5 5 5 5 6 5 5 5 5 5 6 5 5 5 5 5 5 6 5 6 5 5 5 5 5 6 5 5 5 5 5 6 5 5 5 5 5 5 5 5 5 5 5 6 6 5 5 6 5 6 6 5 5 5 5 5 6 6 6 5 5 5 5 5 5 5 5 5 5 6 5 5 5 6 5 5 5 5 5 5 5 5 5 5 5 5 6 5 5 5 5 6 5 5 5 6 5 5 6 5 5 5 5 5 5 5 5 5 6 5 6 5 5 5 6 5 5 6 6 5 5 5 5 5 5 5 5 6 5 6 5 6 5 5 5 5 5 5 6 5 5 5 5 5 5 5 6 6 5 6 6 5 6 5 5 5 6 5 5 5 5 5 5 5 5 6 5 5 5 5 5 6 5 5 5 5 5 5 5 5 5 5 5 5 5 5 5 5 5 5 5 5 5 5 5 5 5 5 5 5 5 5 5 5 5 5 5 5 5 5 5 5 5 5 5 6 5 6 5 5 6 5 6 5 5 5 6 5 5 6 6 5 5 5 6 6 5 5 5 5 5 5 6 5 5 5 6 5 5 5 5 5 5 6 5 5 6 5 5 6 6 6 6 5 6 6 5 5 5 5 5 6 5 5 5 5 5 5 5 6 5 6 5 5 5 5 5 5 5 6 5 5 5 5 5 5 5 5 6 6 5 5 6 5 6 5 6 6 5 5 5 6 5 6 6 6 6 5 5 5 5 5 5 5 6 6 5 5 5 6 5 5 6 5 5 5 5 5 5 5 6 5 5 5 5 5 5 5 5 5 6 5 5 5 6 5 6 5 5 6 5 5 5 5 5 6 5 5 5 6 5 5 5 5 5 5 5 6 5 5 5 6 5 5 5 5 5 5 5 5 5 5 5 5 5 5 5 5 5 5 5 6 5 5 5 5 5 5 5 5 5 5 5 5 5 5 5 5 5 5 6 5 5 5 5 6 5 5 5 5 5 5 5 5 6 5 5 5 6 5 5 6 5 6 5 5 5 5 6 5 5 5 6 5 6 6 6 5 5 5 5 5 5 5 5 5 5 5 5 5 6 5 5 6 5 5 6 5 5 5 5 5 5 5 6 5 6 5 5 6 5 6 5 5 5 5 5 6 5 6 5 5 6 5 6 5 5 5 6 6 5 5 6 6 6 6 5 5 5 5 5 6 6 5 5 5 5 5 6 5 5 6 5 5 5 6 5 5 6 5 5 5 5 5 5 5 5 5 5 5 5 5 6 5 5 5 5 5 6 5 5 5 5 5 6 5 5 6 6 5 5 6 5 5 5 5 5 5 5 5 5 5 6 5 5 5 5 5 6 5 5 5 5 5 5 6 5 5 5 5 5 5 5 5 6 5 5 5 5 5 6 5 5 5 5 5 5 5 6 5 5 5 5 5 6 5 5 5 5 5 6 5 5 5 5 5 5 5 6 5 5 5 5 5 5 6 5 5 6 5 5 6 5 5 6 6 5 5 5 5 5 5 5 5 5 5 6 5 5 6 5 5 5 5 5 6 5 6 5 5 5 6 5 6 6 5 5 5 5 5 5 5 6 5 5 6 5 5 5 5 5 5 5 5 5 5 5 6 5 5 5 5 5 6 6 5 5 5 5 6 5 5 5 5 5 6 5 6 5 6 6 5 5 5 5 5 5 5 5 6 6 5 5 6 5 5 5 6 5 6 5 5 6 6 6 5 5 6 5 5 5 5 6 5 5 5 5 6 5 5 6 5 5 5 5 5 5 5 5 5 5 5 6 5 5 6 5 6 5 6 5 5 5 5 5 6 5 5 5 6 5 5 6 5 5 5 5 5 5 5 5 5 5 5 5 5 5 5 5 5 5 5 5 5 5 5 5 5 5 5 5 5 5 5 5 5 5 5 5 5 5 5 5 5 6 5 5 5 5 5 5 5 5 5 5 5 5 5 5 5 5 5 5 5 5 6 5 5 5 5 5 5 5 5 5 5 6 5 5 5 5 6 5 5 5 5 5 5 5 5 6 5 5 6 5 5 5 5 5 5 5 5 5 6 5 5 5 5 5 6 5 5 5 5 5 5 5 5 5 6 6 5 5 5 5 5 5 5 5 5 5 5 5 5 5 5 5 5 5 5 5 5 5 6 5 5 5 5 6 5 5 5 5 5 6 5 5 5 5 6 5 5 5 6 5 5 5 5 5 6 5 5 5 5 5 5 5 5 5 5 6 5 6 6 5 5 5 5 5 5 6 5 5 5 5 5 5 5 5 5 5 5 5 5 5 5 5 5 5 5 5 5 6 5 5 5 5 6 5 5 5 5 5 5 5 5 5 5 5 5 5 5 5 5 5 5 5 5 5 5 5 5 5 5 5 5 5 5 5 5 5 5 5 5 5 5 5 6 5 5 5 5 5 5 5 5 5 5 5 5 5 5 6 5 5 5 5 5 5 5 5 5 6 5 5 5 6 5 6 5 6 5 5 5 5 6 5 5 5 5 5 5 5 5 5 5 5 5 6 5 5 5 5 5 5 5 5 5 5 5 5 5 5 5 6 5 5 5 5 5 5 5 5 5 5 5 5 5 5 5 5 5 5 5 5 5 5 5 5 5 5 5 5 5 5 5 5 5 5 5 5 5 6 5 5 5 5 6 5 5 5 6 5 5 5 5 6 5 5 5 6 5 5 5 5 5 5 5 5 6 5 5 5 5 5 5 5 5 5 5 5 5 5 5 5 5 5 5 5 5 5 5 5 5 5 5 5 5 5 5 5 5 5 5 5 5 5 6 5 6 5 5 6 5 5 5 5 5 5 5 5 6 5 5 5 5 5 5 5 5 5 5 5 5 5 5 6 5 5 5 5 5 5 5 5 5 5 5 5 5 6 5 5 5 6 6 5 6 5 6 5 5 5 5 6 5 6 6 5 5 5 5 5 6 6 5 5 5 6 5 5 5 5 5 6 5 5 5 5 6 5 5 5 6 5 5 5 5 5 5 5 5 5 5 5 5 5 5 6 5 5 5 5 5 5 5 5 5 5 5 5 5 5 6 5 5 6 5 5 5 5 6 6 6 5 6 5 6 5 5 5 6 5 5 6 5 5 5 5 5 6 5 5 5 5 5 5 6 5 5 5 5 5 5 5 5 5 6 5 5 6 5 6 5 5 5 5 5 5 5 5 6 5 5 6 5 5 5 5 6 5 5 5 5 5 5 5 5 6 6 5 5 5 5 5 5 5 5 5 5 6 5 6 5 6 5 5 5 5 5 6 5 5 6 5 5 5 5 5 5 5 5 6 5 5 5 5 5 5 5 6 5 5 6 5 5 6 5 6 6 5 6 5 5 6 5 5 5 5 6 6 5 6 5 6 5 5 5 5 6 6 5 5 5 5 6 5 5 5 6 5 5 5 5 6 5 5 5 6 6 5 5 5 5 6 6 5 6 5 5 5 6 6 5 5 5 5 5 5 5 5 5 5 5 5 6 5 5 5 5 5 5 5 5 5 5 5 5 5 5 5 6 5 5 5 5 5 5 5 5 6 5 5 5 5 5 5 5 5 5 5 5 5 5 6 5 5 5 6 6 5 5 5 5 5 5 5 5 5 5 5 6 5 5 5 5 5 6 5 6 5 6 5 5 5 5 5 5 5 5 5 5 5 6 5 6 5 5 6 5 5 5 5 6 5 5 6 5 5 5 5 5 5 5 5 5 5 5 6 5 5 5 5 5 5 6 6 5 5 5 5 5 5 5 5 5 5 5 5 6 5 5 5 5 5 5 6 5 5 6 5 5 6 5 5 5 5 5 6 5 5 5 5 5 5 5 5 5 6 5 5 5 5 5 5 5 5 5 5 5 5 5 5 5 5 5 5 5 5 5 5 5 5 6 6 5 5 5 5 5 6 5 5 5 5 5 5 5 5 5 6 5 5 5 6 5 5 6 5 5 5 5 5 5 5 5 5 6 6 5 5 5 5 5 5 5 5 5 5 5 5 5 5 6 5 5 5 5 5 5 6 5 5 6 5 5 6 5 5 5 6 5 5 5 5 6 5 5 5 6 5 5 5 6 5 6 5 5 5 5 5 6 5 5 5 5 5 5 5 6 5 5 5 5 5 5 5 6 5 5 5 5 5 5 5 5 6 5 5 6 5 5 5 5 5 5 5 5 6 5 5 5 5 5 5 5 5 6 5 5 5 5 6 5 5 5 5 5 5 6 5 5 5 5 6 5 5 6 5 5 6 5 5 5 5 5 5 5 5 5 5 5 5 5 5 5 6 5 6 5 5 5 5 5 6 5 5 5 5 5 5 6 5 6 5 5 5 6 6 5 6 5 5 5 5 5 5 6 5 5 6 5 5 5 5 5 5 5 6 5 5 5 5 6 5 5 6 5 6 6 6 5 5 6 5 6 5 5 6 6 6 5 5 6 5 5 5 5 5 5 5 5 5 5 5 5 5 6 5 6 5 5 5 5 5 6 6 5 5 5 6 5 5 6 6 5 5 5 5 5 5 5 5 6 5 5 5 5 5 5 5 5 6 5 5 5 5 5 5 5 5 5 5 5 6 5 5 5 6 5 5 6 5 5 5 5 6 5 5 5 5 5 5 5 5 5 5 5 5 5 5 6 5 5 5 6 5 5 5 5 5 5 5 5 5 5 5 5 5 6 5 5 5 6 5 5 6 5 6 5 5 5 5 5 5 5 5 5 6 5 5 5 5 6 5 5 5 6 5 5 5 5 6 5 5 6 5 5 5 5 6 5 5 5 5 5 5 5 6 5 5 6 5 5 6 5 5 5 5 5 6 5 6 5 5 5 5 5 5 5 5 5 5 5 5 5 5 6 5 5 5 5 5 5 5 5 5 5 5 5 5 5 5 5 5 5 5 5 5 5 5 5 6 5 5 5 5 5 5 5 5 5 5 5 5 5 5 5 6 5 5 5 5 5 5 5 5 5 5 5 5 5 5 5 5 5 5 5 5 5 5 5 5 5 5 5 5 5 5 5 5 5 5 5 5 5 5 5 5 5 5 5 5 5 5 5 5 5 5 5 5 5 5 5 5 5 5 5 5 5 5 5 5 5 5 5 5 5 5 5 5 5 5 5 5 5 5 5 5 5 5 5 5 5 5 5 5 5 5 5 5 5 5 5 5 5 5 5 5 5 5 5 5 5 5 5 5 5 5 5 5 5 5 5 5 5 5 5 5 5 5 5 5 5 5 5 5 5 5 5 5 5 5 5 5 5 5 5 5 5 5 5 5 5 5 5 5 5 5 5 5 5 5 5 5 5 5 6 5 5 5 5 5 5 5 5 5 5 6 5 5 5 5 6 5 5 5 5 6 6 5 6 5 5 5 5 5 6 6 6 6 5 5 5 5 5 5 5 6 5 5 6 5 5 6 5 5 5 6 5 6 5 5 5 5 5 5 6 6 5 5 5 5 5 5 5 5 5 5 5 5 5 5 5 5 5 5 5 5 5 5 5 5 5 5 5 5 5 5 5 5 5 5 5 5 5 5 5 5 5 5 5 5 5 5 6 5 6 5 5 5 5 5 5 5 5 6 5 5 5 5 5 5 5 5 5 5 5 5 5 5 5 5 5 6 5 6 5 5 6 5 5 6 5 6 5 5 5 5 5 5 5 5 5 5 5 5 5 5 5 5 5 5 5 5 5 5 5 5 5 5 5 5 5 5 5 5 5 5 5 5 5 6 5 5 5 5 5 5 5 5 5 5 5 5 5 5 5 5 6 5 5 5 5 5 6 5 5 5 5 5 5 5 5 5 5 5 5 5 5 5 6 5 6 5 5 5 5 5 6 6 5 5 5 5 5 5 6 6 5 5 5 5 5 5 5 5 6 5 5 5 5 5 5 6 5 5 6 5 5 5 5 5 5 5 5 5 6 6 5 5 5 5 5 5 6 5 5 5 5 5 5 5 5 5 5 5 5 5 5 5 6 6 5 5 5 6 5 5 5 5 5 5 6 5 6 6 5 6 5 5 5 5 5 5 6 5 5 5 5 5 5 5 5 6 5 5 5 5 5 5 5 5 5 5 5 5 5 5 5 6 5 6 5 5 5 5 5 5 5 5 6 5 5 5 6 6 5 5 5 5 6 5 6 6 5 5 5 5 5 5 5 5 5 6 6 6 5 5 5 6 5 5 5 6 5 5 5 5 5 5 5 5 5 5 6 5 5 5 5 6 5 5 5 5 6 5 6 5 6 5 5 5 5 6 6 5 5 6 5 5 5 6 5 5 6 5 5 6 5 5 5 5 5 5 5 6 5 5 5 5 6 5 5 5 5 6 5 6 5 5 6 5 6 5 6 5 5 5 5 6 5 5 5 5 5 6 5 6 5 6 5 5 5 5 5 5 5 5 5 6 5 5 6 5 5 5 5 5 5 5 5 5 5 5 6 6 5 5 6 5 5 5 5 5 6 5 5 5 5 5 5 5 5 5 5 5 5 6 5 5 6 6 5 5 5 5 5 5 5 5 6 5 5 6 5 5 5 5 5 5 6 5 5 5 5 5 5 5 5 5 5 5 5 6 5 5 5 6 6 5 6 5 6 5 5 5 5 5 5 6 5 5 5 5 5 5 5 5 5 5 5 5 5 5 5 5 5 5 5 5 5 6 5 5 5 6 5 6 5 5 5 5 5 5 5 5 5 5 5 6 5 6 5 5 6 5 5 5 6 5 5 5 5 5 5 5 5 5 5 5 5 5 5 5 5 5 5 5 6 5 5 5 5 6 5 5 5 5 5 5 6 5 5 5 6 5 5 5 5 5 5 5 5 5 5 6 5 5 5 6 5 5 5 5 6 5 5 5 5 5 5 5 5 5 5 5 5 6 6 5 5 5 5 5 5 5 5 6 6 5 6 5 5 5 6 5 5 5 5 5 6 5 5 5 5 5 5 5 5 5 5 5 6 5 5 5 5 6 5 5 5 6 5 5 6 5 5 5 5 5 5 5 5 5 5 5 5 5 6 5 5 5 5 5 5 5 5 5 5 5 5 5 5 5 5 5 5 5 5 5 5 5 5 5 6 5 6 5 5 5 5 6 5 5 5 5 5 5 5 5 5 5 5 5 5 5 5 5 5 5 6 5 6 5 5 5 5 5 5 5 5 6 5 5 6 5 6 5 5 5 6 5 5 5 5 5 5 5 6 5 5 5 5 6 6 5 5 5 6 5 5 5 5 5 5 5 5 5 5 5 6 5 5 5 5 5 5 6 5 5 5 5 5 5 5 5 6 5 5 6 5 5 5 5 6 5 5 5 6 5 6 5 5 5 6 5 5 5 5 5 5 6 5 5 5 5 5 5 5 5 5 5 6 5 6 5 5 5 5 5 5 5 5 5 5 5 5 5 5 6 5 5 6 5 5 5 5 5 5 5 5 5 5 5 5 5 5 5 5 5 5 6 5 5 5 5 5 5 5 5 5 6 5 5 6 5 6 5 5 5 6 5 5 5 5 5 5 5 5 5 6 5 5 5 5 5 6 5 5 6 5 5 6 5 5 5 5 6 5 5 5 6 5 5 5 5 5 5 5 5 5 5 5 5 5 5 5 5 5 5 5 5 5 5 5 6 6 5 5 6 5 5 5 6 5 5 5 5 5 5 5 5 6 5 5 5 5 5 6 5 5 6 5 5 5 6 5 5 5 5 5 5 5 5 6 5 5 5 5 6 5 5 5 5 5 5 6 5 5 5 5 5 5 5 5 5 5 6 5 5 5 5 5 5 5 5 6 6 5 6 5 5 5 5 5 5 6 5 6 5 6 5 5 5 5 5 5 6 5 6 5 6 5 6 5 5 5 6 5 6 5 6 5 5 6 5 5 5 5 6 5 6 5 5 5 6 5 5 5 5 6 5 5 5 5 6 5 5 6 5 5 5 5 6 5 5 5 5 5 5 5 5 5 5 5 5 5 5 5 6 5 5 5 5 5 5 5 5 5 5 5 5 5 5 5 5 5 6 5 5 5 5 5 5 5 5 5 5 5 5 5 5 5 5 5 5 5 5 5 5 5 5 5 5 5 5 5 5 5 5 5 5 5 5 5 5 5 5 5 5 5 5 5 5 5 5 5 5 5 5 5 5 5 5 5 5 5 5 5 5 5 5 5 5 5 5 5 5 5 5 5 5 5 5 5 5 5 5 5 5 5 5 5 5 5 5 5 5 5 5 5 5 5 5 5 5 5 5 5 6 5 5 5 5 5 5 5 5 5 5 5 5 5 5 5 5 5 5 5 6 5 5 5 5 5 5 5 5 5 5 5 5 5 5 5 5 5 5 6 5 5 5 5 5 5 5 6 6 5 5 6 5 5 5 5 5 5 5 5 5 6 5 5 5 5 5 5 5 5 5 5 6 5 5 5 5 6 5 5 6 6 5 6 5 5 6 5 5 5 5 6 6 5 5 5 5 5 5 6 5 5 6 5 5 5 5 5 6 5 6 5 6 5 6 5 6 6 5 5 5 5 6 6 5 6 5 5 6 5 5 5 5 5 6 5 6 5 6 5 5 6 6 5 5 5 6 5 5 5 5 5 6 5 6 5 5 5 5 5 5 5 5 5 5 5 5 5 5 5 6 5 5 5 5 6 6 5 5 5 6 5 5 6 6 5 5 5 6 5 5 5 5 5 6 6 5 5 5 5 5 5 5 5 5 5 5 5 6 5 5 5 6 5 5 5 5 6 5 6 5 5 5 5 5 5 5 6 6 5 6 5 5 5 6 6 5 5 6 5 5 6 5 5 6 5 6 5 5 5 5 5 5 5 5 6 5 5 5 5 6 5 5 5 5 5 5 5 5 5 5 6 5 5 5 5 5 6 5 5 5 5 5 5 5 5 5 5 5 6 5 5 5 5 6 5 5 5 5 5 5 5 5 5 5 5 5 6 5 5 5 5 5 5 6 5 5 5 6 5 5 6 5 6 5 6 5 6 5 5 5 6 5 5 5 6 6 5 5 5 6 5 5 5 5 5 6 5 5 5 5 5 5 6 5 5 6 5 5 5 5 6 5 5 5 5 5 5 5 5 5 6 5 5 5 6 5 5 6 5 5 5 5 5 5 5 5 6 6 5 5 5 6 5 5 5 5 5 5 5 6 5 5 5 5 5 5 5 6 5 5 5 5 5 5 5 6 5 5 5 5 5 5 5 5 5 5 6 5 5 5 5 5 6 5 5 5 5 6 5 5 5 5 5 5 5 5 5 5 6 5 5 5 5 5 5 5 5 6 5 5 5 6 5 5 5 5 5 6 5 5 5 5 5 5 5 6 5 5 5 5 5 5 5 5 5 6 5 5 5 5 5 5 5 5 5 5 5 5 5 5 5 5 5 5 5 5 5 5 5 5 5 5 5 5 5 6 5 5 5 6 5 5 5 5 5 5 5 5 5 5 5 5 5 5 5 6 6 5 5 5 5 5 5 5 6 5 5 5 6 6 5 5 5 5 5 5 5 5 5 5 5 5 5 5 5 5 5 5 5 5 5 6 5 5 5 6 5 5 5 5 5 5 5 5 5 5 5 5 5 5 5 5 5 5 5 5 5 5 5 5 5 5 5 5 5 6 5 5 5 5 5 5 5 5 5 5 5 5 5 5 5 5 5 5 5 5 5 6 5 5 5 5 5 5 5 5 6 5 5 5 5 5 6 5 5 5 5 5 5 5 5 5 5 5 6 6 5 5 6 5 6 5 5 5 5 5 5 5 5 5 5 5 5 5 5 5 5 5 6 5 5 5 5 5 5 5 5 5 5 5 5 6 5 5 6 5 5 5 5 5 5 6 5 5 5 6 5 5 5 5 5 6 5 6 5 5 5 5 5 5 5 5 6 5 5 5 5 6 5 5 5 5 5 5 5 5 5 6 5 6 5 5 5 5 5 5 5 5 5 6 5 5 5 5 5 5 5 5 6 5 5 5 5 5 5 5 6 5 5 5 6 5 5 5 5 6 5 5 5 5 5 6 5 5 6 5 5 5 5 5 5 5 5 5 5 5 5 5 5 5 5 5 5 5 5 5 5 5 5 6 6 5 5 5 5 5 5 5 6 5 5 5 5 5 5 5 5 5 5 5 5 5 5 5 5 5 5 5 6 5 5 5 6 6 5 5 5 5 5 5 5 5 5 5 5 5 5 5 5 5 5 5 5 5 5 5 5 5 5 5 5 6 5 5 5 6 5 5 5 5 6 5 6 5 5 5 5 5 6 5 5 6 5 5 5 5 5 5 5 5 5 5 5 5 5 5 6 5 5 5 5 5 5 5 6 6 5 5 6 5 5 5 5 5 5 5 5 5 6 6 5 5 5 5 5 5 5 5 6 5 5 5 6 5 5 5 5 5 5 6 5 5 5 6 5 5 5 5 5 5 5 6 5 5 5 5 6 5 5 6 5 5 5 6 6 5 5 5 5 6 5 5 6 5 5 5 6 5 5 5 5 6 5 6 5 5 5 5 5 5 5 5 5 5 5 5 5 6 5 6 5 5 5 5 6 5 5 5 5 5 6 5 5 5 6 5 5 5 5 5 5 5 5 5 5 5 5 5 5 5 5 5 5 5 5 5 5 5 5 5 5 5 5 5 5 5 5 5 5 6 5 5 6 5 5 5 5 5 5 6 5 6 5 5 5 5 5 5 6 5 5 5 6 5 5 5 5 5 5 5 5 6 5 6 6 5 5 5 5 5 5 5 6 5 5 5 5 5 6 5 5 5 5 5 5 5 5 5 5 5 5 5 6 5 5 5 5 5 5 5 5 5 5 5 5 5 5 5 5 5 5 5 5 5 5 5 5 5 5 5 5 5 5 5 5 5 5 5 5 5 5 5 5 5 5 5 5 5 6 5 5 5 5 5 5 5 5 5 5 5 5 5 5 6 6 5 6 5 5 6 5 5 6 6 5 5 5 5 5 5 6 5 5 5 6 5 5 5 5 5 5 5 5 5 5 5 5 5 5 5 5 5 5 5 5 5 5 5 5 5 5 5 5 5 5 5 5 6 5 5 5 6 5 5 5 5 5 5 5 6 5 5 5 6 5 5 5 5 5 5 5 5 5 5 5 5 6 5 5 5 5 5 5 5 5 5 5 5 5 5 5 5 5 5 6 5 5 5 5 5 5 6 5 5 5 5 5 5 5 5 5 5 5 5 5 5 5 5 5 5 5 5 5 5 5 5 5 5 5 5 5 5 5 5 5 5 5 5 5 5 5 5 5 5 5 5 5 5 5 5 5 5 6 5 5 5 5 5 5 5 5 5 5 5 5 5 5 5 5 5 5 5 5 6 5 5 5 5 5 5 5 5 5 5 5 5 5 5 5 5 5 5 5 5 5 6 5 5 5 5 5 5 5 5 5 5 5 5 5 5 5 5 5 5 5 5 5 5 5 5 5 6 5 5 5 5 6 5 5 5 5 5 5 5 5 5 5 5 5 5 5 6 5 5 5 6 5 5 5 5 5 5 5 5 5 5 5 5 5 6 6 5 5 5 5 5 5 5 5 6 5 5 5 6 5 5 5 5 6 5 5 5 5 6 5 6 5 5 5 5 5 5 5 6 5 5 6 5 5 5 5 6 5 5 5 5 5 5 5 5 5 5 5 6 5 6 5 5 5 6 5 5 5 5 6 5 5 5 5 5 6 5 6 5 5 5 6 5 5 5 5 6 6 5 5 5 5 5 6 5 5 5 6 5 5 5 5 6 5 5 6 5 5 5 5 5 5 5 6 5 5 5 5 5 5 5 5 5 5 5 5 5 5 5 5 5 5 5 5 5 6 5 5 5 5 5 5 5 5 5 5 5 5 5 5 5 5 5 6 5 5 5 5 6 5 6 5 5 5 5 5 5 5 5 5 6 5 5 6 6 5 5 6 5 5 5 5 5 5 5 6 6 5 5 6 6 5 5 5 5 5 5 5 6 5 5 6 5 5 5 5 5 6 5 5 5 5 5 5 5 5 5 5 5 5 5 5 5 5 5 5 5 5 5 6 6 5 5 5 5 6 5 5 6 5 5 5 5 6 5 5 5 5 5 5 5 5 5 5 5 5 5 5 5 6 5 5 5 5 6 5 5 5 5 5 5 5 5 5 5 5 5 5 5 5 5 5 5 5 5 6 6 5 5 5 5 5 5 5 5 5 6 5 5 6 5 5 6 5 5 5 5 5 5 5 5 5 5 6 5 5 6 5 5 5 5 5 5 5 5 5 5 5 5 5 5 5 5 5 5 5 5 5 5 5 5 5 5 5 5 5 6 5 5 5 6 5 5 5 5 5 5 5 5 5 6 5 5 5 5 5 5 5 6 5 5 5 5 6 5 5 5 5 5 5 5 5 5 6 5 5 6 5 5 6 5 5 5 5 6 5 5 5 5 6 5 5 5 5 5 5 5 5 5 5 6 5 5 5 5 6 5 5 5 5 6 5 5 5 5 5 5 5 6 5 5 5 6 5 5 5 5 5 6 6 5 5 5 5 6 5 6 5 5 5 5 5 5 5 5 5 5 5 5 5 5 5 5 5 5 5 5 5 5 5 5 6 5 5 5 5 5 5 5 5 5 5 6 5 6 5 5 5 5 5 5 5 5 5 6 5 5 5 5 5 5 5 5 5 5 5 5 5 5 5 5 5 5 5 5 5 5 5 5 5 5 6 6 6 5 5 5 6 5 5 5 5 5 5 5 5 5 5 6 5 5 6 5 5 5 5 5 5 5 5 5 5 5 5 5 5 5 5 5 5 5 5 5 5 5 5 5 5 5 5 5 5 5 5 5 5 5 5 5 5 5 5 5 5 5 5 5 5 6 5 5 6 5 5 6 6 5 6 5 6 5 5 5 5 5 6 5 5 5 5 6 5 5 5 5 5 6 5 5 5 6 5 5 5 5 5 5 5 5 5 5 5 6 5 5 5 6 6 6 6 6 5 5 5 5 5 6 6 5 5 5 5 6 5 5 6 6 5 5 6 5 5 5 5 5 6 5 5 6 5 5 5 6 5 5 5 5 6 5 5 5 5 5 6 6 6 5 5 5 5 5 5 5 5 5 5 6 5 5 5 5 5 5 6 5 6 5 5 5 5 5 5 5 5 5 5 5 6 5 6 5 5 5 5 5 5 5 5 6 5 5 6 5 5 5 5 6 5 5 5 5 5 5 6 6 5 5 5 5 5 5 5 5 5 5 5 5 5 5 5 5 5 5 5 5 5 5 5 6 5 5 5 5 5 5 5 5 5 5 6 5 5 5 6 5 5 5 5 5 5 5 6 5 5 5 5 5 5 6 5 5 5 5 5 5 6 5 5 5 6 5 5 5 5 6 5 5 5 5 5 6 6 5 5 5 5 5 5 5 5 5 6 5 5 5 5 5 5 6 5 5 5 5 5 5 6 5 5 5 5 5 5 5 5 5 6 5 5 6 5 5 5 5 5 5 6 5 5 5 5 5 6 5 5 5 5 5 5 5 5 5 5 5 5 5 5 5 5 6 5 5 5 5 5 6 5 5 5 5 5 5 5 5 5 5 5 5 5 6 6 5 5 6 5 5 6 5 5 5 5 5 5 6 5 6 5 5 5 5 5 5 6 5 5 5 5 5 5 5 5 5 5 5 5 5 5 6 5 5 5 6 5 5 5 5 5 5 5 5 5 5 5 5 5 5 6 5 5 5 5 5 5 5 5 5 5 5 6 5 5 5 5 6 5 5 5 6 5 5 5 5 5 5 5 5 6 5 5 5 5 5 5 5 5 5 5 6 5 6 5 5 5 5 5 5 5 5 5 5 5 5 5 5 5 5 5 5 5 5 5 5 5 5 5 5 5 5 5 5 5 5 5 5 5 5 5 5 5 6 6 5 5 5 5 5 6 5 5 6 5 5 5 5 6 5 5 6 5 5 5 5 6 6 5 5 5 5 5 6 5 5 5 5 5 5 5 5 6 5 5 5 5 5 5 5 5 6 5 5 5 5 5 5 5 5 5 5 5 5 5 5 5 5 6 5 5 5 6 5 5 5 6 6 5 5 5 5 5 5 6 6 5 5 5 5 5 5 5 5 5 5 5 5 5 5 5 5 5 6 5 5 6 5 5 5 5 6 5 5 6 5 5 5 5 5 5 6 6 5 5 5 5 5 6 5 5 5 5 5 5 5 5 6 5 5 5 6 5 5 5 5 5 6 6 5 5 6 5 6 5 5 5 6 6 5 5 5 5 5 6 5 5 5 5 5 5 5 5 5 5 5 5 5 5 5 5 5 5 6 5 6 5 5 5 5 5 5 5 5 5 5 5 5 5 6 5 5 5 5 5 5 5 5 5 5 6 5 5 5 5 6 5 5 6 5 5 5 6 5 5 5 5 5 5 6 5 6 5 5 5 6 5 6 5 5 6 5 5 5 6 5 6 6 5 5 5 6 5 5 6 5 5 6 5 5 5 5 5 5 6 5 6 6 5 6 5 5 5 5 6 5 6 5 6 5 5 6 5 5 5 5 6 5 5 5 5 5 5 5 5 5 5 5 6 6 5 5 5 5 5 5 5 5 5 5 5 5 5 5 5 5 5 5 5 6 5 5 5 5 5 5 5 5 5 5 5 5 5 5 5 5 5 6 5 5 5 5 5 6 5 5 5 5 5 6 5 5 5 5 5 6 5 5 5 6 6 5 5 5 5 5 5 6 5 6 5 5 5 5 5 5 6 5 5 5 5 5 5 5 6 6 6 5 6 5 5 5 5 6 5 6 5 6 5 5 6 5 5 6 5 5 5 6 5 6 6 5 5 5 5 5 5 6 5 5 5 5 5 5 6 5 5 5 5 5 5 5 5 5 5 5 5 5 5 6 6 5 6 5 5 5 5 5 5 5 5 6 5 6 6 5 5 5 5 6 5 5 6 5 5 5 5 6 5 6 5 5 5 5 5 5 6 6 5 5 5 5 5 6 5 5 5 5 5 6 5 5 5 5 5 5 6 5 5 6 5 5 5 5 5 5 5 5 5 5 5 5 5 5 5 6 5 5 5 6 5 6 5 5 5 5 6 5 5 6 5 5 5 5 6 5 5 5 6 6 6 5 6 5 5 5 5 5 5 5 6 5 5 5 6 5 5 5 5 5 5 5 6 5 5 5 5 5 5 5 6 5 5 6 5 5 5 6 5 5 5 5 5 5 5 5 5 5 5 5 5 5 5 5 5 5 5 5 5 5 5 5 5 5 5 5 5 5 5 5 5 5 5 5 5 5 5 5 5 5 5 5 5 5 5 5 5 5 5 5 5 5 5 5 5 5 5 5 5 5 5 5 5 5 5 5 6 5 5 6 5 5 5 5 6 5 5 5 5 5 5 5 5 5 5 5 5 6 6 5 5 5 5 5 5 5 5 5 6 5 5 5 5 5 5 5 5 5 5 5 6 6 5 6 6 5 5 6 5 5 5 5 5 5 5 6 5 5 5 5 5 6 5 5 5 6 5 5 5 5 6 5 5 5 6 5 5 5 5 5 5 5 6 5 5 5 5 5 5 5 5 5 5 5 5 5 5 5 5 5 5 5 5 5 6 5 5 5 5 6 5 5 5 5 6 5 5 5 6 6 6 5 5 5 5 5 5 6 5 5 5 5 6 6 5 5 5 6 6 5 6 5 5 5 5 6 5 5 5 6 5 5 5 6 5 5 5 5 5 5 5 5 5 5 6 5 5 5 5 5 5 5 5 5 5 5 5 6 5 5 5 5 6 6 5 5 6 5 5 5 5 5 5 5 5 5 6 6 6 5 6 5 5 5 5 5 5 5 6 5 5 5 5 6 6 5 5 5 5 5 6 5 5 5 5 5 6 5 5 5 5 6 5 5 5 5 6 6 5 6 5 5 6 6 5 5 6 5 5 5 5 5 5 5 5 6 5 6 6 6 5 5 5 5 5 5 5 5 5 5 5 5 6 5 5 5 5 5 5 5 5 5 5 5 5 5 5 5 5 5 5 5 5 5 5 5 5 6 5 6 5 6 5 5 5 5 5 5 5 5 5 5 6 5 5 6 6 5 5 5 5 6 5 5 5 5 5 5 5 6 5 5 5 5 5 5 5 6 5 5 6 5 5 5 5 5 5 5 5 6 5 6 5 5 5 5 5 5 5 5 5 5 6 5 5 5 6 5 5 5 5 6 6 5 5 5 5 6 5 5 5 6 5 5 5 5 6 5 5 5 5 5 5 5 5 5 5 5 5 5 6 5 5 5 5 5 5 6 5 5 5 5 6 5 6 5 5 5 5 5 5 5 5 5 6 5 6 5 5 5 5 5 5 5 5 5 5 5 5 5 5 5 5 5 6 6 5 5 5 5 5 6 5 6 6 6 5 5 5 5 5 5 5 5 5 5 5 5 5 5 5 5 5 5 5 5 5 5 5 5 5 5 6 5 6 6 5 5 5 5 5 5 5 5 6 5 5 5 5 5 5 6 5 5 5 5 5 5 6 5 5 5 5 5 5 5 5 5 5 6 5 5 5 5 6 5 5 5 5 6 5 5 5 5 5 5 6 5 5 5 5 5 5 5 5 5 5 5 5 5 5 5 5 5 5 5 5 5 5 5 5 5 5 5 5 5 5 5 5 5 5 5 5 6 5 5 5 5 5 5 5 5 6 5 5 5 6 5 5 5 5 5 5 5 5 5 5 5 5 5 5 5 5 5 5 5 5 5 5 6 5 5 5 5 5 5 6 5 5 6 6 5 5 5 5 5 6 5 5 5 5 5 5 5 5 5 5 6 6 5 5 5 5 6 5 5 5 5 5 6 5 6 6 5 5 5 5 5 5 5 6 5 5 5 6 6 5 5 5 5 5 5 5 5 5 5 6 5 5 5 5 5 5 5 5 5 5 5 5 5 6 6 5 5 5 6 5 5 5 5 5 5 5 5 5 5 5 5 5 5 6 5 5 5 5 6 5 5 5 5 5 5 5 5 5 5 5 6 5 5 5 5 5 5 5 5 5 5 5 6 5 5 5 5 5 5 5 5 5 5 5 5 5 6 5 5 5 5 5 5 5 5 5 5 5 5 5 6 5 5 5 6 5 5 5 5 5 5 5 5 5 5 5 5 5 5 5 6 5 5 5 5 5 5 5 5 5 5 5 5 5 5 5 5 5 5 5 5 5 5 6 5 5 5 5 5 5 6 6 5 6 5 5 5 5 5 5 5 5 5 6 5 5 5 5 5 5 5 5 6 5 5 5 5 5 6 5 5 5 5 5 6 5 5 5 6 5 5 5 5 5 5 5 5 5 5 5 5 5 5 5 5 5 5 5 5 5 5 5 5 5 6 5 5 5 5 5 5 5 5 5 5 5 5 5 5 5 5 5 6 5 5 5 6 5 5 5 5 5 5 5 5 5 5 5 5 5 5 5 5 5 5 5 5 5 5 5 5 5 5 5 5 5 5 6 5 5 6 5 5 5 5 6 5 6 5 6 5 6 5 5 5 5 5 5 5 6 5 5 6 5 5 6 5 5 5 5 5 5 6 5 5 6 5 5 5 6 5 5 6 5 6 5 5 5 5 5 5 5 5 5 5 5 5 5 5 5 5 5 5 5 5 5 5 5 5 5 5 5 5 6 6 5 5 5 5 6 5 5 5 5 5 5 5 5 6 5 5 5 5 5 5 5 5 5 5 5 5 5 6 6 5 5 5 5 5 5 5 5 5 5 5 5 5 5 5 5 5 5 5 5 5 6 5 5 5 6 5 5 5 5 6 6 6 5 6 5 6 5 5 6 6 5 5 5 6 5 5 5 6 6 5 6 5 5 6 5 5 5 6 5 5 5 5 5 5 6 5 5 5 5 5 5 5 5 5 5 6 6 5 5 6 5 5 5 6 5 5 5 5 5 5 5 5 6 6 5 5 5 6 5 6 6 6 5 5 6 6 5 5 5 6 5 5 5 5 5 5 5 5 5 5 5 5 5 5 6 5 5 5 6 5 5 6 5 5 6 5 5 5 5 5 5 5 5 5 5 5 5 5 5 5 5 6 5 6 5 5 5 5 5 5 5 5 5 5 5 5 5 5 5 5 5 5 5 5 5 5 5 5 5 5 5 5 5 5 5 5 5 5 5 5 5 5 5 5 5 5 5 5 5 5 5 5 5 5 5 5 5 5 5 5 5 5 5 5 5 5 5 5 5 5 5 5 5 5 5 5 5 5 5 5 5 5 5 5 5 5 5 5 5 5 5 5 6 5 6 5 5 6 6 6 5 5 5 6 5 5 5 5 5 6 6 5 5 5 5 5 5 5 5 5 5 5 5 6 5 5 5 5 5 5 5 5 5 5 5 5 5 5 5 5 5 5 5 6 6 5 5 5 5 5 5 5 5 5 6 5 5 5 5 5 5 5 5 5 5 5 5 5 5 5 5 5 5 5 5 5 5 5 5 5 5 6 5 5 5 5 5 5 5 5 5 5 5 5 5 5 5 5 5 5 5 5 5 5 5 5 5 5 5 5 5 5 5 5 5 5 5 5 5 5 5 5 5 5 5 5 5 5 5 5 5 5 5 5 5 5 5 5 5 5 5 5 5 5 5 5 5 5 5 5 5 5 5 5 5 5 6 5 5 5 5 5 5 5 5 5 5 5 5 5 5 5 5 5 6 5 5 5 6 5 5 5 6 5 6 5 6 6 5 5 5 5 5 5 5 5 5 5 5 5 5 5 5 5 6 6 5 5 5 5 5 5 5 5 6 5 5 5 5 5 5 5 5 5 5 5 5 5 5 5 6 5 5 5 5 5 5 5 5 5 5 5 5 6 5 5 6 6 5 5 6 5 5 5 5 5 5 5 5 5 5 5 5 5 5 5 5 5 5 5 5 5 5 5 5 5 5 5 5 5 5 5 5 5 5 5 5 5 5 5 5 5 5 6 5 5 5 5 5 5 5 5 5 5 5 5 5 5 5 5 5 5 5 6 5 5 5 5 5 5 5 5 5 5 5 5 5 5 5 5 5 6 6 5 6 5 5 5 5 5 5 6 5 5 5 5 5 5 5 5 6 5 6 5 5 5 5 6 5 5 5 5 5 5 6 5 6 6 5 5 5 5 6 5 5 5 5 5 5 5 5 5 5 5 6 5 5 5 5 5 5 5 5 5 5 6 6 5 6 5 5 6 5 5 5 6 6 6 5 5 5 5 5 5 5 5 6 5 5 6 5 5 5 5 5 5 5 5 5 5 5 5 6 5 5 5 6 5 5 5 5 5 5 5 5 5 5 6 5 5 5 5 5 5 5 5 6 5 5 5 5 6 5 5 5 6 5 5 5 5 5 5 5 5 5 5 6 5 5 5 5 5 5 5 6 5 5 5 5 6 5 5 5 5 5 5 6 5 5 5 5 6 5 5 5 6 5 5 5 5 5 5 5 5 6 5 5 5 5 5 5 5 5 5 6 5 5 5 5 5 5 5 6 5 5 5 5 5 6 5 5 5 5 5 5 5 5 5 5 5 5 5 5 5 5 5 5 5 6 5 5 5 5 5 6 5 5 5 5 5 5 5 5 5 5 5 5 5 6 5 5 5 5 5 5 5 5 5 5 6 5 5 5 5 5 5 6 5 5 6 5 5 6 5 5 5 5 5 5 5 5 5 5 5 5 6 5 5 5 5 5 5 5 6 6 5 5 5 6 6 5 6 5 5 6 6 5 5 6 5 5 5 6 5 5 5 5 5 5 6 5 5 5 6 5 5 5 6 6 5 6 6 5 5 5 5 5 5 5 6 5 5 5 5 5 5 5 5 5 5 5 5 6 5 5 5 5 5 5 6 5 5 5 5 5 5 5 5 5 5 5 5 5 5 5 5 5 6 5 5 6 5 5 5 5 6 5 6 5 5 5 5 5 5 5 6 5 5 5 6 5 5 5 5 5 5 5 5 6 5 5 6 6 5 5 5 5 5 6 5 5 5 5 6 5 5 5 5 5 5 5 5 5 6 5 5 5 5 5 5 5 5 5 6 5 5 5 5 5 5 5 5 5 6 5 5 5 6 5 5 5 5 5 5 5 6 5 5 5 6 5 5 5 5 6 5 5 5 6 5 5 5 5 5 5 5 5 6 5 5 5 5 5 5 5 5 5 5 5 5 5 5 5 5 5 5 6 5 5 6 5 5 5 5 5 5 5 5 5 5 5 5 5 5 5 5 5 5 5 5 5 5 5 5 5 5 5 5 6 5 5 5 5 5 5 6 5 6 5 5 5 5 6 5 5 5 6 5 6 5 5 5 5 5 5 5 5 5 5 5 5 5 6 5 5 5 5 5 6 5 5 5 6 6 5 5 5 5 5 6 5 6 5 5 5 6 5 5 5 5 6 5 5 5 5 5 6 5 5 5 5 6 5 5 5 5 5 5 5 5 5 5 6 5 5 5 5 6 5 5 5 5 5 5 5 5 5 5 5 5 5 5 5 5 5 5 5 5 5 5 5 5 5 5 5 5 5 6 5 5 5 5 6 5 6 5 5 5 6 5 5 5 5 5 5 5 5 5 5 5 5 5 5 5 6 5 5 5 5 5 5 5 5 5 5 5 5 5 5 5 5 5 5 5 5 5 5 5 5 5 5 5 5 5 5 5 5 5 5 5 6 5 5 5 5 5 5 5 5 5 5 6 6 5 5 5 5 5 5 5 5 6 5 5 5 6 5 5 5 5 5 6 5 5 6 5 5 5 5 6 5 6 5 5 5 5 5 6 5 5 5 5 5 5 5 5 5 5 5 5 5 5 5 5 5 5 5 5 5 5 5 5 5 6 5 5 5 5 5 5 6 5 5 5 6 5 5 6 5 5 5 5 5 5 5 5 5 5 5 5 5 5 6 5 6 5 5 6 5 5 6 5 5 5 5 5 5 5 5 6 5 5 5 5 5 5 5 6 5 6 5 5 5 5 5 5 5 5 5 5 5 5 5 5 5 5 5 5 5 5 5 5 5 5 5 5 5 5 5 5 5 5 6 5 5 5 5 5 5 5 5 5 5 5 5 6 5 6 5 5 5 5 5 5 5 6 5 6 5 5 6 5 5 5 5 6 5 6 5 5 5 5 5 5 5 6 5 5 5 6 5 5 6 5 5 6 5 5 5 5 5 5 5 5 6 5 5 5 5 5 6 5 6 5 5 6 5 5 5 5 5 5 5 5 5 5 5 6 5 6 5 5 6 5 5 6 5 5 5 6 5 5 5 5 5 5 5 5 5 5 5 6 6 5 5 5 6 6 5 5 5 5 5 5 5 5 5 5 5 5 5 5 5 5 5 6 5 5 5 5 5 5 5 5 5 5 5 5 5 5 5 5 5 5 5 5 6 5 6 5 5 6 5 5 5 5 6 5 5 5 5 5 5 5 5 5 5 5 5 6 5 5 5 6 5 5 5 5 5 6 5 5 6 6 6 6 5 5 5 5 5 5 6 5 5 6 6 6 5 6 5 5 5 5 5 5 5 5 5 6 5 5 5 5 5 5 5 5 5 5 5 5 5 5 5 6 6 5 5 6 5 5 5 6 5 6 6 5 5 5 5 5 6 5 5 6 5 5 5 6 5 5 5 5 5 6 5 5 5 5 5 5 5 5 5 5 5 5 5 5 5 5 5 5 6 5 5 5 5 5 5 5 5 5 5 5 5 5 5 5 5 5 5 5 5 5 5 5 5 6 5 5 6 5 5 5 5 5 5 5 5 5 5 5 6 5 5 5 5 5 6 6 5 5 5 5 6 5 5 5 5 5 5 5 5 6 6 5 5 6 5 5 6 5 6 6 5 6 5 5 5 5 6 5 5 5 6 5 5 5 6 5 5 6 5 5 6 5 5 5 5 5 5 5 5 5 6 6 5 5 6 5 5 5 5 6 5 5 5 6 5 5 5 5 6 5 5 5 5 5 5 5 5 5 5 5 5 5 5 5 5 5 5 5 5 5 5 5 6 5 5 5 5 5 5 5 5 5 5 5 5 5 5 5 5 5 5 5 5 5 5 5 5 5 5 6 5 5 5 5 5 5 5 5 5 5 5 5 5 5 5 5 6 5 6 5 5 5 5 5 5 5 5 5 5 5 5 5 5 5 5 5 5 5 5 6 5 5 5 5 5 5 5 6 6 5 5 5 5 5 5 5 6 5 5 5 5 6 5 5 6 5 6 5 6 5 5 5 5 5 5 5 6 5 6 5 5 6 5 5 5 5 5 5 5 5 5 5 5 5 5 5 5 5 5 5 5 5 6 5 5 5 5 5 5 6 6 5 5 6 5 5 5 6 5 5 5 5 5 5 5 6 5 5 5 5 5 5 5 5 5 5 5 5 5 5 5 5 6 5 5 5 5 5 5 5 5 5 6 5 5 5 5 5 6 5 5 5 5 5 5 5 6 5 5 5 5 5 5 5 5 5 6 5 5 6 5 6 5 6 5 6 5 5 5 5 5 6 5 5 5 5 5 6 5 5 5 5 5 5 5 5 6 6 5 5 5 5 5 5 5 5 5 5 5 5 5 6 5 5 5 5 5 5 5 5 5 6 5 5 5 5 5 5 5 5 5 6 5 5 6 6 5 5 5 6 5 5 5 5 5 6 6 5 5 5 5 5 5 5 5 6 5 6 5 5 6 5 5 5 5 5 5 5 5 5 5 5 5 5 6 5 5 5 5 6 5 5 5 5 5 5 5 5 5 5 5 5 5 5 6 5 5 6 5 5 6 5 5 5 5 5 5 5 5 5 5 5 5 6 5 5 5 5 5 6 5 5 5 5 6 5 5 5 5 5 5 6 5 5 5 6 5 5 5 6 5 5 6 5 5 5 5 5 5 5 5 5 5 5 5 5 5 5 5 5 5 5 5 5 5 5 5 6 5 5 6 6 5 5 5 5 6 5 6 6 5 6 5 5 6 6 5 5 6 5 5 5 5 5 6 6 5 6 5 6 5 5 5 5 5 5 5 5 5 5 5 5 5 5 6 5 5 5 5 6 5 5 5 5 5 5 5 5 5 5 5 5 5 6 5 5 6 6 5 5 5 5 6 5 6 5 5 5 5 5 5 5 5 5 5 5 5 5 5 5 5 5 5 5 5 5 6 6 5 5 5 5 6 5 5 5 5 5 6 5 5 5 5 6 5 5 5 5 5 5 5 6 5 5 5 5 6 5 5 5 5 5 5 5 5 5 5 5 5 5 5 5 5 5 5 5 5 5 5 5 5 5 5 5 5 5 6 5 6 6 5 5 5 5 5 5 5 5 6 5 5 5 5 6 5 5 5 5 5 5 5 5 5 5 5 5 5 5 5 5 5 5 5 5 5 5 5 5 5 5 5 6 5 5 5 6 6 5 5 5 5 5 5 6 5 5 6 5 5 5 5 5 5 6 5 5 5 5 6 5 5 6 5 5 5 5 5 5 5 5 5 5 5 5 5 5 6 5 5 5 5 5 5 5 5 5 5 5 5 5 5 5 5 5 5 5 5 5 5 5 5 5 5 5 5 5 5 5 5 5 5 5 5 5 5 5 5 5 5 5 6 5 5 5 5 6 5 5 6 5 6 5 5 5 5 6 5 5 6 5 6 5 6 5 5 5 5 5 5 5 5 5 5 5 5 6 5 5 5 5 5 5 5 
</DataArray>
<DataArray type="Float64" Name="stress" NumberOfComponents="9" format="ascii">
1.3046637527818412 -183.3905621893573 0 -183.3905621893573 1546.4943715433328 0 0 0 0 -292.34921337535474 -1176.3339626511297 0 -1176.3339626511297 4486.9361787220987 0 0 0 0 421.35730133322124 -462.52304698524131 0 -462.52304698524131 214.41928744968027 0 0 0 0 341.85734490659286 317.60070932948202 0 317.60070932948202 273.4684020447894 0 0 0 0 253.30131961146708 44.79769675420539 0 44.79769675420539 -267.08018711606201 0 0 0 0 -10.282338523283162 -3.3985084396104526 0 -3.3985084396104526 14.429524497135105 0 0 0 0 -171.38424689838803 179.19722552105668 0 179.19722552105668 1009.1936160081532 0 0 0 0 -4.1151387389555394 -6.1246045808369178 0 -6.1246045808369178 78.38490308663188 0 0 0 0 -258.48361706834748 -91.397759958912502 0 -91.397759958912502 469.10148129065055 0 0 0 0 -241.51969833530009 -62.445680559468656 0 -62.445680559468656 340.29883230704581 0 0 0 0 1585.8903219103968 -1503.9602040246609 0 -1503.9602040246609 715.12248924518281 0 0 0 0 3.2946127885093222 -0.88349612836930369 0 -0.88349612836930369 33.332383261118821 0 0 0 0 1343.0458047886502 2070.0729124468376 0 2070.0729124468376 2321.4039875152812 0 0 0 0 -565.43809508784386 736.17959223264188 0 736.17959223264188 2712.6797249491356 0 0 0 0 -79.706780769544196 1713.356324143926 0 1713.356324143926 4491.1853634835725 0 0 0 0 -727.70317707757931 866.14751011624139 0 866.14751011624139 4499.433778150531 0 0 0 0 1057.7739856229086 1384.0994940579294 0 1384.0994940579294 986.60001998400548 0 0 0 0 -559.57095759013168 -788.83826148814114 0 -788.83826148814114 4502.214548948883 0 0 0 0 -691.1289961383153 -1.0492279890386271 0 -1.0492279890386271 3394.9901418197987 0 0 0 0 -681.17923995028423 139.05733354779295 0 139.05733354779295 2347.5275394162163 0 0 0 0 -365.43107198683401 96.319453474927286 0 96.319453474927286 2349.7093266570009 0 0 0 0 173.08618710575018 -954.13761772488215 0 -954.13761772488215 2129.8873509452678 0 0 0 0 71.606655954670146 -189.67748197683977 0 -189.67748197683977 725.74505149410106 0 0 0 0 -269.71164286503131 -133.28730563226418 0 -133.28730563226418 747.62439275078395 0 0 0 0 8.8085040301459543 -16.988957012701547 0 -16.988957012701547 -8.6544504912367906 0 0 0 0 -38.534672449796744 129.33237615002145 0 129.33237615002145 -155.4869616135129 0 0 0 0 457.10525432333225 38.064598786055285 0 38.064598786055285 -323.72871369445784 0 0 0 0 13.862992010553484 -17.411922132296326 0 -17.411922132296326 25.258349986571076 0 0 0 0 199.94615194921778 189.24477673156616 0 189.24477673156616 -95.115851408860181 0 0 0 0 537.65475377156145 -322.91402538662805 0 -322.91402538662805 -83.700628141421475 0 0 0 0 -76.38697880930161 -191.16102998358838 0 -191.16102998358838 440.62028726461722 0 0 0 0 569.26350813253475 370.31166545778979 0 370.31166545778979 559.27989805513062 0 0 0 0 -251.29418163689741 -140.76641100311826 0 -140.76641100311826 473.93592774326316 0 0 0 0 121.56507308218147 -84.075742507073301 0 -84.075742507073301 -170.43945160307339 0 0 0 0 -9.2293876979949463 -20.40788514875328 0 -20.40788514875328 11.714393521229926 0 0 0 0 -8.4577844723389717 -5.6748780726775294 0 -5.6748780726775294 37.940017982700738 0 0 0 0 -36.392671544428325 -9.1158575725276023 0 -9.1158575725276023 77.165447557956213 0 0 0 0 -28.887730163477215 -34.208669969850234 0 -34.208669969850234 69.114002076501492 0 0 0 0 -136.64971848929417 -1.6447374197596218 0 -1.6447374197596218 124.32561940539745 0 0 0 0 -83.927947233538134 -132.64975735287589 0 -132.64975735287589 207.68819115965016 0 0 0 0 -40.564838497104802 -106.87249007443097 0 -106.87249007443097 222.30698992285761 0 0 0 0 45.9072094638218 -88.205280828122341 0 -88.205280828122341 101.84727029216447 0 0 0 0 29.357461566946768 -54.498092189780436 0 -54.498092189780436 79.748963627200737 0 0 0 0 1.8719862034013204 -16.385573245624983 0 -16.385573245624983 55.681284189631697 0 0 0 0 -120.64548141337309 -465.82968003478163 0 -465.82968003478163 871.32334760000231 0 0 0 0 -534.52869677138096 170.05793495610851 0 170.05793495610851 721.49699384486303 0 0 0 0 -313.72881012979542 9.6440219424912357 0 9.6440219424912357 86.44703185747494 0 0 0 0 -271.61823499688228 225.38774378248036 0 225.38774378248036 185.29553218718502 0 0 0 0 -142.06548736290665 -86.166913611232303 0 -86.166913611232303 329.62664157501422 0 0 0 0 -151.43977643423159 -112.62070733964356 0 -112.62070733964356 293.31801790256577 0 0 0 0 -60.030189699922175 -214.31923754356103 0 -214.31923754356103 362.22313001277507 0 0 0 0 0.63297427426086572 -0.54055178290840988 0 -0.54055178290840988 8.3469531924634452 0 0 0 0 552.86032956832332 -429.34778303592611 0 -429.34778303592611 235.87582831874897 0 0 0 0 0.82961557742306324 -0.88939948202860375 0 -0.88939948202860375 27.045846054464221 0 0 0 0 -91.018806059214967 -70.065495162976731 0 -70.065495162976731 149.15619701793185 0 0 0 0 58.198662531567606 -110.72598111328261 0 -110.72598111328261 30.846310102220741 0 0 0 0 -18.419025398897986 -205.94648242115363 0 -205.94648242115363 198.44043278126628 0 0 0 0 30.591961883857721 -256.72496491800121 0 -256.72496491800121 250.79697156898328 0 0 0 0 -92.369008517276626 -71.481028998081456 0 -71.481028998081456 232.01662133765058 0 0 0 0 -49.802951029223095 -35.477171007340075 0 -35.477171007340075 52.677599162678234 0 0 0 0 -109.2515649798479 58.129328537601396 0 58.129328537601396 112.10757424787153 0 0 0 0 144.97400286472703 -95.152685168215612 0 -95.152685168215612 53.351889406083501 0 0 0 0 -19.266683437610709 -194.18730782749481 0 -194.18730782749481 234.90358743308752 0 0 0 0 38.746035011083109 -261.90980039260467 0 -261.90980039260467 308.14391390884703 0 0 0 0 -114.35015598774635 -128.16693262118497 0 -128.16693262118497 349.37305421913334 0 0 0 0 -73.612505270221902 -106.72400707907218 0 -106.72400707907218 294.49196709078387 0 0 0 0 582.56052522973732 -398.41064960048971 0 -398.41064960048971 236.87807909313415 0 0 0 0 35.597372441971856 -388.94134093236789 0 -388.94134093236789 785.98832956633123 0 0 0 0 0.43680953859015559 -1.6702556352254421 0 -1.6702556352254421 11.51135443494212 0 0 0 0 2.3447400398551395 480.20801989320398 0 480.20801989320398 579.13926371910202 0 0 0 0 -110.0211221774216 -82.803050138150866 0 -82.803050138150866 116.04353103257017 0 0 0 0 -54.975600965360627 -0.32535400737833697 0 -0.32535400737833697 93.176648479508003 0 0 0 0 -374.93821423136933 232.41570437658811 0 232.41570437658811 1074.8075061378186 0 0 0 0 -245.64662323690027 126.11745521500416 0 126.11745521500416 493.09357250010362 0 0 0 0 -43.087983906648674 392.1448580413562 0 392.1448580413562 634.12338804833416 0 0 0 0 -203.12031219086953 167.26656473643379 0 167.26656473643379 422.5174018456164 0 0 0 0 154.89477184884382 222.8561423954161 0 222.8561423954161 213.2138949650398 0 0 0 0 139.0828217030743 -322.06905282383377 0 -322.06905282383377 447.02785246205167 0 0 0 0 1.0116121597044412 2.0205680896202836 0 2.0205680896202836 4.9618457472075193 0 0 0 0 -0.30378785987291551 -45.12651710359205 0 -45.12651710359205 857.96254282686277 0 0 0 0 -29.8254293538713 -161.54988110413979 0 -161.54988110413979 799.29427846421822 0 0 0 0 221.37353081074153 -118.02947334601413 0 -118.02947334601413 68.245413966695196 0 0 0 0 112.8300592306651 138.70214659942758 0 138.70214659942758 451.92941140345647 0 0 0 0 0.20810264804127507 -154.35024511238589 0 -154.35024511238589 -50.212053838942666 0 0 0 0 -1.6883094480041083 -1.0499904678603968 0 -1.0499904678603968 -1.9643434210972757 0 0 0 0 161.50055933120848 -84.737015477221576 0 -84.737015477221576 -389.4350116160349 0 0 0 0 -3.5671924288135273 6.4243178603537672 0 6.4243178603537672 0.30542760997195728 0 0 0 0 -27.891475182334034 -98.756093415431678 0 -98.756093415431678 -83.023851861324147 0 0 0 0 26.415960654525065 -161.79555845551477 0 -161.79555845551477 -16.373597648896975 0 0 0 0 -118.16878246251849 -93.026770621851028 0 -93.026770621851028 39.842219681158895 0 0 0 0 -24.826803421781733 -16.064998836773157 0 -16.064998836773157 64.232656663225498 0 0 0 0 -3.8012089167553533 -8.5007333687234716 0 -8.5007333687234716 46.044375386121317 0 0 0 0 -126.03824498416833 -53.130008220711716 0 -53.130008220711716 0.4254608602495864 0 0 0 0 0.39360087938731347 -3.1132803807160911 0 -3.1132803807160911 31.17838949937169 0 0 0 0 -297.63164020551312 -60.004521182658209 0 -60.004521182658209 165.27633942652028 0 0 0 0 -119.15467008213818 -106.69706203270471 0 -106.69706203270471 227.35792215781112 0 0 0 0 1.3334384804245474 34.715913916777936 0 34.715913916777936 258.41470829918399 0 0 0 0 -1.110829889690649 41.082659045103355 0 41.082659045103355 307.66732142465526 0 0 0 0 26.884822559868894 49.777415705996646 0 49.777415705996646 252.55301242563291 0 0 0 0 11.696375389013552 40.196926041093946 0 40.196926041093946 5.9732144569221859 0 0 0 0 -96.934669714718552 -225.19009810293937 0 -225.19009810293937 229.08599831015454 0 0 0 0 138.01047498008847 -79.577716401166981 0 -79.577716401166981 277.91066985783891 0 0 0 0 -16.493853299986313 68.871949796099216 0 68.871949796099216 149.89992081476521 0 0 0 0 403.09531568039904 -10.337115489616735 0 -10.337115489616735 -24.456302063881594 0 0 0 0 1210.1160908509005 -486.71386678859471 0 -486.71386678859471 141.96717980406538 0 0 0 0 8.7426383082056134 -10.336112411017425 0 -10.336112411017425 19.061796535100427 0 0 0 0 677.37283735299877 -1470.3760218624157 0 -1470.3760218624157 2073.6134202596586 0 0 0 0 -1273.9799287952546 -338.18891352401988 0 -338.18891352401988 4480.15095218434 0 0 0 0 -1358.5770461629334 1098.1672871471965 0 1098.1672871471965 1849.7489507857827 0 0 0 0 -1467.8825830976434 -523.21906258657691 0 -523.21906258657691 2217.4670827360242 0 0 0 0 180.47532983715541 -439.27992103170982 0 -439.27992103170982 127.16118195019953 0 0 0 0 -269.86421173122812 -938.84419873080333 0 -938.84419873080333 307.43662457143728 0 0 0 0 589.31635765286478 -475.87954938643998 0 -475.87954938643998 318.66038448720064 0 0 0 0 -612.92128979860138 -375.89519008564639 0 -375.89519008564639 622.38062252337113 0 0 0 0 -49.449558746436196 3.9797047475221916 0 3.9797047475221916 443.42259954240581 0 0 0 0 -1002.0766806496799 -624.4889180709215 0 -624.4889180709215 -438.58960141330317 0 0 0 0 -5.3351478696295089 -9.1862335814803373 0 -9.1862335814803373 41.416602149460232 0 0 0 0 -4.2977474952986405 6.45906723832789 0 6.45906723832789 15.103409276090332 0 0 0 0 -15.35524215087294 -6.2822903624089719 0 -6.2822903624089719 14.090778686714202 0 0 0 0 -1465.2347179978622 -529.65491123306856 0 -529.65491123306856 334.96914970860234 0 0 0 0 154.22138872728675 -1992.2701602295856 0 -1992.2701602295856 4496.5010387989023 0 0 0 0 -8.0850416066839141 6.1277899164156509 0 6.1277899164156509 28.313299093682872 0 0 0 0 -1047.2189266562302 21.021025097550591 0 21.021025097550591 129.72363462670182 0 0 0 0 2.5503502693376512 -3.6188664510752488 0 -3.6188664510752488 4.8423813124248341 0 0 0 0 0.46221826258560222 -2.1783749290536036 0 -2.1783749290536036 8.7703147123194896 0 0 0 0 2.3077658863138266 0.46825406060088426 0 0.46825406060088426 4476.3201259846101 0 0 0 0 -1446.2005695370583 1610.6985014895763 0 1610.6985014895763 -689.80800414794066 0 0 0 0 -1047.4124690914614 512.58027444433276 0 512.58027444433276 1481.2947182721691 0 0 0 0 -10.550383337353015 -386.66072215863096 0 -386.66072215863096 4276.7351171102837 0 0 0 0 40.588812924503145 47.094863111691666 0 47.094863111691666 9.9573928133759182 0 0 0 0 -23.154792412288028 -11.604684021434991 0 -11.604684021434991 26.804035434017528 0 0 0 0 -7.9709624318825618 -3.0925274912348755 0 -3.0925274912348755 9.9925217808792581 0 0 0 0 8.0467906814344836 24.124304530217785 0 24.124304530217785 43.213352991752572 0 0 0 0 -185.19278768945333 94.379163014207734 0 94.379163014207734 114.96514127370028 0 0 0 0 -136.89456323348077 -106.31102666088555 0 -106.31102666088555 212.08668545776163 0 0 0 0 70.695020325984842 -365.21283532544658 0 -365.21283532544658 823.61972425456042 0 0 0 0 -224.88870274497526 -40.98345202024575 0 -40.98345202024575 213.83142996768584 0 0 0 0 -22.838097728785215 43.210476355234277 0 43.210476355234277 887.78546718028338 0 0 0 0 162.60371542681332 128.47818629840185 0 128.47818629840185 624.60390411824483 0 0 0 0 59.434667497951295 -2118.8899921489619 0 -2118.8899921489619 1678.3805432781664 0 0 0 0 108.83738865058513 19.132961136034282 0 19.132961136034282 466.90785370342201 0 0 0 0 -83.459072634896074 -84.54722320896326 0 -84.54722320896326 631.58229338732781 0 0 0 0 -72.581041120143254 -109.51143427866464 0 -109.51143427866464 687.32035555821494 0 0 0 0 29.273809779298819 40.728309551148044 0 40.728309551148044 7.4799884123799067 0 0 0 0 14.97632077925573 -1.1242928127940104 0 -1.1242928127940104 286.82327533054195 0 0 0 0 -87.524667767394021 -16.153456109044782 0 -16.153456109044782 333.29434509863131 0 0 0 0 -199.49159611225195 55.937299511051606 0 55.937299511051606 371.4945611240837 0 0 0 0 32.170334085556519 40.972843239503476 0 40.972843239503476 4.0156702225850207 0 0 0 0 2646.1745513822116 391.05971255127224 0 391.05971255127224 1180.7935272196955 0 0 0 0 -129.47555598784834 177.05660814057774 0 177.05660814057774 556.79383360467909 0 0 0 0 1083.1566936686195 -99.773580297944136 0 -99.773580297944136 270.3815742131992 0 0 0 0 58.402658199324833 304.38808834220981 0 304.38808834220981 398.19387140717299 0 0 0 0 -79.517177722439101 98.342079451118479 0 98.342079451118479 315.26184434392781 0 0 0 0 -571.84454022950285 -902.44179667042772 0 -902.44179667042772 1276.4914265017069 0 0 0 0 -518.46793784840338 -241.76960757961933 0 -241.76960757961933 851.42779015260749 0 0 0 0 -696.95712080197427 988.81690046609583 0 988.81690046609583 1683.5604226090145 0 0 0 0 -1066.7474528854173 227.41563281165145 0 227.41563281165145 846.94172427208105 0 0 0 0 -463.26133934231711 686.51678260398603 0 686.51678260398603 760.83150273824867 0 0 0 0 -408.02374281859738 493.4029205975894 0 493.4029205975894 439.5785524687235 0 0 0 0 605.29030736814548 430.78793536018929 0 430.78793536018929 111.73747855940019 0 0 0 0 6.9143818452443391 7.1575263161371083 0 7.1575263161371083 12.379132262381859 0 0 0 0 557.19702461403631 1015.1078703350067 0 1015.1078703350067 696.85878084432625 0 0 0 0 87.454726740108526 -96.728246016245976 0 -96.728246016245976 -66.270484326320002 0 0 0 0 -526.5792762596418 232.03117132655461 0 232.03117132655461 13.346095413668081 0 0 0 0 172.5458062330008 151.1522546299675 0 151.1522546299675 641.0302546259918 0 0 0 0 1.2379871155484778 -3.3786772355343544 0 -3.3786772355343544 -3.7744002770887164 0 0 0 0 -106.46147232016483 -42.620515365568281 0 -42.620515365568281 42.359807379209087 0 0 0 0 -12.510730154786804 -290.5912586563627 0 -290.5912586563627 3905.0757375503599 0 0 0 0 -78.976710439770756 885.2887752171664 0 885.2887752171664 4499.0561528308244 0 0 0 0 -22.278661922906981 -18.362109223026494 0 -18.362109223026494 11.809190886751537 0 0 0 0 -562.45554791224265 243.09465880141761 0 243.09465880141761 822.40445136313792 0 0 0 0 184.94233768785804 -1091.5989529470316 0 -1091.5989529470316 -870.2822479934257 0 0 0 0 -6.8743147098602542 -7.5336091062476953 0 -7.5336091062476953 6.8746563911810767 0 0 0 0 -78.945330135326273 884.94391989223004 0 884.94391989223004 4500.2954117899426 0 0 0 0 -102.93579622819561 758.7642461041105 0 758.7642461041105 590.14740140141748 0 0 0 0 -308.03187928555371 205.02922604883497 0 205.02922604883497 648.07015799056262 0 0 0 0 1444.4181288073351 987.06336091761477 0 987.06336091761477 658.31094417539134 0 0 0 0 94.036847312692942 1054.0496047867782 0 1054.0496047867782 2438.1717910107982 0 0 0 0 42.574621931436354 -2386.3959653862548 0 -2386.3959653862548 3648.0687750234501 0 0 0 0 1604.3797188565898 -945.51264139852719 0 -945.51264139852719 4488.1255153278871 0 0 0 0 -527.61450923320365 -2.6548501352283438 0 -2.6548501352283438 4258.7673772784474 0 0 0 0 623.04544675656848 -1733.2764481179329 0 -1733.2764481179329 2865.2865067214443 0 0 0 0 1.0877049134115606 0.17605815399337477 0 0.17605815399337477 23.935209195837501 0 0 0 0 429.09415380278102 -291.47851418003211 0 -291.47851418003211 304.78456523932982 0 0 0 0 1.6323691970643275 6.7257067449460681 0 6.7257067449460681 61.901189911750691 0 0 0 0 -236.19832043702036 6.4095125769963488 0 6.4095125769963488 503.73436273354673 0 0 0 0 390.54978904877999 178.86049702757009 0 178.86049702757009 70.83707560923358 0 0 0 0 82.995815758398749 92.497052994214755 0 92.497052994214755 167.00613984831944 0 0 0 0 3.7047704399113126 35.914989413876 0 35.914989413876 32.780707379295009 0 0 0 0 -32.258484008841151 33.921551312058 0 33.921551312058 162.1739608115131 0 0 0 0 -121.35989209478248 -45.361544842962758 0 -45.361544842962758 90.02010869361402 0 0 0 0 -4.4179096085992278 8.4969620490633702 0 8.4969620490633702 22.938053613826355 0 0 0 0 -1.3177289417784639 -17.84070919483263 0 -17.84070919483263 179.55861723175593 0 0 0 0 690.74889465430715 -822.36697153556452 0 -822.36697153556452 753.03521445236402 0 0 0 0 -109.53058049505853 119.2820193837324 0 119.2820193837324 358.94243714003824 0 0 0 0 -72.824820598049655 -9.9511342239638907 0 -9.9511342239638907 321.5602040974336 0 0 0 0 -12.236188198210698 -23.760233672821414 0 -23.760233672821414 140.32486814526783 0 0 0 0 21.567378338819879 -147.38332676501523 0 -147.38332676501523 409.84570911742048 0 0 0 0 -35.668574834739466 29.249225292061055 0 29.249225292061055 38.338001213269308 0 0 0 0 25.665728426893395 -72.789951520922614 0 -72.789951520922614 150.01826512251864 0 0 0 0 29.342618680873443 -130.87102702601987 0 -130.87102702601987 132.93475998038866 0 0 0 0 3.9155802192164688 -18.390422105850618 0 -18.390422105850618 85.214293229467671 0 0 0 0 571.75213873775238 128.74788948828518 0 128.74788948828518 -426.53727198881097 0 0 0 0 0.67176546443262286 -15.508880932876167 0 -15.508880932876167 84.262795902920629 0 0 0 0 -587.69758409072347 34.533553960718564 0 34.533553960718564 232.18347671099764 0 0 0 0 -3.3677066225145165 -1.4079365056538733 0 -1.4079365056538733 73.954510963845735 0 0 0 0 169.49725604356291 56.95558426336811 0 56.95558426336811 -12.428415616464918 0 0 0 0 -254.55225819280531 237.19857225914166 0 237.19857225914166 151.47188547355836 0 0 0 0 -103.62989372296266 -119.39453757445722 0 -119.39453757445722 214.57145428995136 0 0 0 0 -97.305856957716514 125.74695631847135 0 125.74695631847135 43.1532296018122 0 0 0 0 -83.82976796186621 43.210720559089566 0 43.210720559089566 9.1003012783185113 0 0 0 0 -43.655001596553241 19.400914222191432 0 19.400914222191432 27.907365824561566 0 0 0 0 -8.5877519525865686 36.429766782538159 0 36.429766782538159 8.3611194506089532 0 0 0 0 -1.9809643172870324 -11.639526743554597 0 -11.639526743554597 65.911762875126442 0 0 0 0 -6.555533337447514 -13.049607579050644 0 -13.049607579050644 72.157788598153275 0 0 0 0 21.290557796649409 -19.159780111731379 0 -19.159780111731379 73.106897811827366 0 0 0 0 13.090798288685903 -10.957736509204551 0 -10.957736509204551 65.658192739734659 0 0 0 0 -4.9929645836668897 -8.8357905802185996 0 -8.8357905802185996 80.657183061892283 0 0 0 0 -51.258987417540084 25.363554754956567 0 25.363554754956567 149.85718989412999 0 0 0 0 -1.9799595426151138 -10.681426552208649 0 -10.681426552208649 62.752022002445301 0 0 0 0 -6.0893536697320698 1.0182558796095833 0 1.0182558796095833 60.941526949370996 0 0 0 0 -3.3043270257125541 -10.226504406152266 0 -10.226504406152266 10.510501954902736 0 0 0 0 125.18261231010274 8.5111131880112225 0 8.5111131880112225 20.862236318309442 0 0 0 0 -0.39684910439824961 -3.5212597513485866 0 -3.5212597513485866 4.7788684841503937 0 0 0 0 -0.3146137781088445 -5.1477337973372954 0 -5.1477337973372954 44.075558693381481 0 0 0 0 46.012167525272162 -55.992633623336587 0 -55.992633623336587 10.591893006741884 0 0 0 0 -1.0892070320731488 -1.3261916021221127 0 -1.3261916021221127 64.58543110953886 0 0 0 0 -17.604008214741953 -9.1689707651676144 0 -9.1689707651676144 72.960031083901413 0 0 0 0 -24.710544500580454 37.967714489641367 0 37.967714489641367 90.616777773895592 0 0 0 0 -89.931564576803794 -80.724528783059213 0 -80.724528783059213 -0.76949856294959318 0 0 0 0 -1.0775003570256256 3.0897417068527204 0 3.0897417068527204 7.1119974091913036 0 0 0 0 -83.165887950548949 -27.335339106178708 0 -27.335339106178708 51.212168414363987 0 0 0 0 -42.588433993390936 -17.007505607929488 0 -17.007505607929488 -6.4094466422520782 0 0 0 0 -40.067973977032125 50.836762811777589 0 50.836762811777589 82.945402657118393 0 0 0 0 -12.412267254926974 51.006373343911036 0 51.006373343911036 72.100224009322119 0 0 0 0 -24.826040181262897 58.149582159430793 0 58.149582159430793 173.75670769478893 0 0 0 0 2.6340915899581887 62.303047812449222 0 62.303047812449222 168.75642122935096 0 0 0 0 -44.976647459496235 -11.996223237350932 0 -11.996223237350932 187.37294830930477 0 0 0 0 4.2002468715822943 15.369546399724641 0 15.369546399724641 106.04181771558069 0 0 0 0 -1.9724350493815939 1.3892033969896787 0 1.3892033969896787 31.85009664535832 0 0 0 0 -338.5412296840459 -29.394861103537551 0 -29.394861103537551 371.65843348146882 0 0 0 0 -74.885416214972338 30.587508258206071 0 30.587508258206071 129.21927404812595 0 0 0 0 346.45841740691048 -59.114468240921269 0 -59.114468240921269 -317.0098526240763 0 0 0 0 357.62371455717584 -916.58434515573026 0 -916.58434515573026 636.72846590931294 0 0 0 0 148.82981144207406 281.45096418119647 0 281.45096418119647 -73.442026913864538 0 0 0 0 1.3129997503436144 3.1623905766654516 0 3.1623905766654516 8.2344482813773254 0 0 0 0 210.33998394441141 20.318778906628722 0 20.318778906628722 195.54816373668291 0 0 0 0 585.34556381994389 -242.23047093195783 0 -242.23047093195783 219.67461071543221 0 0 0 0 143.47904818323468 249.32425308958045 0 249.32425308958045 186.6358988029242 0 0 0 0 -41.15560481504599 146.46756197892682 0 146.46756197892682 198.69840003056743 0 0 0 0 67.506156281771155 113.16204987649377 0 113.16204987649377 208.37613000327838 0 0 0 0 68.152865863202891 57.477422606163941 0 57.477422606163941 4.0326983543054666 0 0 0 0 173.4158787000124 -80.768379094995908 0 -80.768379094995908 185.1363095369536 0 0 0 0 -49.053800337763278 65.022145736656967 0 65.022145736656967 259.88566964746133 0 0 0 0 -9.800407230921337 92.20934635066078 0 92.20934635066078 231.44050795106887 0 0 0 0 -40.681363630194141 130.69407249615779 0 130.69407249615779 356.94092963439471 0 0 0 0 -46.967378313173072 47.615299410560738 0 47.615299410560738 255.38495265062375 0 0 0 0 -5.3914964068171685 30.285305627287016 0 30.285305627287016 228.17872153011558 0 0 0 0 8.3038638004481982 31.896165628168092 0 31.896165628168092 153.82511437534413 0 0 0 0 -17.987872623067233 57.165187945331127 0 57.165187945331127 198.50927946846787 0 0 0 0 -19.082642392738478 48.959455361684377 0 48.959455361684377 181.85866502922727 0 0 0 0 0.88302177581408614 63.786393963244336 0 63.786393963244336 135.03136687123151 0 0 0 0 -17.093982042905736 32.271249271623674 0 32.271249271623674 127.87538091500755 0 0 0 0 6.4184118386929185 40.302222871712729 0 40.302222871712729 97.448120021494105 0 0 0 0 -0.33952497760037659 -2.8769973264825239 0 -2.8769973264825239 85.768426494149026 0 0 0 0 -19.977885806988979 15.543049544834503 0 15.543049544834503 68.511936870119825 0 0 0 0 -4.4358927092271188 -26.114711160429579 0 -26.114711160429579 53.79929213464311 0 0 0 0 9.4758404314586642 16.0645116934611 0 16.0645116934611 106.00179624942393 0 0 0 0 9.1858440441801577 -18.108179249684326 0 -18.108179249684326 95.935846221149404 0 0 0 0 11.836585560459753 4.8067968902141729 0 4.8067968902141729 119.40301556650957 0 0 0 0 -4.7641332214161594 37.112223476491636 0 37.112223476491636 151.8855855118818 0 0 0 0 6.1524203917390423 22.648858813249717 0 22.648858813249717 155.19752345902816 0 0 0 0 14.200412436764054 14.060214355951757 0 14.060214355951757 160.97114454729672 0 0 0 0 8.7066028897534125 4.113651647385268 0 4.113651647385268 108.53100145865756 0 0 0 0 13.025154872944768 -10.930951335667487 0 -10.930951335667487 122.54063226009384 0 0 0 0 0.57318835421142467 6.5546010199632292 0 6.5546010199632292 171.35664969655045 0 0 0 0 11.548628453624701 31.218118200914432 0 31.218118200914432 198.04508822197386 0 0 0 0 28.355223734067295 18.271902788059379 0 18.271902788059379 167.31377686331689 0 0 0 0 28.026846857468627 28.80892904286884 0 28.80892904286884 198.36256002505979 0 0 0 0 14.066603671136789 43.726131258785472 0 43.726131258785472 226.86546045354771 0 0 0 0 11.758205642319808 43.15812781655768 0 43.15812781655768 187.88427025283818 0 0 0 0 12.861999912049669 30.373550749583956 0 30.373550749583956 217.69637313906424 0 0 0 0 0.0051384627208790334 31.72612666742134 0 31.72612666742134 200.32004325537855 0 0 0 0 -2.8275545557803525 36.635180174183915 0 36.635180174183915 250.43679799982056 0 0 0 0 5.3872041937095219 52.38778307119901 0 52.38778307119901 215.58956626807048 0 0 0 0 15.209081555585726 24.696997222010395 0 24.696997222010395 254.96486439123692 0 0 0 0 144.26528013802181 -201.56005565340274 0 -201.56005565340274 247.16147147637093 0 0 0 0 155.87270152992323 -212.59631950178664 0 -212.59631950178664 248.54767409538908 0 0 0 0 229.65582446643782 -263.28572035879188 0 -263.28572035879188 284.20097627748328 0 0 0 0 -3.6390840260268842 -0.27586452547816265 0 -0.27586452547816265 4.558336118675129 0 0 0 0 181.1556450987473 -206.07024951313724 0 -206.07024951313724 226.21344271801354 0 0 0 0 -3.5602257331948231 1.7966584218075212 0 1.7966584218075212 3.5508172042167416 0 0 0 0 6.4028144119166654 20.746937079886266 0 20.746937079886266 -32.057439125193923 0 0 0 0 155.80594258827932 -181.79643430927536 0 -181.79643430927536 220.00618648247837 0 0 0 0 -6.3384657683817558 12.908462296038692 0 12.908462296038692 15.847307234766618 0 0 0 0 -2.075790632876533 -0.3859116018829809 0 -0.3859116018829809 49.087900905986317 0 0 0 0 -1.4069051244922726 1.7336793062581677 0 1.7336793062581677 7.6499943629450939 0 0 0 0 157.11793406878314 -188.98623943232087 0 -188.98623943232087 252.56345095357392 0 0 0 0 183.80493860173374 -238.36034663380269 0 -238.36034663380269 303.72196314502798 0 0 0 0 2.5775993772913353 3.3648939614649862 0 3.3648939614649862 33.502066166882287 0 0 0 0 -6.6966602179652064 9.9986854350159291 0 9.9986854350159291 27.183248211345926 0 0 0 0 1.4135888660036926 1.2336692229519031 0 1.2336692229519031 45.180489145830506 0 0 0 0 90.813659930976428 14.736168609204469 0 14.736168609204469 49.165317642749869 0 0 0 0 3.6498933265620543 2.8311492647718381 0 2.8311492647718381 13.488114068678961 0 0 0 0 5.0818966446140088 6.8722090886876117 0 6.8722090886876117 7.7387225595093554 0 0 0 0 27.868016839831398 -6.2902539129645447 0 -6.2902539129645447 46.821147970324091 0 0 0 0 15.446709378989908 -12.599496388706029 0 -12.599496388706029 60.941217738065461 0 0 0 0 2.4303690868264312 -20.16809754523274 0 -20.16809754523274 96.917786275313119 0 0 0 0 1.7407475381478754 -4.687235263702604 0 -4.687235263702604 3.9830188944061469 0 0 0 0 -6.8491935295300461 12.273631867945241 0 12.273631867945241 11.154930101879543 0 0 0 0 0.90886896771462489 2.2964616254976136 0 2.2964616254976136 46.978747160967032 0 0 0 0 -0.010090396809687263 0.79321593397980905 0 0.79321593397980905 44.595171189772373 0 0 0 0 -2.2366120731230694 -21.391564333680435 0 -21.391564333680435 80.974530306181805 0 0 0 0 -2.0501542588012853 -9.8852245440648403 0 -9.8852245440648403 89.942565639667009 0 0 0 0 0.61970580729575886 -13.850033948894634 0 -13.850033948894634 76.875036994955735 0 0 0 0 -17.676799110887259 -24.204211896507331 0 -24.204211896507331 103.35680335058714 0 0 0 0 -9.6289806249472498 -5.0426763703905522 0 -5.0426763703905522 -1.8112888613418616 0 0 0 0 2.6611250789877872 1.0940116849128572 0 1.0940116849128572 62.03506383336935 0 0 0 0 -11.159046465831921 -12.698722346758586 0 -12.698722346758586 73.469437437252054 0 0 0 0 -7.2145181056512229 -0.40406999358674511 0 -0.40406999358674511 52.274712898877624 0 0 0 0 -10.768465077876218 11.796381431481706 0 11.796381431481706 8.720326774895014 0 0 0 0 -9.2722023685059867 1.5404859632399166 0 1.5404859632399166 51.164022058510454 0 0 0 0 -4.3075564976909391 0.62709404505585553 0 0.62709404505585553 49.11099087515322 0 0 0 0 -2.9237467895256941 -1.8168475629172463 0 -1.8168475629172463 46.718389450943505 0 0 0 0 -32.437631434378034 -21.886734366549717 0 -21.886734366549717 248.40438044109032 0 0 0 0 -16.449766174935803 -31.581507318594959 0 -31.581507318594959 -13.741850851136405 0 0 0 0 -6.5566183455807732 2.670375512476312 0 2.670375512476312 47.977455826629011 0 0 0 0 -8.7281376169820231 13.392100677795398 0 13.392100677795398 11.54235206815197 0 0 0 0 57.331388026120294 24.581061439726909 0 24.581061439726909 -5.3168858005556103 0 0 0 0 -8.8717583720754192 11.489710442336218 0 11.489710442336218 38.297679274470283 0 0 0 0 -12.599453490736131 12.472733209543946 0 12.472733209543946 13.214740067506952 0 0 0 0 -6.7861331026529115 -1.6574153059264063 0 -1.6574153059264063 44.649768021612545 0 0 0 0 -18.467266076148007 4.2641455235570902 0 4.2641455235570902 48.381288614404184 0 0 0 0 0.4485688416031981 4.5464781254755806 0 4.5464781254755806 -0.38295011827472081 0 0 0 0 -5.1361633426514679 6.970107243435038 0 6.970107243435038 24.133397341843107 0 0 0 0 -1.9849869525649053 9.7265571609022885 0 9.7265571609022885 31.146391564480922 0 0 0 0 -11.956719283593692 3.0728699074826125 0 3.0728699074826125 39.612532064204373 0 0 0 0 -6.5837600486556767 10.33529918496788 0 10.33529918496788 50.525139685680188 0 0 0 0 -14.12985648491475 8.9102830452281268 0 8.9102830452281268 17.43172274696164 0 0 0 0 -4.1206827212219173 6.9366705396196977 0 6.9366705396196977 40.873868367200117 0 0 0 0 -28.335939246724593 12.275813450248279 0 12.275813450248279 60.109349410340656 0 0 0 0 -20.187641227661857 2.5024940022958617 0 2.5024940022958617 56.904414215125144 0 0 0 0 -15.284572175347421 -0.90827391468701535 0 -0.90827391468701535 63.603130687632074 0 0 0 0 -24.001296594392443 0.46787965780458762 0 0.46787965780458762 57.654425419153995 0 0 0 0 -12.794870418792925 4.4904379266299657 0 4.4904379266299657 56.701844452252772 0 0 0 0 -21.060135863994908 -3.9233062590753036 0 -3.9233062590753036 15.217330846221355 0 0 0 0 -7.8702633933370976 2.1614871361389305 0 2.1614871361389305 56.176882053463487 0 0 0 0 -16.80478068523098 5.1351706638815813 0 5.1351706638815813 64.447264194735908 0 0 0 0 -59.5298871750947 -24.231343497056514 0 -24.231343497056514 83.757721999048954 0 0 0 0 -49.218220369342134 2.85478775545198 0 2.85478775545198 117.55156001444266 0 0 0 0 -41.626998407057954 10.881484845824161 0 10.881484845824161 74.665862533758627 0 0 0 0 -2.0930097809300605 -12.515274918136129 0 -12.515274918136129 86.077387644021655 0 0 0 0 -41.5071674224464 -8.4192495236275136 0 -8.4192495236275136 95.959254494406196 0 0 0 0 -7.9994036158869717 5.9912338392294426 0 5.9912338392294426 77.82923206134646 0 0 0 0 -33.849606720433073 9.0146398154511189 0 9.0146398154511189 104.58441143092932 0 0 0 0 -13.418080897549604 4.1880822612004138 0 4.1880822612004138 53.119124825098368 0 0 0 0 -20.645410146937138 -0.24455371779913548 0 -0.24455371779913548 55.924134973058244 0 0 0 0 -20.671411406767334 -1.0984266600887622 0 -1.0984266600887622 52.24562537818565 0 0 0 0 -21.298270165691065 11.809548281060415 0 11.809548281060415 58.529969145994983 0 0 0 0 -20.038853744108565 19.180145727499621 0 19.180145727499621 33.977534962934442 0 0 0 0 -18.188336163240365 5.0298546473923125 0 5.0298546473923125 39.928433319582837 0 0 0 0 -19.708641757571968 17.248191123944707 0 17.248191123944707 75.553816282580328 0 0 0 0 -20.82712097541571 6.2637835771165555 0 6.2637835771165555 103.59968167446732 0 0 0 0 -18.930952878781692 10.453189532009844 0 10.453189532009844 23.117193125992124 0 0 0 0 -5.579356941457263 8.2392166257486679 0 8.2392166257486679 49.692834662419045 0 0 0 0 -15.674097618523774 11.347556672699284 0 11.347556672699284 108.61292132060044 0 0 0 0 -14.758036053567594 5.6848924878868274 0 5.6848924878868274 141.14619646582287 0 0 0 0 -14.055749001190179 -5.8326443818805274 0 -5.8326443818805274 119.86396741799399 0 0 0 0 5.1626321582602941 -23.274949380880571 0 -23.274949380880571 100.63217417476699 0 0 0 0 -4.8718558416421729 -8.058360122871818 0 -8.058360122871818 99.392866173846414 0 0 0 0 -19.512382675616664 8.0713909100886667 0 8.0713909100886667 86.942483333550626 0 0 0 0 21.462421145256826 -21.662324114799048 0 -21.662324114799048 106.00163162266836 0 0 0 0 -8.599559020812773 1.5938005421884185 0 1.5938005421884185 51.618013370510454 0 0 0 0 -9.3999877427055942 5.5417752148267283 0 5.5417752148267283 46.995081786584478 0 0 0 0 29.800650824055083 -6.6394695470153238 0 -6.6394695470153238 123.85300582877244 0 0 0 0 6.1262826323509216 -27.181535951072874 0 -27.181535951072874 131.31987745143124 0 0 0 0 1.4735431622937902 -6.1624903940519289 0 -6.1624903940519289 27.397960494155257 0 0 0 0 -22.083247265058162 2.5793699122150429 0 2.5793699122150429 33.519530534045771 0 0 0 0 -21.666663821500777 -7.4423731046168484 0 -7.4423731046168484 80.405991734320622 0 0 0 0 -20.597218947994406 3.1133443038270343 0 3.1133443038270343 43.116501617012545 0 0 0 0 -29.087545671496795 17.351373343777482 0 17.351373343777482 58.713738790832167 0 0 0 0 -16.436608487801387 11.530609211528741 0 11.530609211528741 48.505689430803386 0 0 0 0 -5.4275097431218455 15.051825090384227 0 15.051825090384227 86.613640532591262 0 0 0 0 -11.530286681416328 -4.9764435618417338 0 -4.9764435618417338 118.26409177879395 0 0 0 0 -8.0715892044099746 -6.7736192438023863 0 -6.7736192438023863 91.502587869006675 0 0 0 0 0.38764027833418524 11.3396573949382 0 11.3396573949382 16.50005963804799 0 0 0 0 18.47450842978742 9.6196334977794322 0 9.6196334977794322 115.30495612917002 0 0 0 0 -17.44926049369457 4.9527798194459081 0 4.9527798194459081 31.863781873045639 0 0 0 0 -10.995720029455235 0.18803123760706342 0 0.18803123760706342 61.868351978052885 0 0 0 0 -19.264051633955354 1.1627404900634133 0 1.1627404900634133 64.009801506262178 0 0 0 0 -14.949409719030076 -0.79120395594547688 0 -0.79120395594547688 37.5513543441742 0 0 0 0 -14.095005851655401 13.279204707709596 0 13.279204707709596 46.06980499115889 0 0 0 0 -14.029799285190506 14.614916009928493 0 14.614916009928493 23.980805034429068 0 0 0 0 2.6206074044175693 15.548580206774204 0 15.548580206774204 52.37861937827256 0 0 0 0 -18.520667874214269 16.921400957511651 0 16.921400957511651 65.249978237814503 0 0 0 0 -12.879726869907245 6.3008177767969755 0 6.3008177767969755 48.237722683814354 0 0 0 0 -19.416264623207098 7.5735325450878008 0 7.5735325450878008 49.672086919009416 0 0 0 0 -19.38260777791038 12.453005518393184 0 12.453005518393184 35.574242782982765 0 0 0 0 -16.216448599539319 2.3110238344322056 0 2.3110238344322056 40.938184236527391 0 0 0 0 -17.028616726390968 -2.6613915171850522 0 -2.6613915171850522 34.611424784220389 0 0 0 0 -20.712870587854013 1.9673016818960605 0 1.9673016818960605 60.305106951665948 0 0 0 0 -19.531077542470484 9.1795486039791285 0 9.1795486039791285 34.894327134476043 0 0 0 0 -15.082535853418449 2.5797228518640622 0 2.5797228518640622 47.309448386164149 0 0 0 0 -9.2215779373141835 12.312474233728977 0 12.312474233728977 31.141663175616401 0 0 0 0 -25.891645291267196 11.115488488198025 0 11.115488488198025 53.31299339942052 0 0 0 0 -16.09482795396616 7.8440565459532081 0 7.8440565459532081 57.741482392997568 0 0 0 0 -7.9461918114790109 13.026152493941311 0 13.026152493941311 14.237228742818004 0 0 0 0 -3.99858753269109 5.2000940712532611 0 5.2000940712532611 58.586194731615251 0 0 0 0 -3.1838885193719761 -1.0253553459515388 0 -1.0253553459515388 56.388573234042269 0 0 0 0 -19.772233191696614 10.912477207497432 0 10.912477207497432 47.67182904832589 0 0 0 0 -23.54356496287528 8.8089615041171783 0 8.8089615041171783 63.910183525556931 0 0 0 0 -21.310797605397966 3.9292275686311768 0 3.9292275686311768 56.089273559133289 0 0 0 0 -30.244948355681117 8.7893567695791717 0 8.7893567695791717 54.853977677674266 0 0 0 0 -83.901655186484277 52.724020773748634 0 52.724020773748634 116.82793492963538 0 0 0 0 -6.2227115146025671 1.1151198240186204 0 1.1151198240186204 53.539352270600943 0 0 0 0 -35.225812928827509 14.251718280756904 0 14.251718280756904 53.379817670444027 0 0 0 0 -27.843835446852609 6.7353884537624253 0 6.7353884537624253 48.3290362849948 0 0 0 0 -23.352343370061135 13.069485261636146 0 13.069485261636146 55.801223269972297 0 0 0 0 -19.985504138958277 12.886323748985888 0 12.886323748985888 43.818784099388722 0 0 0 0 -19.530317260843731 15.01659643597668 0 15.01659643597668 50.179191138497117 0 0 0 0 -30.382500826975047 19.937828501817421 0 19.937828501817421 68.482079380351934 0 0 0 0 -20.331135219046701 23.699425242011785 0 23.699425242011785 26.347144514453248 0 0 0 0 -8.7342430019689345 13.451818010049465 0 13.451818010049465 14.467423867761681 0 0 0 0 -14.855132629862055 16.534265358917764 0 16.534265358917764 26.690888114024347 0 0 0 0 5.240727988232436 0.50241503186504133 0 0.50241503186504133 2.7626110380925866 0 0 0 0 -577.34605938560344 283.67718401309321 0 283.67718401309321 569.79019448674808 0 0 0 0 31.644524716863089 -4.8719902999291662 0 -4.8719902999291662 302.25044830082334 0 0 0 0 492.6767280765398 -272.91918843880558 0 -272.91918843880558 -200.8111324277088 0 0 0 0 0.3016698162102216 -0.23436189717784828 0 -0.23436189717784828 1.0796998689930177 0 0 0 0 566.06822713998554 271.8040212042979 0 271.8040212042979 112.30284709692933 0 0 0 0 3.2636523651615903 -1.8809695241461881 0 -1.8809695241461881 1.059320539149553 0 0 0 0 224.43668144030084 -52.664145317181465 0 -52.664145317181465 373.78736093439511 0 0 0 0 -30.909816264179426 -14.061477844724322 0 -14.061477844724322 60.695590259638266 0 0 0 0 0.76434538687458264 -3.4080828835603114 0 -3.4080828835603114 31.860422161987827 0 0 0 0 -8.3011209215364943 8.7007026613173366 0 8.7007026613173366 28.399683669791557 0 0 0 0 -18.371557546272015 -68.239292239690258 0 -68.239292239690258 103.53049404233752 0 0 0 0 -8.6809839680236109 -47.485841771693231 0 -47.485841771693231 -30.034255780097737 0 0 0 0 -114.39308575932955 -130.57722798676696 0 -130.57722798676696 689.97771555750296 0 0 0 0 -155.94265839841682 -234.77919864999421 0 -234.77919864999421 624.38430329160474 0 0 0 0 14.661053506954577 -2.0377974117872384 0 -2.0377974117872384 2.621412776265938 0 0 0 0 -98.686202766293718 -301.59152828208607 0 -301.59152828208607 493.66323369152451 0 0 0 0 70.563648435693722 -261.38852016867895 0 -261.38852016867895 1281.7709576974248 0 0 0 0 65.295915760288608 -30.175368892447295 0 -30.175368892447295 582.77497729593597 0 0 0 0 5.4431656533117234 1.4163622254571635 0 1.4163622254571635 0.17383057986323891 0 0 0 0 122.42283741936399 40.073257585163446 0 40.073257585163446 -105.74930364133616 0 0 0 0 309.06346673382768 -100.00649057222108 0 -100.00649057222108 -15.969206181718619 0 0 0 0 5.7598257619526123 -23.738508911245958 0 -23.738508911245958 164.92468946646841 0 0 0 0 90.841793696939931 -6.0985666203850997 0 -6.0985666203850997 51.551123403383826 0 0 0 0 6.689111032069377 -1.6406193503426039 0 -1.6406193503426039 68.666996664749604 0 0 0 0 -22.004128269018111 -1.0613985067939211 0 -1.0613985067939211 107.19268375713727 0 0 0 0 -22.788399061291784 -10.651485097954719 0 -10.651485097954719 35.868052531353896 0 0 0 0 0.76427846430235036 2.0455935274034829 0 2.0455935274034829 2.4976811149619778 0 0 0 0 10.764240793485442 63.384844696265645 0 63.384844696265645 76.602430367081979 0 0 0 0 4.9673710611423303 25.643301628006157 0 25.643301628006157 35.289003698344459 0 0 0 0 -51.902199118879707 26.418160078520486 0 26.418160078520486 77.924812780329376 0 0 0 0 -7.9979502107324905 10.850176204120757 0 10.850176204120757 28.558765250315389 0 0 0 0 -2.7756529283290092 -5.9885826815580003 0 -5.9885826815580003 14.010532915577642 0 0 0 0 11.275040302041816 130.0489203997713 0 130.0489203997713 84.859877796465298 0 0 0 0 -49.205885600752481 -35.65582508202715 0 -35.65582508202715 78.769615437857283 0 0 0 0 -17.44102072480382 41.241217816168501 0 41.241217816168501 34.228479141096614 0 0 0 0 134.29174656816053 -72.513321651633305 0 -72.513321651633305 82.044683031119348 0 0 0 0 -11.772311261107468 -53.97290360553427 0 -53.97290360553427 124.7998831437726 0 0 0 0 118.52588826969213 -148.89983984339415 0 -148.89983984339415 179.77143452655582 0 0 0 0 174.02211960921784 -134.35825576116576 0 -134.35825576116576 99.814698111295002 0 0 0 0 236.6343241604776 -170.18796206475236 0 -170.18796206475236 121.61033309885534 0 0 0 0 96.564888369710005 -106.86784672325712 0 -106.86784672325712 173.77998065057909 0 0 0 0 251.88537355935341 -140.1063689666189 0 -140.1063689666189 44.273085880457074 0 0 0 0 353.91434145473204 -336.61646903305518 0 -336.61646903305518 331.186687098736 0 0 0 0 96.960685370335852 -313.70015087534557 0 -313.70015087534557 754.59518984136957 0 0 0 0 60.017670252166397 -205.44213584233148 0 -205.44213584233148 501.40399841745966 0 0 0 0 2.9195950946680114 -368.84007082385142 0 -368.84007082385142 58.326605044843745 0 0 0 0 195.07770553501825 -184.10924105354934 0 -184.10924105354934 467.11967271113099 0 0 0 0 247.1185754420174 -264.55661095930634 0 -264.55661095930634 277.58850054898357 0 0 0 0 145.13780710101764 -207.46391764712462 0 -207.46391764712462 311.18656609888785 0 0 0 0 222.04803311242415 -270.88704234640227 0 -270.88704234640227 352.26833237685059 0 0 0 0 3.4783704876541277 -1.3346405788756499 0 -1.3346405788756499 -1.3957502657573002 0 0 0 0 130.9390083865851 96.242937861461542 0 96.242937861461542 646.27481298092243 0 0 0 0 12.255766066069555 -75.269337099547556 0 -75.269337099547556 131.94626940027229 0 0 0 0 101.61312994000355 -31.335780692043045 0 -31.335780692043045 151.80239914560661 0 0 0 0 -33.40420977750091 27.864607714473095 0 27.864607714473095 293.9329431012593 0 0 0 0 13.686879359634986 -120.56422896194999 0 -120.56422896194999 355.89497105203918 0 0 0 0 117.32050296582929 -180.41755782636392 0 -180.41755782636392 270.45139265259786 0 0 0 0 43.528511462756796 -135.34654951801349 0 -135.34654951801349 243.14784900075756 0 0 0 0 129.93990495714752 -174.0915618867657 0 -174.0915618867657 240.4123137966526 0 0 0 0 131.09755507859586 -160.32908469225731 0 -160.32908469225731 202.09605395467952 0 0 0 0 123.27984621876385 -182.63237856004707 0 -182.63237856004707 248.07239508751445 0 0 0 0 222.02946179727411 -246.05736896191593 0 -246.05736896191593 225.94244541258377 0 0 0 0 190.46654354557131 -191.54123032174175 0 -191.54123032174175 215.47543792273791 0 0 0 0 173.61949316134678 -148.37366181581717 0 -148.37366181581717 234.18776955612702 0 0 0 0 189.40449539412566 -198.12149819965271 0 -198.12149819965271 176.30803004360496 0 0 0 0 161.52814185312218 -200.40947097743629 0 -200.40947097743629 303.81766693304053 0 0 0 0 172.72252350360486 -181.44236922070559 0 -181.44236922070559 231.74018936061839 0 0 0 0 140.09548291801184 -191.99863740873843 0 -191.99863740873843 229.92851374109159 0 0 0 0 144.36934433670422 -172.07714633902606 0 -172.07714633902606 199.80222652945668 0 0 0 0 -0.10714200580278677 9.8110995536243166 0 9.8110995536243166 31.890541837531089 0 0 0 0 -4.4623141095360097 5.3396575770166237 0 5.3396575770166237 30.036503930256004 0 0 0 0 -49.988345478175688 54.794478059280664 0 54.794478059280664 41.172352516616229 0 0 0 0 -1.5465711703809575 105.13891909536324 0 105.13891909536324 66.501539088592835 0 0 0 0 -22.796233365250373 -22.035644580435473 0 -22.035644580435473 47.212755775308324 0 0 0 0 0.25623456553205237 -0.15889280570999631 0 -0.15889280570999631 -0.10056721120815837 0 0 0 0 -3.7954254329738433 -24.703660373947059 0 -24.703660373947059 174.64858240071044 0 0 0 0 27.309803667908 -14.907149018836208 0 -14.907149018836208 91.366452434071107 0 0 0 0 -49.687118582516632 26.727272817268386 0 26.727272817268386 286.96166754064325 0 0 0 0 2.0778467198042563 26.289095172971429 0 26.289095172971429 87.681689672666835 0 0 0 0 -2.1345892070394825 -4.7786489267173238 0 -4.7786489267173238 41.894987207575468 0 0 0 0 -7.6727971496733858 26.099895115185973 0 26.099895115185973 99.085500466550002 0 0 0 0 5.5815358238087356 11.452983402938116 0 11.452983402938116 29.718988761742366 0 0 0 0 -35.736102119384668 15.616818411181157 0 15.616818411181157 29.650368350732606 0 0 0 0 -1.1380290844162846 0.64783429502081447 0 0.64783429502081447 33.837850230948675 0 0 0 0 -51.34729588544144 0.31499696690661949 0 0.31499696690661949 54.666316546834423 0 0 0 0 -12.897507709594265 5.7740389130558469 0 5.7740389130558469 32.214876292786585 0 0 0 0 -26.526834453534509 11.539262194477487 0 11.539262194477487 71.2399666873971 0 0 0 0 -3.0231164026246922 0.73066756118598164 0 0.73066756118598164 39.849690479908929 0 0 0 0 -12.319288490051022 24.330420780868735 0 24.330420780868735 63.121901473161415 0 0 0 0 0.067719563058386043 16.379695163588622 0 16.379695163588622 65.672371824839502 0 0 0 0 0.10832063160981752 -1.031067074001335 0 -1.031067074001335 0.93655456721569408 0 0 0 0 6.7216860359322732 -39.217595133806753 0 -39.217595133806753 47.933676233149527 0 0 0 0 -2.3316574960127143 -3.1959031476215216 0 -3.1959031476215216 26.511054486257535 0 0 0 0 3.6232336433179171 1.483426315622637 0 1.483426315622637 29.111255227559013 0 0 0 0 1.2031078158088349 1.011069744847191 0 1.011069744847191 32.059952977200737 0 0 0 0 -7.6909610710195011 -29.378223406063626 0 -29.378223406063626 -35.987685477656669 0 0 0 0 3.0427293890837301 0.63551255021008046 0 0.63551255021008046 30.553205696836812 0 0 0 0 5.1592573783899933 2.1818510701606613 0 2.1818510701606613 3.9957163543493142 0 0 0 0 -0.0008275017535690428 -0.33101038839959074 0 -0.33101038839959074 8.5750302339438349 0 0 0 0 -18.037543967469411 -11.576420818164479 0 -11.576420818164479 20.862107158987783 0 0 0 0 -7.1734308266662055 -6.3490407831923221 0 -6.3490407831923221 38.309387563611381 0 0 0 0 0.98394021744760085 -0.29880489550652101 0 -0.29880489550652101 -0.2974186737188802 0 0 0 0 -45.905775460044651 20.152739138022298 0 20.152739138022298 -12.539728516886498 0 0 0 0 -2.978211657244648 -4.9407113533224276 0 -4.9407113533224276 17.177296974313798 0 0 0 0 -0.031962714520560417 -0.25357479717411024 0 -0.25357479717411024 7.9233100724092855 0 0 0 0 0.047924395531452224 3.2965292130968322 0 3.2965292130968322 14.119343663499421 0 0 0 0 -20.38740859076055 14.265860492501815 0 14.265860492501815 3.6649600525693131 0 0 0 0 -69.030490697579125 4.0554671261634212 0 4.0554671261634212 47.114824516931549 0 0 0 0 0.33199513927429036 42.855754594164111 0 42.855754594164111 42.372008363308851 0 0 0 0 -86.442303605363279 -36.84706576942699 0 -36.84706576942699 32.594529323047027 0 0 0 0 18.546284134600683 -58.114782991913671 0 -58.114782991913671 -7.8782665683538653 0 0 0 0 5.8263703330576391 -23.558843307931966 0 -23.558843307931966 -89.771356003097026 0 0 0 0 -55.133185702267951 -69.174253662407864 0 -69.174253662407864 20.84981103001337 0 0 0 0 58.833260026148082 -6.6029162508639274 0 -6.6029162508639274 -63.436778851290001 0 0 0 0 -117.99321115822158 -115.1769175620866 0 -115.1769175620866 23.85014503277489 0 0 0 0 16.068633493753339 136.98691369659718 0 136.98691369659718 377.61043908415013 0 0 0 0 -151.34907728480266 -107.44787802120845 0 -107.44787802120845 541.61376843807739 0 0 0 0 -245.36042071690554 -437.38977595723554 0 -437.38977595723554 -199.02935154282022 0 0 0 0 30.407229958646894 -22.525676016543002 0 -22.525676016543002 -121.12663370059454 0 0 0 0 4.2803056555831471 2.5921510522960318 0 2.5921510522960318 6.7357579205577149 0 0 0 0 3.00278507983076 5.0708733382878677 0 5.0708733382878677 25.729053760034731 0 0 0 0 27.660844609495143 91.068064025079366 0 91.068064025079366 -336.18571731855627 0 0 0 0 5.5361461334335651 7.8932668289445616 0 7.8932668289445616 -8.4876242895294922 0 0 0 0 -10.377334235602177 -60.838133220830059 0 -60.838133220830059 -385.94846566299384 0 0 0 0 -4.0998863887565449 118.87210808722557 0 118.87210808722557 -171.6478469689464 0 0 0 0 -1.8949696541157106 25.369355919275307 0 25.369355919275307 2.5620974792117073 0 0 0 0 -73.627305533170784 33.287995603190211 0 33.287995603190211 -65.422713977430249 0 0 0 0 779.50863958675689 -29.13211937257438 0 -29.13211937257438 -444.43347324442584 0 0 0 0 -371.51834451732111 -290.02759357704781 0 -290.02759357704781 869.41876495765973 0 0 0 0 -168.48574411347886 253.1583321062426 0 253.1583321062426 721.85737379308102 0 0 0 0 -74.382073407032635 274.11680506313132 0 274.11680506313132 -5.7849022217706079 0 0 0 0 -155.19920941697569 164.39946877957846 0 164.39946877957846 322.14468395487893 0 0 0 0 -47.820935388134785 28.37632906698127 0 28.37632906698127 -92.244697414134862 0 0 0 0 -14.529206853285771 26.523423542615916 0 26.523423542615916 5.6206838148694969 0 0 0 0 -16.624044217190203 2.8409519190754509 0 2.8409519190754509 89.282835437254107 0 0 0 0 -0.86281681911876618 4.1764273644180037 0 4.1764273644180037 -6.5761190694369986 0 0 0 0 29.677905729018676 162.34458863965119 0 162.34458863965119 -200.22397954259941 0 0 0 0 -9.4595600770180681 -9.7098727454140317 0 -9.7098727454140317 150.77081830088719 0 0 0 0 0.35317862878034312 0.27519692351410185 0 0.27519692351410185 0.6526536636946787 0 0 0 0 85.366157653870687 43.992938817944378 0 43.992938817944378 -143.40002152505622 0 0 0 0 -8.050048954197095 8.2931356897660979 0 8.2931356897660979 47.212783385233081 0 0 0 0 -109.84898461113653 48.350511482822185 0 48.350511482822185 86.359403274604119 0 0 0 0 -83.26838204314663 60.629685979452915 0 60.629685979452915 42.830992459814297 0 0 0 0 -53.835124823672231 33.748916640273819 0 33.748916640273819 0.64295535534620285 0 0 0 0 -53.512683428457649 22.119088086248667 0 22.119088086248667 7.2829175340011716 0 0 0 0 -32.105637021450093 35.70924208255019 0 35.70924208255019 -6.4897432316793129 0 0 0 0 -15.891509193819072 4.1222613525911811 0 4.1222613525911811 16.994413509551521 0 0 0 0 -79.033556887960003 -30.578988550783833 0 -30.578988550783833 84.111448920564726 0 0 0 0 -27.289956499289215 1.009114322391838 0 1.009114322391838 101.128212930443 0 0 0 0 -79.272269612851233 45.912438969557115 0 45.912438969557115 49.286666715866886 0 0 0 0 -81.192832657418876 72.72864108828071 0 72.72864108828071 72.42250990725006 0 0 0 0 -17.372305606988185 25.997990451210995 0 25.997990451210995 20.261645004612845 0 0 0 0 -8.2348124961930722 4.4192998662474565 0 4.4192998662474565 65.523543596113086 0 0 0 0 -11.792494102336374 0.15406287676711372 0 0.15406287676711372 21.651034783065143 0 0 0 0 -20.423792562749441 -7.1810985239280853 0 -7.1810985239280853 75.600962611453724 0 0 0 0 -27.018601024120017 15.723134000450955 0 15.723134000450955 65.057901504264009 0 0 0 0 -113.94836467664095 51.495211859017218 0 51.495211859017218 -5.4644455512752756 0 0 0 0 -9.9601738130303179 7.3328850141842423 0 7.3328850141842423 21.160006801746761 0 0 0 0 -5.8398567556951999 45.994185568985309 0 45.994185568985309 0.60973582969387508 0 0 0 0 -17.817171642014728 1.0871386624057777 0 1.0871386624057777 17.642653020913713 0 0 0 0 -28.016989370549709 12.423422536958242 0 12.423422536958242 33.852259667299222 0 0 0 0 -6.3298094696110905 -4.8143324709190836 0 -4.8143324709190836 16.137252972288479 0 0 0 0 -18.420567197991279 6.7033522574010753 0 6.7033522574010753 34.926520259371102 0 0 0 0 -9.4577593135201834 -1.5825775721071125 0 -1.5825775721071125 74.170524743808528 0 0 0 0 -27.529902748492077 24.519102626306314 0 24.519102626306314 27.644052829258669 0 0 0 0 -17.475072558346426 19.629946749022565 0 19.629946749022565 40.506699289544486 0 0 0 0 -27.380247327218967 17.057261257374194 0 17.057261257374194 53.08903516974533 0 0 0 0 -30.345410810587055 12.039674564235611 0 12.039674564235611 45.932176837697625 0 0 0 0 -21.571079337456467 12.835820744978264 0 12.835820744978264 45.482217822456732 0 0 0 0 -19.808220790662745 11.459865160053596 0 11.459865160053596 23.857477782006754 0 0 0 0 -2.0198362674628179 7.0583412759550157 0 7.0583412759550157 27.771622842733905 0 0 0 0 -1.9788287578766202 5.4541368187505128 0 5.4541368187505128 37.68716682285833 0 0 0 0 -88.387345223061857 14.778372099419357 0 14.778372099419357 19.197127415449359 0 0 0 0 -56.239926314090553 41.343795949665946 0 41.343795949665946 65.140369648695923 0 0 0 0 -62.46282988730016 32.75865718093246 0 32.75865718093246 8.9603862186195329 0 0 0 0 -21.213720369880321 46.299313453593641 0 46.299313453593641 34.652310674828186 0 0 0 0 -31.6561966763893 1.9152546439436264 0 1.9152546439436264 50.533849541054224 0 0 0 0 -3.2521928562027274 11.69442089220486 0 11.69442089220486 -0.37110499973721289 0 0 0 0 -7.9199750060506631 23.474690166709479 0 23.474690166709479 32.000053237774409 0 0 0 0 -14.865371206547707 -3.4988427240059536 0 -3.4988427240059536 60.943335006246343 0 0 0 0 -1.3446481225439744 13.232899859743 0 13.232899859743 34.200439657213451 0 0 0 0 -38.98207969466921 28.997242027733591 0 28.997242027733591 24.48395954084117 0 0 0 0 -26.294682835458843 36.318118202987534 0 36.318118202987534 38.374503228387766 0 0 0 0 -29.535176391387722 6.3315680009545758 0 6.3315680009545758 35.885142023238586 0 0 0 0 -2.6736258548974998 11.375323083828619 0 11.375323083828619 26.549531996721271 0 0 0 0 -1.3676510782781861 9.1146996394681992 0 9.1146996394681992 18.470382141225855 0 0 0 0 -22.166073723509726 60.722584937633655 0 60.722584937633655 20.849834890596412 0 0 0 0 -10.905584909297787 8.6520078507431606 0 8.6520078507431606 15.780265984348773 0 0 0 0 7.1228335705063728 1.860172676439106 0 1.860172676439106 82.59818901255494 0 0 0 0 -5.0421423107918599 23.105039089321508 0 23.105039089321508 83.931789090675011 0 0 0 0 13.591663776443738 20.156071649686055 0 20.156071649686055 110.63682817923836 0 0 0 0 5.6981204410958526 -15.687613111091196 0 -15.687613111091196 104.01326390076429 0 0 0 0 2.7629174900512226 2.2780402109783608 0 2.2780402109783608 69.545369401836069 0 0 0 0 -13.358089904737426 16.81194441911066 0 16.81194441911066 77.763128818412952 0 0 0 0 -0.23226315798638097 15.710758200511918 0 15.710758200511918 53.139401230466319 0 0 0 0 -10.20058088380847 34.051408618754067 0 34.051408618754067 49.468244563118787 0 0 0 0 -7.9675352530985037 24.06545436806482 0 24.06545436806482 18.539749441537424 0 0 0 0 3.4178663951513499 21.758271025752038 0 21.758271025752038 25.303338866127888 0 0 0 0 -8.1445532098132389 34.399699907167815 0 34.399699907167815 68.398469850835681 0 0 0 0 -2.7946291499320068 5.3277351989236195 0 5.3277351989236195 -26.954379491915461 0 0 0 0 -25.25970121088676 24.4269983545164 0 24.4269983545164 25.136634832990239 0 0 0 0 3.0218881074793895 -1.9223236495220704 0 -1.9223236495220704 13.702712779362088 0 0 0 0 -19.57608806926919 -28.295379174429399 0 -28.295379174429399 158.35032056532509 0 0 0 0 -6.3772654213266833 36.56511944230806 0 36.56511944230806 10.902402476829593 0 0 0 0 17.402830372924655 24.278257959653274 0 24.278257959653274 103.28385340448585 0 0 0 0 -327.19295670478687 412.96069348755373 0 412.96069348755373 537.17008934559999 0 0 0 0 -59.121436071019161 39.633650717267301 0 39.633650717267301 122.91377515259228 0 0 0 0 -14.842745161727965 21.102663614024607 0 21.102663614024607 90.353957973907939 0 0 0 0 -83.73039246440203 -81.94002277184336 0 -81.94002277184336 120.66081462509464 0 0 0 0 -24.11181493255026 -43.230791591107845 0 -43.230791591107845 145.19321019243216 0 0 0 0 26.131419053127303 -104.9607939551297 0 -104.9607939551297 164.03648112821975 0 0 0 0 3.4555434249905375 -7.5311055111160385 0 -7.5311055111160385 65.664240409550985 0 0 0 0 -7.5898385263153614 -8.9990614940879823 0 -8.9990614940879823 68.687935962421761 0 0 0 0 -11.144810073614941 18.932256954123034 0 18.932256954123034 78.276676393156947 0 0 0 0 -99.95659820349465 223.39143049340782 0 223.39143049340782 58.15868084851536 0 0 0 0 15.741187029865614 -19.171999294110719 0 -19.171999294110719 65.135048721786006 0 0 0 0 -2.5486534062841812 15.018004860190842 0 15.018004860190842 1.9550506108246282 0 0 0 0 -17.072866811448016 3.9061903622195189 0 3.9061903622195189 72.801359219274303 0 0 0 0 -85.889763577062695 34.009306150903285 0 34.009306150903285 -38.670126513308787 0 0 0 0 170.85807885126997 -148.89799455299726 0 -148.89799455299726 -375.19350307280547 0 0 0 0 0.80340246815010019 1.9764931219235251 0 1.9764931219235251 2.6862201817126561 0 0 0 0 110.36618915067811 210.81470935203834 0 210.81470935203834 299.67457761989863 0 0 0 0 70.010577703511444 -145.31017538530432 0 -145.31017538530432 279.08483724473626 0 0 0 0 5.9086137634330953 -25.524850051340763 0 -25.524850051340763 77.201705514657078 0 0 0 0 3.1245558435039129 -15.445520042529097 0 -15.445520042529097 66.479111924309109 0 0 0 0 -7.3474435518728569 -20.783781233072659 0 -20.783781233072659 88.61047702920041 0 0 0 0 -3.0604193789367855 -32.168070662439277 0 -32.168070662439277 97.469321405878873 0 0 0 0 -56.439467810680071 24.096207378999679 0 24.096207378999679 145.42088835119648 0 0 0 0 -44.518859359130147 56.625347568413417 0 56.625347568413417 20.786063367209863 0 0 0 0 -26.295484437545383 0.88497514517803211 0 0.88497514517803211 75.267342779399769 0 0 0 0 -17.689897001476311 6.3595628967559605 0 6.3595628967559605 57.799523544032127 0 0 0 0 0.78447911266243864 0.17825609021336675 0 0.17825609021336675 0.017479357590211464 0 0 0 0 24.188878654695145 60.634198231105984 0 60.634198231105984 -133.26414692315302 0 0 0 0 -666.68811905092298 303.03045498704887 0 303.03045498704887 401.98114938666549 0 0 0 0 -14.871929947886883 13.826355897018374 0 13.826355897018374 -6.0796973263495602 0 0 0 0 457.82274528376547 -40.912764780106954 0 -40.912764780106954 -36.167170248329057 0 0 0 0 -22.135243808683299 15.54052487766603 0 15.54052487766603 124.54493185605679 0 0 0 0 -18.869912012962196 4.0531276302878041 0 4.0531276302878041 18.904703485832343 0 0 0 0 -63.217404981889558 161.96589798395871 0 161.96589798395871 12.382068741506373 0 0 0 0 -87.92692318177069 58.265288540289475 0 58.265288540289475 192.05932479034527 0 0 0 0 2.6176575645877165 31.579604798156652 0 31.579604798156652 126.19425402840716 0 0 0 0 -24.24043922913188 3.3286950092660845 0 3.3286950092660845 144.47838334515109 0 0 0 0 -25.869403004580818 11.623027024485054 0 11.623027024485054 228.98402629236807 0 0 0 0 8.6538500045862747 50.607925911484926 0 50.607925911484926 157.69570432898763 0 0 0 0 -4.7263412696666194 -0.68499006795420314 0 -0.68499006795420314 -1.0019622900880449 0 0 0 0 -1.5994939238298684 43.616773690911941 0 43.616773690911941 322.24324099998194 0 0 0 0 305.23310314442097 -205.65048506154562 0 -205.65048506154562 298.22905236400402 0 0 0 0 7.3802314389007506 65.841024868275781 0 65.841024868275781 256.32602374626731 0 0 0 0 -135.68265722241404 41.337767381759477 0 41.337767381759477 145.78964949648434 0 0 0 0 -75.727305842737223 -11.30527932053883 0 -11.30527932053883 97.713308729958953 0 0 0 0 -47.50449248794348 -72.237837241540547 0 -72.237837241540547 164.57788892561803 0 0 0 0 -63.334123203242029 53.541403533641642 0 53.541403533641642 89.124108796590008 0 0 0 0 -128.31990354319532 -51.902223261538893 0 -51.902223261538893 78.488159806991462 0 0 0 0 -13.190731382371396 -9.7611329142016245 0 -9.7611329142016245 40.37655844760468 0 0 0 0 244.43022815791301 25.926469891557645 0 25.926469891557645 -55.980217233416624 0 0 0 0 327.60225955283113 90.114106725744932 0 90.114106725744932 -38.696935483167181 0 0 0 0 -57.692500656468837 43.809339286344766 0 43.809339286344766 114.89978673832957 0 0 0 0 -43.316640087712585 15.755890322128835 0 15.755890322128835 143.8333374413487 0 0 0 0 -37.678556279042823 25.770035216955876 0 25.770035216955876 160.38133702809864 0 0 0 0 -22.699645715175713 3.9425802556127678 0 3.9425802556127678 93.282942380707425 0 0 0 0 91.129852564240537 128.44912303401361 0 128.44912303401361 33.73207077641564 0 0 0 0 -137.99316312564613 -11.80016690263335 0 -11.80016690263335 286.92617714467633 0 0 0 0 -17.270626769505441 51.204731016885489 0 51.204731016885489 323.28644915969926 0 0 0 0 209.23011376621344 -59.7766735926416 0 -59.7766735926416 52.129910372459562 0 0 0 0 52.228253881627552 -143.74633465152874 0 -143.74633465152874 204.86621580451902 0 0 0 0 28.053530687030161 -126.94740844197077 0 -126.94740844197077 68.540412106973235 0 0 0 0 102.21748698731716 33.890756831271574 0 33.890756831271574 42.024742801353568 0 0 0 0 0.19042851392347249 -1.1922922876231326 0 -1.1922922876231326 3.4178346876817045 0 0 0 0 190.1597404235074 167.91468289596378 0 167.91468289596378 153.37264731348114 0 0 0 0 -2.6245250367119297 -105.47207782216719 0 -105.47207782216719 183.02352188579971 0 0 0 0 35.135047003945147 -103.26128480542684 0 -103.26128480542684 146.78493069316028 0 0 0 0 10.498135771511443 -74.892234383878531 0 -74.892234383878531 114.12731218996487 0 0 0 0 -22.446735116345735 -100.48017848785821 0 -100.48017848785821 226.00238473387435 0 0 0 0 0.86527861061636457 0.44989122462007458 0 0.44989122462007458 -1.7231586837922492 0 0 0 0 35.26053861430637 -19.776349123480031 0 -19.776349123480031 203.5210206972406 0 0 0 0 -2.405814345599083 -88.688694593525724 0 -88.688694593525724 115.43644413541188 0 0 0 0 -57.120629964403633 71.029762540652882 0 71.029762540652882 42.346760824832018 0 0 0 0 87.487288195322662 -14.209055889899901 0 -14.209055889899901 -34.718162666569697 0 0 0 0 -34.75559538326138 -4.4387154347368778 0 -4.4387154347368778 41.263228599826107 0 0 0 0 -1.4016300642727597 3.1884721836482015 0 3.1884721836482015 14.895044729536323 0 0 0 0 -94.081321973772276 11.782497303262062 0 11.782497303262062 38.795325085811783 0 0 0 0 1.0695590048071608 49.44784775840526 0 49.44784775840526 -57.833186591218691 0 0 0 0 -5.735821189098715 13.552124324152828 0 13.552124324152828 -4.026030191074824 0 0 0 0 -18.110684322497946 25.265048385335831 0 25.265048385335831 31.803227372214678 0 0 0 0 -30.259440872297546 40.662110981207661 0 40.662110981207661 -1.1072371321788523 0 0 0 0 -6.0702771238453046 14.473468457996205 0 14.473468457996205 67.234934483727557 0 0 0 0 0.073872878147323462 4.4745426808440243 0 4.4745426808440243 73.104762407238013 0 0 0 0 0.30720749813872372 7.7390043167452234 0 7.7390043167452234 61.860535978970347 0 0 0 0 -43.047486345246568 1.5529064949223539 0 1.5529064949223539 57.243514663234237 0 0 0 0 11.786142893203774 80.592370558646508 0 80.592370558646508 17.263902863953263 0 0 0 0 -0.019669932516794355 11.806663944946195 0 11.806663944946195 68.184263892115268 0 0 0 0 -0.0090312094859673619 11.791024454105354 0 11.791024454105354 69.500026844048989 0 0 0 0 -0.0053697217713545879 12.361378303696256 0 12.361378303696256 68.804291977896355 0 0 0 0 -52.494786358340207 -36.369645543767547 0 -36.369645543767547 108.28221526935158 0 0 0 0 1.9086333526321368 15.062345120474262 0 15.062345120474262 66.145890074545548 0 0 0 0 -155.59010722035202 113.07979709981737 0 113.07979709981737 134.1278058552125 0 0 0 0 -44.855534180311679 139.32827956709662 0 139.32827956709662 110.56372387130114 0 0 0 0 -1.4188369471443254 12.538041572263026 0 12.538041572263026 76.560561433573525 0 0 0 0 -10.706624646340305 8.1263402447657427 0 8.1263402447657427 76.542611241078703 0 0 0 0 -110.09286856104961 -7.8206905094557442 0 -7.8206905094557442 129.45365066357772 0 0 0 0 -2.2423588948820461 6.424131985593732 0 6.424131985593732 32.446313828973587 0 0 0 0 8.2112761020876661 -51.639553248482116 0 -51.639553248482116 23.846710472469567 0 0 0 0 -0.014195955121011516 -50.000004031076969 0 -50.000004031076969 29.707055734528694 0 0 0 0 -1.4675864829084426 -34.059615080108784 0 -34.059615080108784 45.831115563460088 0 0 0 0 -2.1773956627141202 -12.821910262674066 0 -12.821910262674066 9.434139605135897 0 0 0 0 -18.30857547269623 -17.726237719267374 0 -17.726237719267374 43.327081797659048 0 0 0 0 18.469053192330421 -52.009432337566977 0 -52.009432337566977 23.859672949633932 0 0 0 0 -40.923612870019042 -58.788152273511514 0 -58.788152273511514 87.543328685358574 0 0 0 0 -39.802983676532357 -33.747874133323648 0 -33.747874133323648 114.56925146833237 0 0 0 0 -17.846330686554694 -51.015872626016062 0 -51.015872626016062 97.101884785981383 0 0 0 0 -6.4869723522562026 -59.427775061703869 0 -59.427775061703869 99.567105295769579 0 0 0 0 -7.9250282867835899 -64.816216033255841 0 -64.816216033255841 91.14457501101424 0 0 0 0 45.338170844912518 -28.829459194326773 0 -28.829459194326773 104.49016248693079 0 0 0 0 -74.243944678416483 -18.938200933458575 0 -18.938200933458575 30.833427964709699 0 0 0 0 -70.504073412797879 112.82887700170977 0 112.82887700170977 62.474336114864855 0 0 0 0 -26.158516894428285 -0.33591583858385832 0 -0.33591583858385832 80.922380219543072 0 0 0 0 -26.278760369342763 17.24626465633628 0 17.24626465633628 36.795137112116208 0 0 0 0 -2.9371358905418674 -79.962102675694041 0 -79.962102675694041 2.9977471578713448 0 0 0 0 1.8303315787885053 -37.661690199693794 0 -37.661690199693794 43.917333144972957 0 0 0 0 123.47739573968738 -80.957861171045806 0 -80.957861171045806 2.5259656525668106 0 0 0 0 -5.149775894213235 -66.567775830742903 0 -66.567775830742903 -8.3139266674406826 0 0 0 0 20.211780845489102 -31.209998649945192 0 -31.209998649945192 -3.6834010908496566 0 0 0 0 -30.780979216536707 9.7048678541905247 0 9.7048678541905247 33.621749392863421 0 0 0 0 -14.954678450717495 -53.529100815649144 0 -53.529100815649144 88.261827574780909 0 0 0 0 -14.115642840264359 -12.328225937686362 0 -12.328225937686362 91.564719167926569 0 0 0 0 -30.541793534507917 -31.890878864687693 0 -31.890878864687693 113.8205762731377 0 0 0 0 4.3983022486653427 -10.847871401105387 0 -10.847871401105387 -4.9274215129885306 0 0 0 0 -55.46920671953194 -55.005823768326081 0 -55.005823768326081 -9.840530694462359 0 0 0 0 32.364045493595768 -58.800758319885063 0 -58.800758319885063 70.219254423711391 0 0 0 0 -47.94711970301887 -13.603060773311881 0 -13.603060773311881 68.373634585448599 0 0 0 0 -31.564582254770613 4.4535370207805158 0 4.4535370207805158 62.517407062189534 0 0 0 0 -35.577486944252087 -40.242517402140948 0 -40.242517402140948 0.71386814772267826 0 0 0 0 -15.289337763999239 -12.66405304848368 0 -12.66405304848368 84.881888524502529 0 0 0 0 -14.450966382752462 -6.2125801797784135 0 -6.2125801797784135 30.039172619488653 0 0 0 0 -16.471628032253648 -47.960122363088885 0 -47.960122363088885 252.63541377488582 0 0 0 0 5.9681016990907665 -55.025999392040831 0 -55.025999392040831 155.17491231614622 0 0 0 0 -33.1105803653154 -8.041367933696165 0 -8.041367933696165 156.86977545869013 0 0 0 0 -41.229504978445505 -42.909060490579577 0 -42.909060490579577 133.61887408168695 0 0 0 0 -116.72092347904493 6.6771528228346142 0 6.6771528228346142 161.7550676627543 0 0 0 0 9.2147983123613812 11.294334284131764 0 11.294334284131764 54.882578944670968 0 0 0 0 -17.499416631112581 -16.143961684516398 0 -16.143961684516398 82.170773278019624 0 0 0 0 -14.235863224120173 -6.7815207031503206 0 -6.7815207031503206 76.333443736733955 0 0 0 0 4.9412786304765177 -35.644434484129306 0 -35.644434484129306 100.19999800137884 0 0 0 0 -5.0635170860678045 -36.397718187286955 0 -36.397718187286955 133.03602725399833 0 0 0 0 -0.2409633238952491 -18.439760338316127 0 -18.439760338316127 87.240499209225391 0 0 0 0 0.02777592007914002 -38.575582943551126 0 -38.575582943551126 187.61569454339042 0 0 0 0 61.343471893011298 -124.24487852922175 0 -124.24487852922175 232.11853272138978 0 0 0 0 6.2881134702812176 -80.352763089023938 0 -80.352763089023938 132.83386809070362 0 0 0 0 -40.715040274720309 -57.498009522329085 0 -57.498009522329085 141.26551223866409 0 0 0 0 -14.52882980706417 -68.216255442675902 0 -68.216255442675902 139.40012229820422 0 0 0 0 -10.746675346040831 -49.256495626628748 0 -49.256495626628748 156.72075279537239 0 0 0 0 -109.04893826394976 -49.148645979599678 0 -49.148645979599678 224.65292693821539 0 0 0 0 -25.210362262919016 26.402606828851276 0 26.402606828851276 361.67281409303541 0 0 0 0 -43.462484100033194 -49.56698452665114 0 -49.56698452665114 95.951500441267854 0 0 0 0 -5.7285207198730186 -82.446948705619434 0 -82.446948705619434 200.08500661017024 0 0 0 0 68.47055530507123 54.995344174327329 0 54.995344174327329 301.47822691366309 0 0 0 0 0.8094791208432901 -1.518806568804699 0 -1.518806568804699 0.97316853448654683 0 0 0 0 107.56707322606874 138.65936137930839 0 138.65936137930839 123.67918949793966 0 0 0 0 0.029163323752298471 5.0321588926090044 0 5.0321588926090044 8.3709667224175064 0 0 0 0 -15.104865955141889 7.0209396525533521 0 7.0209396525533521 31.279799023031956 0 0 0 0 -1.7075162626278821 -6.2587143336568261 0 -6.2587143336568261 35.855677735256904 0 0 0 0 13.675679065127042 -28.934819854708621 0 -28.934819854708621 70.377370343845541 0 0 0 0 -7.3076194354695136 6.3333715119941942 0 6.3333715119941942 7.7766536836130058 0 0 0 0 -17.759766472941109 -3.8126621265240459 0 -3.8126621265240459 59.68702271643798 0 0 0 0 -63.867716324659483 73.290471229174727 0 73.290471229174727 20.922491616380285 0 0 0 0 85.323625036831743 87.241069714356854 0 87.241069714356854 6.4236321470234543 0 0 0 0 3.1662461595296918 -28.375135990179842 0 -28.375135990179842 77.049533936282387 0 0 0 0 28.056321264622966 -76.90411263180431 0 -76.90411263180431 114.12892615073361 0 0 0 0 0.16632365477032351 -5.4525400318439665 0 -5.4525400318439665 24.26067253740241 0 0 0 0 18.198663237483743 -29.95210603914893 0 -29.95210603914893 71.16648873120721 0 0 0 0 1.5225057637599093 -42.619592485316389 0 -42.619592485316389 87.22541414515581 0 0 0 0 25.139009670730388 -35.151262362502166 0 -35.151262362502166 72.658384996699169 0 0 0 0 17.361114989544149 -31.301340173580684 0 -31.301340173580684 70.854293243261054 0 0 0 0 6.161661387552158 -22.984141067143355 0 -22.984141067143355 38.193717584654223 0 0 0 0 3.5232352424575382 -20.081691465869369 0 -20.081691465869369 15.830996386533933 0 0 0 0 3.2374355570027546 -28.049602694183704 0 -28.049602694183704 47.657278457350913 0 0 0 0 6.9835137735466599 -22.043186850911109 0 -22.043186850911109 48.24134050252502 0 0 0 0 14.525852853741526 -31.742303033810458 0 -31.742303033810458 72.67306735519378 0 0 0 0 6.1466038262464835 -4.0870970422683399 0 -4.0870970422683399 14.600749611045387 0 0 0 0 7.0810296957257925 -31.178408583689574 0 -31.178408583689574 61.659912258562144 0 0 0 0 18.286971140900278 -41.970063832573942 0 -41.970063832573942 61.548129418581084 0 0 0 0 17.094273275420164 -31.955521468964434 0 -31.955521468964434 70.493996744073229 0 0 0 0 16.716461568719751 -32.328502786069294 0 -32.328502786069294 72.643934670617455 0 0 0 0 29.640190596131333 -35.18646499355782 0 -35.18646499355782 50.92267801752314 0 0 0 0 28.968130563163868 -36.379927642838084 0 -36.379927642838084 52.922703075775644 0 0 0 0 9.695695002435059 -44.108415895243525 0 -44.108415895243525 39.655248393930378 0 0 0 0 22.135269342395986 -31.595345454625203 0 -31.595345454625203 51.942406345533527 0 0 0 0 29.433481434435635 -37.903843854342995 0 -37.903843854342995 53.80837630899623 0 0 0 0 32.69144424502295 -33.843129101708399 0 -33.843129101708399 14.212815921780361 0 0 0 0 13.901741436326287 -24.337529654994199 0 -24.337529654994199 35.563639386990701 0 0 0 0 36.049915808678634 -35.548024560477643 0 -35.548024560477643 51.420951765350765 0 0 0 0 3.2441957876062588 -21.258327919545991 0 -21.258327919545991 31.564664022786019 0 0 0 0 13.328264827952751 -16.093532159039171 0 -16.093532159039171 11.712458678763355 0 0 0 0 48.106423737086686 -58.684797736030305 0 -58.684797736030305 -60.618103638855246 0 0 0 0 22.465404324018081 -19.838912732775498 0 -19.838912732775498 -119.31046064799011 0 0 0 0 0.0069781726094275678 -6.3014010530081928 0 -6.3014010530081928 15.145207463414408 0 0 0 0 5.1444158817948189 -6.1764973542964015 0 -6.1764973542964015 5.0185133707635146 0 0 0 0 2.0770169860449812 -7.7027046638104366 0 -7.7027046638104366 21.771722211520682 0 0 0 0 -2.1160515398022843 -4.0530192313673581 0 -4.0530192313673581 21.465215355080929 0 0 0 0 -0.026128072516242343 -5.7667750354797542 0 -5.7667750354797542 29.841120666096685 0 0 0 0 9.3399269827823446 -17.422145261341939 0 -17.422145261341939 33.954990083118901 0 0 0 0 -5.0596030228444588 -3.3202993730780719 0 -3.3202993730780719 24.794849102154728 0 0 0 0 -4.6933788116829662 -4.7636903538293751 0 -4.7636903538293751 28.617378345224779 0 0 0 0 4.8724455162031397 0.84098529575237535 0 0.84098529575237535 6.6007804591805268 0 0 0 0 16.66672825243586 -18.330134921445278 0 -18.330134921445278 66.718485707973741 0 0 0 0 -11.850343829866688 -11.869200076667767 0 -11.869200076667767 33.474507636274211 0 0 0 0 -5.5711016305650798 -11.662751989834561 0 -11.662751989834561 41.422069393721415 0 0 0 0 121.41136894131341 -101.5295350774868 0 -101.5295350774868 71.009949001323548 0 0 0 0 49.314664258396078 -47.637151249873568 0 -47.637151249873568 34.728259218456515 0 0 0 0 16.036159129003863 -57.866740235691395 0 -57.866740235691395 37.072003443841822 0 0 0 0 -24.154029138117039 -7.3502373172377702 0 -7.3502373172377702 16.561775402732565 0 0 0 0 -1.4284250794964599 -1.6234593674061131 0 -1.6234593674061131 0.74652199439742617 0 0 0 0 42.2056959641086 -50.308749482996063 0 -50.308749482996063 8.4177264322206611 0 0 0 0 47.551899611851695 -32.149323591715074 0 -32.149323591715074 46.493034053346491 0 0 0 0 20.297580234197085 -32.505725441937102 0 -32.505725441937102 46.805602271997486 0 0 0 0 45.099385710233037 -46.561651510994125 0 -46.561651510994125 35.841500855094637 0 0 0 0 2.8201600484811067 -7.9269581449769362 0 -7.9269581449769362 3.1309979547878584 0 0 0 0 22.59087668092252 -46.62300400625827 0 -46.62300400625827 45.646607511516777 0 0 0 0 39.430610804934986 -62.134315279203292 0 -62.134315279203292 61.601112522534095 0 0 0 0 19.516895900041085 -39.900678700682512 0 -39.900678700682512 50.087279410628298 0 0 0 0 30.36439704282202 -62.722539663380303 0 -62.722539663380303 73.773202047828818 0 0 0 0 18.508499931696861 -44.585266857269744 0 -44.585266857269744 49.375230116420425 0 0 0 0 49.612748931849637 -67.572756579676934 0 -67.572756579676934 55.993704983175121 0 0 0 0 26.562728891498409 -64.729905497155414 0 -64.729905497155414 85.713792477421521 0 0 0 0 37.04463168870825 -79.05174784175324 0 -79.05174784175324 113.30971019879507 0 0 0 0 21.441636660640143 -53.837147985486808 0 -53.837147985486808 78.374640017413185 0 0 0 0 -5.6169084024631957 -46.37051955419156 0 -46.37051955419156 88.750234457591432 0 0 0 0 1.2440065358823631 -46.197639421392523 0 -46.197639421392523 103.93740086079924 0 0 0 0 1.0625622914158157 -41.427687433751998 0 -41.427687433751998 81.817607423654408 0 0 0 0 4.8306657033381271 -29.966308670427679 0 -29.966308670427679 75.110531470170827 0 0 0 0 0.1971155818682746 -29.347410405738628 0 -29.347410405738628 57.822151512868004 0 0 0 0 -13.952187615497593 -8.0560624882716638 0 -8.0560624882716638 26.316484572574382 0 0 0 0 0.26855868902202928 -16.944892999366857 0 -16.944892999366857 51.890311102688429 0 0 0 0 6.5030582659346692 -31.602147160781897 0 -31.602147160781897 87.016710654519557 0 0 0 0 -0.071435192492529609 -19.522762175336993 0 -19.522762175336993 2.1658527275432409 0 0 0 0 4.0683908772407449 -38.089331455707907 0 -38.089331455707907 117.48741726976004 0 0 0 0 -15.294331859801446 4.6344232095012785 0 4.6344232095012785 17.314791946190098 0 0 0 0 12.579547364321115 -55.719458288323949 0 -55.719458288323949 146.85431630448147 0 0 0 0 3.0308368091041729 -0.61126346051480596 0 -0.61126346051480596 1.6882154251834374 0 0 0 0 37.621846788979383 -83.288382704507967 0 -83.288382704507967 88.028670823317952 0 0 0 0 121.71345080469018 -63.400314364858787 0 -63.400314364858787 43.480466239372618 0 0 0 0 36.924289570055407 -125.77184681033395 0 -125.77184681033395 166.39217785450455 0 0 0 0 22.44363730123041 -124.72678438916773 0 -124.72678438916773 391.99782800969842 0 0 0 0 20.531894785188342 -36.838739569022437 0 -36.838739569022437 185.45335589429851 0 0 0 0 1.1617248428575238 2.6186981750077507 0 2.6186981750077507 0.046653339746110412 0 0 0 0 24.873064190625371 17.191841307794277 0 17.191841307794277 -57.182680138590513 0 0 0 0 -0.49901321417200961 -36.676114096444508 0 -36.676114096444508 91.734312617198157 0 0 0 0 23.647509823495056 -54.300770064881362 0 -54.300770064881362 6.1606975785214217 0 0 0 0 -14.633177428070688 -8.0240626374548754 0 -8.0240626374548754 1.0994347673686207 0 0 0 0 9.5324601305055694 -63.401459985820111 0 -63.401459985820111 98.847437428645208 0 0 0 0 10.410161845615221 -72.010516664198803 0 -72.010516664198803 128.54854983391124 0 0 0 0 -9.1855264065050193 -3.419354593739655 0 -3.419354593739655 -1.1438309686851653 0 0 0 0 21.083247044891323 -61.122237820847658 0 -61.122237820847658 108.05659750415361 0 0 0 0 3.1458608813300089 -39.666977376306022 0 -39.666977376306022 67.225818871514548 0 0 0 0 -3.6120174700590724 -31.888280658044096 0 -31.888280658044096 117.81109248084249 0 0 0 0 -9.2831222968106886 -46.441365089664032 0 -46.441365089664032 113.05836424899462 0 0 0 0 -19.072061699298501 -57.957886034666444 0 -57.957886034666444 143.59043859515077 0 0 0 0 -9.2909170333587099 -60.648461665434297 0 -60.648461665434297 141.80977426980098 0 0 0 0 -21.143024478475127 -56.564594015304465 0 -56.564594015304465 163.53477816403029 0 0 0 0 -9.735431005286955 -48.346014886745252 0 -48.346014886745252 112.495979190051 0 0 0 0 0.44350453995866701 -43.355263966266648 0 -43.355263966266648 121.58368854894434 0 0 0 0 -15.541498262286041 -41.743781232267793 0 -41.743781232267793 147.15115540585248 0 0 0 0 -19.949139234446193 -48.174288479902316 0 -48.174288479902316 146.97464188757726 0 0 0 0 25.128596912401918 -43.370593140134588 0 -43.370593140134588 148.40578018964152 0 0 0 0 -12.041499612048938 -30.433971173952159 0 -30.433971173952159 186.7634664674988 0 0 0 0 -4.7283852103500976 -34.880343849352357 0 -34.880343849352357 146.00061553900014 0 0 0 0 -23.089318658410775 -68.373049045650987 0 -68.373049045650987 184.54622532916255 0 0 0 0 -30.715234705010516 -41.848036448740459 0 -41.848036448740459 139.35989754496404 0 0 0 0 -21.283527613915794 -62.538538623506611 0 -62.538538623506611 148.58027126791421 0 0 0 0 -34.981415536709846 -51.054240963512711 0 -51.054240963512711 172.72636621326092 0 0 0 0 -23.38158522293088 -68.244823008208186 0 -68.244823008208186 166.20490679684735 0 0 0 0 -31.929510738071258 -62.630684502910299 0 -62.630684502910299 162.94352164959128 0 0 0 0 -23.596782099739357 -18.021027186259744 0 -18.021027186259744 93.662746191279439 0 0 0 0 -25.134698255142212 -41.308874353126157 0 -41.308874353126157 156.25697574846708 0 0 0 0 -34.291924945056053 -17.106314736400236 0 -17.106314736400236 177.31783331294719 0 0 0 0 -38.087240702794588 -14.783112347908173 0 -14.783112347908173 117.77771368823596 0 0 0 0 -31.414036713068072 -47.268210430707768 0 -47.268210430707768 132.45460956224997 0 0 0 0 30.301683234512325 -76.910880288186036 0 -76.910880288186036 109.99091668982874 0 0 0 0 27.837671329809382 -90.91871857507067 0 -90.91871857507067 130.78561616353454 0 0 0 0 -11.816446154087316 -78.646412921887531 0 -78.646412921887531 191.03627393979696 0 0 0 0 -8.2560470371790871 -53.341999202544685 0 -53.341999202544685 183.78048990602474 0 0 0 0 -14.874764075371786 -67.852164378506131 0 -67.852164378506131 152.96141466782865 0 0 0 0 -25.591168269864284 -43.606580241088523 0 -43.606580241088523 217.77453047508607 0 0 0 0 -18.755536786552511 -26.356270514703283 0 -26.356270514703283 188.78095256342203 0 0 0 0 -14.884484601827353 -9.4046594527699199 0 -9.4046594527699199 262.91161069140071 0 0 0 0 -5.2918901816192374 -13.795761444183881 0 -13.795761444183881 260.6457836048794 0 0 0 0 -7.341765553197547 -68.829838284400466 0 -68.829838284400466 217.11924751038896 0 0 0 0 -8.3930756414503094 -58.092596454619525 0 -58.092596454619525 302.74085516986088 0 0 0 0 11.094129048128707 11.275292540543887 0 11.275292540543887 290.34952816042642 0 0 0 0 34.94493337007043 -65.799549255196325 0 -65.799549255196325 222.83217030485685 0 0 0 0 110.9928375682066 93.730258060462802 0 93.730258060462802 408.23318068438675 0 0 0 0 -17.589559046658906 -105.30701472140936 0 -105.30701472140936 479.77624566755549 0 0 0 0 24.034810605307939 -124.8946467459391 0 -124.8946467459391 210.30938007864643 0 0 0 0 -4.0964844612845397 -0.49563196499397577 0 -0.49563196499397577 1.2650813458852781 0 0 0 0 60.887143263160397 -28.301838050654624 0 -28.301838050654624 74.328390081489488 0 0 0 0 102.43792922768444 -204.31669058384432 0 -204.31669058384432 152.85494798209766 0 0 0 0 -106.63508708531117 101.85065541726362 0 101.85065541726362 904.83556520273123 0 0 0 0 -59.253816153567641 -310.31203964469023 0 -310.31203964469023 682.35576088773087 0 0 0 0 199.2847462610157 -49.263430174007226 0 -49.263430174007226 186.96187842008658 0 0 0 0 174.04643390297679 -166.37225253686483 0 -166.37225253686483 592.59686983217671 0 0 0 0 233.7509595257462 -72.116049255146436 0 -72.116049255146436 102.69381022173911 0 0 0 0 365.92535704897455 -195.71372255551614 0 -195.71372255551614 162.19392290050746 0 0 0 0 224.82253816777029 -236.2630243163585 0 -236.2630243163585 83.961767810542369 0 0 0 0 124.28611977863602 -131.66271925158435 0 -131.66271925158435 95.736403084607446 0 0 0 0 75.295344864466642 -166.70849883788833 0 -166.70849883788833 79.231018458762264 0 0 0 0 60.729680652099887 -9.8178960460609233 0 -9.8178960460609233 -7.7218499507725937 0 0 0 0 217.08921452693949 -128.81151295578456 0 -128.81151295578456 20.508029679956962 0 0 0 0 149.48473320136236 -114.8696193441283 0 -114.8696193441283 93.262549953440612 0 0 0 0 84.304461753434225 -119.53997316762616 0 -119.53997316762616 165.56726207951579 0 0 0 0 86.130991444414576 -136.17904846309102 0 -136.17904846309102 123.5470171679699 0 0 0 0 87.317227982214717 -67.147842683676572 0 -67.147842683676572 22.932516521410435 0 0 0 0 97.216337534180639 -122.88901771979727 0 -122.88901771979727 111.34791409085301 0 0 0 0 -49.529550449760791 19.225591769547464 0 19.225591769547464 27.21858160455821 0 0 0 0 256.0285199342643 308.09763356307303 0 308.09763356307303 -42.054848165120347 0 0 0 0 3.3275377001974942 -2.3325673316522568 0 -2.3325673316522568 1.5952623355967148 0 0 0 0 -112.0737255843089 85.551208373532063 0 85.551208373532063 149.0929035778172 0 0 0 0 -187.06791380172172 -87.106555656122509 0 -87.106555656122509 26.108933734692982 0 0 0 0 -62.655093511977611 38.869847038880835 0 38.869847038880835 45.797205621594912 0 0 0 0 104.82537101047731 79.075928261245281 0 79.075928261245281 31.082927286421182 0 0 0 0 199.46001030211301 9.8997525633749319 0 9.8997525633749319 325.342564034715 0 0 0 0 627.58271721013148 -243.39180557774307 0 -243.39180557774307 288.92968531447696 0 0 0 0 157.02426799732666 -106.87555654185053 0 -106.87555654185053 130.00362166255218 0 0 0 0 122.27187999768694 69.568115985304757 0 69.568115985304757 68.363729457443696 0 0 0 0 165.64504305429983 34.874000930205511 0 34.874000930205511 -157.84752396172553 0 0 0 0 -28.001409407752362 19.79572094976902 0 19.79572094976902 181.29364274671389 0 0 0 0 -1.3789260536318144 2.9821779720080315 0 2.9821779720080315 1.8543034525790176 0 0 0 0 13.921169763774742 -16.268957650136144 0 -16.268957650136144 98.452657241781708 0 0 0 0 -7.2293021147428362 16.121067495643729 0 16.121067495643729 102.99243306776043 0 0 0 0 -28.030579457007292 -39.80064253234741 0 -39.80064253234741 -10.600430241393042 0 0 0 0 15.229799274733637 104.37139947210017 0 104.37139947210017 -70.114751057713875 0 0 0 0 -2.4214100199822983 3.7502260937473011 0 3.7502260937473011 2.0030252982855785 0 0 0 0 31.419368050384037 19.751869381419965 0 19.751869381419965 58.453566612068244 0 0 0 0 -15.658430273215345 -47.233268599218718 0 -47.233268599218718 106.16569093617727 0 0 0 0 -15.570847218206836 -11.783723083368386 0 -11.783723083368386 134.99569250521745 0 0 0 0 -14.966445855103558 -35.023387514538058 0 -35.023387514538058 120.28982185295899 0 0 0 0 -10.575873674855757 -13.847193232963036 0 -13.847193232963036 105.81109451092198 0 0 0 0 -50.915837120529432 13.421892590376956 0 13.421892590376956 8.7722167960964725 0 0 0 0 10.68380789740695 7.8312064679266769 0 7.8312064679266769 24.831774566227978 0 0 0 0 5.5956841212055224 -30.235413761962263 0 -30.235413761962263 37.377895598125178 0 0 0 0 -4.8998963498498753 2.8267602559073737 0 2.8267602559073737 4.4481413308617874 0 0 0 0 -19.147501490669129 -0.14139690516458359 0 -0.14139690516458359 84.5271264432522 0 0 0 0 -11.731144949754707 -56.361959861445939 0 -56.361959861445939 -17.898211892490508 0 0 0 0 -1.7691613407322144 -26.13917820791039 0 -26.13917820791039 30.380221003529385 0 0 0 0 13.667110251406939 34.856566312944778 0 34.856566312944778 123.6874727968243 0 0 0 0 4.4252559067881521 19.919672559481114 0 19.919672559481114 101.57191329123452 0 0 0 0 -21.899973997131383 -9.738921238356852 0 -9.738921238356852 144.74740357814881 0 0 0 0 -16.906323598297604 -24.652800323528936 0 -24.652800323528936 132.75249678218825 0 0 0 0 -14.630570512962322 -17.202038972091941 0 -17.202038972091941 126.59310197099694 0 0 0 0 -14.518270695318279 -19.128628773825767 0 -19.128628773825767 157.39136364278966 0 0 0 0 19.785934686337896 -11.22498474031454 0 -11.22498474031454 131.12968993438699 0 0 0 0 10.234484119890567 36.953455584640324 0 36.953455584640324 151.05451372941025 0 0 0 0 30.140340138284841 -139.87357487602276 0 -139.87357487602276 61.076448151623481 0 0 0 0 3.5249383711103732 -4.2312448751438296 0 -4.2312448751438296 -12.163097410115881 0 0 0 0 67.016890198536203 111.99244981828087 0 111.99244981828087 232.47420493058235 0 0 0 0 8.5437318440517629 -40.488524813081312 0 -40.488524813081312 272.37473420676542 0 0 0 0 100.38386754482599 3.5122219089607825 0 3.5122219089607825 102.21975017161458 0 0 0 0 -11.798791194730256 -60.76713843861944 0 -60.76713843861944 34.788613741606241 0 0 0 0 15.187257243936756 -43.024720068220631 0 -43.024720068220631 -1.2870749490393791 0 0 0 0 1.4734170100571706 -28.94958215144257 0 -28.94958215144257 -19.160232302830536 0 0 0 0 87.020661770391143 -5.1486233947944129 0 -5.1486233947944129 24.748766729077033 0 0 0 0 3.1325087905133273 -217.02706149003188 0 -217.02706149003188 179.18354647792876 0 0 0 0 28.125436405784967 -75.669223097531358 0 -75.669223097531358 21.362518299167277 0 0 0 0 -8.0121263123771769 -19.771508451463887 0 -19.771508451463887 195.09332636150066 0 0 0 0 -11.873051080693386 -46.732991092210796 0 -46.732991092210796 70.10986459335254 0 0 0 0 17.478143574782735 63.439853205694817 0 63.439853205694817 -62.115389628277626 0 0 0 0 -23.693145368644764 24.86321833132024 0 24.86321833132024 39.36394347762689 0 0 0 0 58.280469501001789 65.072452562810213 0 65.072452562810213 56.916637931892183 0 0 0 0 88.080052240752593 13.892119874828495 0 13.892119874828495 121.0131149660665 0 0 0 0 -1.4826193378270665 1.5106934059532477 0 1.5106934059532477 2.0429729962668546 0 0 0 0 14.986740086903197 -21.297784158314585 0 -21.297784158314585 -23.541404434915194 0 0 0 0 45.622457471074085 -14.541595489965403 0 -14.541595489965403 4.6383728288492421 0 0 0 0 44.560460608121502 -84.795004288622295 0 -84.795004288622295 33.899593723705038 0 0 0 0 18.115829401984229 -43.35564093645371 0 -43.35564093645371 136.3098872072888 0 0 0 0 -7.9173199369431586 -46.138401114883891 0 -46.138401114883891 124.87785475842247 0 0 0 0 -0.32405713988782736 -56.675236303468409 0 -56.675236303468409 269.24197238276247 0 0 0 0 8.0761253442478846 -53.171302309841849 0 -53.171302309841849 268.69515562740889 0 0 0 0 51.246023671528746 -59.856401932403969 0 -59.856401932403969 136.34570658276789 0 0 0 0 52.957528896153235 -44.622181753911718 0 -44.622181753911718 128.2738373864413 0 0 0 0 10.698219518610586 -47.02799337664328 0 -47.02799337664328 282.62522818500292 0 0 0 0 13.365650778996724 -77.126504472522356 0 -77.126504472522356 118.62025326993898 0 0 0 0 58.114401657328926 -46.099682962878433 0 -46.099682962878433 58.296614950493677 0 0 0 0 -2.6020092183043744 -47.015836772319744 0 -47.015836772319744 59.582940273801796 0 0 0 0 -27.670813661620286 -75.89567104998423 0 -75.89567104998423 92.50606609787792 0 0 0 0 13.99583427292373 -41.905756433734496 0 -41.905756433734496 69.238601476492477 0 0 0 0 20.705410063226282 -61.137543886012281 0 -61.137543886012281 34.416688467881613 0 0 0 0 -9.8559675846445316 -73.842867633578862 0 -73.842867633578862 208.3532280321233 0 0 0 0 43.190697524831194 5.475625641644001 0 5.475625641644001 232.57698310885098 0 0 0 0 -3.5708297796441002 -40.128262016260123 0 -40.128262016260123 109.92310832771182 0 0 0 0 -51.543517623935259 -96.730772798189719 0 -96.730772798189719 144.98731598715858 0 0 0 0 -24.012797521679204 -13.869298913050443 0 -13.869298913050443 164.44683478342813 0 0 0 0 -49.50220248429514 -50.952774986035365 0 -50.952774986035365 64.23588728212053 0 0 0 0 -47.416280325436531 -63.733994780056491 0 -63.733994780056491 85.910544545607991 0 0 0 0 -14.597958875971511 -11.527925530823723 0 -11.527925530823723 50.64593139260694 0 0 0 0 -119.12550656176791 -20.969396840762784 0 -20.969396840762784 86.86282668862259 0 0 0 0 147.54131643998699 -52.285902186642488 0 -52.285902186642488 33.958283723270142 0 0 0 0 88.116561761786215 -28.205846799435676 0 -28.205846799435676 62.761166158066771 0 0 0 0 169.39245168727757 -161.29357139699277 0 -161.29357139699277 168.57521786108555 0 0 0 0 -1.0607024115099284 -2.8346342487912537 0 -2.8346342487912537 1.70749185975194 0 0 0 0 173.40362916460981 -133.61426131899316 0 -133.61426131899316 147.84982729830517 0 0 0 0 -17.523386393339024 -1.5742073025376158 0 -1.5742073025376158 18.810725093266228 0 0 0 0 14.287196529637185 -51.776049998414237 0 -51.776049998414237 95.179719720527373 0 0 0 0 21.009418274540621 -33.302468432062597 0 -33.302468432062597 -12.460027921842993 0 0 0 0 87.865018131801662 2.3564122468815185 0 2.3564122468815185 4.4385713989031501 0 0 0 0 0.043719250146288857 1.5674375504655131 0 1.5674375504655131 1.6928117847430997 0 0 0 0 21.614443288042821 12.632815610515536 0 12.632815610515536 -63.609410011071304 0 0 0 0 26.805230720665918 -155.56439037349719 0 -155.56439037349719 110.64818914608622 0 0 0 0 9.3968267538584769 -22.080474145499466 0 -22.080474145499466 5.47996026056353 0 0 0 0 5.2686907074003102 -10.289885994156066 0 -10.289885994156066 -12.225988075362693 0 0 0 0 2.3469451519101909 1.637563520804207 0 1.637563520804207 1.6447782166648608 0 0 0 0 40.390966820944413 -69.100313078043655 0 -69.100313078043655 51.364055771744461 0 0 0 0 66.290284355379299 -34.965620612623752 0 -34.965620612623752 -20.550633093109354 0 0 0 0 57.722791302096084 -17.184853551123524 0 -17.184853551123524 86.90134604441846 0 0 0 0 25.657632063726403 -16.13911373628622 0 -16.13911373628622 -20.142523780510857 0 0 0 0 41.640269335523044 -73.711941494359053 0 -73.711941494359053 113.86695169139057 0 0 0 0 -54.264235228773032 -155.21522303456732 0 -155.21522303456732 88.738501471452764 0 0 0 0 84.20552301762018 -109.84990655147703 0 -109.84990655147703 103.42311821621843 0 0 0 0 -17.836390463849966 -124.43031135575438 0 -124.43031135575438 287.18916698475778 0 0 0 0 -7.4702744794794853 -111.54988599237549 0 -111.54988599237549 287.34823573872563 0 0 0 0 33.93010534165613 -11.561261881252847 0 -11.561261881252847 -18.475032791353982 0 0 0 0 206.59853158341139 45.343714584530971 0 45.343714584530971 -212.82162528792105 0 0 0 0 -75.730978634879989 -56.046851444772983 0 -56.046851444772983 165.7645429338736 0 0 0 0 -60.115636386367441 -50.34273759923235 0 -50.34273759923235 167.76875631001894 0 0 0 0 110.82859108628145 -241.87813873201958 0 -241.87813873201958 230.79403129385173 0 0 0 0 106.19515865216999 -120.94667291169753 0 -120.94667291169753 233.83416923083132 0 0 0 0 340.08187035782521 -230.42488658013463 0 -230.42488658013463 -153.12679644359741 0 0 0 0 246.59305527420747 -354.34414913672663 0 -354.34414913672663 178.44818407119601 0 0 0 0 43.207484839997051 -33.33402749185916 0 -33.33402749185916 47.958368285864708 0 0 0 0 82.426941092395282 -32.783360181398166 0 -32.783360181398166 3.3723612192552537 0 0 0 0 14.740882188032629 15.767114766218583 0 15.767114766218583 -1.8947852618002798 0 0 0 0 21.097104403544186 -11.776495177785947 0 -11.776495177785947 5.3154811032703151 0 0 0 0 88.394354142679276 -37.200100133537489 0 -37.200100133537489 35.836526489612879 0 0 0 0 0.36805269850029454 -3.3658029365026962 0 -3.3658029365026962 2.6811026657736647 0 0 0 0 -2.6340502206634397 2.1737790418399356 0 2.1737790418399356 2.5534404228234564 0 0 0 0 106.95976839652758 -32.648030342723359 0 -32.648030342723359 -5.4316150755548733 0 0 0 0 83.246360468372586 -79.347085470682941 0 -79.347085470682941 39.915553345308581 0 0 0 0 111.34923715089644 -22.750867884649779 0 -22.750867884649779 15.371353845956037 0 0 0 0 106.90338996939386 -36.106843603883021 0 -36.106843603883021 4.6643112527381163 0 0 0 0 84.378237369131966 -28.464083171085804 0 -28.464083171085804 5.3081434518389869 0 0 0 0 89.607481382601691 -44.061926879905513 0 -44.061926879905513 5.2463359884422971 0 0 0 0 38.526127811961338 -0.86699363977936628 0 -0.86699363977936628 -12.271587537489722 0 0 0 0 71.890516186589593 -33.375480520997371 0 -33.375480520997371 5.127421995086479 0 0 0 0 51.698430245814961 -49.252976896255859 0 -49.252976896255859 5.9786430839676541 0 0 0 0 165.20273243801694 146.07900336418243 0 146.07900336418243 110.68528798800253 0 0 0 0 48.901352107679713 -50.313860401111015 0 -50.313860401111015 117.7353342264978 0 0 0 0 90.899256434499875 107.10106314840959 0 107.10106314840959 462.36685024594772 0 0 0 0 110.68181573624679 108.77881323447218 0 108.77881323447218 462.31523888555239 0 0 0 0 -170.52706734800381 -160.61925932968734 0 -160.61925932968734 775.23368558112998 0 0 0 0 575.46234294699389 308.99477031338029 0 308.99477031338029 623.48981210624333 0 0 0 0 -78.771293665527537 -168.43538755356712 0 -168.43538755356712 397.64562231932359 0 0 0 0 -159.13789363520436 -227.34479983054916 0 -227.34479983054916 358.35172685259022 0 0 0 0 -27.364728514891567 -385.05627396986529 0 -385.05627396986529 371.49300403035704 0 0 0 0 14.512993326131891 -295.60307792398817 0 -295.60307792398817 -3.4398569415498059 0 0 0 0 -398.38113298544886 -401.2609424580296 0 -401.2609424580296 535.35354106849991 0 0 0 0 -326.26297592850165 -37.383082062056928 0 -37.383082062056928 1143.609631379717 0 0 0 0 26.071178754506036 315.08742458245251 0 315.08742458245251 1358.2507762668538 0 0 0 0 -79.816518690481558 -491.22459132493532 0 -491.22459132493532 503.03076205711113 0 0 0 0 437.42155613066393 -1078.2357326224428 0 -1078.2357326224428 -151.26102875603829 0 0 0 0 -668.91450396787559 -964.92426017878461 0 -964.92426017878461 122.37610875992686 0 0 0 0 183.3018191314726 -383.15909047484456 0 -383.15909047484456 -92.891115857462864 0 0 0 0 542.76776746002179 848.54284855626611 0 848.54284855626611 1339.3045792468911 0 0 0 0 -1133.1856956154802 -1596.1145313085581 0 -1596.1145313085581 262.22781856235815 0 0 0 0 1.220292063545152 -6.7189125312901723 0 -6.7189125312901723 16.585138687193307 0 0 0 0 -1272.9894017317988 -575.4887518843243 0 -575.4887518843243 750.77219524720567 0 0 0 0 -34.514149307917251 217.6215231619426 0 217.6215231619426 2341.6563623459078 0 0 0 0 249.78224807871175 358.30469714244828 0 358.30469714244828 1388.0334506948711 0 0 0 0 91.339004261368245 -247.08579113125597 0 -247.08579113125597 936.4480035463057 0 0 0 0 10.557077137761917 -9.5894044559348366 0 -9.5894044559348366 -4.390519953405942 0 0 0 0 187.98672155034183 22.65462039069098 0 22.65462039069098 888.93214167098631 0 0 0 0 101.71988907283912 121.51786971361435 0 121.51786971361435 359.56771167262923 0 0 0 0 209.31640815202036 -255.01333501428599 0 -255.01333501428599 641.69626805000007 0 0 0 0 150.31108098269215 173.38459413546661 0 173.38459413546661 196.90687550319126 0 0 0 0 310.72479317520265 -120.57209334056824 0 -120.57209334056824 1081.3130074422224 0 0 0 0 85.061537982187474 -74.838765880995197 0 -74.838765880995197 1580.9757877215743 0 0 0 0 169.05209434952485 -194.71622333384585 0 -194.71622333384585 1055.3305673782015 0 0 0 0 220.00618987902817 -91.551703958015423 0 -91.551703958015423 1105.7079432342143 0 0 0 0 124.30894486350917 32.655330064852023 0 32.655330064852023 703.2489815155277 0 0 0 0 365.54889840111082 -42.518802633785526 0 -42.518802633785526 668.51584838097915 0 0 0 0 2161.0497451308474 -303.73284572572447 0 -303.73284572572447 706.28622336592525 0 0 0 0 293.97437544350396 -20.591496808454394 0 -20.591496808454394 1164.8268890342442 0 0 0 0 591.97420697036978 -1702.5172085087106 0 -1702.5172085087106 1911.0585387245519 0 0 0 0 267.87040349506424 265.02131047807052 0 265.02131047807052 617.61145338242204 0 0 0 0 240.54352648915301 -204.58191764962976 0 -204.58191764962976 639.3479547513416 0 0 0 0 168.0883479163121 -216.93529143351907 0 -216.93529143351907 638.85414383286843 0 0 0 0 100.37936332137997 -128.31107780910679 0 -128.31107780910679 665.41070926611428 0 0 0 0 80.139260995580116 -246.16593386944442 0 -246.16593386944442 556.67839122700389 0 0 0 0 163.21218701967308 -333.4545104875283 0 -333.4545104875283 395.70530119340401 0 0 0 0 56.467796976237878 -115.06574485755118 0 -115.06574485755118 366.54061428368732 0 0 0 0 -58.104981921977014 -89.741824821714545 0 -89.741824821714545 844.22537015196576 0 0 0 0 -47.85182500020619 -76.617239313527534 0 -76.617239313527534 475.58711105771363 0 0 0 0 -47.858736568017321 -165.83602894809883 0 -165.83602894809883 535.89994403973105 0 0 0 0 -21.357405525589456 -56.523681697057327 0 -56.523681697057327 551.37521066416957 0 0 0 0 -98.480629039119776 -41.12084008045349 0 -41.12084008045349 476.17780411054264 0 0 0 0 -77.147264054773132 -106.96585350530222 0 -106.96585350530222 598.14892990436056 0 0 0 0 16.325032244987142 115.01192267495662 0 115.01192267495662 426.51021970821603 0 0 0 0 -141.47383572020681 -22.970422459009569 0 -22.970422459009569 650.08804639010486 0 0 0 0 2.0565945244170507 178.9107535073199 0 178.9107535073199 887.14600554221397 0 0 0 0 655.86930754342893 704.03661375665251 0 704.03661375665251 882.95311863514871 0 0 0 0 110.3742885159063 157.31904948300507 0 157.31904948300507 1199.3978940889356 0 0 0 0 160.79016862520211 172.32903084117424 0 172.32903084117424 1098.7524886820756 0 0 0 0 123.35635742625072 -7.0351949093746953 0 -7.0351949093746953 711.149243589869 0 0 0 0 146.1323346548611 186.11314505414339 0 186.11314505414339 282.63048035161773 0 0 0 0 560.37721377591663 325.27357937324996 0 325.27357937324996 326.4024014515162 0 0 0 0 97.898698761030118 367.92098155576787 0 367.92098155576787 86.912746985282865 0 0 0 0 -48.11727362046804 75.562387894911808 0 75.562387894911808 402.95988841473445 0 0 0 0 -1469.7155795038436 -763.75490813471879 0 -763.75490813471879 90.53954857721692 0 0 0 0 268.80401388777773 296.04225140203198 0 296.04225140203198 86.007291534959222 0 0 0 0 -1.9608497385053365 -13.000643235295172 0 -13.000643235295172 44.062886299521608 0 0 0 0 -1242.1895675946453 149.70739614620834 0 149.70739614620834 552.79824771079439 0 0 0 0 -47.63245580406101 85.800250286787559 0 85.800250286787559 -22.377335657307412 0 0 0 0 1165.7629415181079 303.46554181092506 0 303.46554181092506 205.17964029114955 0 0 0 0 983.61896126684894 -611.93267295401529 0 -611.93267295401529 -151.41367275248922 0 0 0 0 118.06050419451446 -1213.4521277698805 0 -1213.4521277698805 1477.1156058330234 0 0 0 0 -265.03046667488138 -567.37693414420937 0 -567.37693414420937 427.20704688568367 0 0 0 0 -337.37157968645624 -921.79745884992735 0 -921.79745884992735 -992.21824667781766 0 0 0 0 11.452830006707018 119.48574534713407 0 119.48574534713407 267.33816153524094 0 0 0 0 -19.457083333718515 26.65567351910795 0 26.65567351910795 251.79166375289788 0 0 0 0 25.968038119699258 78.944324482341472 0 78.944324482341472 285.77380190185795 0 0 0 0 -31.318260768439814 -44.956808581897349 0 -44.956808581897349 280.17349208644009 0 0 0 0 235.49878104290246 322.30135938512831 0 322.30135938512831 408.79327514515171 0 0 0 0 -35.804382607454954 92.205173010754152 0 92.205173010754152 553.79718182462966 0 0 0 0 -206.42431699578364 -148.72047490605428 0 -148.72047490605428 72.714620018974529 0 0 0 0 -0.37408788247398217 -0.69254139816884219 0 -0.69254139816884219 3.1597047380753338 0 0 0 0 84.82980943567145 -41.19707553608896 0 -41.19707553608896 281.96505487557624 0 0 0 0 7.6414293674774854 -74.963730356186716 0 -74.963730356186716 412.15229319351783 0 0 0 0 44.459513605138 40.737505702330964 0 40.737505702330964 436.35787913366221 0 0 0 0 -64.035895913196327 14.465833498295979 0 14.465833498295979 565.08039444069072 0 0 0 0 -152.3876642393152 31.576365096494555 0 31.576365096494555 562.91663326458729 0 0 0 0 -201.54036389172325 -103.78871381934732 0 -103.78871381934732 400.77547056791082 0 0 0 0 -80.5597186846976 39.943074145376158 0 39.943074145376158 24.6241743885912 0 0 0 0 -64.884124573894439 159.28427642745191 0 159.28427642745191 162.28006519869086 0 0 0 0 131.29457649623214 174.13931390023936 0 174.13931390023936 -318.64525510391832 0 0 0 0 -1.0989605086462113 0.95539355182285135 0 0.95539355182285135 0.0056256476512341891 0 0 0 0 -30.894914627011531 178.64082287048222 0 178.64082287048222 654.05681456988896 0 0 0 0 -77.49341972824368 30.978417628703028 0 30.978417628703028 15.735642560219276 0 0 0 0 38.722551939721143 120.96504815347726 0 120.96504815347726 203.10383036502753 0 0 0 0 -3.2442859185135546 3.0035945019346286 0 3.0035945019346286 1.3633534219360044 0 0 0 0 31.203049717344129 112.23823474513483 0 112.23823474513483 305.42048072276521 0 0 0 0 -1.0314430344550862 -2.4049946992762443 0 -2.4049946992762443 8.1583416009315215 0 0 0 0 -63.290556329038736 34.391474329655466 0 34.391474329655466 -1.9624536504634307 0 0 0 0 -1.1908164781234376 -0.26529911077818724 0 -0.26529911077818724 2.2595658184997056 0 0 0 0 23.97816417556686 81.526509023264225 0 81.526509023264225 204.16862559520814 0 0 0 0 64.721396229948141 130.90341889824049 0 130.90341889824049 200.41808067065722 0 0 0 0 -8.6101948206178349 57.994033735303674 0 57.994033735303674 518.09237807572936 0 0 0 0 36.950449293205452 49.243092746233742 0 49.243092746233742 268.80619070125977 0 0 0 0 -1.2131626578028931 0.17730262595253521 0 0.17730262595253521 2.9075726874605721 0 0 0 0 88.214593434799824 235.40385915128672 0 235.40385915128672 447.91048539927579 0 0 0 0 79.25066311736154 147.61789847150976 0 147.61789847150976 329.89892719229101 0 0 0 0 -7.01571612213138 107.21052408856485 0 107.21052408856485 382.82255326087761 0 0 0 0 5.2332447173698711 99.152896846942895 0 99.152896846942895 286.1866044966664 0 0 0 0 -1.8506168590906213 80.058552598817187 0 80.058552598817187 307.55718149353925 0 0 0 0 6.1768641923949872 110.63692765746964 0 110.63692765746964 334.60821165252128 0 0 0 0 2.2367926977561439 39.862425275536452 0 39.862425275536452 439.99867207864008 0 0 0 0 37.202655708549173 145.46286410488028 0 145.46286410488028 263.800343893643 0 0 0 0 27.520486041094046 27.602504757858696 0 27.602504757858696 69.923436888318975 0 0 0 0 -11.663233108870827 -80.152264281972748 0 -80.152264281972748 35.68476871281382 0 0 0 0 -70.732435918625924 -71.401997212844435 0 -71.401997212844435 111.30719884275459 0 0 0 0 -340.23813918305621 -87.481599289749283 0 -87.481599289749283 60.413195442568394 0 0 0 0 -3.8533815183722577 -15.244583965520434 0 -15.244583965520434 59.504972358551413 0 0 0 0 -29.028988113136279 28.578305514265594 0 28.578305514265594 109.88210033360519 0 0 0 0 4.0367589678946842 35.1643011715787 0 35.1643011715787 282.63420282801235 0 0 0 0 18.452622090812156 -3.83118967043265 0 -3.83118967043265 131.28174733828928 0 0 0 0 9.4234714726155744 -41.645528528555587 0 -41.645528528555587 116.80644565587909 0 0 0 0 77.181640475768859 8.2585018805839354 0 8.2585018805839354 120.19217362697236 0 0 0 0 -159.76435030029467 194.70590292593056 0 194.70590292593056 130.45629691085196 0 0 0 0 407.9881554023101 298.66403747805452 0 298.66403747805452 155.19728787385975 0 0 0 0 -158.58791176221848 231.9666268040819 0 231.9666268040819 335.16316081122204 0 0 0 0 189.26682641031562 172.24757923359721 0 172.24757923359721 148.00645442926907 0 0 0 0 5.887418739280136 -138.71525080045194 0 -138.71525080045194 464.98336487699999 0 0 0 0 134.33624060885086 356.40705636228085 0 356.40705636228085 354.76665673004754 0 0 0 0 -711.63269977685241 -9.6368661410233472 0 -9.6368661410233472 271.50392622938671 0 0 0 0 -581.29814010158736 -227.51868014098 0 -227.51868014098 -252.43169894488528 0 0 0 0 230.04222183820366 264.76275087432441 0 264.76275087432441 301.83934389687784 0 0 0 0 14.493739173959341 30.233560365054473 0 30.233560365054473 288.42362201816286 0 0 0 0 -3.7422348426664893 -14.39612255451263 0 -14.39612255451263 55.511209771051256 0 0 0 0 -697.01602780177836 -234.54488498178034 0 -234.54488498178034 46.836845959012862 0 0 0 0 -516.32353143290879 34.976185051433276 0 34.976185051433276 162.88874708257208 0 0 0 0 -506.75298534673061 50.858249174882076 0 50.858249174882076 41.790349330411118 0 0 0 0 -374.25826190453574 14.976811402571911 0 14.976811402571911 125.65578834785265 0 0 0 0 -263.8430147812453 -59.372180613623641 0 -59.372180613623641 26.757886318857345 0 0 0 0 -175.86465575438615 -65.798196030649706 0 -65.798196030649706 28.94385800076634 0 0 0 0 -239.23708799131305 108.3623068308807 0 108.3623068308807 159.01135380124106 0 0 0 0 -145.3551308301162 221.59168557799421 0 221.59168557799421 147.90903745788955 0 0 0 0 -90.851220885068074 160.20998821894318 0 160.20998821894318 131.01931852537382 0 0 0 0 95.861019112786948 290.81614465565508 0 290.81614465565508 154.20859195651428 0 0 0 0 117.7259040611948 186.45281394859194 0 186.45281394859194 80.680484225194959 0 0 0 0 213.92775019292787 160.13255408934128 0 160.13255408934128 54.497412637399975 0 0 0 0 129.7833683637657 213.66570674391551 0 213.66570674391551 70.306719615985457 0 0 0 0 128.49998551876809 81.883642868691823 0 81.883642868691823 52.741655187026481 0 0 0 0 162.22412433827185 83.084757794757024 0 83.084757794757024 10.638248053437565 0 0 0 0 330.06190853520388 94.83740825051791 0 94.83740825051791 108.04037691207486 0 0 0 0 268.32557909632152 158.83350295983655 0 158.83350295983655 51.175151326577179 0 0 0 0 208.77988987179856 13.886688104579662 0 13.886688104579662 53.119722072675359 0 0 0 0 334.31880805307662 134.57612679515296 0 134.57612679515296 100.26806304001366 0 0 0 0 269.09293683542421 222.98051334470802 0 222.98051334470802 167.04984091864026 0 0 0 0 263.41774496672133 186.35107334367058 0 186.35107334367058 68.957856018480015 0 0 0 0 422.13828450935671 17.174941256002057 0 17.174941256002057 297.03338769242691 0 0 0 0 259.02391536060622 146.22635053643899 0 146.22635053643899 320.59480215946678 0 0 0 0 317.63965020082082 122.96738662810822 0 122.96738662810822 321.15555299844004 0 0 0 0 171.50529274860753 185.23921493218222 0 185.23921493218222 1004.0747615018627 0 0 0 0 79.132254365665403 -107.99997339348192 0 -107.99997339348192 1028.0073615592737 0 0 0 0 115.4659330520692 -182.32360879873158 0 -182.32360879873158 1173.1130078098795 0 0 0 0 256.68988932878756 66.79189181088077 0 66.79189181088077 655.63235143602651 0 0 0 0 420.24610972164214 -138.08851658980711 0 -138.08851658980711 587.95553957494485 0 0 0 0 -85.936508344336289 -230.7859149385913 0 -230.7859149385913 1331.8326978888363 0 0 0 0 18.766149943365235 238.28943620264181 0 238.28943620264181 1406.8069558361021 0 0 0 0 56.083830018280423 -230.90049674770853 0 -230.90049674770853 1550.3019581974586 0 0 0 0 234.11687654886396 474.18781314201624 0 474.18781314201624 1160.8381111670642 0 0 0 0 8.6692748895752629 -101.60263607804518 0 -101.60263607804518 1216.8063579135633 0 0 0 0 206.24292368782062 -56.718973430033657 0 -56.718973430033657 47.468632805270317 0 0 0 0 282.15535816999386 267.00357319760587 0 267.00357319760587 224.81469559702964 0 0 0 0 126.9064314066602 -469.40404992861477 0 -469.40404992861477 318.06144809481339 0 0 0 0 0.43849416163212807 -1.4141951103710255 0 -1.4141951103710255 8.7460137947167595 0 0 0 0 82.8630909700546 132.22939952855813 0 132.22939952855813 -15.32157870985975 0 0 0 0 -14.848952016262956 106.80398416088428 0 106.80398416088428 131.98611042401171 0 0 0 0 -25.718326195802092 80.040558715161751 0 80.040558715161751 125.53646646547713 0 0 0 0 -227.02814165915925 174.24451007830794 0 174.24451007830794 119.48761420736264 0 0 0 0 0.50464042370404916 -3.5636546509939535 0 -3.5636546509939535 19.96799753100214 0 0 0 0 -3.1194060973707565 -32.497766213491559 0 -32.497766213491559 130.92321676791471 0 0 0 0 -200.30323249710318 61.21566593364696 0 61.21566593364696 434.58902517170645 0 0 0 0 142.02267315127779 82.676123231285601 0 82.676123231285601 10.989404840656789 0 0 0 0 0.37786944039814707 -2.8948283050828252 0 -2.8948283050828252 24.46703219688294 0 0 0 0 55.818509031883423 -17.270375598622195 0 -17.270375598622195 5.0572514150303505 0 0 0 0 -36.621335747236969 27.852525423133557 0 27.852525423133557 39.056785431384924 0 0 0 0 -36.905216872217238 -81.739382754909457 0 -81.739382754909457 -131.36819031686173 0 0 0 0 -43.69912262807452 33.584376613463974 0 33.584376613463974 73.876162228305475 0 0 0 0 -0.58299345901283317 1.0774756646765837 0 1.0774756646765837 0.59394959084170296 0 0 0 0 73.412599050401468 -11.871388899744488 0 -11.871388899744488 -145.87974031570047 0 0 0 0 -24.227526651938661 -31.534366449326626 0 -31.534366449326626 -15.607135708911073 0 0 0 0 -72.48328933062453 -31.391581054514972 0 -31.391581054514972 6.1505529498390388 0 0 0 0 -1.8277263943794886 2.0437253222456775 0 2.0437253222456775 0.68880423226281096 0 0 0 0 34.94056578504842 30.763799001870211 0 30.763799001870211 -16.949084270445383 0 0 0 0 69.568567335806733 83.775442485508393 0 83.775442485508393 -56.426223948277766 0 0 0 0 -138.24440208836154 197.10402718381374 0 197.10402718381374 178.39696525815816 0 0 0 0 -36.171809596901142 65.556939884991152 0 65.556939884991152 -31.39869055771851 0 0 0 0 22.249813474037438 -24.632705845826422 0 -24.632705845826422 -63.086642644342646 0 0 0 0 -116.44971140889118 -240.79599855614651 0 -240.79599855614651 -117.3542636364291 0 0 0 0 108.47189079436181 17.661863287892629 0 17.661863287892629 72.801170067628846 0 0 0 0 -41.728080555401569 -101.0101318292277 0 -101.0101318292277 169.82447034315555 0 0 0 0 0.049183100155709286 -0.18606204761012668 0 -0.18606204761012668 0.027516677767380315 0 0 0 0 -1.4777121858492137 39.867323504076921 0 39.867323504076921 261.8965025815196 0 0 0 0 -6.0633913048213799 104.23289510452014 0 104.23289510452014 102.27480355701118 0 0 0 0 18.422008461639507 79.38768927489582 0 79.38768927489582 85.441310781636275 0 0 0 0 130.71586805452489 11.451783346528828 0 11.451783346528828 93.566568927810295 0 0 0 0 6.7402390335340883 -49.46661985036917 0 -49.46661985036917 143.35510590719787 0 0 0 0 9.0412881740871036 5.4925721683684969 0 5.4925721683684969 -7.5943079525895882 0 0 0 0 11.352061945294793 -70.872220561577706 0 -70.872220561577706 130.31362785276724 0 0 0 0 -45.504802588157901 -36.822988534710021 0 -36.822988534710021 351.78639448495505 0 0 0 0 59.43678708432639 -40.999332320498297 0 -40.999332320498297 147.9997131342534 0 0 0 0 0.069437880407675123 -13.594705344548856 0 -13.594705344548856 370.56345493378467 0 0 0 0 58.082044888805029 -107.26766339909955 0 -107.26766339909955 139.17999347748901 0 0 0 0 33.248812670976491 -168.22398297632026 0 -168.22398297632026 519.04152133299795 0 0 0 0 6.8553612213535988 -43.022831455004052 0 -43.022831455004052 648.00318020611303 0 0 0 0 62.192422254814389 -138.06879903990193 0 -138.06879903990193 743.76303238802939 0 0 0 0 208.96302870432774 1.4496887607383542 0 1.4496887607383542 784.65606254410523 0 0 0 0 -0.099004231741847221 -37.40696794752148 0 -37.40696794752148 789.75291375667439 0 0 0 0 -31.616262909419902 -282.5252493366861 0 -282.5252493366861 672.22824011814373 0 0 0 0 83.290535516166983 -50.474801966614905 0 -50.474801966614905 420.46265940637386 0 0 0 0 82.568803385001047 -141.05832294694846 0 -141.05832294694846 346.28406822901161 0 0 0 0 231.28217345581288 -18.74402601737529 0 -18.74402601737529 79.995204154018211 0 0 0 0 86.188622785139813 -120.62831698267837 0 -120.62831698267837 347.22805694032968 0 0 0 0 4.4383107070241294 -84.162441442800628 0 -84.162441442800628 670.71139970899094 0 0 0 0 7.1895114430172953 -94.935098401256255 0 -94.935098401256255 672.56881943900225 0 0 0 0 -1.0172404364081444 6.9199598383893317 0 6.9199598383893317 911.73987727751955 0 0 0 0 73.662497957299991 20.722475054397364 0 20.722475054397364 902.72796233570989 0 0 0 0 -58.408225230686526 66.896082253966597 0 66.896082253966597 1048.8818371113157 0 0 0 0 -67.835161196168542 -71.419252068670176 0 -71.419252068670176 1085.7164587113075 0 0 0 0 -80.744437739852856 61.538304224981403 0 61.538304224981403 1145.5414816241828 0 0 0 0 -36.136891526259319 132.05874568061699 0 132.05874568061699 1011.2808689843805 0 0 0 0 -37.806283421541139 177.58749748529226 0 177.58749748529226 1113.2344415754815 0 0 0 0 -44.519172102498487 96.509272240822611 0 96.509272240822611 1110.6209395780752 0 0 0 0 191.81136118618764 79.694536251226964 0 79.694536251226964 1030.0171582567855 0 0 0 0 42.281331798947946 34.985386735061184 0 34.985386735061184 1021.9929638255853 0 0 0 0 -37.900536561995779 -94.251646732678637 0 -94.251646732678637 1699.3941523210378 0 0 0 0 11.229829942317735 174.78530673867499 0 174.78530673867499 1268.0317865510879 0 0 0 0 30.569214270423515 -141.52653506764909 0 -141.52653506764909 1251.7304437408748 0 0 0 0 -25.797517189022983 81.150538644404151 0 81.150538644404151 1108.7446436701321 0 0 0 0 -25.667349810343669 7.2363747018993365 0 7.2363747018993365 16.59481414262882 0 0 0 0 -3.5883056715251769 -22.903118671456468 0 -22.903118671456468 133.41326465384918 0 0 0 0 5.0499281945022787 -3.3684008978511883 0 -3.3684008978511883 7.4013487669956817 0 0 0 0 26.904712888825316 -54.656752734153997 0 -54.656752734153997 102.16597539094437 0 0 0 0 -5.0921783769620106 -17.105782559810905 0 -17.105782559810905 83.509886034813462 0 0 0 0 -0.68555179665780841 -5.0165257676521264 0 -5.0165257676521264 5.9793142997859157 0 0 0 0 1.4484881363728164 -65.098594593655434 0 -65.098594593655434 164.27154355883249 0 0 0 0 -13.76736233817843 7.3411331538882223 0 7.3411331538882223 261.61454563817824 0 0 0 0 11.007639037662329 -100.55062177112268 0 -100.55062177112268 246.91533238597549 0 0 0 0 -14.533873320267958 -13.364256945278612 0 -13.364256945278612 176.52707366284449 0 0 0 0 -5.0274035036405706 -46.085205561665134 0 -46.085205561665134 127.95185661161668 0 0 0 0 -4.2789432804434 -54.691444947646232 0 -54.691444947646232 180.43525968887843 0 0 0 0 34.114450533405261 4.9571898572539794 0 4.9571898572539794 910.27382942728582 0 0 0 0 79.964292002885486 -116.98901573412877 0 -116.98901573412877 13.287604596553138 0 0 0 0 37.610973383022035 -16.891887438043568 0 -16.891887438043568 5.4171136874807537 0 0 0 0 -154.28044975920602 -9.7682672194350744 0 -9.7682672194350744 254.63246878594509 0 0 0 0 -11.938069005511842 -17.488408003147924 0 -17.488408003147924 766.38141495492891 0 0 0 0 -13.425548525874266 -30.820970316424791 0 -30.820970316424791 1022.4361692396051 0 0 0 0 199.63895607453139 -140.54785269193326 0 -140.54785269193326 1007.398505263991 0 0 0 0 267.32128299741646 287.80135258272639 0 287.80135258272639 1376.370814623835 0 0 0 0 72.330910889755216 -19.236041836586082 0 -19.236041836586082 374.15803145049722 0 0 0 0 247.11964299711519 0.27441410136816557 0 0.27441410136816557 37.421234682551585 0 0 0 0 227.71810763074765 346.65961597605701 0 346.65961597605701 814.49012469584704 0 0 0 0 -0.056074301747478572 -28.45173851303116 0 -28.45173851303116 746.20096088212449 0 0 0 0 116.22183692105781 60.307935838252888 0 60.307935838252888 270.4543385351426 0 0 0 0 -3.2594672456095566 -28.675830418163969 0 -28.675830418163969 271.50581395948029 0 0 0 0 172.63350914051364 -25.545932906505186 0 -25.545932906505186 176.00587816364714 0 0 0 0 -0.76313035333157586 -80.525251453545934 0 -80.525251453545934 189.24252068388159 0 0 0 0 66.312098483740883 -100.36163192846288 0 -100.36163192846288 13.751521218931885 0 0 0 0 9.0570383746780667 -7.2310792092165528 0 -7.2310792092165528 -3.9612835653091452 0 0 0 0 -62.995770259608001 -79.911389968536241 0 -79.911389968536241 18.44588994877995 0 0 0 0 0.18579650635966702 -106.87078704267032 0 -106.87078704267032 35.467974435043288 0 0 0 0 1.482889693133302 -55.247070359217105 0 -55.247070359217105 89.961271477019181 0 0 0 0 14.640204917587653 -81.459298942572786 0 -81.459298942572786 97.093210079670826 0 0 0 0 -1.5610872406140288 -62.550620791764231 0 -62.550620791764231 111.48240829788847 0 0 0 0 -4.0437072433974208 -70.219910152984085 0 -70.219910152984085 140.64151708479039 0 0 0 0 -7.1146587666205505 -65.931221098027891 0 -65.931221098027891 167.74636512187135 0 0 0 0 42.531260456856899 -114.17181930530205 0 -114.17181930530205 70.138446665136144 0 0 0 0 14.481257918176652 -78.928435177265783 0 -78.928435177265783 88.783326147458865 0 0 0 0 20.082442511081354 -117.06933110825048 0 -117.06933110825048 131.21997716047917 0 0 0 0 20.048896344326522 -54.335539193882141 0 -54.335539193882141 46.901665854442399 0 0 0 0 92.580319169813265 -57.792704282604973 0 -57.792704282604973 -12.591942177372403 0 0 0 0 47.262905425846157 -85.823498233352439 0 -85.823498233352439 38.559977086129948 0 0 0 0 23.357697343757735 -37.423970659460366 0 -37.423970659460366 24.32339346860023 0 0 0 0 15.86413366234342 -66.946269445739745 0 -66.946269445739745 72.463813868831494 0 0 0 0 22.486023679787294 -71.950892499892234 0 -71.950892499892234 66.93546160137339 0 0 0 0 11.311321486070028 -32.675945079312442 0 -32.675945079312442 38.076955591808655 0 0 0 0 10.167351827542609 -31.959176733933379 0 -31.959176733933379 55.810735361634954 0 0 0 0 23.701148108602375 -32.795389817719553 0 -32.795389817719553 25.678085121374153 0 0 0 0 18.539960184173424 -59.760780459128 0 -59.760780459128 90.115330181215541 0 0 0 0 -25.831317484697784 5.2789372944778563 0 5.2789372944778563 18.68115108814925 0 0 0 0 214.31810924938327 -382.15469662170653 0 -382.15469662170653 577.47058764705434 0 0 0 0 -3.436841003626057 5.3567710651295322 0 5.3567710651295322 3.2435284726374221 0 0 0 0 55.4886796403689 -4.9817851116858947 0 -4.9817851116858947 536.29807053311379 0 0 0 0 15.543371880346967 -26.268719502964814 0 -26.268719502964814 47.450575447306619 0 0 0 0 -5.3743218342915497 12.428001387859695 0 12.428001387859695 117.76119928041589 0 0 0 0 -23.066076162420359 -64.046639544816571 0 -64.046639544816571 317.0294670991716 0 0 0 0 9.5072547210386062 -11.920877270385006 0 -11.920877270385006 5.075014380022651 0 0 0 0 -47.949316288406408 -88.834014942869544 0 -88.834014942869544 294.90803992393194 0 0 0 0 8.3252745328945394 -9.9371179712958906 0 -9.9371179712958906 4.6847221670032866 0 0 0 0 20.29047360047079 -22.453920068969637 0 -22.453920068969637 12.103721113553064 0 0 0 0 44.230749189386188 -40.583223422327137 0 -40.583223422327137 17.133129032459692 0 0 0 0 16.112454040565581 -29.183398356820362 0 -29.183398356820362 57.158268461498665 0 0 0 0 19.680360643127642 -24.901909111620625 0 -24.901909111620625 51.30892142225639 0 0 0 0 82.923781452453113 -32.881113329902291 0 -32.881113329902291 -1.7529286399367265 0 0 0 0 -5.497505151637597 -42.592124068876728 0 -42.592124068876728 121.14141405386908 0 0 0 0 -2.062581318451727 -5.3705566232715114 0 -5.3705566232715114 7.769964626107587 0 0 0 0 4.0318830147007354 -21.797161800984298 0 -21.797161800984298 55.208550522430016 0 0 0 0 60.455282290116884 -56.132894501293777 0 -56.132894501293777 68.169968014379265 0 0 0 0 21.195802921496579 -138.86968720989535 0 -138.86968720989535 218.10225566820009 0 0 0 0 31.41632346329061 -60.475808654926368 0 -60.475808654926368 68.829630982741946 0 0 0 0 29.36634228432608 -7.7015870396103878 0 -7.7015870396103878 -4.9533626285939363 0 0 0 0 -62.635563868840109 -196.28188946421506 0 -196.28188946421506 256.42438062879955 0 0 0 0 43.531839000203945 -207.06019477761583 0 -207.06019477761583 254.75820538432708 0 0 0 0 -80.029266509956869 -39.1110564590781 0 -39.1110564590781 163.52050669335586 0 0 0 0 38.334424745193246 -191.59094183622074 0 -191.59094183622074 216.62411904000328 0 0 0 0 23.283595294251427 2.4554335220018402 0 2.4554335220018402 114.10040718992241 0 0 0 0 5.8365374169585209 -5.4631866573114252 0 -5.4631866573114252 21.966750307627592 0 0 0 0 299.5432487975595 -269.15014677937143 0 -269.15014677937143 182.67304314023932 0 0 0 0 137.75760671798525 -143.2568355955882 0 -143.2568355955882 214.87944044926553 0 0 0 0 259.80534483425072 -68.979320410639048 0 -68.979320410639048 304.57192123575078 0 0 0 0 887.2906896395798 -604.71642472212261 0 -604.71642472212261 -331.56076609730371 0 0 0 0 37.370421491173964 -8.2861142015098324 0 -8.2861142015098324 1.4813723431856758 0 0 0 0 139.09812506625258 -235.49878922104836 0 -235.49878922104836 98.307630578929093 0 0 0 0 -735.01663483285301 -147.73020615017595 0 -147.73020615017595 118.40857735165628 0 0 0 0 367.45898741571727 -709.54232719909487 0 -709.54232719909487 -248.66854865130153 0 0 0 0 14.750787532628758 -1.1774741040269134 0 -1.1774741040269134 1.1558177171106294 0 0 0 0 191.48188013780964 264.9005416315631 0 264.9005416315631 -519.13284704663965 0 0 0 0 515.56680251685157 7.1814453580227564 0 7.1814453580227564 -324.44413387100212 0 0 0 0 44.924140924872518 -259.51732444531808 0 -259.51732444531808 2093.1318440994119 0 0 0 0 552.34766345943342 -695.36043346495717 0 -695.36043346495717 1236.0325836831908 0 0 0 0 32.084664082801737 -181.3760629438184 0 -181.3760629438184 1219.883082767672 0 0 0 0 26.658072904957862 -175.89880015703966 0 -175.89880015703966 1225.5530240999069 0 0 0 0 49.709934345509282 -180.50224201952733 0 -180.50224201952733 1173.4795118421316 0 0 0 0 25.832573831581612 -178.87129196910246 0 -178.87129196910246 1240.7661535064108 0 0 0 0 29.84450982095359 -186.62934964284068 0 -186.62934964284068 1229.7413130502537 0 0 0 0 37.630222622323572 60.791893987756339 0 60.791893987756339 981.33900038788852 0 0 0 0 520.99807962313957 -190.84942501797923 0 -190.84942501797923 1093.0172480466717 0 0 0 0 288.46754589143075 10.393596378686198 0 10.393596378686198 762.08686824768665 0 0 0 0 447.6271366047888 203.10772016152623 0 203.10772016152623 1070.8676103289181 0 0 0 0 -6.1525220615752687 13.614544633976038 0 13.614544633976038 992.03549248960917 0 0 0 0 43.931545049586276 -13.135508344251491 0 -13.135508344251491 1.24707167830082 0 0 0 0 140.70118554903456 -178.01873635158699 0 -178.01873635158699 -474.19645442138426 0 0 0 0 -215.36970299027962 -380.20151217756211 0 -380.20151217756211 -217.4489919619773 0 0 0 0 -55.566765274619684 -183.97394655706012 0 -183.97394655706012 257.54111162450863 0 0 0 0 19.619265892208205 -11.060988047596766 0 -11.060988047596766 -228.099008404708 0 0 0 0 119.33102897151548 -262.97360090652364 0 -262.97360090652364 185.6780478998262 0 0 0 0 317.44756884504022 -94.273713152535493 0 -94.273713152535493 -86.01923144038301 0 0 0 0 198.15259719653841 -212.97291258041514 0 -212.97291258041514 -198.21033029436512 0 0 0 0 -271.97434301686098 -163.16452987709545 0 -163.16452987709545 194.77601758926176 0 0 0 0 24.86151458119275 127.37916897732066 0 127.37916897732066 479.11103110748081 0 0 0 0 1377.612721373167 13.638544498709962 0 13.638544498709962 -519.07339882200176 0 0 0 0 -262.42848737553999 95.89067556759619 0 95.89067556759619 287.65090374863939 0 0 0 0 -88.919049287287635 130.32924101580284 0 130.32924101580284 214.89331000324455 0 0 0 0 672.49314561924621 317.05055488855578 0 317.05055488855578 -182.50386068876833 0 0 0 0 -81.888684070199815 122.62688198327669 0 122.62688198327669 185.83458333650196 0 0 0 0 0.46822967868243559 -0.43944318629939971 0 -0.43944318629939971 6.101053153533428 0 0 0 0 -299.21166687601726 869.69965994468657 0 869.69965994468657 -169.41465591345332 0 0 0 0 -1160.2898673777381 27.933084529446205 0 27.933084529446205 212.8300449735234 0 0 0 0 -8.0770684969378301 -18.359855628942462 0 -18.359855628942462 47.582220559613866 0 0 0 0 1.678702279263689 -20.649574667757861 0 -20.649574667757861 64.265737669827104 0 0 0 0 -10.1247164164879 -11.483307642398358 0 -11.483307642398358 75.257656384824543 0 0 0 0 -15.21734616690901 -10.286315684081274 0 -10.286315684081274 98.733550922379436 0 0 0 0 -3.6772830569284451 19.116488756096487 0 19.116488756096487 83.311918000510559 0 0 0 0 -5.0320299807913411 -23.884434232417458 0 -23.884434232417458 30.243769425553168 0 0 0 0 0.94743471948584634 -3.5215053682069035 0 -3.5215053682069035 -4.5417778491079481 0 0 0 0 -6.0497505280500157 3.8523106624395975 0 3.8523106624395975 35.466256732488375 0 0 0 0 -1.7607425648384378 -17.873163709607979 0 -17.873163709607979 47.647958264315093 0 0 0 0 -9.5916284309726016 -25.165528923537686 0 -25.165528923537686 40.748202712579968 0 0 0 0 -6.7006005981638737 -17.215853375844745 0 -17.215853375844745 49.705734632691019 0 0 0 0 -9.1615908190587376 -18.420724318599703 0 -18.420724318599703 93.093305495357612 0 0 0 0 -26.768876347412515 -22.410711676926439 0 -22.410711676926439 186.61618759360499 0 0 0 0 -32.850647983439558 -49.612791782816203 0 -49.612791782816203 214.60474946490831 0 0 0 0 -23.762634982560485 -20.362856622309664 0 -20.362856622309664 45.382591704747028 0 0 0 0 -10.691928661348859 -26.963812353622927 0 -26.963812353622927 87.271075955115322 0 0 0 0 13.522129862098154 -29.403565700653417 0 -29.403565700653417 160.53007146853633 0 0 0 0 -29.530869160878865 -24.859065755495976 0 -24.859065755495976 166.21561026588097 0 0 0 0 -6.2174327286964282 -9.3874348002476466 0 -9.3874348002476466 85.878123973204339 0 0 0 0 -12.869330415192962 -24.389389826217666 0 -24.389389826217666 144.97807506481331 0 0 0 0 -32.957646975578655 -49.506214337992787 0 -49.506214337992787 111.34212714747991 0 0 0 0 -15.198295338444041 -25.541472508066363 0 -25.541472508066363 136.00805098612909 0 0 0 0 -26.106300130490126 -57.172192637081025 0 -57.172192637081025 30.549568012331292 0 0 0 0 -45.130465575007293 1.465582606555472 0 1.465582606555472 147.03235645295354 0 0 0 0 -3.0340825983031623 -4.5117540586675773 0 -4.5117540586675773 10.996057876555732 0 0 0 0 -10.529745341991656 -33.333799270010786 0 -33.333799270010786 124.81871312391741 0 0 0 0 -22.375270174001344 -45.178473521948035 0 -45.178473521948035 138.05796462889703 0 0 0 0 -24.966938925490467 -12.263179952569772 0 -12.263179952569772 93.174174575662619 0 0 0 0 -27.661594101164155 -22.4412387694465 0 -22.4412387694465 127.15910203925159 0 0 0 0 4.5494691064268409 -66.917825325193917 0 -66.917825325193917 164.25781792978887 0 0 0 0 -19.272021052674972 -62.886645865315586 0 -62.886645865315586 187.52310787276656 0 0 0 0 1.8851455263926979 -24.838924045723417 0 -24.838924045723417 5.0411089964612028 0 0 0 0 -14.662551316287136 -20.169456223800807 0 -20.169456223800807 143.87309204541089 0 0 0 0 3.2548909865417954 -45.617309805576951 0 -45.617309805576951 143.0396588918702 0 0 0 0 -7.3501441609441827 -35.69872456426674 0 -35.69872456426674 223.80233088627799 0 0 0 0 9.5598751556190109 -30.123327392188003 0 -30.123327392188003 28.183600454354746 0 0 0 0 73.775868794272355 -85.90761627232132 0 -85.90761627232132 149.63991608552169 0 0 0 0 -31.742718355898432 -69.326251475653407 0 -69.326251475653407 147.89147129279445 0 0 0 0 -15.173449535916006 -111.29847864020121 0 -111.29847864020121 211.09083551160438 0 0 0 0 -31.51611970394697 48.320818513126142 0 48.320818513126142 164.74568311069197 0 0 0 0 53.829098112868451 -121.71396717376774 0 -121.71396717376774 224.65334495218622 0 0 0 0 -0.84518437874203656 -5.2775554450939186 0 -5.2775554450939186 4.4284783711397182 0 0 0 0 -51.993314721908973 199.84636438984671 0 199.84636438984671 -460.35302234792471 0 0 0 0 60.18310307375441 70.661646780275532 0 70.661646780275532 25.275926642774721 0 0 0 0 -4.1723956284555186 -2.9039404603837511 0 -2.9039404603837511 6.8395451217890892 0 0 0 0 -90.000325264190906 -91.26622543403937 0 -91.26622543403937 168.08929314635316 0 0 0 0 -4.8294823029636316 0.27943584084116324 0 0.27943584084116324 118.29883001612842 0 0 0 0 -78.59191661940531 -103.68427750213232 0 -103.68427750213232 143.24212224555959 0 0 0 0 -46.168948887283477 -76.686522928062914 0 -76.686522928062914 164.36526664876874 0 0 0 0 -37.397876319198986 -99.341934521002258 0 -99.341934521002258 176.00099678399056 0 0 0 0 -47.861212793080995 -105.6771059444709 0 -105.6771059444709 104.77422940537144 0 0 0 0 -64.742956877693359 205.79425447626272 0 205.79425447626272 -183.40809452392068 0 0 0 0 -513.30349082378598 432.25869904932279 0 432.25869904932279 577.56897619754454 0 0 0 0 -95.621715748731731 -96.594676121247176 0 -96.594676121247176 247.88764413442732 0 0 0 0 -77.390178702740741 -7.456781944542854 0 -7.456781944542854 76.239979679878161 0 0 0 0 -6.0789847220260942 -4.8921732740874173 0 -4.8921732740874173 50.888354024711518 0 0 0 0 -90.058142262623733 19.233395545750682 0 19.233395545750682 26.794356762242387 0 0 0 0 -117.73858442314486 44.468821593598477 0 44.468821593598477 100.86621892563562 0 0 0 0 -6.8461133473911495 -0.036031876208085123 0 -0.036031876208085123 28.443408792164831 0 0 0 0 -139.1543867343089 -17.857799931025511 0 -17.857799931025511 79.042252596969774 0 0 0 0 -128.81250418728132 11.312701730766094 0 11.312701730766094 142.97538289622025 0 0 0 0 -57.278875146266728 -5.6405963108882133 0 -5.6405963108882133 113.2245396271428 0 0 0 0 54.678083079052158 -31.419235596115868 0 -31.419235596115868 102.54417861422553 0 0 0 0 -0.2441022891563116 -1.9436760299425018 0 -1.9436760299425018 114.66301659328896 0 0 0 0 -51.098188911910256 12.941133134994743 0 12.941133134994743 132.05233706123909 0 0 0 0 -45.908172304567415 -17.824829265615335 0 -17.824829265615335 127.55152834368846 0 0 0 0 -2.9252424955409424 -5.0359417024719733 0 -5.0359417024719733 100.07057469100619 0 0 0 0 -100.65542290856501 10.352194378212516 0 10.352194378212516 129.75803477513546 0 0 0 0 -93.472388703392426 14.713229214931744 0 14.713229214931744 114.13662980320441 0 0 0 0 -103.08326235832442 3.0688997106749412 0 3.0688997106749412 135.98865641423617 0 0 0 0 -47.155077271319897 6.2525059831714316 0 6.2525059831714316 102.37046089950672 0 0 0 0 -53.874997215931216 56.565116896292238 0 56.565116896292238 85.955189683545086 0 0 0 0 -0.37442892637413294 0.50503510713498656 0 0.50503510713498656 31.619041820777397 0 0 0 0 -4.6064209162680019 14.869809397810933 0 14.869809397810933 98.558706141164294 0 0 0 0 36.174487826409404 -26.269498294021332 0 -26.269498294021332 116.91923512883113 0 0 0 0 -28.620721178629537 23.724501023609264 0 23.724501023609264 113.0821200430546 0 0 0 0 -11.351937047367755 81.561487309367749 0 81.561487309367749 125.85488981567687 0 0 0 0 24.929452355503599 -100.63034967500334 0 -100.63034967500334 72.17801785991287 0 0 0 0 -13.670821917842659 -3.9558246254250662 0 -3.9558246254250662 144.42238279022058 0 0 0 0 -14.391762593607126 -18.7413428941679 0 -18.7413428941679 123.71793102023548 0 0 0 0 26.2654338363036 82.787362701052189 0 82.787362701052189 200.16543857781835 0 0 0 0 -4.4256304299124167 -30.482599036539796 0 -30.482599036539796 201.95016489465308 0 0 0 0 -15.15559865785508 14.946824464320798 0 14.946824464320798 118.6039796906343 0 0 0 0 30.594281862302523 -3.2864631421812192 0 -3.2864631421812192 77.39433006397303 0 0 0 0 -5.6604580775395057 -0.88777751667308813 0 -0.88777751667308813 30.881990576473605 0 0 0 0 -8.8079177343042829 12.20265511123489 0 12.20265511123489 133.68531341387558 0 0 0 0 -5.9919352381435544 -1.0379115147089522 0 -1.0379115147089522 35.172027777803365 0 0 0 0 -43.666799877710218 18.648701552276179 0 18.648701552276179 147.15140538847209 0 0 0 0 -17.99485945124097 -0.79394063175890039 0 -0.79394063175890039 24.75012093776904 0 0 0 0 -15.166687096286068 7.2702529601720016 0 7.2702529601720016 147.48024961215924 0 0 0 0 6.5789198720509603 1.8885971388572216 0 1.8885971388572216 135.4111577414551 0 0 0 0 -11.527454916075385 16.371986443264177 0 16.371986443264177 130.75188541544776 0 0 0 0 -34.557426559426858 -8.8353010360683584 0 -8.8353010360683584 137.60057155913478 0 0 0 0 -37.289587511997979 23.072353724975983 0 23.072353724975983 141.2128487907612 0 0 0 0 -6.3179909314025471 10.077652694337271 0 10.077652694337271 105.53180361365671 0 0 0 0 8.0508737138034121 248.34212731149455 0 248.34212731149455 277.08406572418971 0 0 0 0 -44.240117746254327 -114.03922748356854 0 -114.03922748356854 28.534962731537235 0 0 0 0 -4.6238995858421346 -2.1516274969313685 0 -2.1516274969313685 -1.9626131767901249 0 0 0 0 -252.60942797126756 -533.77370412352502 0 -533.77370412352502 1150.6225834336219 0 0 0 0 -43.523898979820842 11.294489492174762 0 11.294489492174762 225.78145346610472 0 0 0 0 -11.96500852899851 -1.4321958928585445 0 -1.4321958928585445 181.96808811416122 0 0 0 0 -6.593817731915351 -7.5875925023174204 0 -7.5875925023174204 188.96428339646445 0 0 0 0 -4.8568418249017213 6.6083877478013164 0 6.6083877478013164 174.82651980073751 0 0 0 0 -43.214914873786725 -14.746655443588679 0 -14.746655443588679 239.04150816098991 0 0 0 0 -22.908228729277539 -15.021770179726445 0 -15.021770179726445 235.63067307014717 0 0 0 0 -35.234263634298827 12.052105128226685 0 12.052105128226685 215.43411146235303 0 0 0 0 8.1277216737442508 -25.882152872492689 0 -25.882152872492689 0.49360375291021974 0 0 0 0 -4.1232864604130555 -49.786913168611136 0 -49.786913168611136 63.851638177684436 0 0 0 0 30.016617260899181 -99.964294493889611 0 -99.964294493889611 271.76474481733021 0 0 0 0 -13.406092733118726 -42.331998545059832 0 -42.331998545059832 209.45546839780582 0 0 0 0 19.100866833741748 -38.95658626970544 0 -38.95658626970544 182.24237786403867 0 0 0 0 -55.872185183447982 -5.8995044146613509 0 -5.8995044146613509 240.39619777468761 0 0 0 0 43.568932295601257 -113.62272361581387 0 -113.62272361581387 134.22715545582832 0 0 0 0 -36.716006777965049 -36.74202752212841 0 -36.74202752212841 97.873657520580309 0 0 0 0 -3.1788828143045516 1.6119133450604437 0 1.6119133450604437 58.891419785669171 0 0 0 0 -40.367410864677367 -0.97329276612072135 0 -0.97329276612072135 66.402823594820802 0 0 0 0 -5.4810590561940558 -3.7556885600511123 0 -3.7556885600511123 138.47918190920609 0 0 0 0 -3.8154959527544561 2.6903955845544552 0 2.6903955845544552 105.8037671907862 0 0 0 0 -39.408479270246062 46.230041094019725 0 46.230041094019725 120.35117399958369 0 0 0 0 -3.2280597941517044 -38.717263212605758 0 -38.717263212605758 148.83964620768984 0 0 0 0 0.039733747832958244 -35.207292062153144 0 -35.207292062153144 54.05293250989844 0 0 0 0 -6.2593898008708493 -16.2101476461321 0 -16.2101476461321 46.589759919013886 0 0 0 0 -2.9458782915724999 -0.93303577368258317 0 -0.93303577368258317 65.287566250015743 0 0 0 0 4.6708176956783021 -32.700976660066921 0 -32.700976660066921 46.941181515099885 0 0 0 0 -16.638416727110325 -18.830370397206934 0 -18.830370397206934 190.18335567719987 0 0 0 0 0.002279924774980735 -26.229493024434021 0 -26.229493024434021 9.6819724251605024 0 0 0 0 -7.4733959970776596 -12.095382970299397 0 -12.095382970299397 18.822996189816877 0 0 0 0 48.524213579525693 -24.280445045823114 0 -24.280445045823114 -13.344349621886067 0 0 0 0 1.7055952653243125 -0.77680066039054907 0 -0.77680066039054907 0.72491481119440948 0 0 0 0 -31.241175271103202 105.40285959232278 0 105.40285959232278 481.51066896656994 0 0 0 0 62.996886367459865 57.5042636274693 0 57.5042636274693 114.02174281482439 0 0 0 0 -23.118466291449749 -26.176440369095872 0 -26.176440369095872 124.31357577603558 0 0 0 0 -45.850497879820068 38.412038087561086 0 38.412038087561086 186.34276529590898 0 0 0 0 4.7138659662060345 -2.5122100175454136 0 -2.5122100175454136 4.386920250948215 0 0 0 0 -8.908161363704874 -19.684155654086624 0 -19.684155654086624 78.452548537476915 0 0 0 0 -6.331449157998577 -11.861739256157307 0 -11.861739256157307 136.38690439189668 0 0 0 0 -12.234048350633564 -5.8930830465856925 0 -5.8930830465856925 55.734549435774483 0 0 0 0 -14.136476014909537 -9.763408922571557 0 -9.763408922571557 55.951697185274952 0 0 0 0 -8.0399567163622212 -16.175318453498708 0 -16.175318453498708 70.697721429369054 0 0 0 0 -6.8024181455239159 -15.191388900726452 0 -15.191388900726452 60.557889859239822 0 0 0 0 -10.583390221740501 -31.78712637284616 0 -31.78712637284616 60.443183689852958 0 0 0 0 -7.7130827961216255 -7.1926363809279792 0 -7.1926363809279792 81.212795782994363 0 0 0 0 73.68965332605967 -131.04520455453167 0 -131.04520455453167 48.034732462872853 0 0 0 0 -7.9832048107004026 -19.072413466453931 0 -19.072413466453931 52.046051566860882 0 0 0 0 -1.9987166208139842 -10.435679427800757 0 -10.435679427800757 22.375120821997147 0 0 0 0 -125.52538779121642 -171.76501935615306 0 -171.76501935615306 383.55670645397004 0 0 0 0 6.0721775206052371 -13.561458602666789 0 -13.561458602666789 46.107125709089587 0 0 0 0 -2.1759963446804704 -6.8851429567799869 0 -6.8851429567799869 77.086292586262061 0 0 0 0 -77.193203786109507 39.208435116500368 0 39.208435116500368 97.059191108543018 0 0 0 0 -4.6196687840133448 -0.20806992744952524 0 -0.20806992744952524 62.388150524438942 0 0 0 0 -53.045148556738695 -16.387773120293787 0 -16.387773120293787 94.489679244346917 0 0 0 0 -6.922523111787541 4.0244103240383993 0 4.0244103240383993 107.41707152205345 0 0 0 0 36.535163565290986 8.4439799318852238 0 8.4439799318852238 -47.038203520405659 0 0 0 0 -3.4300510963897608 -13.609235786202049 0 -13.609235786202049 20.267001470291948 0 0 0 0 135.65808815185756 170.15436163480263 0 170.15436163480263 76.839997337110617 0 0 0 0 10.948334419891125 -13.50857787876339 0 -13.50857787876339 53.838837106444771 0 0 0 0 3.8558734639342447 9.3847957813732137 0 9.3847957813732137 73.499489039066248 0 0 0 0 -17.875829795494695 12.122016643254028 0 12.122016643254028 72.330807414033188 0 0 0 0 -2.7532129699118673 2.1357351582812392 0 2.1357351582812392 59.909855760847961 0 0 0 0 0.16993784417218194 -18.868963336090019 0 -18.868963336090019 87.756419589435609 0 0 0 0 -27.815078517740289 -20.317856446525184 0 -20.317856446525184 116.07259826238078 0 0 0 0 -62.859448306340823 20.722428073093397 0 20.722428073093397 71.018567994178738 0 0 0 0 -4.3668429218634142 -6.4665262526364042 0 -6.4665262526364042 61.70796263516975 0 0 0 0 -8.4698291024262744 -10.4884256646964 0 -10.4884256646964 63.73877650809208 0 0 0 0 -17.413981320919447 -26.182241782259325 0 -26.182241782259325 82.220344224964265 0 0 0 0 -19.139303513622963 -17.497588012371125 0 -17.497588012371125 57.833385421399271 0 0 0 0 8.2404728880410403 1.4880100176633277 0 1.4880100176633277 79.012689581134964 0 0 0 0 -22.705320168258595 -27.542674323856204 0 -27.542674323856204 70.054319287847193 0 0 0 0 -12.38108940350671 -43.355094705471402 0 -43.355094705471402 57.7500948794641 0 0 0 0 -3.0882787851377742 -30.201303964018543 0 -30.201303964018543 74.522295813760678 0 0 0 0 -101.56139829710717 -21.550084461112419 0 -21.550084461112419 116.17358111908015 0 0 0 0 -10.909978201963607 -23.339668252811975 0 -23.339668252811975 91.632880543232346 0 0 0 0 -99.244813774994256 -10.249162071555475 0 -10.249162071555475 170.07294661532433 0 0 0 0 2.2020217246517859 -42.760394748802355 0 -42.760394748802355 246.69123569341173 0 0 0 0 48.042193434725277 -56.416677598871502 0 -56.416677598871502 -290.27380177113446 0 0 0 0 -10.824659130965646 -35.092987183714179 0 -35.092987183714179 42.448833890908297 0 0 0 0 -0.99507744388006181 -4.11950555276416 0 -4.11950555276416 -0.74690756773251366 0 0 0 0 10.956481644032465 -31.777865735057276 0 -31.777865735057276 180.80898140879071 0 0 0 0 -68.278370032332532 -11.003047650876397 0 -11.003047650876397 234.90303029002098 0 0 0 0 -48.715816082170022 142.41330640339947 0 142.41330640339947 631.28901360205782 0 0 0 0 -56.591630774299119 -17.374724052875536 0 -17.374724052875536 236.32934509047482 0 0 0 0 -61.690772882142483 -7.7509405022574356 0 -7.7509405022574356 222.93846960466783 0 0 0 0 -78.510479129345185 -5.0524335168520338 0 -5.0524335168520338 222.92492986879864 0 0 0 0 -39.75567277452501 -31.788024156441679 0 -31.788024156441679 240.08147554183233 0 0 0 0 -77.065657712928441 -19.113398458415759 0 -19.113398458415759 248.77256184842554 0 0 0 0 -1.4595578293410654 -39.52949428667489 0 -39.52949428667489 241.61243680028565 0 0 0 0 -25.01402900916105 -23.517417492047343 0 -23.517417492047343 81.372714534691113 0 0 0 0 -51.418992737224471 6.8887185215317004 0 6.8887185215317004 154.74271459778538 0 0 0 0 -17.902486403028888 -8.6704350508516654 0 -8.6704350508516654 77.288844651287945 0 0 0 0 -11.263774391813035 -31.449301375912331 0 -31.449301375912331 44.113714716814869 0 0 0 0 9.7739000849996955 61.452419607427146 0 61.452419607427146 70.608928216497588 0 0 0 0 9.6680442909425892 59.273167549568825 0 59.273167549568825 39.269831584839267 0 0 0 0 -64.812292317217725 64.44943994343339 0 64.44943994343339 114.83070854521247 0 0 0 0 -23.233596889416731 10.141692294149834 0 10.141692294149834 131.29563787790539 0 0 0 0 -58.296717882903522 34.689102146495316 0 34.689102146495316 136.64873642935709 0 0 0 0 -58.716610362798747 -12.583035248761007 0 -12.583035248761007 204.27645524698892 0 0 0 0 -110.48496407347557 29.815694882006937 0 29.815694882006937 197.38609602898941 0 0 0 0 -95.634476050487137 108.25907248624571 0 108.25907248624571 38.522183221466548 0 0 0 0 -135.01730093618016 143.54123123876889 0 143.54123123876889 -87.564888168577454 0 0 0 0 -241.90227385249091 53.501963563834579 0 53.501963563834579 232.83468014132632 0 0 0 0 -133.1105675155377 65.246399857289362 0 65.246399857289362 173.60720401366507 0 0 0 0 -91.929613084454559 -135.98061838071135 0 -135.98061838071135 341.25025886878575 0 0 0 0 -165.93572028427297 -6.8838127668659581 0 -6.8838127668659581 253.77672525569506 0 0 0 0 -94.397384925750885 23.498350581736304 0 23.498350581736304 166.04029457561683 0 0 0 0 441.77646926165107 479.30519871306842 0 479.30519871306842 175.80028067670355 0 0 0 0 -0.87314571513368655 -6.0788978548625039 0 -6.0788978548625039 8.1440159605261897 0 0 0 0 340.41508013440762 -584.10978035630797 0 -584.10978035630797 -228.66193142072098 0 0 0 0 -228.42094352744516 422.55108205003489 0 422.55108205003489 198.46515141597774 0 0 0 0 340.28371123347461 175.71662892313725 0 175.71662892313725 -18.933003588263091 0 0 0 0 -4.1775342451783217 106.68765539093147 0 106.68765539093147 132.56869114555593 0 0 0 0 -483.74651160202302 112.79724051551602 0 112.79724051551602 255.43618010285718 0 0 0 0 42.785291422025011 30.422089390465771 0 30.422089390465771 92.957652805765974 0 0 0 0 -150.0479309884422 58.164602842640306 0 58.164602842640306 141.33526186979361 0 0 0 0 107.16167727425182 -152.10076553280305 0 -152.10076553280305 226.4965298631796 0 0 0 0 -2.4744608887301967 -0.021182140299945473 0 -0.021182140299945473 8.015525785862522 0 0 0 0 -11.59700812239862 -64.50357436422928 0 -64.50357436422928 249.39306004684477 0 0 0 0 28.409353786752035 -109.29313869537873 0 -109.29313869537873 252.10815928882221 0 0 0 0 2.1079545063184923 -55.665867627205444 0 -55.665867627205444 241.43679576556315 0 0 0 0 -40.437363826193177 -44.725036474352237 0 -44.725036474352237 251.22542332150624 0 0 0 0 -92.992149272653478 -16.473900356941158 0 -16.473900356941158 238.31390924513107 0 0 0 0 -20.323010170653106 -89.283208920522156 0 -89.283208920522156 244.03924850409385 0 0 0 0 -42.526905761065791 -89.447119429401937 0 -89.447119429401937 283.19786369262147 0 0 0 0 33.935401251274016 -187.24539628328057 0 -187.24539628328057 282.37675243550257 0 0 0 0 96.335237932387827 -95.699165136611555 0 -95.699165136611555 230.77595306909643 0 0 0 0 69.603444000296804 -73.253060017985263 0 -73.253060017985263 247.12904699900901 0 0 0 0 -6.0876496278942795 -71.395515528594842 0 -71.395515528594842 253.95530119702744 0 0 0 0 -70.108922325183812 -145.51969534018281 0 -145.51969534018281 -195.41968848455872 0 0 0 0 -27.551108828606857 -66.941515965123926 0 -66.941515965123926 -52.770741296320921 0 0 0 0 -14.385500936253681 -61.787218996519833 0 -61.787218996519833 -12.564387448399373 0 0 0 0 -30.984350799506501 29.719342168762523 0 29.719342168762523 112.40350174028936 0 0 0 0 -8.5328202694054198 42.938937493516278 0 42.938937493516278 112.57093674587668 0 0 0 0 -84.724221360014781 -55.779984463355504 0 -55.779984463355504 -22.328220237854111 0 0 0 0 -24.663630834857351 -23.915399296354536 0 -23.915399296354536 27.871813565991715 0 0 0 0 -8.0006629151996265 -4.5463994754027794 0 -4.5463994754027794 5.8935063404640786 0 0 0 0 -28.136018380146197 -9.1521229931786365 0 -9.1521229931786365 32.360001179222309 0 0 0 0 -46.335522423076327 10.639171549191815 0 10.639171549191815 42.997295191855301 0 0 0 0 -39.629797044117367 -9.67823619956107 0 -9.67823619956107 84.453283967850439 0 0 0 0 -24.129042809630846 -52.45558729665936 0 -52.45558729665936 -22.522999918750429 0 0 0 0 -105.08218640778068 -14.912177991220233 0 -14.912177991220233 93.738635970097675 0 0 0 0 -56.106116836440378 -25.662516060436246 0 -25.662516060436246 144.88258172830683 0 0 0 0 -29.616543131292929 -34.668198815208598 0 -34.668198815208598 97.007943720799631 0 0 0 0 -41.00854060713209 7.8091999997518542 0 7.8091999997518542 93.866496905910026 0 0 0 0 -22.539505187211034 5.3439753284474136 0 5.3439753284474136 80.575847634507227 0 0 0 0 -41.782994271148709 -9.5602170258425758 0 -9.5602170258425758 123.19083745893295 0 0 0 0 0.64861767765910372 -22.864055142677671 0 -22.864055142677671 63.589141379632565 0 0 0 0 -6.7220179539422311 -7.1926471200293776 0 -7.1926471200293776 51.817043486960991 0 0 0 0 -33.096569831746365 -3.3715139133446428 0 -3.3715139133446428 73.699862456451228 0 0 0 0 -30.309381160659541 -11.546353062893104 0 -11.546353062893104 47.157053789567726 0 0 0 0 -28.159994234794794 -51.263167256922316 0 -51.263167256922316 189.13521980909093 0 0 0 0 -19.890445110498717 -5.1991375906618487 0 -5.1991375906618487 103.05959417150007 0 0 0 0 -241.22011602511725 -252.26704692497515 0 -252.26704692497515 -7.872692174569238 0 0 0 0 0.84640917285120665 -13.492119803350235 0 -13.492119803350235 -1.8574895341436672 0 0 0 0 8.3522150903590955 -8.1951608875824604 0 -8.1951608875824604 68.760626914874592 0 0 0 0 5.3325291074466268 -40.841721691656623 0 -40.841721691656623 48.691098521547701 0 0 0 0 -74.995414253035051 -73.54225597734694 0 -73.54225597734694 188.98987129743909 0 0 0 0 -12.778739459370346 -23.923669011779367 0 -23.923669011779367 43.090529296320177 0 0 0 0 4.0217451914777484 -71.001471355385547 0 -71.001471355385547 146.94977273001132 0 0 0 0 7.1744176100146433 -79.738894873727986 0 -79.738894873727986 171.14476747710432 0 0 0 0 6.9807207048324926 -71.727481391433685 0 -71.727481391433685 144.85727191936894 0 0 0 0 10.259904173177347 -48.543637164453685 0 -48.543637164453685 88.299489777346025 0 0 0 0 -7.6099840589886298 -25.0059451772795 0 -25.0059451772795 113.21735148393236 0 0 0 0 -7.380276287192828 -1.4860047430083796 0 -1.4860047430083796 75.906016560088574 0 0 0 0 1.0834751947695622 -43.020530126974336 0 -43.020530126974336 148.86688787167805 0 0 0 0 -34.12889050398644 -41.729516210209113 0 -41.729516210209113 77.414627967593333 0 0 0 0 -25.038570330493258 -23.559800547522173 0 -23.559800547522173 105.20226296994952 0 0 0 0 -30.056526412482526 -24.118849245194724 0 -24.118849245194724 92.371118786417355 0 0 0 0 -11.407987062869779 -29.053478690442716 0 -29.053478690442716 84.193287124522612 0 0 0 0 -36.53529919293085 -13.011501407944166 0 -13.011501407944166 97.038176999594356 0 0 0 0 -88.839991825279867 45.053416078026203 0 45.053416078026203 133.39624962849484 0 0 0 0 -2.589983451692456 -33.966869688102825 0 -33.966869688102825 67.409435397325495 0 0 0 0 -24.26884526786489 -15.479627247317694 0 -15.479627247317694 88.093758957038517 0 0 0 0 -27.685988513955635 -21.933612753993657 0 -21.933612753993657 94.084268504149804 0 0 0 0 -3.1711759292764121 -12.780101412212503 0 -12.780101412212503 75.374214155717496 0 0 0 0 -173.25956249303192 -148.58940721554609 0 -148.58940721554609 14.244154441315914 0 0 0 0 -303.74495804448998 -170.1623429865358 0 -170.1623429865358 257.20827252593881 0 0 0 0 -76.945669843515134 -388.03122628958226 0 -388.03122628958226 75.36824736061044 0 0 0 0 -172.78577723817943 -63.654414248543617 0 -63.654414248543617 47.213515909276794 0 0 0 0 -2.0378776657722124 4.0747079345714212 0 4.0747079345714212 44.089381942071917 0 0 0 0 -315.15464164749005 -150.01766276379294 0 -150.01766276379294 96.780382177799765 0 0 0 0 -60.059382511227341 -53.698462019012368 0 -53.698462019012368 63.563444243955018 0 0 0 0 -25.756819895402181 -32.350094921185757 0 -32.350094921185757 166.99470019517832 0 0 0 0 -303.74926775804772 106.47791000789584 0 106.47791000789584 489.90043656950729 0 0 0 0 -322.93919775189875 -90.452651381904616 0 -90.452651381904616 341.45032683617319 0 0 0 0 -326.01515008476099 -70.560577669962186 0 -70.560577669962186 453.75522688560886 0 0 0 0 -221.32747951120473 42.344875498311012 0 42.344875498311012 124.93670155483414 0 0 0 0 -219.17719093839878 91.076244179334026 0 91.076244179334026 382.63918277798803 0 0 0 0 -129.67441399408426 334.10189544897003 0 334.10189544897003 768.6591669065092 0 0 0 0 -167.98108718237563 -296.77488737900057 0 -296.77488737900057 813.22018764809764 0 0 0 0 -220.48700216129237 121.02588942775765 0 121.02588942775765 301.17798612741171 0 0 0 0 450.66266965490377 -77.430839480817667 0 -77.430839480817667 718.43266181266063 0 0 0 0 321.91641192158932 425.4329552121053 0 425.4329552121053 259.42628402610717 0 0 0 0 163.21702060711323 -214.51610047373106 0 -214.51610047373106 71.679857213763171 0 0 0 0 0.5075055729970952 -2.3524902632012328 0 -2.3524902632012328 8.3694146220607308 0 0 0 0 229.77029044242408 410.48122053597763 0 410.48122053597763 527.95325480001702 0 0 0 0 336.50020425046569 594.87935486585047 0 594.87935486585047 666.08023189168307 0 0 0 0 10.570872387295822 272.79758778663745 0 272.79758778663745 610.934262075898 0 0 0 0 209.50183523778378 254.68774763035981 0 254.68774763035981 344.70452050413587 0 0 0 0 84.726677599771392 154.94728573288012 0 154.94728573288012 791.25667640149186 0 0 0 0 125.34721813241231 491.68804969274788 0 491.68804969274788 821.001015134927 0 0 0 0 1.2428453339356196 -2.7730343879563009 0 -2.7730343879563009 3.219499692565762 0 0 0 0 8.2535170963536455 -13.59198065692766 0 -13.59198065692766 14.148079098246484 0 0 0 0 2.2858589207326077 282.14751587773935 0 282.14751587773935 673.98117795724829 0 0 0 0 -10.272931375121487 -21.227698273680289 0 -21.227698273680289 33.288152534318215 0 0 0 0 -17.723671507259851 -9.767983428288062 0 -9.767983428288062 53.386256298021181 0 0 0 0 176.82876417438115 176.30859566402796 0 176.30859566402796 595.96619520295644 0 0 0 0 -53.589290372699907 130.62935616727191 0 130.62935616727191 306.67628188929666 0 0 0 0 125.76200901792163 127.53673520713346 0 127.53673520713346 277.18393956993532 0 0 0 0 -22.404658651006798 265.39700953899955 0 265.39700953899955 559.32256899168715 0 0 0 0 89.465472333153542 258.17819751914482 0 258.17819751914482 508.76127008954063 0 0 0 0 90.10654969563393 92.580402869905811 0 92.580402869905811 315.44361106472206 0 0 0 0 7.044905970849868 131.05921741302882 0 131.05921741302882 305.37446879773051 0 0 0 0 -46.33326397802648 -61.995085149072111 0 -61.995085149072111 151.16903967307007 0 0 0 0 50.457209088636773 58.69139389389602 0 58.69139389389602 90.946796337142587 0 0 0 0 6.6804176548149172 -13.51276322951918 0 -13.51276322951918 32.346173636667629 0 0 0 0 -182.34231878675382 -169.02338067881647 0 -169.02338067881647 110.34220028576237 0 0 0 0 49.558038941152518 -27.934662507286703 0 -27.934662507286703 -14.492836164936307 0 0 0 0 -107.38857469897721 -82.760844424094103 0 -82.760844424094103 -29.601736739252374 0 0 0 0 -136.2390850127822 -134.08415972135117 0 -134.08415972135117 -76.036723754412378 0 0 0 0 13.381656528457825 72.200522692211962 0 72.200522692211962 3.515508903295995 0 0 0 0 -303.07157787275719 -6.4278941822813067 0 -6.4278941822813067 64.239277418060738 0 0 0 0 -38.148762132638659 -23.814345506181539 0 -23.814345506181539 69.188274384140556 0 0 0 0 -104.90841434600134 -131.81940478452452 0 -131.81940478452452 -129.12508038149099 0 0 0 0 -174.70478342760907 -36.743628288237232 0 -36.743628288237232 -8.2384582154481905 0 0 0 0 3.3806026138192742 -9.2525439480639875 0 -9.2525439480639875 20.351748042517499 0 0 0 0 77.018860597214427 -23.262164258518169 0 -23.262164258518169 137.29295271002047 0 0 0 0 52.464438249819295 -16.074079868172703 0 -16.074079868172703 300.33264721782234 0 0 0 0 -0.56082124756248763 -0.27929138706033996 0 -0.27929138706033996 1.2200259104960764 0 0 0 0 15.417511937587477 -36.415134899421901 0 -36.415134899421901 -13.899188614610466 0 0 0 0 26.283781508096126 99.105835669703083 0 99.105835669703083 209.14538423871636 0 0 0 0 -70.15578003850456 22.409182830728241 0 22.409182830728241 93.332443730883824 0 0 0 0 17.381043480934522 10.465091660364124 0 10.465091660364124 73.639505350525724 0 0 0 0 103.22848292400982 425.63268575914663 0 425.63268575914663 754.0700953216874 0 0 0 0 3.4986858333113036 -7.8736386758850756 0 -7.8736386758850756 8.1142502548140669 0 0 0 0 -31.013270743228418 -54.1983864863505 0 -54.1983864863505 -5.8468588587638806 0 0 0 0 83.340466005643293 166.308291862646 0 166.308291862646 660.77084350106452 0 0 0 0 223.75349829458168 211.36494933955692 0 211.36494933955692 523.18184475607995 0 0 0 0 120.58230487401056 97.42668160397443 0 97.42668160397443 299.39358263286704 0 0 0 0 130.95824177231151 8.3256359946608427 0 8.3256359946608427 379.75349823686702 0 0 0 0 22.639118457453606 47.485204488941235 0 47.485204488941235 331.96498680274817 0 0 0 0 104.4966526372984 200.95495730326093 0 200.95495730326093 550.93742306804052 0 0 0 0 209.72750797888082 154.1638663829217 0 154.1638663829217 337.75373353573377 0 0 0 0 142.77473784000756 415.35508747571566 0 415.35508747571566 1013.7335256318183 0 0 0 0 0.50926111341078384 -2.7009230039776071 0 -2.7009230039776071 3.6287341406323037 0 0 0 0 -29.573583166330764 -123.83413715762435 0 -123.83413715762435 322.55772672456806 0 0 0 0 -1.5204048812538531 -173.47716240870068 0 -173.47716240870068 -102.62557630809897 0 0 0 0 76.911498064356465 -41.890769188081322 0 -41.890769188081322 739.3566080197561 0 0 0 0 221.99216818572199 -21.135788567204145 0 -21.135788567204145 296.52774025488179 0 0 0 0 -111.4698404859331 8.0917516523695667 0 8.0917516523695667 8.1754031038581161 0 0 0 0 30.858566690505654 165.89981534662002 0 165.89981534662002 559.69218608034134 0 0 0 0 -108.78643011471945 44.122948355397966 0 44.122948355397966 470.78901248586772 0 0 0 0 22.019049880987041 -39.930891003983561 0 -39.930891003983561 302.66347922217756 0 0 0 0 -11.914813809428324 1.612720662211359 0 1.612720662211359 578.29830765123188 0 0 0 0 -41.191439165607107 122.48231160426803 0 122.48231160426803 215.60250553197693 0 0 0 0 -14.089789142989503 78.187390815641265 0 78.187390815641265 203.52757747758187 0 0 0 0 -14.430675172907627 179.63913843882619 0 179.63913843882619 180.77598667470738 0 0 0 0 97.201974998172545 44.270883406221401 0 44.270883406221401 -7.6853692968870746 0 0 0 0 85.387775359296597 81.0649995516942 0 81.0649995516942 380.71451262778282 0 0 0 0 200.49099202811834 70.974927929768455 0 70.974927929768455 122.61156779396697 0 0 0 0 73.766659130015455 116.6868834490997 0 116.6868834490997 140.08367932608235 0 0 0 0 63.928967392569717 104.21013766500255 0 104.21013766500255 126.19182223312964 0 0 0 0 135.1438476975988 38.651319242413592 0 38.651319242413592 72.55264194967458 0 0 0 0 129.31304875157002 -1.5337181281647645 0 -1.5337181281647645 226.98533849172236 0 0 0 0 116.9225190380638 71.900839552741672 0 71.900839552741672 139.86834992441436 0 0 0 0 32.863522749087451 -17.043449315628095 0 -17.043449315628095 166.23647395875014 0 0 0 0 94.832076507793914 -53.718099216103838 0 -53.718099216103838 41.165607722359709 0 0 0 0 152.66733013227304 73.300683095483691 0 73.300683095483691 153.33494047040585 0 0 0 0 -13.48904982844374 -23.852379565541924 0 -23.852379565541924 63.139784187020268 0 0 0 0 -1.3099683818140395 -26.137103638672869 0 -26.137103638672869 9.5066071237527012 0 0 0 0 -30.89278713314269 -29.93033163855911 0 -29.93033163855911 86.242693619901587 0 0 0 0 -98.835711360723508 -209.21584357710526 0 -209.21584357710526 -210.74334079094479 0 0 0 0 -6.9776100236768315 -100.85839201021395 0 -100.85839201021395 4.6765855371340876 0 0 0 0 -113.80913701353029 9.4208889714864199 0 9.4208889714864199 10.728387457274948 0 0 0 0 100.06981746671772 109.197188357306 0 109.197188357306 173.58418275677832 0 0 0 0 377.36665961188919 189.66959353069979 0 189.66959353069979 158.10807041123917 0 0 0 0 -13.807596061926139 -44.116997328001446 0 -44.116997328001446 88.734507219145797 0 0 0 0 -38.185907859194856 -70.947154298854002 0 -70.947154298854002 60.323143279698343 0 0 0 0 30.542142732734362 15.430948575485672 0 15.430948575485672 80.812906552149798 0 0 0 0 -13.704474831688799 -11.075425900511618 0 -11.075425900511618 83.832309694769719 0 0 0 0 -1.0666968420287049 57.363912253196759 0 57.363912253196759 139.63420710930967 0 0 0 0 -15.034610854160292 -10.885842069255887 0 -10.885842069255887 143.81706584346102 0 0 0 0 -61.901359932441437 -44.215727943508682 0 -44.215727943508682 215.16803991449706 0 0 0 0 -10.028706335073821 36.557792321240413 0 36.557792321240413 200.64903375131507 0 0 0 0 -28.364971828978923 -5.2067838137372746 0 -5.2067838137372746 141.55503238021629 0 0 0 0 2.1349785513299366 71.652175882969459 0 71.652175882969459 184.74982372396335 0 0 0 0 0.38625239775555897 -1.7329999663811932 0 -1.7329999663811932 3.223272717173927 0 0 0 0 -575.66757031235556 -544.87943296896992 0 -544.87943296896992 584.24390401328856 0 0 0 0 221.63423537307608 415.3265162609714 0 415.3265162609714 520.69167766254395 0 0 0 0 200.50885088329323 -142.40845972492752 0 -142.40845972492752 -237.14530855320845 0 0 0 0 -2.2458613523112056 1.2345631668896289 0 1.2345631668896289 14.913594317309588 0 0 0 0 -240.01440720644291 202.07847803962341 0 202.07847803962341 256.29448274966853 0 0 0 0 63.440322318936524 138.53972247292404 0 138.53972247292404 -291.00359429272066 0 0 0 0 -37.891859845872887 -22.027045456106137 0 -22.027045456106137 70.135042447170633 0 0 0 0 110.73356570245892 -136.89855230865169 0 -136.89855230865169 -36.320080048899399 0 0 0 0 287.02294557100561 -400.79033054094407 0 -400.79033054094407 51.057947482404415 0 0 0 0 363.94922232536192 -116.42710242042085 0 -116.42710242042085 -420.8907776946362 0 0 0 0 -144.16710134158529 -124.29510912729529 0 -124.29510912729529 -47.494967152073514 0 0 0 0 -154.89547744021291 26.321937915472517 0 26.321937915472517 101.79654148581903 0 0 0 0 -33.522661924743261 -71.548158806515858 0 -71.548158806515858 121.19220413769654 0 0 0 0 -29.037809686095898 -21.432295085345686 0 -21.432295085345686 -118.37933962093666 0 0 0 0 68.128819961195632 -31.256975597490964 0 -31.256975597490964 -0.21838379799737595 0 0 0 0 -116.20845329453391 -214.56192966660456 0 -214.56192966660456 -37.101822129701759 0 0 0 0 0.57148875007571576 -33.817554916360749 0 -33.817554916360749 23.736637653201683 0 0 0 0 -42.89724315090357 -19.193379912074448 0 -19.193379912074448 76.669819835915632 0 0 0 0 -125.69890196544202 -112.02442999522464 0 -112.02442999522464 67.055833362941485 0 0 0 0 -149.59691004334036 -12.800553237102577 0 -12.800553237102577 227.86579429114499 0 0 0 0 -196.61949647926849 -174.03992359541735 0 -174.03992359541735 -85.573528334414732 0 0 0 0 -118.19004040411073 141.92188592326056 0 141.92188592326056 549.69602930612382 0 0 0 0 34.159158638653025 156.74118326896678 0 156.74118326896678 99.905540293671947 0 0 0 0 10.980496016407415 130.89870839557261 0 130.89870839557261 250.466464665491 0 0 0 0 82.172039315684742 136.13558092746098 0 136.13558092746098 156.81891708241892 0 0 0 0 78.237332422850159 117.48842320583208 0 117.48842320583208 158.34495028738456 0 0 0 0 -4.4728585269076575 101.02825899498566 0 101.02825899498566 167.08683210344134 0 0 0 0 53.864972608202152 155.12373106526502 0 155.12373106526502 170.46680262200243 0 0 0 0 40.565728948552078 65.761968090520895 0 65.761968090520895 42.232856768619968 0 0 0 0 -25.539132145026088 -26.999412233319163 0 -26.999412233319163 -351.6414584748818 0 0 0 0 117.59829202704441 275.4758461808924 0 275.4758461808924 263.79315941496316 0 0 0 0 -586.86017903301763 -4.6823325837540324 0 -4.6823325837540324 610.14221340866061 0 0 0 0 -0.10126376514635727 -1.4804658046140702 0 -1.4804658046140702 8.6204746488677415 0 0 0 0 -79.021608061033476 -418.73351208223903 0 -418.73351208223903 -84.200298653318896 0 0 0 0 -377.3709121715741 -24.996791298985499 0 -24.996791298985499 609.96914432759513 0 0 0 0 -209.17238277861907 -192.72837202302617 0 -192.72837202302617 929.84616954558442 0 0 0 0 -184.0070269996495 -17.853964263929811 0 -17.853964263929811 9.452196290862048 0 0 0 0 -10.151069109117088 -152.08855107877025 0 -152.08855107877025 -12.809065253123663 0 0 0 0 -9.6570531195584408 -127.26612302906256 0 -127.26612302906256 -68.139964026224334 0 0 0 0 -0.20646855685526577 -2.8696735134969025 0 -2.8696735134969025 109.88525864727882 0 0 0 0 -143.99556701713664 -15.253273587106378 0 -15.253273587106378 227.02083336379292 0 0 0 0 171.63069856730544 2.7609184265784279 0 2.7609184265784279 9.9073945603959146 0 0 0 0 0.57268637858883786 -1.016380070735714 0 -1.016380070735714 105.81858282303605 0 0 0 0 -221.87284087944499 37.252792916588078 0 37.252792916588078 121.09943452042353 0 0 0 0 -313.39543736216365 -41.004100377083887 0 -41.004100377083887 42.493637852403481 0 0 0 0 -0.13550451702512678 -2.2033071888351898 0 -2.2033071888351898 21.189046548307601 0 0 0 0 -141.13565893095583 -91.879979521423593 0 -91.879979521423593 -0.084023772360524163 0 0 0 0 123.54887518463053 -7.8622054434007964 0 -7.8622054434007964 -46.408994104756857 0 0 0 0 -133.60553497157434 -67.257528888370871 0 -67.257528888370871 170.02167670303606 0 0 0 0 0.014434035306367665 0.036081889790679611 0 0.036081889790679611 -0.041717608192129774 0 0 0 0 -339.72599033870529 44.756937555732236 0 44.756937555732236 328.7614801099553 0 0 0 0 14.445233434704278 15.223658922121103 0 15.223658922121103 152.9886585229533 0 0 0 0 -107.70794990379636 -170.26231619029568 0 -170.26231619029568 52.810421725989727 0 0 0 0 -1.7564317380301873 29.441110632764321 0 29.441110632764321 15.69413725661434 0 0 0 0 -2.149628613321763 -4.4874292501248654 0 -4.4874292501248654 25.211112318600442 0 0 0 0 -22.778916650939209 -93.958006596287305 0 -93.958006596287305 -3.6978941652305366 0 0 0 0 -218.35529531842667 28.868880464717222 0 28.868880464717222 66.733114920774824 0 0 0 0 -75.800464401225327 -66.193860573897837 0 -66.193860573897837 27.701785465556895 0 0 0 0 -9.7698449283263216 -15.005803790420487 0 -15.005803790420487 4.4204241997382248 0 0 0 0 -32.762293636834784 6.7563707925601193 0 6.7563707925601193 7.5631199901399668 0 0 0 0 -158.25015695685124 -96.980331579437916 0 -96.980331579437916 -41.926080283978081 0 0 0 0 41.142649407438512 -47.415797822937748 0 -47.415797822937748 -20.800629019795451 0 0 0 0 -1.7032979545255587 -3.9468024283878265 0 -3.9468024283878265 -1.2808486783301873 0 0 0 0 -8.0366248682312289 -97.501497893535998 0 -97.501497893535998 -211.96187797592574 0 0 0 0 -2.3244987972922844 -2.6118572313329977 0 -2.6118572313329977 9.8412410931971408 0 0 0 0 174.00868220300435 -175.81676154983143 0 -175.81676154983143 171.43334648897144 0 0 0 0 -48.388448605390295 42.727636567506124 0 42.727636567506124 201.03116907646472 0 0 0 0 221.68891263337628 208.92958003957938 0 208.92958003957938 78.716243552058586 0 0 0 0 -104.78926630610658 -114.01744005968794 0 -114.01744005968794 186.73196574189933 0 0 0 0 -27.589789630998894 63.75658988314899 0 63.75658988314899 215.30706309173547 0 0 0 0 -0.29045185920839067 -4.3618166586477045 0 -4.3618166586477045 -1.548451631599562 0 0 0 0 19.285080843303149 -45.950350843922934 0 -45.950350843922934 34.56189553699005 0 0 0 0 -322.63812075428359 -31.127058755788312 0 -31.127058755788312 357.36142448048486 0 0 0 0 -75.462212311732401 -73.679936339920459 0 -73.679936339920459 234.29857199429534 0 0 0 0 -142.42328813785025 -47.190405057815951 0 -47.190405057815951 336.80023709335364 0 0 0 0 -217.887284824792 -120.081396446898 0 -120.081396446898 278.62854066638101 0 0 0 0 -335.98753984132418 -143.26214549675933 0 -143.26214549675933 475.99384321580874 0 0 0 0 -27.512268616988877 -115.03055830739322 0 -115.03055830739322 -107.61374516643264 0 0 0 0 -3.7021118927276646 -1.53872340786819 0 -1.53872340786819 4.5120122329788543 0 0 0 0 -270.75391810865858 -240.57833771383412 0 -240.57833771383412 346.31870471380535 0 0 0 0 -226.51454489214302 -166.35591860795103 0 -166.35591860795103 273.97447086861939 0 0 0 0 -135.1433710318197 -376.38232890250947 0 -376.38232890250947 80.19073576827941 0 0 0 0 -225.46166737645945 -396.30567252698893 0 -396.30567252698893 374.29013265685353 0 0 0 0 -288.85504185421587 -213.38123530396297 0 -213.38123530396297 709.81207815662492 0 0 0 0 -85.299816069724329 134.46474047016818 0 134.46474047016818 620.51350739972986 0 0 0 0 14.762810247317475 261.91464322232332 0 261.91464322232332 -162.3142144338417 0 0 0 0 -4.8316396585923158 -5.3043827239351273 0 -5.3043827239351273 104.79741424376655 0 0 0 0 26.981721590677807 68.209957103757915 0 68.209957103757915 271.12786296878767 0 0 0 0 -70.128068223237278 -141.15779239257245 0 -141.15779239257245 99.388796843471937 0 0 0 0 -216.2015063214676 -95.212891953458893 0 -95.212891953458893 151.2906530755281 0 0 0 0 -84.06528590817436 -10.423954147403492 0 -10.423954147403492 71.376005459314911 0 0 0 0 -243.73257115581873 124.86084294385364 0 124.86084294385364 -79.702018445936119 0 0 0 0 -312.27539871635599 24.927339283600304 0 24.927339283600304 126.71437444959884 0 0 0 0 44.139000931278133 -44.782094370966661 0 -44.782094370966661 98.753021323675057 0 0 0 0 -14.637281741890007 -115.82749515306205 0 -115.82749515306205 100.29171180504636 0 0 0 0 -8.1291293991194085 -18.307320916108623 0 -18.307320916108623 19.961002528772838 0 0 0 0 -23.417876829652698 -57.446264382917434 0 -57.446264382917434 87.79567024516291 0 0 0 0 -256.54559198847801 -70.516987266353681 0 -70.516987266353681 237.92578152517672 0 0 0 0 -8.2754053940978185 -51.466709883271847 0 -51.466709883271847 106.11016378190561 0 0 0 0 -80.420311261505049 38.995909912278876 0 38.995909912278876 201.82456899302997 0 0 0 0 -39.990247366130461 90.951860507193487 0 90.951860507193487 37.179495485775988 0 0 0 0 287.87507685402397 216.42051665427789 0 216.42051665427789 -261.65907606134715 0 0 0 0 -30.149301577906954 112.49689648718049 0 112.49689648718049 84.285924744704971 0 0 0 0 517.64577448093087 -160.74530798223986 0 -160.74530798223986 71.794383959728293 0 0 0 0 451.01733409526969 332.63560053041147 0 332.63560053041147 174.10139365245777 0 0 0 0 139.10806432150002 -425.77787929545593 0 -425.77787929545593 -92.55657342964696 0 0 0 0 -255.8240668029965 213.54232880267253 0 213.54232880267253 642.13658239804499 0 0 0 0 3.5112713941262079 -2.1972075405708438 0 -2.1972075405708438 8.9883332660623978 0 0 0 0 375.98079489754855 433.5796623914357 0 433.5796623914357 382.45847505657002 0 0 0 0 24.894990081487776 -19.558662920018833 0 -19.558662920018833 727.02617608234459 0 0 0 0 138.77563567198558 272.0285079776877 0 272.0285079776877 712.08569689486376 0 0 0 0 181.27488092260865 197.11080625887553 0 197.11080625887553 244.15304479488987 0 0 0 0 -26.401554693609796 185.02266758772021 0 185.02266758772021 336.74232480939099 0 0 0 0 14.158133881697722 -119.41074332568678 0 -119.41074332568678 462.63328888314936 0 0 0 0 -28.864502331677613 25.595129896686558 0 25.595129896686558 44.113785561440636 0 0 0 0 76.632910173291748 -194.47258213538953 0 -194.47258213538953 -129.53982088748307 0 0 0 0 -4.934466209997268 -2.2617435876945251 0 -2.2617435876945251 1.3278369692550953 0 0 0 0 76.269053713317589 -69.354003953005304 0 -69.354003953005304 55.589992620505654 0 0 0 0 -5.6239412469990384 -99.765199173965811 0 -99.765199173965811 197.4268951244303 0 0 0 0 -20.026607403146045 -70.52181224011656 0 -70.52181224011656 208.76328559743342 0 0 0 0 36.150148869045097 -75.666426860013416 0 -75.666426860013416 129.63236975409382 0 0 0 0 -1.1760358468079204 0.56781779500728646 0 0.56781779500728646 -0.19074648730544297 0 0 0 0 18.050469595619688 -120.28855168633891 0 -120.28855168633891 246.69478963973052 0 0 0 0 231.52461597706315 66.336848269631446 0 66.336848269631446 -422.79541690890619 0 0 0 0 -102.75309005081363 -93.076378514728276 0 -93.076378514728276 0.36522894921108673 0 0 0 0 15.813840101387086 52.108746420974057 0 52.108746420974057 7.0892309737246251 0 0 0 0 127.45700920319268 -70.838813261707401 0 -70.838813261707401 141.50944183678075 0 0 0 0 -41.243901211740194 24.298468717001015 0 24.298468717001015 91.046118459766149 0 0 0 0 -11.36685758557479 10.784755463334527 0 10.784755463334527 86.324004810294923 0 0 0 0 25.061628762175133 -58.35899756629442 0 -58.35899756629442 170.54746419597723 0 0 0 0 -18.30953936967444 -8.3678121812918107 0 -8.3678121812918107 104.17099538557522 0 0 0 0 -16.378827433676634 -25.494292389135808 0 -25.494292389135808 112.87100409752384 0 0 0 0 -22.132742654743197 -4.9195623906416586 0 -4.9195623906416586 117.88235712792812 0 0 0 0 -15.527359204057383 1.7454722981360078 0 1.7454722981360078 101.8974415324671 0 0 0 0 -31.463432776246009 26.27286844397895 0 26.27286844397895 82.6059529594786 0 0 0 0 50.151545206215815 24.313455085037276 0 24.313455085037276 -1.3104619558580453 0 0 0 0 -1.3616617832729858 1.9918986441751656 0 1.9918986441751656 4.7400590467372439 0 0 0 0 -18.943882214300857 -16.11340165853926 0 -16.11340165853926 30.844553885151981 0 0 0 0 13.010320847119146 33.374404538168164 0 33.374404538168164 -2.3859814493334852 0 0 0 0 0.047893061731148379 -3.9349977951958977 0 -3.9349977951958977 6.0858172837262714 0 0 0 0 10.066548590148159 -6.6167051400843775 0 -6.6167051400843775 28.557509584439686 0 0 0 0 -6.9674507094860019 2.7550764607731253 0 2.7550764607731253 59.055378935736371 0 0 0 0 -12.807826733122056 12.53923854137247 0 12.53923854137247 61.769237874425016 0 0 0 0 -15.223823532349343 -19.799022504244931 0 -19.799022504244931 103.57313528705708 0 0 0 0 -17.640322853903854 -21.268114620397682 0 -21.268114620397682 133.89377629314549 0 0 0 0 -10.902383290831494 -17.189485780851101 0 -17.189485780851101 126.60123036030564 0 0 0 0 -8.0013042630016571 -34.318524309332133 0 -34.318524309332133 121.97910251794383 0 0 0 0 19.018339808368182 -40.157040925900219 0 -40.157040925900219 138.61175582843134 0 0 0 0 5.3790522820345359 11.546967223279353 0 11.546967223279353 206.92363555793418 0 0 0 0 -3.9286502557115455 -17.655690960877109 0 -17.655690960877109 116.41763594790245 0 0 0 0 -17.102028476390842 7.9093097952718381 0 7.9093097952718381 128.90835687666549 0 0 0 0 -23.30305198854694 -19.901236771314871 0 -19.901236771314871 247.67257548613998 0 0 0 0 -33.853612040517874 -12.532686018039385 0 -12.532686018039385 154.44427619528142 0 0 0 0 3.7402014756880817 12.938406206027139 0 12.938406206027139 284.81588518797071 0 0 0 0 -10.035854447742167 -2.8651418734752951 0 -2.8651418734752951 151.46167875651736 0 0 0 0 -1.0854680491228308 1.9586691182403797 0 1.9586691182403797 3.0252639364696847 0 0 0 0 23.810431776177211 -10.086900500806223 0 -10.086900500806223 74.771995941759087 0 0 0 0 1.2041518615196374 -0.60475068660575459 0 -0.60475068660575459 -1.7453224599549912 0 0 0 0 32.090308152059151 -71.352176468702964 0 -71.352176468702964 202.76251050858991 0 0 0 0 20.934241075608384 -6.6956429499659862 0 -6.6956429499659862 135.60209345415933 0 0 0 0 13.625209107740375 -47.3409883815184 0 -47.3409883815184 109.57385433191666 0 0 0 0 -8.442296380912012 17.659926785887365 0 17.659926785887365 62.649628010316519 0 0 0 0 29.402496901100676 -60.196824500551884 0 -60.196824500551884 93.859886095087859 0 0 0 0 -0.40397872430020243 -9.9122497734683037 0 -9.9122497734683037 22.785807308427053 0 0 0 0 -25.642941729242011 4.6641640153175103 0 4.6641640153175103 76.660697091501788 0 0 0 0 -5.1587191847756912 21.773351654366706 0 21.773351654366706 67.354895126743941 0 0 0 0 23.909057957545883 54.429064179166744 0 54.429064179166744 71.740838376630563 0 0 0 0 -25.844905666253908 16.548177566437516 0 16.548177566437516 119.96369742973911 0 0 0 0 -42.998887142977765 -49.158295399507551 0 -49.158295399507551 157.68839332171046 0 0 0 0 -76.571056613806832 8.6387332853828411 0 8.6387332853828411 127.97543462332396 0 0 0 0 -14.900738567477974 5.949290596414194 0 5.949290596414194 85.622937717147579 0 0 0 0 -53.230369579907347 -42.471064651297638 0 -42.471064651297638 178.85372719257066 0 0 0 0 -3.2368772971077817 -2.9763498329801052 0 -2.9763498329801052 16.256014393361482 0 0 0 0 6.3791441388884778 120.24170507198505 0 120.24170507198505 -1.0075297210933059 0 0 0 0 -10.637836553162742 -12.338259850772374 0 -12.338259850772374 123.95762205072242 0 0 0 0 -50.274654465951244 20.890054732937642 0 20.890054732937642 77.566297999743256 0 0 0 0 -23.624008726299561 -4.9311889766271833 0 -4.9311889766271833 59.494142340010825 0 0 0 0 -12.620490360581947 2.4989736350766805 0 2.4989736350766805 15.154336374937344 0 0 0 0 -41.778598202028661 15.111898416202166 0 15.111898416202166 70.266411825059549 0 0 0 0 -12.904548688770376 5.0969028826553107 0 5.0969028826553107 66.438442212810855 0 0 0 0 -14.439528279408478 -5.4608664160004992 0 -5.4608664160004992 83.550145129935117 0 0 0 0 -27.43814666885919 -18.328888640040532 0 -18.328888640040532 75.002853333789972 0 0 0 0 31.253432809313381 32.362631245749071 0 32.362631245749071 115.31857556238538 0 0 0 0 -24.306652235573438 19.921909223239709 0 19.921909223239709 48.336038449328043 0 0 0 0 -36.184969919762807 -30.281391683311085 0 -30.281391683311085 119.22982417746971 0 0 0 0 -6.0482600340783392 61.927977315885073 0 61.927977315885073 -12.721067821606994 0 0 0 0 -2.387314741819246 4.4953424891779719 0 4.4953424891779719 -3.5269198953569898 0 0 0 0 -216.12480970537945 -64.514524802296364 0 -64.514524802296364 202.78949794825166 0 0 0 0 17.101636390187196 -75.548431557836011 0 -75.548431557836011 -48.305923848802195 0 0 0 0 2.3560679432117269 -4.0521626582698929 0 -4.0521626582698929 4.9222260997770491 0 0 0 0 71.659018963579001 133.23062644027959 0 133.23062644027959 175.89025712950388 0 0 0 0 -22.422648391824623 109.04716507333796 0 109.04716507333796 218.67274385551809 0 0 0 0 15.903114903030655 27.798617181513691 0 27.798617181513691 166.18375877465587 0 0 0 0 -107.59014227287662 53.048613219332765 0 53.048613219332765 59.22263655308052 0 0 0 0 -181.38451804481701 8.2200240740130539 0 8.2200240740130539 253.056503314976 0 0 0 0 -92.016535995717277 20.072584793750138 0 20.072584793750138 48.129758369112096 0 0 0 0 -56.770062413008418 -71.551024612464971 0 -71.551024612464971 212.16234310872096 0 0 0 0 -11.284600302934148 -3.3434357957956973 0 -3.3434357957956973 72.650652895742965 0 0 0 0 -38.924968007037023 -1.7777806433477963 0 -1.7777806433477963 62.865292135618802 0 0 0 0 -41.908248466317673 13.975493459700374 0 13.975493459700374 65.754888915646006 0 0 0 0 -18.371515148301114 -16.097349958603445 0 -16.097349958603445 71.925335462543444 0 0 0 0 -17.381807785426645 -12.461732181141997 0 -12.461732181141997 50.962271670845439 0 0 0 0 -6.9063521848153373 -8.2827298345310894 0 -8.2827298345310894 46.384359383891223 0 0 0 0 5.8070270881216857 2.5156647119292757 0 2.5156647119292757 57.316200747256516 0 0 0 0 -41.159508438526245 -8.3864485278609209 0 -8.3864485278609209 15.929397898929892 0 0 0 0 -1.0692356214381462 13.075565116291088 0 13.075565116291088 26.805232110702804 0 0 0 0 74.913847443679515 78.780085025903645 0 78.780085025903645 48.698722301749513 0 0 0 0 -9.053110439530716 -16.256876609876766 0 -16.256876609876766 44.213255775775252 0 0 0 0 -13.456933236392523 -11.026801143648328 0 -11.026801143648328 45.7235526788333 0 0 0 0 -5.6850659446971301 -6.3778148283752252 0 -6.3778148283752252 55.530792343478325 0 0 0 0 -62.350732469740933 82.29603757578343 0 82.29603757578343 208.97606498483583 0 0 0 0 -17.673023042895693 -10.844562574791325 0 -10.844562574791325 43.615310382621828 0 0 0 0 -4.9548242445683321 -8.5983077575479996 0 -8.5983077575479996 13.949005767564131 0 0 0 0 35.594733570524113 -79.3817753016192 0 -79.3817753016192 55.541580913850339 0 0 0 0 -12.290807628653873 -18.752250135569824 0 -18.752250135569824 54.146382771696246 0 0 0 0 150.22574276151317 132.23968078026883 0 132.23968078026883 167.48705347022042 0 0 0 0 9.4386169662102475 -45.387199419928947 0 -45.387199419928947 70.883460570592433 0 0 0 0 -3.6202687920524923 -14.748184564659098 0 -14.748184564659098 18.299443679547203 0 0 0 0 -2.4692826941317207 -5.6382606008382652 0 -5.6382606008382652 4.0991508109015911 0 0 0 0 -5.9376148549479435 -0.49659336846864122 0 -0.49659336846864122 43.84220596120889 0 0 0 0 -19.700928366235075 -8.4105038427205727 0 -8.4105038427205727 49.527919328567805 0 0 0 0 -194.93108648670113 185.61775609128017 0 185.61775609128017 -117.16336343924922 0 0 0 0 -3.7599833611218259 -2.0134866007078358 0 -2.0134866007078358 8.6371387254662402 0 0 0 0 -210.27852583166532 -128.43994366667175 0 -128.43994366667175 118.61505456280429 0 0 0 0 44.890164686085882 81.729741880091751 0 81.729741880091751 284.77835325722117 0 0 0 0 -170.82542454685972 -61.947301736730878 0 -61.947301736730878 221.72474384930683 0 0 0 0 -571.59019911685027 -74.419726549873303 0 -74.419726549873303 371.83946097974695 0 0 0 0 -267.85268865776288 450.14001349327918 0 450.14001349327918 140.29609584655554 0 0 0 0 -267.14635047738921 -382.59121929957473 0 -382.59121929957473 527.57777151069968 0 0 0 0 -14.113810624342022 -145.76097085134916 0 -145.76097085134916 399.76793768416246 0 0 0 0 532.79136065397051 -266.2027044805036 0 -266.2027044805036 -14.810537678582477 0 0 0 0 -70.755246351865935 161.44440522940204 0 161.44440522940204 373.06294474806873 0 0 0 0 72.167704120431154 -62.767837727977167 0 -62.767837727977167 -104.58282821665125 0 0 0 0 -541.61788162722132 0.60209255102745374 0 0.60209255102745374 243.67482092953287 0 0 0 0 -138.92537058328344 -112.23383120028302 0 -112.23383120028302 234.27383668293623 0 0 0 0 19.878557407511835 40.067325661577343 0 40.067325661577343 294.03334212632035 0 0 0 0 -0.85659509630816899 1.5989974284239707 0 1.5989974284239707 -1.7469281502084613 0 0 0 0 6.4457397726309864 -36.334587545299655 0 -36.334587545299655 157.50540515760076 0 0 0 0 -1.4246104723420245 -2.9061647072093422 0 -2.9061647072093422 13.197696739667883 0 0 0 0 -26.367127882554996 -26.998597170277208 0 -26.998597170277208 64.728102427241538 0 0 0 0 7.3001828076448874 -31.943021105154912 0 -31.943021105154912 52.559193487457378 0 0 0 0 -27.145782849547004 -22.620369842881701 0 -22.620369842881701 40.576852489415614 0 0 0 0 -142.55278899824771 -32.058339598734165 0 -32.058339598734165 115.32889399555279 0 0 0 0 -115.50410737401398 1.6585077649215236 0 1.6585077649215236 357.20103073245991 0 0 0 0 0.45672071297122585 0.78916878000400459 0 0.78916878000400459 -2.041162600071317 0 0 0 0 -9.578162882977491 -16.195148612221814 0 -16.195148612221814 87.628897002957302 0 0 0 0 -43.978169162881386 -99.668392617611971 0 -99.668392617611971 -60.789757320584613 0 0 0 0 -173.25605000090945 -57.187120563226927 0 -57.187120563226927 350.94557868748961 0 0 0 0 -8.8729674231669833 -13.667745378172413 0 -13.667745378172413 136.56743202883445 0 0 0 0 -0.50985880728621691 -2.9089470559290582 0 -2.9089470559290582 0.87894938771883346 0 0 0 0 -12.786026704841788 -1.6276406591605337 0 -1.6276406591605337 -62.167805262135516 0 0 0 0 32.679346144574993 -24.427049690090826 0 -24.427049690090826 13.959226347253207 0 0 0 0 -2.9221233066084373 -8.2904115974987125 0 -8.2904115974987125 12.297768346418081 0 0 0 0 -2.8847204558075425 3.2564056908041366 0 3.2564056908041366 47.503289568167361 0 0 0 0 -52.484860999255943 -51.283874594648296 0 -51.283874594648296 102.70957067556446 0 0 0 0 50.446700791544572 -25.829689117843373 0 -25.829689117843373 26.577105247087729 0 0 0 0 -107.87391091100289 13.871708355327428 0 13.871708355327428 334.25018719598302 0 0 0 0 -167.79456315168409 -273.29288305597584 0 -273.29288305597584 -49.842911626881687 0 0 0 0 -5.7249386031799077 -114.91409249032131 0 -114.91409249032131 18.1919779494674 0 0 0 0 181.54472499625263 -245.61622640065593 0 -245.61622640065593 317.49873888874208 0 0 0 0 149.66938671929529 -103.89572161789692 0 -103.89572161789692 -191.50811297646214 0 0 0 0 161.07162735199199 -75.068638685102997 0 -75.068638685102997 -124.16280728522906 0 0 0 0 1.6612814899898254 1.9765251430324327 0 1.9765251430324327 1.34814619587425 0 0 0 0 -6.288219079724513 -83.942455460299243 0 -83.942455460299243 144.1227424417084 0 0 0 0 -121.0527441876693 177.92493572733838 0 177.92493572733838 342.25504841487054 0 0 0 0 -126.58185219864208 217.83173926489326 0 217.83173926489326 102.81443197289082 0 0 0 0 -25.795908968264371 48.946141059222214 0 48.946141059222214 152.69330090089352 0 0 0 0 -14.410433837636447 96.47662107659562 0 96.47662107659562 105.49415767145911 0 0 0 0 -25.671898693614366 45.712507654504293 0 45.712507654504293 -89.412865672111366 0 0 0 0 -49.199133762160272 -36.624490655085538 0 -36.624490655085538 82.234700540337144 0 0 0 0 13.306277316629348 -20.405496356914227 0 -20.405496356914227 44.317888409101215 0 0 0 0 0.83035969250845909 1.5891869327791444 0 1.5891869327791444 8.7057020955719793 0 0 0 0 -140.3617865764154 10.70514098656713 0 10.70514098656713 38.544372172902513 0 0 0 0 -67.849375119745673 -73.565147999463079 0 -73.565147999463079 10.074285914233769 0 0 0 0 86.853814573320051 2.890316736222303 0 2.890316736222303 236.97473714376656 0 0 0 0 20.274872455319382 0.49250391767327528 0 0.49250391767327528 426.76799874936114 0 0 0 0 35.214501611104424 15.584968970706541 0 15.584968970706541 180.77499762029584 0 0 0 0 -23.372410352869338 96.303240390283463 0 96.303240390283463 352.83379828411034 0 0 0 0 51.234872115524922 -55.307656249015054 0 -55.307656249015054 91.962008589760444 0 0 0 0 8.7337046924142214 10.859079061994635 0 10.859079061994635 185.73200900804659 0 0 0 0 23.417622171428775 -8.210526310012483 0 -8.210526310012483 235.99954173064179 0 0 0 0 4.0016045757765824 -48.804315535172009 0 -48.804315535172009 66.23692870476043 0 0 0 0 7.5775541350394633 -30.548067237799842 0 -30.548067237799842 79.473216304972993 0 0 0 0 -7.5518336671960995 -12.030130935059365 0 -12.030130935059365 -2.2979836816646437 0 0 0 0 -11.972088075453939 -37.726145532226838 0 -37.726145532226838 59.120627905562287 0 0 0 0 -18.000930327971219 -5.1253360947375768 0 -5.1253360947375768 115.63888995221737 0 0 0 0 43.825109133521437 -3.6489010826180674 0 -3.6489010826180674 10.953344647685299 0 0 0 0 2.3977637282501725 -11.201150979469556 0 -11.201150979469556 9.0152521573692503 0 0 0 0 -13.369655674825481 -32.147488538175821 0 -32.147488538175821 13.69664520049264 0 0 0 0 -54.498448562811973 -31.298052796553748 0 -31.298052796553748 64.74993937094041 0 0 0 0 -1.4508244308385265 4.1227184756782691 0 4.1227184756782691 7.3641726247672423 0 0 0 0 -12.676395688198681 -64.229006429972287 0 -64.229006429972287 38.554816814801598 0 0 0 0 -7.4246292554435058 -64.749812279680555 0 -64.749812279680555 55.209455415597404 0 0 0 0 -54.132332537526963 -69.28219848923618 0 -69.28219848923618 80.24833422626034 0 0 0 0 -45.367357678322151 -48.460391595741385 0 -48.460391595741385 88.095297005202156 0 0 0 0 -17.635083441303713 -11.135955794392277 0 -11.135955794392277 21.3784884315961 0 0 0 0 81.328983340325067 -19.067732130322838 0 -19.067732130322838 159.61353877809279 0 0 0 0 -18.24230611092753 -11.246358290798526 0 -11.246358290798526 108.34155711462461 0 0 0 0 -60.281253539245881 -49.611362981149796 0 -49.611362981149796 175.38384153001243 0 0 0 0 -22.343436082355765 -86.890624108174961 0 -86.890624108174961 99.427588438993553 0 0 0 0 -23.706619331798379 -8.2711784768737289 0 -8.2711784768737289 107.4607977064552 0 0 0 0 -27.423902096242273 -0.38003739542909898 0 -0.38003739542909898 100.56094347241947 0 0 0 0 -15.9378990654277 -7.0079863659357216 0 -7.0079863659357216 101.71706209992408 0 0 0 0 -17.436757341304656 -7.5833474151440896 0 -7.5833474151440896 104.44525482589597 0 0 0 0 -8.8239697295102815 -5.0866577790657175 0 -5.0866577790657175 104.54193356562246 0 0 0 0 -1.6287888697688686 -5.8991082365319016 0 -5.8991082365319016 95.274465860797136 0 0 0 0 -10.535246643260052 3.5227337953747337 0 3.5227337953747337 89.586896481348958 0 0 0 0 -10.177397289367036 6.2093375613681019 0 6.2093375613681019 85.494712923513362 0 0 0 0 -27.317770231983559 16.470610012362158 0 16.470610012362158 88.812607971903162 0 0 0 0 -19.439500686799875 9.6260669672392396 0 9.6260669672392396 94.6616152400602 0 0 0 0 -0.89578630115033242 13.454634063831161 0 13.454634063831161 83.768865734859489 0 0 0 0 -8.6280808276374046 3.5100828603590344 0 3.5100828603590344 105.62782527519721 0 0 0 0 -46.747417851256614 25.774530164384487 0 25.774530164384487 92.985590145635797 0 0 0 0 -23.601144263818242 32.382358320503045 0 32.382358320503045 91.548426565059344 0 0 0 0 -0.47579051674987305 17.182912410794742 0 17.182912410794742 91.124522324198864 0 0 0 0 -32.082865516771562 10.380736046936363 0 10.380736046936363 107.87487550690821 0 0 0 0 -38.675406582302458 1.3409643087652512 0 1.3409643087652512 111.65691275434256 0 0 0 0 -17.242932696393666 -7.7318071609756771 0 -7.7318071609756771 105.30702574683164 0 0 0 0 18.729913866194693 60.641119612922921 0 60.641119612922921 18.997523713389455 0 0 0 0 16.979494540708885 58.065109571602079 0 58.065109571602079 1.9705936752361595 0 0 0 0 23.717982666108526 17.425220763390826 0 17.425220763390826 37.491801135936839 0 0 0 0 32.367615503955847 58.285627615108865 0 58.285627615108865 -80.076417812197178 0 0 0 0 34.541447524505855 99.833717773372996 0 99.833717773372996 70.063754820534086 0 0 0 0 -37.2272980487719 127.31313030315687 0 127.31313030315687 59.659681120858295 0 0 0 0 -27.756224456325526 96.43579838506048 0 96.43579838506048 149.50938287348981 0 0 0 0 5.5749971826305682 50.654930002216133 0 50.654930002216133 84.655186416901415 0 0 0 0 0.42835213115881743 37.566845432197169 0 37.566845432197169 83.750405425678764 0 0 0 0 -30.859182453325047 14.728676074561008 0 14.728676074561008 135.02943963752114 0 0 0 0 -0.41414269186233721 18.906489307355578 0 18.906489307355578 99.827148383918455 0 0 0 0 1.2218155061855214 7.4700337647041124 0 7.4700337647041124 92.152682990876485 0 0 0 0 -3.3054238492286458 13.460144265285635 0 13.460144265285635 104.39005948340127 0 0 0 0 -17.863529699460059 22.097734948133564 0 22.097734948133564 90.478984445736387 0 0 0 0 2.0622448977339234 15.056179275882162 0 15.056179275882162 90.451853623437231 0 0 0 0 -16.130173124915927 24.116372250260611 0 24.116372250260611 73.970520000299075 0 0 0 0 6.4642337565551315 9.4921223982979654 0 9.4921223982979654 80.330996902331549 0 0 0 0 -3.0106149798454016 12.838886648784669 0 12.838886648784669 73.910620408973571 0 0 0 0 -10.845857624499331 26.194704196955342 0 26.194704196955342 79.03502598175308 0 0 0 0 3.2227184205079453 16.403891264572941 0 16.403891264572941 78.231332736842731 0 0 0 0 6.5817435518169987 14.700229577490973 0 14.700229577490973 74.692096759182959 0 0 0 0 -26.614861091157763 15.093480595423898 0 15.093480595423898 121.85736196360449 0 0 0 0 38.158516919242672 54.926223585400521 0 54.926223585400521 154.67693504887575 0 0 0 0 30.949093419467317 19.315172290462215 0 19.315172290462215 76.97862255214568 0 0 0 0 15.687335239053027 2.644294746876767 0 2.644294746876767 74.594840814770578 0 0 0 0 31.44339760992105 29.293793162182737 0 29.293793162182737 48.90104011504809 0 0 0 0 32.06582838526117 -11.183447152099689 0 -11.183447152099689 79.803665201479816 0 0 0 0 24.620995614994513 40.761527500905913 0 40.761527500905913 109.49279677906452 0 0 0 0 -16.293177830807736 -17.839446098501867 0 -17.839446098501867 283.15786607125847 0 0 0 0 1.5324376744935568 -2.5743975278622528 0 -2.5743975278622528 -0.49642348681533122 0 0 0 0 33.031655159944648 -41.376129100861363 0 -41.376129100861363 144.19137322832103 0 0 0 0 50.178948077369114 5.1008520483155735 0 5.1008520483155735 -77.514085993781919 0 0 0 0 -399.68892833428413 -208.14534897079602 0 -208.14534897079602 482.42785170691059 0 0 0 0 -51.77323383299472 -96.161646549490797 0 -96.161646549490797 -34.324700669933009 0 0 0 0 8.0207260810818308 10.948911218229242 0 10.948911218229242 16.025070953004672 0 0 0 0 22.87351135024619 74.613999447492461 0 74.613999447492461 2.3281051303074491 0 0 0 0 -118.30657314299322 56.385106409169111 0 56.385106409169111 154.93549028947746 0 0 0 0 -36.940134010915585 5.1351339676593852 0 5.1351339676593852 95.704699571446326 0 0 0 0 -0.2351128809792149 14.179213788248045 0 14.179213788248045 87.754631947653394 0 0 0 0 -14.035003570105346 188.93829332600217 0 188.93829332600217 316.25562975381399 0 0 0 0 19.601192574540676 68.103465497368916 0 68.103465497368916 117.62288701286707 0 0 0 0 24.838376277287125 67.562652452001203 0 67.562652452001203 34.028563542160555 0 0 0 0 83.414530820041364 203.85966721062141 0 203.85966721062141 102.77020819977588 0 0 0 0 -2.3446510353540937 17.631682053988531 0 17.631682053988531 27.692132328250409 0 0 0 0 46.787651476071005 47.34490493389967 0 47.34490493389967 29.998494204637495 0 0 0 0 -63.811554819195635 119.41904747260105 0 119.41904747260105 7.3821506354197481 0 0 0 0 4.518039291450771 5.278204183942373 0 5.278204183942373 6.602796374070266 0 0 0 0 4.5235855226374042 6.1740526727035103 0 6.1740526727035103 52.934378140069384 0 0 0 0 17.582050455299395 -75.837255043676123 0 -75.837255043676123 311.97251632947155 0 0 0 0 61.488211368726297 -56.541983317541963 0 -56.541983317541963 63.67158238967113 0 0 0 0 280.75160215013079 93.569004983017294 0 93.569004983017294 -22.598102537460363 0 0 0 0 1.7070129121725479 2.5416929040723435 0 2.5416929040723435 1.8234614792427237 0 0 0 0 202.74506951361218 -56.966207027051496 0 -56.966207027051496 73.934541843571424 0 0 0 0 89.907431887745588 116.8814070964745 0 116.8814070964745 324.51224568005375 0 0 0 0 56.80884863454321 50.442260150737638 0 50.442260150737638 197.96024846299042 0 0 0 0 3.6095498701627093 12.33540379398346 0 12.33540379398346 151.42602377894855 0 0 0 0 -5.8782957171270596 36.664044781688062 0 36.664044781688062 104.42832949649596 0 0 0 0 23.968112690822863 22.430189726957906 0 22.430189726957906 -89.549521967655892 0 0 0 0 -330.2909900047207 103.25160615666391 0 103.25160615666391 352.32131076362384 0 0 0 0 -2.1170157385479338 8.169665037209608 0 8.169665037209608 92.377890464862759 0 0 0 0 47.27740441151991 41.134813487932206 0 41.134813487932206 -172.76950876311548 0 0 0 0 -90.004000357115956 179.38520636166561 0 179.38520636166561 207.3593636454325 0 0 0 0 -1.2460302008555439 -1.5043288139559046 0 -1.5043288139559046 -0.022833131181078214 0 0 0 0 45.444195743473642 -21.52969742133655 0 -21.52969742133655 98.83592401516762 0 0 0 0 24.391956662879693 -50.746150611106259 0 -50.746150611106259 60.415596385911385 0 0 0 0 -2.2298931027564954 9.7552983722453703 0 9.7552983722453703 90.85244264747854 0 0 0 0 -136.29899932744343 -22.134769736112503 0 -22.134769736112503 110.43913237352535 0 0 0 0 8.4738978313871485 -38.732822054786084 0 -38.732822054786084 94.997223623344325 0 0 0 0 -6.8416489858786917 -38.873542071718475 0 -38.873542071718475 99.882973840394698 0 0 0 0 6.3104475942293448 1.8929758220532449 0 1.8929758220532449 88.991042280164038 0 0 0 0 5.6443205520026822 14.75806250654523 0 14.75806250654523 96.031965419744665 0 0 0 0 1.6144339868885229 0.12425991350115062 0 0.12425991350115062 94.849960562532658 0 0 0 0 -20.248186929601161 -23.927087497690991 0 -23.927087497690991 135.6084519164433 0 0 0 0 -14.535710120863573 -4.6626491133867347 0 -4.6626491133867347 26.480933672957974 0 0 0 0 -12.701666461999935 -4.8636680790077662 0 -4.8636680790077662 164.58473262010375 0 0 0 0 25.422623190483137 -13.927869675389957 0 -13.927869675389957 133.74589686730178 0 0 0 0 6.1781861801764535 -23.180527207578052 0 -23.180527207578052 118.49151103340409 0 0 0 0 3.8742137439267026 -10.262549167988254 0 -10.262549167988254 115.3521890994889 0 0 0 0 -13.467203828257198 -9.433343654996861 0 -9.433343654996861 137.43830277307279 0 0 0 0 -7.3337995066194708 12.769055375429161 0 12.769055375429161 145.47730636246706 0 0 0 0 2.41237078584345 7.9242508901152178 0 7.9242508901152178 141.92448575439994 0 0 0 0 2.5569078152602742 24.74061817351685 0 24.74061817351685 141.86125526806609 0 0 0 0 18.795134745203541 0.24667629466785002 0 0.24667629466785002 122.74040957270699 0 0 0 0 2.3078216487847385 4.9201568883190703 0 4.9201568883190703 124.88639722823427 0 0 0 0 16.844759441064525 19.171865294771123 0 19.171865294771123 126.71812021124242 0 0 0 0 -15.084374278192627 12.892321251929388 0 12.892321251929388 154.2094917720824 0 0 0 0 -24.172755193650346 27.119163674364245 0 27.119163674364245 152.11192486985965 0 0 0 0 -12.781134454630774 21.602054240996949 0 21.602054240996949 143.29692705938942 0 0 0 0 -7.1823855973503132 11.889206709607738 0 11.889206709607738 154.87087643535526 0 0 0 0 6.5672504387639492 -4.3699513552419376 0 -4.3699513552419376 163.17580583869858 0 0 0 0 -16.466678727082581 14.447942373750266 0 14.447942373750266 159.97489472340567 0 0 0 0 31.324420706413548 7.6729127167327533 0 7.6729127167327533 91.325347510854044 0 0 0 0 38.613174420168434 12.925781761641701 0 12.925781761641701 83.820194278261624 0 0 0 0 35.698342381621842 23.928539296335657 0 23.928539296335657 109.02547978742587 0 0 0 0 15.725275665718982 15.60090157220111 0 15.60090157220111 117.70932854289276 0 0 0 0 19.588865150752099 -3.2051961463057523 0 -3.2051961463057523 92.548131854629901 0 0 0 0 31.754110206367841 15.799148780824908 0 15.799148780824908 111.17098974243709 0 0 0 0 33.449885664423164 -13.147660420707325 0 -13.147660420707325 98.348550576289199 0 0 0 0 17.919847095477962 -28.320229634019597 0 -28.320229634019597 85.513164508447517 0 0 0 0 40.173554782669726 -15.218442237991439 0 -15.218442237991439 54.609946500972001 0 0 0 0 48.942529200872741 -2.2061794972432835 0 -2.2061794972432835 72.705577942426316 0 0 0 0 39.372409611336479 13.073532409887775 0 13.073532409887775 67.034803193550033 0 0 0 0 45.751190207862692 6.9084749309176914 0 6.9084749309176914 48.460230885706551 0 0 0 0 36.343981796133448 -2.9939679256422096 0 -2.9939679256422096 49.403402237512637 0 0 0 0 84.727118516903829 -31.880626370111258 0 -31.880626370111258 57.659449011825927 0 0 0 0 70.313191459683821 4.6737061419021302 0 4.6737061419021302 30.296759625758568 0 0 0 0 40.565630967256311 -63.804695048189387 0 -63.804695048189387 51.881181143628055 0 0 0 0 7.5786645203361331 -41.184775208726933 0 -41.184775208726933 88.370025508234448 0 0 0 0 114.14761389746491 -65.292092849849723 0 -65.292092849849723 51.683959716652453 0 0 0 0 -15.679178174184017 -104.43244684724232 0 -104.43244684724232 104.38311190886088 0 0 0 0 31.137433943693395 -63.627593592693302 0 -63.627593592693302 77.03059229943392 0 0 0 0 69.507843800385672 11.127109392226885 0 11.127109392226885 195.49187726313539 0 0 0 0 30.402444395151576 -75.854744238050557 0 -75.854744238050557 -30.444847110898991 0 0 0 0 -0.63032002082052685 -2.3431782706207969 0 -2.3431782706207969 1.9845254298235666 0 0 0 0 37.852750146619655 -52.202760734697222 0 -52.202760734697222 -113.68118183736988 0 0 0 0 -47.976863976869936 146.00207076639344 0 146.00207076639344 522.42751366756784 0 0 0 0 10.688733520109963 178.64546518938005 0 178.64546518938005 320.40195563064481 0 0 0 0 2.7822687810512434 -26.492430053589487 0 -26.492430053589487 -8.4386948423889407 0 0 0 0 -26.60800143201368 0.66765960496786647 0 0.66765960496786647 -30.232108304953726 0 0 0 0 -46.554019129326207 -44.615387571344854 0 -44.615387571344854 -21.493016183761938 0 0 0 0 -7.8540572442798293 -22.491690355083847 0 -22.491690355083847 -0.58364085382709163 0 0 0 0 -17.549409336801546 1.3798209824781225 0 1.3798209824781225 34.778547039502882 0 0 0 0 36.529899597811891 -6.1882764532711008 0 -6.1882764532711008 29.556913066837296 0 0 0 0 5.8288410693821788 2.68308357812748 0 2.68308357812748 33.850269509883219 0 0 0 0 -123.12116443544892 237.1697928860558 0 237.1697928860558 243.04461509787507 0 0 0 0 -138.89198698478504 196.44148623798537 0 196.44148623798537 492.25661348855647 0 0 0 0 -226.19465402467904 290.43527828974766 0 290.43527828974766 404.77410368629353 0 0 0 0 -180.6446193880488 34.861274594315773 0 34.861274594315773 632.80807736800489 0 0 0 0 -300.50247684962596 122.27654351378078 0 122.27654351378078 602.18850741858114 0 0 0 0 -0.085340387158943543 -4.2901065792794171 0 -4.2901065792794171 3.3072172153783796 0 0 0 0 188.46123569644624 5.8252186714780692 0 5.8252186714780692 394.90066605306401 0 0 0 0 -3.4046430927210167 -50.217583303830907 0 -50.217583303830907 -74.449735787635291 0 0 0 0 -68.349014795598123 108.36209236412287 0 108.36209236412287 424.93443021010535 0 0 0 0 -21.192718649021117 -18.486466954589559 0 -18.486466954589559 9.14345957916521 0 0 0 0 -4.4270792111165065 -15.104892386269057 0 -15.104892386269057 -14.472360082984778 0 0 0 0 -23.547526802369248 -25.367543657619535 0 -25.367543657619535 8.43206743747578 0 0 0 0 -10.600718516634515 -29.1110857692438 0 -29.1110857692438 -30.855429380982969 0 0 0 0 -5.6018999408734089 -9.2509207759831042 0 -9.2509207759831042 -52.013191934718634 0 0 0 0 -20.928441383406607 -7.1929252593981801 0 -7.1929252593981801 -23.879193767737888 0 0 0 0 -21.992978756793605 -27.67782380628762 0 -27.67782380628762 -0.24782269172283122 0 0 0 0 -15.539916392892337 -21.785593969512774 0 -21.785593969512774 54.812995963846333 0 0 0 0 -4.9493149367172009 -25.376744892013448 0 -25.376744892013448 -1.0073658617038745 0 0 0 0 -17.739654069469907 -26.695004952474847 0 -26.695004952474847 32.99447488145961 0 0 0 0 -7.0707739826839315 -16.464680273437807 0 -16.464680273437807 10.791818996913207 0 0 0 0 -4.3891245321447059 -19.776275566398908 0 -19.776275566398908 33.187663654913194 0 0 0 0 -11.147963428451476 -25.891270383348456 0 -25.891270383348456 55.406726727655041 0 0 0 0 -11.148971005873136 -17.688681788409667 0 -17.688681788409667 64.631516777953948 0 0 0 0 -2.5170525668581831 -9.9672323588820291 0 -9.9672323588820291 43.016176024306787 0 0 0 0 -18.958014998403087 -23.885018351433246 0 -23.885018351433246 41.595099394886347 0 0 0 0 -14.012240541733263 -13.610377482249532 0 -13.610377482249532 45.469074595166603 0 0 0 0 -4.8925392433229717 -16.67009989424696 0 -16.67009989424696 5.2870732243100065 0 0 0 0 0.53078066895159282 3.1861261472668048 0 3.1861261472668048 60.470590421369707 0 0 0 0 5.6909780899604812 -13.4738474594742 0 -13.4738474594742 86.283544338071806 0 0 0 0 -6.0555226873311767 -10.007285616316949 0 -10.007285616316949 85.22399751629564 0 0 0 0 13.549792451714893 -10.591256978939782 0 -10.591256978939782 83.100453190276312 0 0 0 0 5.8456927025763434 -3.2093125630526629 0 -3.2093125630526629 67.725934527814388 0 0 0 0 -6.3548230620945105 -11.900776013564609 0 -11.900776013564609 63.696770406224459 0 0 0 0 1.1041838550772809 -21.200284800599547 0 -21.200284800599547 73.032850419265742 0 0 0 0 -4.5154455258925736 -10.864331245218636 0 -10.864331245218636 89.197035705801682 0 0 0 0 2.0324332554801003 -24.885630194610712 0 -24.885630194610712 75.792685183798312 0 0 0 0 -10.761308747220028 -21.447776277065714 0 -21.447776277065714 75.225031854643021 0 0 0 0 -2.0947857417577325 -26.02114387738402 0 -26.02114387738402 55.952149276861746 0 0 0 0 20.753836206436972 16.201836698201078 0 16.201836698201078 62.922563259476192 0 0 0 0 31.807550787447326 4.7278340006669168 0 4.7278340006669168 66.939826414609087 0 0 0 0 29.073288073201184 13.402732256980016 0 13.402732256980016 40.051920183286711 0 0 0 0 6.5344880709362769 0.85634428906269022 0 0.85634428906269022 59.629929674149025 0 0 0 0 14.087082570884377 -6.4143751277842966 0 -6.4143751277842966 34.411729790455865 0 0 0 0 4.0478859811046277 10.09316949861568 0 10.09316949861568 53.326782750162238 0 0 0 0 -4.1318566602567444 -14.161961041787436 0 -14.161961041787436 44.300899656918773 0 0 0 0 14.384523748834908 -1.6221289343375247 0 -1.6221289343375247 63.797023383271153 0 0 0 0 8.7364118708464957 11.213939137265697 0 11.213939137265697 79.921211196637159 0 0 0 0 8.7733938717647106 -8.1628859049014864 0 -8.1628859049014864 68.892669405202469 0 0 0 0 6.8189943678335112 6.7783667921212327 0 6.7783667921212327 102.37686123952517 0 0 0 0 15.254640397895855 6.7501837588715716 0 6.7501837588715716 84.136611116355198 0 0 0 0 25.410411139309872 4.0106085743100266 0 4.0106085743100266 82.960632809750678 0 0 0 0 17.626805228383091 10.489815375479338 0 10.489815375479338 99.194051876678714 0 0 0 0 34.300395998292515 12.163176494028448 0 12.163176494028448 78.805145560391793 0 0 0 0 27.367472494534013 4.9624356636413722 0 4.9624356636413722 77.775878362888761 0 0 0 0 26.138602153205284 12.056273226215126 0 12.056273226215126 85.270259383891243 0 0 0 0 33.06139629273639 19.307905013793061 0 19.307905013793061 86.544055605409994 0 0 0 0 33.16707226575636 10.626073273848306 0 10.626073273848306 101.53608004662965 0 0 0 0 35.768310655469122 23.662734282712336 0 23.662734282712336 107.72464603905246 0 0 0 0 34.585000080081954 24.746477779801353 0 24.746477779801353 134.30236778102699 0 0 0 0 44.51196837479074 13.237986298943724 0 13.237986298943724 121.48752505718494 0 0 0 0 33.096881920126179 18.929831228102557 0 18.929831228102557 100.67072835123963 0 0 0 0 28.630281021148221 10.340454742590737 0 10.340454742590737 121.29355210665381 0 0 0 0 23.783439834618093 -1.2999040404547486 0 -1.2999040404547486 105.30471248986578 0 0 0 0 23.049087181203504 13.550625130999833 0 13.550625130999833 121.39942305579461 0 0 0 0 35.307464389978122 -1.091298048500903 0 -1.091298048500903 133.08466172642875 0 0 0 0 29.618296334463594 11.82640153743705 0 11.82640153743705 151.90562255701298 0 0 0 0 33.422507592475085 -2.9803641104917915 0 -2.9803641104917915 177.18117322330363 0 0 0 0 41.996608807294706 4.1065775032420788 0 4.1065775032420788 173.43486701637448 0 0 0 0 44.849183443837319 11.335840747917246 0 11.335840747917246 148.11238127185243 0 0 0 0 48.670942654803184 22.392637297377405 0 22.392637297377405 155.33788280887529 0 0 0 0 49.212453058931715 11.752221260729129 0 11.752221260729129 143.05142520735899 0 0 0 0 27.714759918713298 12.879448029124433 0 12.879448029124433 147.97485645766574 0 0 0 0 9.6650608699742406 -17.534048971474476 0 -17.534048971474476 117.25169591891608 0 0 0 0 5.9944290414059651 -0.68616875299994717 0 -0.68616875299994717 139.46597850581747 0 0 0 0 7.0081270614546156 -23.789224251884661 0 -23.789224251884661 92.762286731063796 0 0 0 0 3.0449528427857331 -6.0206786192643449 0 -6.0206786192643449 107.02019873540848 0 0 0 0 3.4000718668903573 -20.801437786136376 0 -20.801437786136376 95.49218552597813 0 0 0 0 12.401521897529165 -15.789475967703765 0 -15.789475967703765 113.82249815693285 0 0 0 0 5.7268957911019243 0.30089847220733645 0 0.30089847220733645 131.58821136285405 0 0 0 0 1.2719468135210263 -1.6558313424566222 0 -1.6558313424566222 103.44151973866246 0 0 0 0 22.135955211429973 -4.1109979504890362 0 -4.1109979504890362 103.64801974508737 0 0 0 0 14.646728288937084 -8.0407419552320789 0 -8.0407419552320789 130.07637598272777 0 0 0 0 27.607915086305411 -7.0528635207087973 0 -7.0528635207087973 161.96961717370868 0 0 0 0 21.445645441850502 8.8337415172318288 0 8.8337415172318288 139.26070845082177 0 0 0 0 16.466214758253045 9.3440554072039959 0 9.3440554072039959 178.61273309828903 0 0 0 0 23.585474348783464 -12.632491564927477 0 -12.632491564927477 181.8856475806424 0 0 0 0 22.325212511374389 -9.5965661132269133 0 -9.5965661132269133 136.92104998620198 0 0 0 0 4.1513170471371268 -9.3441983001703193 0 -9.3441983001703193 167.59613563304447 0 0 0 0 18.306205540931842 -4.9627729094318056 0 -4.9627729094318056 140.94614657830971 0 0 0 0 9.8379148555577558 4.684374222484621 0 4.684374222484621 168.58473016216158 0 0 0 0 12.886613387214311 10.74977961084187 0 10.74977961084187 197.69344996706059 0 0 0 0 15.275256229968363 12.395314138895628 0 12.395314138895628 173.97495496623196 0 0 0 0 8.8906644545836571 -5.0266348521108739 0 -5.0266348521108739 216.98826929757342 0 0 0 0 13.996501031062508 1.7092252879119769 0 1.7092252879119769 220.88666809133065 0 0 0 0 10.202742725098688 -6.8706418310252957 0 -6.8706418310252957 257.23662672765931 0 0 0 0 30.869149492049473 -9.615179208216432 0 -9.615179208216432 192.28286446316997 0 0 0 0 22.222060382967356 -20.295746691286695 0 -20.295746691286695 273.22403288759961 0 0 0 0 1.3577980928494071 2.6564252464231686 0 2.6564252464231686 296.2199953461768 0 0 0 0 2.011787742971137 6.7745575122171431 0 6.7745575122171431 265.52438499129312 0 0 0 0 4.6657349913966755 24.331142223474671 0 24.331142223474671 260.78648749446074 0 0 0 0 -8.3453926250604127 1.4907517558076506 0 1.4907517558076506 309.92061631847537 0 0 0 0 43.721538176219838 -3.6272965210155235 0 -3.6272965210155235 212.51224809611449 0 0 0 0 72.731789889210631 2.0170762145899062 0 2.0170762145899062 202.98512316724373 0 0 0 0 57.46964592027598 22.436862347567512 0 22.436862347567512 183.89241733505332 0 0 0 0 48.282356695888666 11.847693681338569 0 11.847693681338569 179.26594172773366 0 0 0 0 66.494508810006209 6.1957574286916497 0 6.1957574286916497 172.65033707697148 0 0 0 0 45.169156892619867 -0.35874619918831741 0 -0.35874619918831741 177.75807452540539 0 0 0 0 27.482454236744161 -6.9709537003573132 0 -6.9709537003573132 221.23362805910438 0 0 0 0 39.053881828671365 -18.006084419876061 0 -18.006084419876061 260.04405873142241 0 0 0 0 37.053531186100372 -8.2295437603024766 0 -8.2295437603024766 220.57930385748841 0 0 0 0 73.899370598393944 -35.269396042123844 0 -35.269396042123844 264.20251573446239 0 0 0 0 112.9887538829762 5.9975996564353409 0 5.9975996564353409 202.47266959446279 0 0 0 0 69.62065136112551 -20.489591621593718 0 -20.489591621593718 254.75599317233718 0 0 0 0 67.328422174401567 -9.4172290496899222 0 -9.4172290496899222 210.54000728953997 0 0 0 0 83.944962626281722 45.173253098272653 0 45.173253098272653 233.03517724145058 0 0 0 0 55.019807567512544 20.308641160983825 0 20.308641160983825 214.59498228568555 0 0 0 0 38.619504187477105 24.303720837269793 0 24.303720837269793 182.04021713096881 0 0 0 0 64.015402290373572 41.852019704813301 0 41.852019704813301 191.65084998404927 0 0 0 0 12.147978679243352 28.475700002047233 0 28.475700002047233 195.41282943776241 0 0 0 0 40.560038264559807 43.871374954986095 0 43.871374954986095 173.63768297717979 0 0 0 0 3.3803621922079401 29.101440182941587 0 29.101440182941587 241.44025041085479 0 0 0 0 50.383690464860592 50.332144749387226 0 50.332144749387226 207.8184838734087 0 0 0 0 -27.441553940813151 10.853939361659286 0 10.853939361659286 243.99026607871565 0 0 0 0 0.48643234898827359 18.154319276847673 0 18.154319276847673 200.55981574271982 0 0 0 0 -23.791231259345508 11.012101121411888 0 11.012101121411888 185.48942441940017 0 0 0 0 -11.641056521095393 34.922057339997764 0 34.922057339997764 158.80907077858865 0 0 0 0 5.1170138339466575 43.926705038196815 0 43.926705038196815 197.72600982802851 0 0 0 0 -13.013815460803471 29.211441089921209 0 29.211441089921209 185.78291961313153 0 0 0 0 17.789774610184622 31.069980682154892 0 31.069980682154892 149.01644283355199 0 0 0 0 -47.696010724768257 30.950205384790024 0 30.950205384790024 166.70338632176026 0 0 0 0 -6.1577223012919831 31.793437573434858 0 31.793437573434858 148.04253031448025 0 0 0 0 14.972345132708142 37.944016006211314 0 37.944016006211314 148.37748224122379 0 0 0 0 -2.8339876201607694 26.260573205990568 0 26.260573205990568 141.45598435136344 0 0 0 0 15.784070563796746 23.341792870775578 0 23.341792870775578 136.8767664855186 0 0 0 0 32.054078827002741 30.766659135428199 0 30.766659135428199 128.37869427453552 0 0 0 0 30.458898683801181 15.649656763180701 0 15.649656763180701 113.86962432646396 0 0 0 0 36.647942753563257 13.563004617819388 0 13.563004617819388 123.41129333997378 0 0 0 0 38.248789879951801 30.210775636594917 0 30.210775636594917 130.73319400376204 0 0 0 0 37.565937663580371 19.804621974984912 0 19.804621974984912 134.06763378997402 0 0 0 0 38.1255007280065 30.726431044879973 0 30.726431044879973 154.98290198896575 0 0 0 0 60.880657241100835 28.875676344653584 0 28.875676344653584 154.90684839151072 0 0 0 0 16.231637719249193 27.132494976734961 0 27.132494976734961 163.29412979777408 0 0 0 0 35.777289471229778 40.475662538563483 0 40.475662538563483 150.12907259982603 0 0 0 0 82.861407085771134 -165.20579711700702 0 -165.20579711700702 221.57858473269152 0 0 0 0 99.110992286494366 -133.57111399294081 0 -133.57111399294081 146.88141694703518 0 0 0 0 103.35210451127568 -166.39439545210189 0 -166.39439545210189 181.55515680866301 0 0 0 0 39.742528078339092 -148.53959883195785 0 -148.53959883195785 191.29420701484923 0 0 0 0 47.11676294875133 -107.73764808619489 0 -107.73764808619489 148.04739964600594 0 0 0 0 37.012877358261903 -74.742424311740251 0 -74.742424311740251 113.67713221967279 0 0 0 0 11.136909857450519 -84.584090025171463 0 -84.584090025171463 185.22275260173774 0 0 0 0 71.521156268770937 -116.64049585819157 0 -116.64049585819157 192.00131500796851 0 0 0 0 -27.545200101196315 -30.690020119676774 0 -30.690020119676774 219.02331627939202 0 0 0 0 18.815620451492578 -3.4318099612282822 0 -3.4318099612282822 155.92916259171761 0 0 0 0 -172.24277620450175 91.851577011248082 0 91.851577011248082 142.5328717608063 0 0 0 0 -11.085536615819365 36.301341392278118 0 36.301341392278118 78.504477954986214 0 0 0 0 -78.077254116431504 38.975506898645108 0 38.975506898645108 174.13261216986575 0 0 0 0 -33.365494370947999 26.96477066949592 0 26.96477066949592 79.019066787070187 0 0 0 0 8.1061610131255293 -36.859749436956918 0 -36.859749436956918 158.24938585545897 0 0 0 0 -57.537516915630476 3.4397475139339804 0 3.4397475139339804 144.79272493827739 0 0 0 0 -57.48610521147566 -7.809861618996365 0 -7.809861618996365 95.48827926600643 0 0 0 0 -51.183715674040286 27.044553277577506 0 27.044553277577506 108.73905993223707 0 0 0 0 -66.858281402876855 -2.0565277713867545 0 -2.0565277713867545 71.863700938287366 0 0 0 0 -59.873360803874675 -16.141347673477867 0 -16.141347673477867 92.849783160239895 0 0 0 0 -138.27291650231382 -52.029024068946455 0 -52.029024068946455 76.557962354127085 0 0 0 0 0.58365484849821314 4.0603548701439536 0 4.0603548701439536 4.6638363122617932 0 0 0 0 -71.242175561183103 -68.546235634454206 0 -68.546235634454206 4.4388614880881505 0 0 0 0 -45.819552968199787 22.944590116178006 0 22.944590116178006 40.364277038206637 0 0 0 0 -130.87422147930556 27.410887208663098 0 27.410887208663098 99.110392375834635 0 0 0 0 -24.665191037081968 -34.097893414604187 0 -34.097893414604187 97.093060315266484 0 0 0 0 -15.191309799134615 4.0099428789617377 0 4.0099428789617377 -22.533063449460315 0 0 0 0 16.779453354956786 -109.46436559106223 0 -109.46436559106223 -11.443118845405024 0 0 0 0 6.2880235873853962 -146.9328929352705 0 -146.9328929352705 111.3262223461179 0 0 0 0 -9.3296544200529752 -175.94558645016878 0 -175.94558645016878 83.598130073729408 0 0 0 0 -152.71043435748288 -24.684753318542789 0 -24.684753318542789 43.372253070971055 0 0 0 0 59.02314861780178 125.21738289745554 0 125.21738289745554 98.581285742977343 0 0 0 0 3.940177263772668 -2.3899582176130707 0 -2.3899582176130707 6.0143813184987494 0 0 0 0 -58.146570169381448 -12.845425407060247 0 -12.845425407060247 80.097359200477513 0 0 0 0 -257.03772165103146 26.476420075807255 0 26.476420075807255 245.8136185996409 0 0 0 0 -107.84005806660571 77.234398929394956 0 77.234398929394956 180.7918663272867 0 0 0 0 -85.971582549926097 -53.001506392322881 0 -53.001506392322881 107.35048829606967 0 0 0 0 1.8373098386506257 -20.186287695795627 0 -20.186287695795627 90.941535384683107 0 0 0 0 -43.714774324776954 -51.407124886813108 0 -51.407124886813108 95.406508876323642 0 0 0 0 -42.403579819372681 -43.950094737538166 0 -43.950094737538166 106.52970449508575 0 0 0 0 -44.981875531055266 -17.742079728810495 0 -17.742079728810495 106.40967419232038 0 0 0 0 -49.965528064916725 -3.1422087108985579 0 -3.1422087108985579 82.03026242476335 0 0 0 0 -7.0334788948765912 -17.996601245396363 0 -17.996601245396363 19.842797578999736 0 0 0 0 -10.417483370523307 5.4943277706419309 0 5.4943277706419309 48.098249335979816 0 0 0 0 -33.585945454196917 -4.1264644107795903 0 -4.1264644107795903 68.259425399552129 0 0 0 0 -11.36542633257519 -0.013374930642237715 0 -0.013374930642237715 68.515819376271082 0 0 0 0 -31.087250397386015 -12.269609505317931 0 -12.269609505317931 58.600553356322052 0 0 0 0 -31.203312011710295 -2.255488204802532 0 -2.255488204802532 59.609087262571848 0 0 0 0 -33.251428861825843 -12.741585183372081 0 -12.741585183372081 78.066323679442576 0 0 0 0 -24.640146845657 1.9550416198180756 0 1.9550416198180756 44.117211586490157 0 0 0 0 -34.827513770476799 73.258155254516168 0 73.258155254516168 91.140435894852999 0 0 0 0 -13.630730836669045 21.150670507463317 0 21.150670507463317 43.39914974630355 0 0 0 0 -22.837861220389676 12.529514248964935 0 12.529514248964935 79.210754722412474 0 0 0 0 -17.665379983433183 -12.977301927627607 0 -12.977301927627607 56.073849414811619 0 0 0 0 -24.504107299757919 15.124960100934288 0 15.124960100934288 46.115755096127728 0 0 0 0 -35.527543737796805 -1.7081960717732727 0 -1.7081960717732727 49.298490623448743 0 0 0 0 -7.8161223576898919 54.584488243475789 0 54.584488243475789 41.999895232198469 0 0 0 0 -70.252864929556381 73.147095798223745 0 73.147095798223745 72.715310366998892 0 0 0 0 38.841792735234776 21.241474538051989 0 21.241474538051989 46.044566716765985 0 0 0 0 -44.102129061247979 18.58624573365887 0 18.58624573365887 97.562284970306791 0 0 0 0 -10.058930781044182 3.5710824417619733 0 3.5710824417619733 87.404631169325512 0 0 0 0 -52.011637093899481 -47.38433804651504 0 -47.38433804651504 76.157575835660282 0 0 0 0 -23.899447770771705 -20.631699923788485 0 -20.631699923788485 53.522480141842806 0 0 0 0 -48.504843711373724 -41.154282738441907 0 -41.154282738441907 59.472741093173681 0 0 0 0 -35.140582634006023 -24.187770039323368 0 -24.187770039323368 65.017971590099478 0 0 0 0 -10.979835955618274 -18.712237229036688 0 -18.712237229036688 76.111770000304233 0 0 0 0 -59.576341660673279 -47.899332657292689 0 -47.899332657292689 49.852293981746698 0 0 0 0 -57.345308351550102 114.67425451582449 0 114.67425451582449 174.06573097351793 0 0 0 0 -19.708817097989193 -7.9021736934235633 0 -7.9021736934235633 83.017808478242898 0 0 0 0 -48.200103707222297 -75.774158763108062 0 -75.774158763108062 201.26102004353743 0 0 0 0 32.454303927945148 96.531350330915302 0 96.531350330915302 97.613528204079557 0 0 0 0 50.213562448768243 3.0316943611933311 0 3.0316943611933311 276.3794593194325 0 0 0 0 -1.9799161734783972 5.9634688145202404 0 5.9634688145202404 3.3407151193518558 0 0 0 0 -80.304601361181994 81.575553848168056 0 81.575553848168056 256.76758814618734 0 0 0 0 -6.2783235660302168 -1.5174390820671206 0 -1.5174390820671206 8.7277282643385021 0 0 0 0 -31.152145576910698 32.060307581808956 0 32.060307581808956 210.50930809370402 0 0 0 0 -56.50792721434118 2.3881857793639938 0 2.3881857793639938 3.862386231579876 0 0 0 0 -136.8885628419448 -143.49630817387333 0 -143.49630817387333 105.17217889092717 0 0 0 0 -67.370103568183822 51.952223218924019 0 51.952223218924019 205.01623274232406 0 0 0 0 -143.67720685230711 -100.67087883697991 0 -100.67087883697991 210.00311859948852 0 0 0 0 192.40807469121592 -203.37889977425402 0 -203.37889977425402 233.87240596706397 0 0 0 0 1.8265723276740609 3.1195381515408549 0 3.1195381515408549 0.69373359496107412 0 0 0 0 -1.9439783749724171 -4.4986670584663671 0 -4.4986670584663671 2.7185785415894479 0 0 0 0 0.42049258377664955 -30.719262487626111 0 -30.719262487626111 -27.116927900675364 0 0 0 0 325.28035290152548 74.770585840444255 0 74.770585840444255 215.73601318376495 0 0 0 0 -31.314259375498295 33.31204521327345 0 33.31204521327345 438.05556601347234 0 0 0 0 -16.774760989061178 -20.514420393992623 0 -20.514420393992623 34.822388802713249 0 0 0 0 -5.5359988236668869 -27.226018520566868 0 -27.226018520566868 36.532524579784877 0 0 0 0 -13.940716565855837 -25.808826949814829 0 -25.808826949814829 56.94723032102047 0 0 0 0 -8.0843237681401661 -22.482400399698236 0 -22.482400399698236 34.489002808770238 0 0 0 0 -9.5471057906725036 -30.895112708109991 0 -30.895112708109991 29.621194102852314 0 0 0 0 -18.093110109584813 -1.6490504402754596 0 -1.6490504402754596 7.6846178119412798 0 0 0 0 -17.403697594119876 -10.580204280831822 0 -10.580204280831822 35.427645284167738 0 0 0 0 -12.679791431848571 -18.456458155345899 0 -18.456458155345899 32.240408644063791 0 0 0 0 -19.835932386043169 -24.266724018823879 0 -24.266724018823879 59.168051169493992 0 0 0 0 -17.757250880189531 -27.461478770630492 0 -27.461478770630492 53.53502480908719 0 0 0 0 -30.446359219866281 -25.171041115365369 0 -25.171041115365369 77.046360028500203 0 0 0 0 -30.451693063103448 -24.65244664758211 0 -24.65244664758211 71.057553098609787 0 0 0 0 -34.437822204399708 -46.331987188945277 0 -46.331987188945277 87.677390265474969 0 0 0 0 -19.91910214888776 -36.170246326561028 0 -36.170246326561028 77.269133591609716 0 0 0 0 -21.996933977228764 -33.777381285461161 0 -33.777381285461161 78.412991222990968 0 0 0 0 -13.720927936472435 -26.253200029808795 0 -26.253200029808795 75.03834191317037 0 0 0 0 0.27157115022782818 -29.83674092943329 0 -29.83674092943329 75.919695236216285 0 0 0 0 -6.1668391018174589 -17.606373016162252 0 -17.606373016162252 90.459019406771404 0 0 0 0 -3.3467997024163196 -28.537660689476979 0 -28.537660689476979 57.2302307149439 0 0 0 0 -8.0339359599129239 -32.74551260743101 0 -32.74551260743101 61.660397394793108 0 0 0 0 -2.0192666181574168 -15.595003187550901 0 -15.595003187550901 117.97351017342589 0 0 0 0 4.7682862459723765 -26.518969918302446 0 -26.518969918302446 92.985160760188592 0 0 0 0 1.3096830834911088 -11.053946002510202 0 -11.053946002510202 113.08530543551751 0 0 0 0 -9.2981573643555748 -23.464416503633402 0 -23.464416503633402 92.530629750675871 0 0 0 0 -4.0703153110189305 -35.896120563051227 0 -35.896120563051227 78.360279283631826 0 0 0 0 -13.832401556039258 -31.621973100664036 0 -31.621973100664036 90.796957421967818 0 0 0 0 -10.60662409367842 -48.044808845642365 0 -48.044808845642365 64.657809619049658 0 0 0 0 -10.502142918259779 -27.169242076008231 0 -27.169242076008231 102.57752762616292 0 0 0 0 -3.0096759589359863 -27.562658839902724 0 -27.562658839902724 79.133773035799095 0 0 0 0 2.9697230239726196 -27.298123889322596 0 -27.298123889322596 87.298052316904432 0 0 0 0 4.8664816907476052 -8.6980824526726792 0 -8.6980824526726792 102.03552055744353 0 0 0 0 -17.278945058154932 1.4592026821574109 0 1.4592026821574109 147.71827474468591 0 0 0 0 -2.8385401618552351 -6.3238563379545667 0 -6.3238563379545667 152.88382185461523 0 0 0 0 13.267519226323202 -16.555353237781674 0 -16.555353237781674 116.98452258669204 0 0 0 0 11.670736762633169 3.7039512268238468 0 3.7039512268238468 142.41763129395986 0 0 0 0 20.759975039763958 13.632667550868064 0 13.632667550868064 152.65167697156684 0 0 0 0 0.27982459538361582 9.9719836894528271 0 9.9719836894528271 224.90832687846705 0 0 0 0 10.76314021986218 9.9279674509543838 0 9.9279674509543838 224.76288795598157 0 0 0 0 -10.786453084853747 18.727610430265486 0 18.727610430265486 334.30057487599697 0 0 0 0 8.2349466568575735 28.480001288867243 0 28.480001288867243 191.40840111401485 0 0 0 0 0.51212447923444415 -12.394669513454573 0 -12.394669513454573 156.69545275604469 0 0 0 0 10.506173743902764 29.822857763244428 0 29.822857763244428 86.584198509513953 0 0 0 0 -15.934821912842381 49.524813834741508 0 49.524813834741508 365.37156971793593 0 0 0 0 1.830349751817856 -5.7835889273682284 0 -5.7835889273682284 20.838833588981913 0 0 0 0 74.117723531086085 324.90194333959698 0 324.90194333959698 675.29011584422187 0 0 0 0 4.0005067161144581 -15.426311860175701 0 -15.426311860175701 58.621554555579166 0 0 0 0 -259.23058457366824 -201.2341463572011 0 -201.2341463572011 221.10288323424174 0 0 0 0 -88.192505280027035 -46.796251436651801 0 -46.796251436651801 119.54916064431336 0 0 0 0 -11.923819092848589 -2.4736266689360491 0 -2.4736266689360491 76.265878722868365 0 0 0 0 -54.470512686626535 -76.947895090559541 0 -76.947895090559541 71.079525513334374 0 0 0 0 -17.756217916085006 -53.355072436406772 0 -53.355072436406772 40.766675320977811 0 0 0 0 -37.564258278231137 -55.971509456387139 0 -55.971509456387139 81.535346489032236 0 0 0 0 -12.678216499145492 26.892188697202073 0 26.892188697202073 -101.60684239958209 0 0 0 0 -67.960953667148715 8.1743701154955488 0 8.1743701154955488 449.60327991815939 0 0 0 0 4.1221151916074348 -2.4215634988701282 0 -2.4215634988701282 -1.5931037245730693 0 0 0 0 255.50266762769388 247.90011149282873 0 247.90011149282873 189.03421199317745 0 0 0 0 -45.199955627294912 -122.80478363620932 0 -122.80478363620932 336.35535679265013 0 0 0 0 191.57886913756067 1.1350990408495818 0 1.1350990408495818 299.00690734970703 0 0 0 0 96.130805190576211 -98.249728478567704 0 -98.249728478567704 196.30227204278754 0 0 0 0 -92.36926558054256 -29.940791986537079 0 -29.940791986537079 109.97162564798782 0 0 0 0 199.71598053423759 -135.11145888561873 0 -135.11145888561873 126.52147886566672 0 0 0 0 216.22110112257724 -148.42019488504593 0 -148.42019488504593 -53.569967885996448 0 0 0 0 376.46252305909729 -360.71648484464822 0 -360.71648484464822 117.28999063977972 0 0 0 0 105.25415487062128 -425.93858288798583 0 -425.93858288798583 514.80102227595853 0 0 0 0 6.7505846615622431 -134.00263890777933 0 -134.00263890777933 260.39129087529363 0 0 0 0 -31.240466991777794 -240.99653990281513 0 -240.99653990281513 264.89268063302552 0 0 0 0 170.33239804884761 -233.74230474132764 0 -233.74230474132764 242.99438713348354 0 0 0 0 98.508171572015272 -170.30999343448275 0 -170.30999343448275 190.75095756488736 0 0 0 0 103.80785657075103 -151.08498058715486 0 -151.08498058715486 255.22537044047203 0 0 0 0 120.57856994305166 -124.64998999453746 0 -124.64998999453746 219.45499907297199 0 0 0 0 97.456492462199094 -153.41835279091174 0 -153.41835279091174 254.41536865938906 0 0 0 0 64.316422675237845 -110.43580333403588 0 -110.43580333403588 245.2701008336735 0 0 0 0 26.677719220302023 34.397742379070706 0 34.397742379070706 26.492728832458461 0 0 0 0 127.22424052553106 -114.49019706941181 0 -114.49019706941181 225.3488103926793 0 0 0 0 5.2423313139030192 2.5664847569105831 0 2.5664847569105831 -6.2336619166799494 0 0 0 0 11.723781060433339 8.4868847901907429 0 8.4868847901907429 72.90930860672961 0 0 0 0 27.083396218896269 -46.757026673825749 0 -46.757026673825749 116.06781329488513 0 0 0 0 5.7644487346231728 16.901856255253442 0 16.901856255253442 23.890552435342485 0 0 0 0 134.02608308388153 24.460999164271925 0 24.460999164271925 64.31857710434997 0 0 0 0 12.053199238358502 9.8423316394182621 0 9.8423316394182621 15.24158666250878 0 0 0 0 8.0534909517998372 10.118007925701903 0 10.118007925701903 12.307788304815354 0 0 0 0 137.57409488992744 -222.45334350351914 0 -222.45334350351914 159.1471501932499 0 0 0 0 0.25933383893309525 2.6006286014855959 0 2.6006286014855959 11.29104061247952 0 0 0 0 166.62856536949857 -169.64135310934944 0 -169.64135310934944 253.37807079651247 0 0 0 0 202.20967873849963 -154.67856971823539 0 -154.67856971823539 243.85769037150021 0 0 0 0 131.82501608694474 -130.80740807116672 0 -130.80740807116672 269.00092498120102 0 0 0 0 100.05363608205516 -115.8091904411267 0 -115.8091904411267 266.06314727588688 0 0 0 0 129.75329510978918 -140.79314325667656 0 -140.79314325667656 225.02116528449551 0 0 0 0 98.969854410288463 -124.99108738197174 0 -124.99108738197174 277.41528859153186 0 0 0 0 30.363842847607884 -184.69983126536681 0 -184.69983126536681 166.16757308906108 0 0 0 0 30.903895737797939 -164.44096135212385 0 -164.44096135212385 256.68546006521501 0 0 0 0 94.537367909122622 -158.27262052016886 0 -158.27262052016886 230.15290639387968 0 0 0 0 156.99349411062212 -198.03376707484131 0 -198.03376707484131 221.57470849626407 0 0 0 0 120.7246071967711 -194.80897424703289 0 -194.80897424703289 226.95994950192107 0 0 0 0 99.414273291075006 -165.66237529491264 0 -165.66237529491264 250.5770094067957 0 0 0 0 141.07109810633483 -163.89833302097395 0 -163.89833302097395 227.63440704662935 0 0 0 0 24.878140923237879 27.225969420287583 0 27.225969420287583 223.01437004753097 0 0 0 0 36.770571439278683 7.1965391916528461 0 7.1965391916528461 255.44398680607145 0 0 0 0 64.036871801261441 -3.5637601529342646 0 -3.5637601529342646 255.91537686389347 0 0 0 0 45.365269636395396 21.721586730936906 0 21.721586730936906 232.13487268633617 0 0 0 0 55.550570801754361 17.001204287422297 0 17.001204287422297 195.32580182992388 0 0 0 0 44.672096977936235 9.018864264646254 0 9.018864264646254 214.35083345708699 0 0 0 0 51.370601428397094 15.294509253202705 0 15.294509253202705 209.66226942800859 0 0 0 0 27.534032485781609 32.542728885986435 0 32.542728885986435 219.81187156821761 0 0 0 0 56.54405100306758 24.918451289831864 0 24.918451289831864 198.53713725885609 0 0 0 0 29.396061623637166 31.411031641917361 0 31.411031641917361 199.21541101303592 0 0 0 0 25.522425222308357 21.492793569774221 0 21.492793569774221 158.42464861769986 0 0 0 0 37.99743423010932 6.8687734856939642 0 6.8687734856939642 175.48029635912098 0 0 0 0 135.54184432260354 102.09449109388152 0 102.09449109388152 -10.628249762332416 0 0 0 0 65.209773373298049 51.722285958934663 0 51.722285958934663 218.86315765927702 0 0 0 0 24.095256969011245 -20.775611530977585 0 -20.775611530977585 209.30998976634874 0 0 0 0 118.67243094731703 10.142662153855781 0 10.142662153855781 178.14110905767302 0 0 0 0 57.737764652230908 5.8872779323100985 0 5.8872779323100985 196.65258666104637 0 0 0 0 61.193108620232124 10.46240946668695 0 10.46240946668695 178.18286846780393 0 0 0 0 53.115768969304554 -3.0223837134690257 0 -3.0223837134690257 205.97962890372582 0 0 0 0 8.7238110619455256 -6.7581280167942168 0 -6.7581280167942168 206.15485045553578 0 0 0 0 81.773692188460245 -36.329221925603633 0 -36.329221925603633 189.4039615609654 0 0 0 0 -44.644191907344066 -42.231373251830519 0 -42.231373251830519 204.68019121621182 0 0 0 0 406.40396625491121 1238.2474376906539 0 1238.2474376906539 830.92827070526073 0 0 0 0 8.5810871375604165 47.884330887475699 0 47.884330887475699 157.65647929326224 0 0 0 0 45.324780500019081 41.533530143108464 0 41.533530143108464 23.45259723159419 0 0 0 0 38.385848804814941 15.489609252459559 0 15.489609252459559 166.96259778289823 0 0 0 0 50.954158311841638 -6.6251218580982822 0 -6.6251218580982822 198.18052873148008 0 0 0 0 32.712366783067637 8.9251535235707706 0 8.9251535235707706 203.65739376294368 0 0 0 0 45.37178454829882 15.47562924731028 0 15.47562924731028 225.25325660932867 0 0 0 0 27.80786817986268 2.0838345370029856 0 2.0838345370029856 216.31885165785206 0 0 0 0 21.689823869161046 6.4272343902848661 0 6.4272343902848661 241.57266998056366 0 0 0 0 20.661207788358297 7.1216437387483893 0 7.1216437387483893 252.09839996727533 0 0 0 0 10.466590824061313 -7.8778193470243423 0 -7.8778193470243423 231.02182973821891 0 0 0 0 17.895858424739345 -22.184418763947178 0 -22.184418763947178 253.27838881289426 0 0 0 0 13.332145801968181 -45.785469960905175 0 -45.785469960905175 219.13816424777906 0 0 0 0 59.338744850163948 -33.229111297541749 0 -33.229111297541749 210.57745687848364 0 0 0 0 38.100803840062326 -4.1348740265893866 0 -4.1348740265893866 229.52946345766759 0 0 0 0 50.391886686865178 -11.865255019129791 0 -11.865255019129791 201.73881239952607 0 0 0 0 41.297549151116982 -14.485585386089951 0 -14.485585386089951 205.11781126803544 0 0 0 0 -373.76110701022117 -304.05046996700548 0 -304.05046996700548 1225.3272593643269 0 0 0 0 195.78646874639526 -354.79908607370453 0 -354.79908607370453 -258.36385846781013 0 0 0 0 48.973474041434244 39.738957577968236 0 39.738957577968236 22.520918945932465 0 0 0 0 -245.88399646092876 -1736.1256836389725 0 -1736.1256836389725 748.53286512062186 0 0 0 0 -13.745627650928782 -47.808392664810071 0 -47.808392664810071 393.71336680368404 0 0 0 0 -40.911869561376079 -162.18214127886495 0 -162.18214127886495 440.04203102011888 0 0 0 0 0.38797291327500716 -95.880156011320651 0 -95.880156011320651 435.70868021689603 0 0 0 0 54.363737261150163 -49.836329798607039 0 -49.836329798607039 161.29129836939319 0 0 0 0 37.20474164045406 35.459069385332562 0 35.459069385332562 21.185192174550224 0 0 0 0 12.624980787218988 -14.711021948562006 0 -14.711021948562006 311.86264689530071 0 0 0 0 7.3985292105644476 -61.647991640857072 0 -61.647991640857072 350.74901494111418 0 0 0 0 54.724359752517557 -68.651737435371615 0 -68.651737435371615 362.41989399635349 0 0 0 0 21.791859893136461 -5.4932827790617011 0 -5.4932827790617011 323.47213691225625 0 0 0 0 140.12441039567693 -40.971927822660291 0 -40.971927822660291 -10.244420745642856 0 0 0 0 48.965487244824544 -107.20642275759019 0 -107.20642275759019 219.67709618179651 0 0 0 0 17.25586639351053 -66.453207474902229 0 -66.453207474902229 270.2981457675487 0 0 0 0 -20.401947577164719 -64.708651087395992 0 -64.708651087395992 270.77077290472516 0 0 0 0 12.99149748434138 -175.78545285984546 0 -175.78545285984546 556.31200762084336 0 0 0 0 44.438133360315533 149.87224572478226 0 149.87224572478226 431.19698067078571 0 0 0 0 -26.227852055721087 28.487493228061794 0 28.487493228061794 288.98563989728427 0 0 0 0 -4.4886109990147816 -38.15141901372408 0 -38.15141901372408 306.07654949841526 0 0 0 0 26.020528199918772 -44.978386503709771 0 -44.978386503709771 98.271423934973427 0 0 0 0 35.205831496731662 35.004560158668028 0 35.004560158668028 122.95324508891645 0 0 0 0 14.597164249479647 -42.526549120273557 0 -42.526549120273557 105.61649923807272 0 0 0 0 4.7324406478007326 5.1507679596960259 0 5.1507679596960259 3.0991039408778764 0 0 0 0 10.402831954263092 -38.200786403540405 0 -38.200786403540405 103.70888802018453 0 0 0 0 9.6101428026606754 -21.834144552398875 0 -21.834144552398875 6.8761732397344417 0 0 0 0 -15.897563179118151 -36.731134572793962 0 -36.731134572793962 -40.96462939621415 0 0 0 0 14.536724313824379 -35.535392029036302 0 -35.535392029036302 96.959693887270987 0 0 0 0 15.195512245907594 -41.982630474987673 0 -41.982630474987673 100.5544090120602 0 0 0 0 15.304089998538075 -40.413014253164874 0 -40.413014253164874 38.163431687338743 0 0 0 0 -889.56019221362976 887.60476200171252 0 887.60476200171252 -706.31156422234926 0 0 0 0 12.908132379133795 -46.613328673785787 0 -46.613328673785787 84.489479355836252 0 0 0 0 5.3874780641856432 -6.9735054859056476 0 -6.9735054859056476 13.43949322377695 0 0 0 0 985.53276142107813 -856.93035176799822 0 -856.93035176799822 776.25410519410798 0 0 0 0 94.218145455764812 1014.3086240912698 0 1014.3086240912698 4489.1879961405175 0 0 0 0 1006.595194912738 -1079.8577305550243 0 -1079.8577305550243 994.98020979482681 0 0 0 0 941.00928437054256 -894.94245621003938 0 -894.94245621003938 1022.7226816020557 0 0 0 0 20.989776835889643 -45.97615275294811 0 -45.97615275294811 86.741884354953072 0 0 0 0 19.560961824900915 -40.668478549538122 0 -40.668478549538122 96.917993017239496 0 0 0 0 0.59583190106491912 -4.8217408677552811 0 -4.8217408677552811 19.456706760894576 0 0 0 0 15.057678091280637 -27.514651853563421 0 -27.514651853563421 16.504280389933456 0 0 0 0 -20.125366985851542 -21.214617812154756 0 -21.214617812154756 116.67681024004924 0 0 0 0 -23.283527654911268 -51.105109559321136 0 -51.105109559321136 128.32386229843178 0 0 0 0 22.107987506288737 -24.274771945849352 0 -24.274771945849352 36.67568844082416 0 0 0 0 -16.479048081578185 -18.344258667522809 0 -18.344258667522809 94.677946997886465 0 0 0 0 -14.007940077698549 -62.334181068945327 0 -62.334181068945327 83.90601643629816 0 0 0 0 -604.93170507394939 -138.45177222574239 0 -138.45177222574239 3475.0049546391674 0 0 0 0 -748.6425696053692 -193.14812811026059 0 -193.14812811026059 4490.369077288884 0 0 0 0 -41.690817798868942 918.54101557593458 0 918.54101557593458 4501.4211749051465 0 0 0 0 13.730620722110721 -22.355126784573315 0 -22.355126784573315 12.825801757431201 0 0 0 0 -70.871159374302806 -108.45073822209815 0 -108.45073822209815 -15.821192598672496 0 0 0 0 -233.5935742688057 50.342590418204054 0 50.342590418204054 174.9668238376471 0 0 0 0 33.958443665203959 -92.365042129560607 0 -92.365042129560607 90.144289422791189 0 0 0 0 -79.595605930527199 91.290972898894324 0 91.290972898894324 211.29529098163766 0 0 0 0 -8.7074458545166635 -99.55039477867831 0 -99.55039477867831 266.60606392621412 0 0 0 0 3.3516307237950969 14.079784549685428 0 14.079784549685428 205.05179672393388 0 0 0 0 8.0084724936212321 5.8932282079997265 0 5.8932282079997265 1.2333006923918681 0 0 0 0 12.090508900733198 -27.03465465006866 0 -27.03465465006866 301.1205122847532 0 0 0 0 -43.769833738162561 -71.517350135953166 0 -71.517350135953166 306.31958395164111 0 0 0 0 -0.61638165246963439 0.70521163828915689 0 0.70521163828915689 0.16433565403583827 0 0 0 0 -14.514632108967817 -14.201409149366555 0 -14.201409149366555 251.54641136255668 0 0 0 0 6.1265073039762683 -9.0431564410619103 0 -9.0431564410619103 239.20958932223584 0 0 0 0 4.6817680913077311 -10.737180251551763 0 -10.737180251551763 249.98754865833325 0 0 0 0 0.39754216650817398 -12.4599846097517 0 -12.4599846097517 252.5825907487249 0 0 0 0 49.247783430012987 26.943511245983245 0 26.943511245983245 256.00380082360061 0 0 0 0 3.5213580340304702 12.819737128344968 0 12.819737128344968 288.93949424140737 0 0 0 0 56.027888723443539 -62.432572571917262 0 -62.432572571917262 177.80478213042261 0 0 0 0 277.11070555512561 161.55427910698927 0 161.55427910698927 -246.59506147564389 0 0 0 0 -22.39506641996968 4.1049500438894029 0 4.1049500438894029 195.86214797676075 0 0 0 0 17.130717951929043 4.2851557985098339 0 4.2851557985098339 9.9828387810628705 0 0 0 0 12.414219936500764 6.8840202368277801 0 6.8840202368277801 0.38948481730489171 0 0 0 0 -92.62606999626837 137.72152951793032 0 137.72152951793032 287.8473154228268 0 0 0 0 -122.26118928584356 47.813757243020518 0 47.813757243020518 -50.52116053228383 0 0 0 0 -146.5392175350712 41.99785112633981 0 41.99785112633981 175.22582218622847 0 0 0 0 -95.987594096470957 -104.2664840629368 0 -104.2664840629368 172.0460747571924 0 0 0 0 45.627315157693687 614.35747073549283 0 614.35747073549283 5337.7171782210135 0 0 0 0 206.91172361390036 -513.03114515552443 0 -513.03114515552443 -447.43571677580258 0 0 0 0 5.1026559185560796 -8.0457554928408825 0 -8.0457554928408825 7.3965201180813622 0 0 0 0 808.21876631120426 -1193.3018429103395 0 -1193.3018429103395 4501.6514798786484 0 0 0 0 -104.01989004779017 -271.5766598042901 0 -271.5766598042901 3580.7553913590964 0 0 0 0 200.40409920797066 -913.67167682693616 0 -913.67167682693616 546.07382699272421 0 0 0 0 45.106056859220672 -938.48642654193645 0 -938.48642654193645 2969.4509768415301 0 0 0 0 -64.389839561421468 39.003687404008815 0 39.003687404008815 772.83556536539982 0 0 0 0 286.43242396767198 -198.36370190184971 0 -198.36370190184971 659.5677189368871 0 0 0 0 205.09807514120979 200.84789284970066 0 200.84789284970066 365.48850937586394 0 0 0 0 -5.3225602414459843 -283.66359312802888 0 -283.66359312802888 663.86309276100837 0 0 0 0 459.16117349152671 -378.63407504561383 0 -378.63407504561383 683.27417848417826 0 0 0 0 164.48178500099397 95.770626180099498 0 95.770626180099498 1188.6918554704243 0 0 0 0 -690.34234722653605 -515.83006665224457 0 -515.83006665224457 4499.7856363825995 0 0 0 0 352.26588478201319 -739.49675757489968 0 -739.49675757489968 1514.9976082157955 0 0 0 0 -503.48288986456299 351.06229581722437 0 351.06229581722437 3724.698835701427 0 0 0 0 -44.504717759472371 794.76970550526312 0 794.76970550526312 1781.4008305025418 0 0 0 0 118.62410937193518 1459.7925347786622 0 1459.7925347786622 4492.1147709755387 0 0 0 0 18.331618488423871 -26.415823330216952 0 -26.415823330216952 46.446625422533089 0 0 0 0 -5.1912115048604051 35.969017397694302 0 35.969017397694302 11.543462524971211 0 0 0 0 -89.250545203076399 -36.492977407478975 0 -36.492977407478975 148.49788651992276 0 0 0 0 34.365858918958168 311.42330027338539 0 311.42330027338539 228.77302984352718 0 0 0 0 3.8036801082425882 82.170068067589455 0 82.170068067589455 352.02752595317725 0 0 0 0 -1.5439363567003159 6.5330889481404313 0 6.5330889481404313 13.477959219891375 0 0 0 0 33.9855429205777 -10.878644815966254 0 -10.878644815966254 325.02642234939412 0 0 0 0 14.287141682361835 27.01864645594469 0 27.01864645594469 255.18652540522362 0 0 0 0 17.227367337784017 58.288591880365857 0 58.288591880365857 238.76634113530508 0 0 0 0 8.2465967110820202 26.710720956660225 0 26.710720956660225 267.0210967422172 0 0 0 0 117.59110635550223 -47.811049351828842 0 -47.811049351828842 25.150085597861107 0 0 0 0 50.661792166980376 -89.621814136997273 0 -89.621814136997273 10.293855747982889 0 0 0 0 8.4231225830228329 -8.9614086321179141 0 -8.9614086321179141 7.2446707349021722 0 0 0 0 66.371448964245445 -5.7901016332916697 0 -5.7901016332916697 -26.983441247488372 0 0 0 0 3.0544134743828049 -14.796614613219621 0 -14.796614613219621 26.666439609615729 0 0 0 0 14.298092676888157 -57.439364945063019 0 -57.439364945063019 44.968687078029134 0 0 0 0 32.461422807936515 -27.85581278093855 0 -27.85581278093855 101.71891687413611 0 0 0 0 11.556440453034606 -76.17988513503353 0 -76.17988513503353 142.94957131309869 0 0 0 0 19.210414336600024 -62.521314249003808 0 -62.521314249003808 141.10803533953208 0 0 0 0 -1.8788612152736732 -31.130916307486814 0 -31.130916307486814 141.16890485180647 0 0 0 0 21.802980442020271 -59.9637717811313 0 -59.9637717811313 121.8046272900076 0 0 0 0 18.868431577717502 -25.761852477171715 0 -25.761852477171715 89.879284481703507 0 0 0 0 54.658147454146729 -44.516322907840276 0 -44.516322907840276 91.341283232352907 0 0 0 0 3.4136694730366344 -37.963926601266166 0 -37.963926601266166 95.22195140135409 0 0 0 0 2.7151938296384763 -52.327742471119024 0 -52.327742471119024 38.45113200736246 0 0 0 0 25.101979104181282 -56.838253042692031 0 -56.838253042692031 66.648647548156305 0 0 0 0 -25.00156415006677 -88.997436328012554 0 -88.997436328012554 142.72009897676071 0 0 0 0 -24.821904063296188 -14.209507382638549 0 -14.209507382638549 219.13742218686457 0 0 0 0 -29.431459947394615 -16.867004058050952 0 -16.867004058050952 223.15125595434984 0 0 0 0 60.582161198760332 54.550817894694774 0 54.550817894694774 252.72273189745465 0 0 0 0 -28.935364995730524 10.173117145450419 0 10.173117145450419 313.33121506019597 0 0 0 0 -44.980978070946776 -54.491158442634969 0 -54.491158442634969 268.61731160444469 0 0 0 0 10.635544776116149 -33.074201148025168 0 -33.074201148025168 250.4802240407862 0 0 0 0 0.23472507431920242 3.3942368838563439 0 3.3942368838563439 2.7809332188433871 0 0 0 0 15.330700873642854 17.360372279585135 0 17.360372279585135 506.00223637727322 0 0 0 0 206.33023577380209 -253.56263171364481 0 -253.56263171364481 271.6797078866548 0 0 0 0 69.134568773682076 9.4067175751551986 0 9.4067175751551986 258.46684658104459 0 0 0 0 205.8834295677554 88.234420775614808 0 88.234420775614808 300.0799961964658 0 0 0 0 193.83712475640419 -96.113602049903761 0 -96.113602049903761 317.25520005566068 0 0 0 0 71.216530648909611 -12.173596626056678 0 -12.173596626056678 260.59313628733798 0 0 0 0 -0.10846282780767069 -27.382114654463294 0 -27.382114654463294 366.77787270743283 0 0 0 0 7.397642995667411 12.204606844446971 0 12.204606844446971 294.46989930018754 0 0 0 0 1.8849332848149061 -45.634598124885088 0 -45.634598124885088 545.15366924189948 0 0 0 0 78.216426964587157 180.61105716787392 0 180.61105716787392 299.16413560850197 0 0 0 0 20.919506505735626 -11.861354766337172 0 -11.861354766337172 300.98349216229326 0 0 0 0 -3.0505133882303426 -4.401606618923779 0 -4.401606618923779 307.23341360461927 0 0 0 0 2.4462184465182872 -10.547658795741881 0 -10.547658795741881 293.19244959399293 0 0 0 0 6.5138314400337549 -23.386607124322836 0 -23.386607124322836 324.83389951669233 0 0 0 0 6.7611052116135397 -18.396322208109268 0 -18.396322208109268 344.36845144681502 0 0 0 0 25.492442177132965 32.10100478629996 0 32.10100478629996 20.537694156993425 0 0 0 0 5.0265732553962152 35.967192948375668 0 35.967192948375668 222.94798109024123 0 0 0 0 11.396899980621448 29.502009634165951 0 29.502009634165951 16.251174503242083 0 0 0 0 178.32433057531807 212.19948541321264 0 212.19948541321264 42.945995301313815 0 0 0 0 -91.276629432853042 -51.053973516729457 0 -51.053973516729457 283.94434210082181 0 0 0 0 -19.216745787765831 -107.88920846740075 0 -107.88920846740075 202.80837331379735 0 0 0 0 501.4776465606501 -92.444617179819033 0 -92.444617179819033 192.50762589788428 0 0 0 0 21.894486322944587 -17.932743790193818 0 -17.932743790193818 72.475142827108357 0 0 0 0 93.883848493144797 20.340157477892717 0 20.340157477892717 40.62454884581166 0 0 0 0 -1.1249641951599187 12.651212054461212 0 12.651212054461212 296.91215299392388 0 0 0 0 -96.224519332015916 -48.843006290751873 0 -48.843006290751873 315.63994518166146 0 0 0 0 -1.6912529758344732 14.383079386755611 0 14.383079386755611 40.280914187776091 0 0 0 0 -13.966739990582937 -9.0632992884420673 0 -9.0632992884420673 168.20787296258641 0 0 0 0 -2.038800423196335 -59.071859833758936 0 -59.071859833758936 258.9528326364707 0 0 0 0 0.079709177191489289 -150.2154415939649 0 -150.2154415939649 333.21559804759454 0 0 0 0 0.85859260261334569 -9.1287247783088219 0 -9.1287247783088219 21.987966666781247 0 0 0 0 36.592683561309101 -57.357090192711496 0 -57.357090192711496 24.873875378054471 0 0 0 0 -54.360826388396163 -47.193386769402423 0 -47.193386769402423 126.89264800284036 0 0 0 0 116.2016588446059 -116.43019007156181 0 -116.43019007156181 -8.6188722471033543 0 0 0 0 71.948418843244326 -53.532993278442518 0 -53.532993278442518 161.11432790145045 0 0 0 0 -1.1361454830748698 -22.546942837660026 0 -22.546942837660026 81.122068093674898 0 0 0 0 18.605860377633963 -27.274508282568029 0 -27.274508282568029 57.146503129752723 0 0 0 0 51.541932391431544 46.809102743339281 0 46.809102743339281 -17.117266222259786 0 0 0 0 19.643726804116568 -41.574587048099133 0 -41.574587048099133 87.858710009341777 0 0 0 0 2.1680705969222007 -2.1439960801218803 0 -2.1439960801218803 6.7271908479681599 0 0 0 0 135.11610657702477 -359.03274656779467 0 -359.03274656779467 403.81192234758055 0 0 0 0 12.658626707830081 176.98446505038737 0 176.98446505038737 714.24564203918271 0 0 0 0 214.73394511983861 -189.27122054632491 0 -189.27122054632491 -40.466227925149724 0 0 0 0 24.963143294678957 -194.72948241577978 0 -194.72948241577978 -37.624120013628271 0 0 0 0 -90.073510247353624 -125.52252216579564 0 -125.52252216579564 165.40337952050322 0 0 0 0 376.36164218083059 -154.17590638066395 0 -154.17590638066395 52.643210400325188 0 0 0 0 264.79151402128809 61.663538973014511 0 61.663538973014511 35.831897857045988 0 0 0 0 7.2720395091300816 0.11843403330567526 0 0.11843403330567526 9.3827199819788802 0 0 0 0 2.3327634750039579 21.406031143756991 0 21.406031143756991 3.2126157518014224 0 0 0 0 0.1891898560060703 -1.3847045079089355 0 -1.3847045079089355 6.1883714845608786 0 0 0 0 20.022670613626385 -52.710762232087689 0 -52.710762232087689 38.698018496450914 0 0 0 0 0.65002870245159206 10.956235727887339 0 10.956235727887339 40.024352637608558 0 0 0 0 96.91384988729078 -47.35671845793695 0 -47.35671845793695 -146.27361345544341 0 0 0 0 27.816537646065512 -55.766088432159449 0 -55.766088432159449 205.24322082971867 0 0 0 0 -1.48794698830568 -87.42265100257282 0 -87.42265100257282 87.975673756598553 0 0 0 0 29.642771016565142 -55.697604253021474 0 -55.697604253021474 24.42816984182145 0 0 0 0 18.641125013540773 -19.224401218772982 0 -19.224401218772982 178.67445211212544 0 0 0 0 -48.952807539001014 -40.890102229883269 0 -40.890102229883269 206.72106557022926 0 0 0 0 200.85825643882191 -892.2185117589288 0 -892.2185117589288 3251.8779781716439 0 0 0 0 -0.60251699700278505 13.274559036567524 0 13.274559036567524 12.410378025853149 0 0 0 0 -111.84348509942299 54.49396462445111 0 54.49396462445111 1699.3231712130364 0 0 0 0 -298.38037328301306 -448.8952777034574 0 -448.8952777034574 4501.665302310379 0 0 0 0 -80.930673981491623 83.078645172427059 0 83.078645172427059 12.133015123778023 0 0 0 0 347.62632214362742 -450.77709740925093 0 -450.77709740925093 421.49345766822444 0 0 0 0 569.80002144102093 139.09318461063503 0 139.09318461063503 -255.12860193329834 0 0 0 0 -5.694189807687561 -128.81460817058451 0 -128.81460817058451 215.56553287207862 0 0 0 0 58.835630112908859 -107.62374957688007 0 -107.62374957688007 14.432711467326953 0 0 0 0 430.16826912468491 -1432.2659522353711 0 -1432.2659522353711 4498.6437458931305 0 0 0 0 -79.900610007762694 -54.230233978783872 0 -54.230233978783872 274.0195635594464 0 0 0 0 -13.543683177284047 184.49916618992575 0 184.49916618992575 5.57383585952266 0 0 0 0 -0.75712133205136478 4.5127840018600693 0 4.5127840018600693 8.9472810562756067 0 0 0 0 666.68588922300103 -942.46240407486766 0 -942.46240407486766 1150.4443461237679 0 0 0 0 -170.49732710544254 255.60296156481672 0 255.60296156481672 813.61260066174145 0 0 0 0 -234.27614259667706 -245.0593108669982 0 -245.0593108669982 4470.547512721103 0 0 0 0 -831.05522505866486 457.59843245976299 0 457.59843245976299 4492.3634158091863 0 0 0 0 1.3000870160836187 0.78635879737366632 0 0.78635879737366632 12.66170862405643 0 0 0 0 781.00870869309813 1742.0521212635949 0 1742.0521212635949 2146.0902083957535 0 0 0 0 0.64992626159529543 333.63304517878657 0 333.63304517878657 2095.6278393656594 0 0 0 0 -270.97656268560763 -458.59358723470314 0 -458.59358723470314 2189.9083840985786 0 0 0 0 -215.852002599912 188.16442568633903 0 188.16442568633903 -12.976120292534574 0 0 0 0 4.5073661845215991 14.928417394123732 0 14.928417394123732 17.947501891371431 0 0 0 0 -72.240338855863229 -3.384884679921015 0 -3.384884679921015 204.5116717318565 0 0 0 0 7.91170358894954 0.99154157738940218 0 0.99154157738940218 28.261635421678491 0 0 0 0 248.81350138800985 -447.97111671886614 0 -447.97111671886614 355.45066722711636 0 0 0 0 7.2730875141403315 9.1934059419846115 0 9.1934059419846115 33.383907643867865 0 0 0 0 25.239476190787059 3.3588497040564107 0 3.3588497040564107 86.287710702520599 0 0 0 0 -76.442574997442989 -22.78162584135265 0 -22.78162584135265 116.32589774834526 0 0 0 0 38.685807218561649 -15.783929443564015 0 -15.783929443564015 109.16020280315939 0 0 0 0 -53.308062462970383 -71.916066013480233 0 -71.916066013480233 84.355922435461054 0 0 0 0 -3.1142220030119798 -0.76558579830676188 0 -0.76558579830676188 31.609261124347338 0 0 0 0 6.0094969660376183 -21.720659779836996 0 -21.720659779836996 84.753362809190691 0 0 0 0 -116.98268572700363 -84.001742505619433 0 -84.001742505619433 153.13848467480068 0 0 0 0 24.193345481152221 -49.568137789720609 0 -49.568137789720609 287.05539594038106 0 0 0 0 -2.6919523459760866 -25.006781875858348 0 -25.006781875858348 184.57380593265651 0 0 0 0 -7.5511938194008508 -34.552715587671969 0 -34.552715587671969 279.98976315566051 0 0 0 0 -23.551515225344676 -31.960008832774456 0 -31.960008832774456 290.66307419622512 0 0 0 0 -14.024226148473872 -42.970472622611453 0 -42.970472622611453 299.77902426064452 0 0 0 0 11.295685957877692 -4.6038210594051314 0 -4.6038210594051314 -1.4558499819935307 0 0 0 0 21.054361454044283 -60.656385897294058 0 -60.656385897294058 140.0356890185335 0 0 0 0 25.048535731840275 -2.3566635727038374 0 -2.3566635727038374 123.92969274706786 0 0 0 0 3.6332300071932107 -4.6115729258293294 0 -4.6115729258293294 5.1395689967030158 0 0 0 0 -54.940604080195072 -203.74394801146772 0 -203.74394801146772 312.4432057713417 0 0 0 0 -0.39779449137631673 -64.689181491530917 0 -64.689181491530917 169.67370617333677 0 0 0 0 5.5381441843129977 -4.8659672648275265 0 -4.8659672648275265 -6.7732615345378155 0 0 0 0 96.094497082894065 -163.8913120886431 0 -163.8913120886431 246.61976088261028 0 0 0 0 -143.33526488260679 -202.76527325036815 0 -202.76527325036815 360.54588676415023 0 0 0 0 343.75547409158605 -331.42632277630491 0 -331.42632277630491 240.91190686717079 0 0 0 0 95.895957521511448 -155.60299437423711 0 -155.60299437423711 116.21997937028657 0 0 0 0 -332.37392504512411 49.064019305141017 0 49.064019305141017 344.80305724899637 0 0 0 0 -171.24490815833144 -213.70034834161112 0 -213.70034834161112 725.05854990615524 0 0 0 0 139.7113161765979 -1613.3870635552603 0 -1613.3870635552603 4498.63608389005 0 0 0 0 1.7821057025071134 5.3792960996606656 0 5.3792960996606656 11.288191686365741 0 0 0 0 -300.86857075143621 393.02778334320681 0 393.02778334320681 4491.5428495018514 0 0 0 0 204.69358322875053 897.3418987839101 0 897.3418987839101 12.052688156573936 0 0 0 0 96.958106967697887 -604.01823774094623 0 -604.01823774094623 1130.5640079994103 0 0 0 0 256.9371004735068 -1383.9599981104279 0 -1383.9599981104279 4522.1312483794336 0 0 0 0 0.21122008711521767 2.481486559352728 0 2.481486559352728 11.046283405536506 0 0 0 0 14.460064535516267 -13.251543225419482 0 -13.251543225419482 30.055960107918509 0 0 0 0 144.6235872500759 163.30715302244738 0 163.30715302244738 806.77282227438116 0 0 0 0 1244.896543984607 1771.2827734956827 0 1771.2827734956827 2851.2884687798146 0 0 0 0 695.29163630653352 2552.153139152786 0 2552.153139152786 4494.9999112370097 0 0 0 0 -12.914065409913222 0.82124119624659642 0 0.82124119624659642 13.177378256274938 0 0 0 0 2898.7815023539988 3358.7603822493184 0 3358.7603822493184 2861.0067470517643 0 0 0 0 -0.024411120908900141 2.5304854669346293 0 2.5304854669346293 5.3023412493195821 0 0 0 0 14.417471154684335 -13.999660863734789 0 -13.999660863734789 26.174718785916411 0 0 0 0 1.7537524608537804 -82.201560368595892 0 -82.201560368595892 4483.4802561742927 0 0 0 0 6.4871922570022234 -4.4865723025464703 0 -4.4865723025464703 11.944545221205422 0 0 0 0 14.181401538398404 -11.87593189002655 0 -11.87593189002655 29.620662838934095 0 0 0 0 -3.0787993414939798 -8.0217377507602201 0 -8.0217377507602201 32.910281163491057 0 0 0 0 13.812575029851814 -11.559378249434303 0 -11.559378249434303 31.761744886663109 0 0 0 0 2.6523296599842556 -6.9886829062131568 0 -6.9886829062131568 13.666091478001242 0 0 0 0 -3.8107767519047684 -24.922605944515908 0 -24.922605944515908 56.472998959638062 0 0 0 0 -53.67450023423703 15.704613422843067 0 15.704613422843067 91.847576969092188 0 0 0 0 -56.834031177953534 28.259181346358218 0 28.259181346358218 36.784854627439927 0 0 0 0 -80.497057866151181 -8.1877939582350336 0 -8.1877939582350336 67.177401677166927 0 0 0 0 -7.8718098636584912 -9.4639101564736166 0 -9.4639101564736166 66.607027938167164 0 0 0 0 9.4900951487204566 -33.73010109071032 0 -33.73010109071032 102.00409344194213 0 0 0 0 -34.53251308870108 2.2358151582320716 0 2.2358151582320716 60.432308046991238 0 0 0 0 -55.839496526855783 6.8004077046098246 0 6.8004077046098246 75.716481298820213 0 0 0 0 -51.044286507235256 3.1383803791845821 0 3.1383803791845821 67.729608461668249 0 0 0 0 -51.956595894791917 5.0604808138614317 0 5.0604808138614317 75.622311199616888 0 0 0 0 17.112218286705701 -6.625563528047671 0 -6.625563528047671 -6.234977120152803 0 0 0 0 22.875260689059985 -23.685733030798929 0 -23.685733030798929 37.358782019995488 0 0 0 0 0.016271699544853524 0.23811360467628262 0 0.23811360467628262 15.495731535333386 0 0 0 0 21.161865865823643 -17.334860668793226 0 -17.334860668793226 35.577917421117945 0 0 0 0 16.218692316330372 -12.672853999247495 0 -12.672853999247495 5.4864652451801961 0 0 0 0 12.879712159603514 -45.832317811370785 0 -45.832317811370785 130.23750741093227 0 0 0 0 20.991436631848046 -28.063844551487136 0 -28.063844551487136 66.876972603366994 0 0 0 0 31.03856742377593 -50.169975385087128 0 -50.169975385087128 95.887801168760689 0 0 0 0 62.837381341973924 -95.361276052067524 0 -95.361276052067524 155.31149468635431 0 0 0 0 27.627953167746455 -23.501342680853668 0 -23.501342680853668 161.52409184927356 0 0 0 0 -0.7538158564693731 -16.267216758865743 0 -16.267216758865743 97.3801553232488 0 0 0 0 34.346959746612811 -31.441320751952844 0 -31.441320751952844 80.451212984714402 0 0 0 0 -5.325024070377367 -20.791111783891665 0 -20.791111783891665 67.387777024157458 0 0 0 0 22.713396515387558 -16.635653384626721 0 -16.635653384626721 64.916823991226011 0 0 0 0 -6.9699322556175005 -11.731362758656243 0 -11.731362758656243 83.818390575212447 0 0 0 0 -28.884396767197359 1.6057629508927675 0 1.6057629508927675 74.997547628465782 0 0 0 0 -28.057894165963489 -4.7199208962467765 0 -4.7199208962467765 102.26446693179423 0 0 0 0 -7.8157769360011091 -4.1480649456014183 0 -4.1480649456014183 71.573334657206232 0 0 0 0 3.0731003828295798 -13.378407667623378 0 -13.378407667623378 66.884735187620322 0 0 0 0 -16.678957205754614 -17.465269025205998 0 -17.465269025205998 67.698678059718077 0 0 0 0 -60.267658177923295 16.613092549856447 0 16.613092549856447 57.367123301242827 0 0 0 0 -78.2632396498866 -19.381977435743465 0 -19.381977435743465 98.061645159810723 0 0 0 0 -45.169926748433681 21.39437736385139 0 21.39437736385139 53.800303790721955 0 0 0 0 -52.638300004222344 26.741474058906761 0 26.741474058906761 53.210572865724316 0 0 0 0 -13.139671101801923 19.38942670870756 0 19.38942670870756 34.865243707265108 0 0 0 0 -50.798520361803639 5.8921211189299356 0 5.8921211189299356 68.966648627821996 0 0 0 0 -75.830427379666617 19.130245697979262 0 19.130245697979262 74.471762788240085 0 0 0 0 -51.612809430290326 22.421387309474085 0 22.421387309474085 47.322497328252211 0 0 0 0 -86.237381121742146 57.575835562296561 0 57.575835562296561 23.904377081838902 0 0 0 0 3.8320994012698693 -14.988506688164037 0 -14.988506688164037 38.928312168805668 0 0 0 0 -6.5279605607748632 7.4674839023833464 0 7.4674839023833464 7.2820108443363409 0 0 0 0 -91.870304610561561 14.140366973150776 0 14.140366973150776 -13.758931851989473 0 0 0 0 -92.540153816904422 98.921656065322168 0 98.921656065322168 -18.387334870666677 0 0 0 0 -0.37567196859564866 -3.6790335029568411 0 -3.6790335029568411 8.3760137384639464 0 0 0 0 7.4728610536622 1.047280422584663 0 1.047280422584663 118.96244607940025 0 0 0 0 -112.9806555190969 139.32853553261066 0 139.32853553261066 -78.570180124492254 0 0 0 0 -115.47437783473924 37.414755041361786 0 37.414755041361786 104.79857272614345 0 0 0 0 -124.5577033790687 81.41417453948452 0 81.41417453948452 36.913540040928638 0 0 0 0 -82.535810890339462 17.99364215903995 0 17.99364215903995 68.352342154881626 0 0 0 0 0.24184301021474219 -0.14910454361203662 0 -0.14910454361203662 -0.55107768428781867 0 0 0 0 -7.3714475517858773 47.895433997673535 0 47.895433997673535 101.22078382982363 0 0 0 0 -140.94301260294606 -161.09848917178124 0 -161.09848917178124 387.47990717815992 0 0 0 0 10.749216350938696 5.9966649572734241 0 5.9966649572734241 89.419648670442257 0 0 0 0 18.747725921889923 26.700846271475712 0 26.700846271475712 59.764427418958803 0 0 0 0 13.902393133671467 28.221034673568283 0 28.221034673568283 101.76444734686993 0 0 0 0 47.416942906612803 37.994269737493141 0 37.994269737493141 62.616882813726988 0 0 0 0 -11.675717686189728 52.496147528327128 0 52.496147528327128 144.65117014320003 0 0 0 0 -0.41644557468634957 86.876725669762891 0 86.876725669762891 154.41141317102665 0 0 0 0 -161.02792947918442 78.809763601831946 0 78.809763601831946 201.85084930780067 0 0 0 0 -66.271466175889145 6.1229756940010702 0 6.1229756940010702 84.058521637708509 0 0 0 0 -129.81711589496126 126.43321401172034 0 126.43321401172034 110.27706994323853 0 0 0 0 -134.51883322197671 115.92189530042606 0 115.92189530042606 175.8364123856154 0 0 0 0 -8.5857028329977343 15.098353181151097 0 15.098353181151097 180.82170705378877 0 0 0 0 -22.737120585434866 -14.866906412160461 0 -14.866906412160461 216.88384073694579 0 0 0 0 -24.333626957201979 -5.823028511661505 0 -5.823028511661505 224.83103674809536 0 0 0 0 -12.010055125904557 -42.461416066110402 0 -42.461416066110402 61.956293306604913 0 0 0 0 -8.4933465777943962 0.41863368128804268 0 0.41863368128804268 44.241988415597518 0 0 0 0 -204.14228255252601 74.075462798049557 0 74.075462798049557 133.47660661883128 0 0 0 0 -121.03367159914183 -127.69897891604069 0 -127.69897891604069 170.4749772183568 0 0 0 0 -33.721950364511827 -100.94224648636555 0 -100.94224648636555 261.14344458559935 0 0 0 0 -59.580622542269793 -0.2866862066603062 0 -0.2866862066603062 95.329922682975848 0 0 0 0 -21.265823315742864 -42.921373453934848 0 -42.921373453934848 -26.188864418734738 0 0 0 0 -83.147736666439414 -92.796725506659641 0 -92.796725506659641 -24.42227129954415 0 0 0 0 291.10603184457432 -171.81990349930129 0 -171.81990349930129 -191.89534589143295 0 0 0 0 99.709544051122975 93.187656736879035 0 93.187656736879035 119.54957048364122 0 0 0 0 5.7834618829517526 -10.984827476949029 0 -10.984827476949029 22.800393989032756 0 0 0 0 282.66309521263611 -168.45995363984184 0 -168.45995363984184 -3.9405653907278975 0 0 0 0 -44.884015239747896 69.034981439261173 0 69.034981439261173 190.45059682912324 0 0 0 0 4.0865013019542857 -1.877473617472198 0 -1.877473617472198 -0.36214113504226475 0 0 0 0 261.08478931674017 -228.76405457069995 0 -228.76405457069995 164.34832708223075 0 0 0 0 38.942687801388274 -122.65962834262245 0 -122.65962834262245 113.68243975162477 0 0 0 0 20.545749699200314 21.48470723243372 0 21.48470723243372 5.7215233909864764 0 0 0 0 -106.96263400846237 -57.242062021372476 0 -57.242062021372476 143.40830284178082 0 0 0 0 20.343660735095909 28.898323606477788 0 28.898323606477788 84.486745812580921 0 0 0 0 277.89488239180463 17.335605121797698 0 17.335605121797698 66.105584841599921 0 0 0 0 -12.951743515473687 14.022538234098143 0 14.022538234098143 36.126981691084524 0 0 0 0 135.0938115323388 -102.43136862724714 0 -102.43136862724714 92.034838263956772 0 0 0 0 45.323009971451484 -37.374105246843101 0 -37.374105246843101 46.098652766009764 0 0 0 0 11.348496349048673 -105.57945288642259 0 -105.57945288642259 126.22906549372783 0 0 0 0 48.019053590718613 -85.013713457648919 0 -85.013713457648919 136.10942519185119 0 0 0 0 39.299405911975327 -126.80121791167403 0 -126.80121791167403 132.53372824868711 0 0 0 0 47.381914349225497 -105.62333158978799 0 -105.62333158978799 119.7177943848983 0 0 0 0 -1.9672379183839439 -120.67777499373187 0 -120.67777499373187 168.48062337032206 0 0 0 0 -46.484557070992906 -36.556614487488332 0 -36.556614487488332 98.085577273817762 0 0 0 0 -5.0763794171361951 -65.211637870892446 0 -65.211637870892446 203.19569350907659 0 0 0 0 -2.7415631016714315 -114.67512317023284 0 -114.67512317023284 192.07889143694047 0 0 0 0 -0.82005221213557888 -11.520175769761408 0 -11.520175769761408 191.07408720322201 0 0 0 0 -16.741010068925846 -35.866957899107319 0 -35.866957899107319 167.56321366786142 0 0 0 0 -3.6120370032533167 26.676583008192274 0 26.676583008192274 44.478349910067841 0 0 0 0 11.672017260528264 -56.756199239335729 0 -56.756199239335729 118.6767477440153 0 0 0 0 -0.955398799829144 4.1674453803020981 0 4.1674453803020981 101.81862958607962 0 0 0 0 9.3636050278942093 22.812430577564555 0 22.812430577564555 92.0418146403008 0 0 0 0 -10.360166592649525 -12.797512678966484 0 -12.797512678966484 30.952645347607113 0 0 0 0 0.59559689011924821 3.6113622667561955 0 3.6113622667561955 13.965156173782589 0 0 0 0 -161.4678492212322 54.911144936475466 0 54.911144936475466 34.229014179250953 0 0 0 0 -9.3662228194498702 7.0765604345230315 0 7.0765604345230315 14.648558813001209 0 0 0 0 -12.598854600425966 6.6890420822192027 0 6.6890420822192027 59.028977038426092 0 0 0 0 -7.3145087117104524 21.357886807484594 0 21.357886807484594 36.56108334152978 0 0 0 0 -12.797717757492137 7.3532500226738193 0 7.3532500226738193 65.715328101578052 0 0 0 0 13.667158187422046 7.9407381482596975 0 7.9407381482596975 60.791594073816668 0 0 0 0 -14.373311414593331 2.1494290011396515 0 2.1494290011396515 78.813878727156407 0 0 0 0 -16.102219161148241 7.4842799791586003 0 7.4842799791586003 62.463631831697967 0 0 0 0 14.24354162809054 50.161493246402621 0 50.161493246402621 91.571941016036362 0 0 0 0 14.36532648983848 5.9753714844591741 0 5.9753714844591741 24.300944701637491 0 0 0 0 -10.957742496834534 -8.8271366777738791 0 -8.8271366777738791 16.693999024270077 0 0 0 0 198.6261292283254 1222.6684651528394 0 1222.6684651528394 3297.2078390309362 0 0 0 0 146.74279538386577 1418.8077710807052 0 1418.8077710807052 3554.5240472432561 0 0 0 0 -116.20176485262684 1543.5604680272927 0 1543.5604680272927 4500.4493678675226 0 0 0 0 533.05566966990875 2013.3106709243266 0 2013.3106709243266 4007.9963296688547 0 0 0 0 361.1945614097159 1691.2649922100409 0 1691.2649922100409 3524.6176886871699 0 0 0 0 242.29461124756347 903.11613358016075 0 903.11613358016075 3766.6404777150274 0 0 0 0 -9.0337327764598072 448.49981274724769 0 448.49981274724769 4185.8404015878514 0 0 0 0 89.791139007337236 208.75041071518172 0 208.75041071518172 2133.2592029040516 0 0 0 0 -186.92106774440506 1131.0238341896293 0 1131.0238341896293 3752.4875491002604 0 0 0 0 -208.08618295522245 1052.1110867940438 0 1052.1110867940438 4499.3820703445672 0 0 0 0 459.25914636937893 309.01676469661288 0 309.01676469661288 4498.8454847085159 0 0 0 0 250.68052660664566 781.90804667949578 0 781.90804667949578 3778.5414400319496 0 0 0 0 1059.713240703782 1112.479878039092 0 1112.479878039092 3853.0590619613286 0 0 0 0 1424.8256193027471 224.21449748634404 0 224.21449748634404 2806.1530179532328 0 0 0 0 17.719279992574997 -462.42345554832991 0 -462.42345554832991 3187.8529632603895 0 0 0 0 -556.40961224995226 -435.86533571593463 0 -435.86533571593463 4500.3376556576968 0 0 0 0 -573.93541394866918 -1146.085443520371 0 -1146.085443520371 1890.3309779331394 0 0 0 0 -2167.353454252609 335.25869013798911 0 335.25869013798911 2134.0177177844307 0 0 0 0 166.39274193551677 469.37725013209695 0 469.37725013209695 -0.22943813415622571 0 0 0 0 163.19924247683116 556.11416635633702 0 556.11416635633702 3772.514130222291 0 0 0 0 -577.70827332531849 -986.06651652394248 0 -986.06651652394248 2600.0267364729225 0 0 0 0 0.87617993956440987 7.3101340948282534 0 7.3101340948282534 18.897721247142783 0 0 0 0 -584.17995216619011 2890.9994578864716 0 2890.9994578864716 1053.2713537354757 0 0 0 0 378.207519263054 1867.6078216242768 0 1867.6078216242768 1908.1543840429586 0 0 0 0 265.66833971371375 -311.96269839803608 0 -311.96269839803608 142.9444625959095 0 0 0 0 1.434963715909058 -4.3762371962138609 0 -4.3762371962138609 30.462432766898303 0 0 0 0 -19.10427530066503 -22.1783584827092 0 -22.1783584827092 530.57294986458874 0 0 0 0 -1.0988748951696197 0.86669703245786422 0 0.86669703245786422 -0.60437597820218514 0 0 0 0 244.85248111631768 -896.86206998666967 0 -896.86206998666967 -1132.6028939429161 0 0 0 0 -114.3281382102914 -316.79028641187233 0 -316.79028641187233 2029.9600006949404 0 0 0 0 140.50383433106927 990.04979852770703 0 990.04979852770703 1659.1123767096724 0 0 0 0 -610.68987497005128 1248.8756152450387 0 1248.8756152450387 3935.1199406448868 0 0 0 0 1101.5018898225894 2543.9868990174036 0 2543.9868990174036 1721.8923672665042 0 0 0 0 50.942926265697963 -558.98866543858821 0 -558.98866543858821 2324.8384067496736 0 0 0 0 -694.15021460133562 -348.41819903948999 0 -348.41819903948999 4500.9954307483058 0 0 0 0 -685.73676950594358 601.54887652842808 0 601.54887652842808 2780.4557378031022 0 0 0 0 -800.91066767306256 -313.77491405862384 0 -313.77491405862384 1296.2815312707744 0 0 0 0 -684.79231552636213 962.70899996764183 0 962.70899996764183 4488.6552137812541 0 0 0 0 21.530450208841273 2028.5987444904804 0 2028.5987444904804 634.17819955645973 0 0 0 0 0.18285831185072454 4.8242674760279272 0 4.8242674760279272 20.725497034863366 0 0 0 0 -610.16483715149911 -2229.8001923907432 0 -2229.8001923907432 4492.6501464090225 0 0 0 0 -0.43971089390295659 12.016637447760829 0 12.016637447760829 39.995877477663043 0 0 0 0 -1525.2209268488014 512.36560573423048 0 512.36560573423048 826.28677294518275 0 0 0 0 -675.31622151337524 -367.53189935016053 0 -367.53189935016053 728.84855532456368 0 0 0 0 -3.7593937328594418 -0.40182361620209406 0 -0.40182361620209406 3.5969202865903185 0 0 0 0 -675.64821653747276 -278.55544841938354 0 -278.55544841938354 1276.0797080704215 0 0 0 0 -178.25950952014864 -517.98050257307113 0 -517.98050257307113 2391.326197339873 0 0 0 0 236.87550579632762 -190.72306768519047 0 -190.72306768519047 780.09069053229905 0 0 0 0 -6.239069431382628 -0.16464196763696748 0 -0.16464196763696748 5.3350976024503183 0 0 0 0 235.38395529624586 -214.86019719081617 0 -214.86019719081617 1780.0972662446657 0 0 0 0 169.02804905215407 -171.50160470828268 0 -171.50160470828268 1227.6403116999645 0 0 0 0 277.72392914967793 -489.30355204642819 0 -489.30355204642819 962.01345043649781 0 0 0 0 231.11872120806106 -507.87847582520044 0 -507.87847582520044 1569.6258579703645 0 0 0 0 123.14463620841752 -7.4838427329887054 0 -7.4838427329887054 940.740341565368 0 0 0 0 377.48984845906523 -171.7788335528312 0 -171.7788335528312 964.34278981175157 0 0 0 0 357.72738047024905 -161.47871015501187 0 -161.47871015501187 1030.7914994104722 0 0 0 0 268.7756116240372 -342.01972846294302 0 -342.01972846294302 1222.7462339277845 0 0 0 0 229.27711642696624 -142.50092300934557 0 -142.50092300934557 523.99695313238044 0 0 0 0 91.727129710989402 -83.91913379541802 0 -83.91913379541802 636.91924104704958 0 0 0 0 48.997922922038697 -28.692618137658428 0 -28.692618137658428 1181.294656592705 0 0 0 0 -511.33677775505873 215.37296765587416 0 215.37296765587416 1333.4276893795504 0 0 0 0 72.674547287888004 28.919244560397601 0 28.919244560397601 34.634186172443151 0 0 0 0 18.539603482934353 -21.569868477265118 0 -21.569868477265118 605.7737475607646 0 0 0 0 -8.2132987885856892 -292.86188953222882 0 -292.86188953222882 -123.60300762026236 0 0 0 0 139.72243694811891 -65.227613581922924 0 -65.227613581922924 -50.853147888985404 0 0 0 0 97.689263658866366 -65.698555515758926 0 -65.698555515758926 76.113724589326011 0 0 0 0 227.95108941168098 -29.057103444023596 0 -29.057103444023596 61.975146265860531 0 0 0 0 166.5192459807979 -87.096249114681996 0 -87.096249114681996 515.8049718306911 0 0 0 0 0.21902921567998715 0.35877246153250653 0 0.35877246153250653 10.402908808500939 0 0 0 0 83.978578038062096 31.703378578742559 0 31.703378578742559 37.362054007942788 0 0 0 0 29.143673509939561 87.738759535657209 0 87.738759535657209 40.397328611972625 0 0 0 0 275.52872317954478 -24.46759075560476 0 -24.46759075560476 -33.806148151794332 0 0 0 0 171.08753457609635 -285.08512628344761 0 -285.08512628344761 542.40115491608231 0 0 0 0 0.2568257119278885 -0.10668798658787093 0 -0.10668798658787093 4.439169446794466 0 0 0 0 -65.195914029643518 -64.123752604531546 0 -64.123752604531546 68.902025643819798 0 0 0 0 -43.060327995728585 -33.446725078551026 0 -33.446725078551026 100.78982204592467 0 0 0 0 110.21849358387522 -183.39575642840646 0 -183.39575642840646 165.6778514213438 0 0 0 0 -202.1906078351426 -40.168999154321682 0 -40.168999154321682 111.88280236199353 0 0 0 0 -14.483693103572477 -17.572181560841273 0 -17.572181560841273 12.414075142860383 0 0 0 0 -407.75192856700278 -767.19165865423201 0 -767.19165865423201 1072.3008466776719 0 0 0 0 3.3808209938767444 -18.404725832262759 0 -18.404725832262759 72.025045553541702 0 0 0 0 -299.6746612047807 813.27730150737625 0 813.27730150737625 2480.352174476599 0 0 0 0 533.58036435698523 670.57896884014554 0 670.57896884014554 421.98029507636966 0 0 0 0 -370.53925517812991 -487.93107752827564 0 -487.93107752827564 -13.66237794934932 0 0 0 0 7.3275050971087508 -28.012880878999383 0 -28.012880878999383 91.325343887204156 0 0 0 0 -128.1748605946982 -68.093792471989218 0 -68.093792471989218 67.29884285200751 0 0 0 0 -65.516837903557416 -71.804066492077254 0 -71.804066492077254 57.750653144981698 0 0 0 0 -32.514482887629129 -36.037804836692885 0 -36.037804836692885 39.285942976272509 0 0 0 0 -43.029990097746918 -33.56686421230188 0 -33.56686421230188 38.891067173932242 0 0 0 0 -76.264002972603066 -24.990363978102323 0 -24.990363978102323 61.870819271703112 0 0 0 0 -43.09570656317203 -48.294818720658441 0 -48.294818720658441 78.680147269118606 0 0 0 0 -54.964567943668811 -9.7566094054200221 0 -9.7566094054200221 58.07009816858772 0 0 0 0 -31.03657127041447 -28.786439086582504 0 -28.786439086582504 2.6032917408883804 0 0 0 0 -61.745906442916748 -25.226077988581892 0 -25.226077988581892 5.3052289231509349 0 0 0 0 12.860279205541815 -127.68170781689832 0 -127.68170781689832 -65.102251037507813 0 0 0 0 3.0103000990482656 -1.7952291327320467 0 -1.7952291327320467 0.73833090666035162 0 0 0 0 -27.324786240850017 -176.84373015691926 0 -176.84373015691926 219.6375186435871 0 0 0 0 -72.079043304004244 -79.221246524006347 0 -79.221246524006347 53.235639008438739 0 0 0 0 -124.74367986799575 -124.37149223829601 0 -124.37149223829601 129.92576030539567 0 0 0 0 10.933290102457695 -33.73935990757748 0 -33.73935990757748 100.8025425965229 0 0 0 0 -321.23163962287163 -316.53590320256444 0 -316.53590320256444 20.588608403122635 0 0 0 0 -95.359231377135984 -6.3923262420157698 0 -6.3923262420157698 147.2591281246232 0 0 0 0 -106.02362528775075 -5.1377810036719893 0 -5.1377810036719893 166.44098066882543 0 0 0 0 -108.48515799029292 -16.676451542425184 0 -16.676451542425184 154.64286616125537 0 0 0 0 -21.770411378148246 17.298784073496272 0 17.298784073496272 44.493154003575498 0 0 0 0 -6.8027345338798568 -10.275625431459048 0 -10.275625431459048 22.903826007810494 0 0 0 0 -87.343832758946292 -1.9622126218575886 0 -1.9622126218575886 139.09850603690575 0 0 0 0 -75.590116315262264 31.56621367525554 0 31.56621367525554 185.2636122253025 0 0 0 0 7.1771257374680317 101.85824704243169 0 101.85824704243169 28.403614185687616 0 0 0 0 -15.875800862423148 38.707537202319145 0 38.707537202319145 76.78575935230856 0 0 0 0 21.96826639356857 85.173295110364961 0 85.173295110364961 -13.425311009312281 0 0 0 0 -64.367363671915655 77.54364189197986 0 77.54364189197986 200.24309019695102 0 0 0 0 -122.15140022045955 -32.566831991532126 0 -32.566831991532126 538.68743221068144 0 0 0 0 -93.399759818706571 54.072001136397375 0 54.072001136397375 381.91478265342448 0 0 0 0 118.63325898405924 -11.836620417796439 0 -11.836620417796439 203.28231712484194 0 0 0 0 164.29200146518463 15.992159701422679 0 15.992159701422679 -11.364810299717647 0 0 0 0 -53.923873370031714 -20.328716646795328 0 -20.328716646795328 15.808855958573986 0 0 0 0 -0.62072173906805217 0.91731737573150074 0 0.91731737573150074 13.397029167006679 0 0 0 0 -1.7060709840277624 -1.4693247727407766 0 -1.4693247727407766 2.7103653825784875 0 0 0 0 157.0148390949139 24.587713091510523 0 24.587713091510523 1.9827807389810914 0 0 0 0 178.46527899225867 -70.921382407283545 0 -70.921382407283545 -30.622930140118115 0 0 0 0 62.30561275569994 21.542784638117155 0 21.542784638117155 63.552205494321242 0 0 0 0 -1.02522040044596 -109.21715425289949 0 -109.21715425289949 -14.397375429362 0 0 0 0 73.626528256998427 -61.381632209569943 0 -61.381632209569943 7.5210837665072177 0 0 0 0 5.0390994459206695 -183.90818683778343 0 -183.90818683778343 -43.585347654392535 0 0 0 0 -95.719532057639299 -116.96032929408102 0 -116.96032929408102 4.7815228901772571 0 0 0 0 -34.851358083432615 -119.67724364122478 0 -119.67724364122478 4.6285114874444844 0 0 0 0 7.3817823746041462 -34.377232018326119 0 -34.377232018326119 110.47057705271236 0 0 0 0 0.3090086008220343 -8.074837374593649 0 -8.074837374593649 53.10395107036183 0 0 0 0 -1.7846077139008685 -38.657636105795973 0 -38.657636105795973 101.28529531310687 0 0 0 0 -1.1103371638003665 -5.7804123002443362 0 -5.7804123002443362 18.266067497505006 0 0 0 0 -11.085340630050268 -97.105901069004176 0 -97.105901069004176 -26.741061620959954 0 0 0 0 24.788321901813788 24.287967163516441 0 24.287967163516441 78.83163541364047 0 0 0 0 58.805769154311974 -192.23300270446634 0 -192.23300270446634 -46.221856906102403 0 0 0 0 -1.4028389033906117 4.5287083914255462 0 4.5287083914255462 13.284146281370937 0 0 0 0 -79.756742234113972 41.36663933302043 0 41.36663933302043 30.722490195683349 0 0 0 0 -122.89973408874911 25.049553686153558 0 25.049553686153558 18.073517119730241 0 0 0 0 -129.16277373039043 71.827154988364782 0 71.827154988364782 16.488519224611082 0 0 0 0 -31.134098731474751 51.099255007931788 0 51.099255007931788 -49.051460412199958 0 0 0 0 -145.04544172891019 84.991158934615669 0 84.991158934615669 -50.263196805397456 0 0 0 0 0.054506828471143742 2.5992384291740471 0 2.5992384291740471 -0.73578903347370783 0 0 0 0 -269.2943837006618 104.37777914855542 0 104.37777914855542 -15.206221495594946 0 0 0 0 -117.34327119027012 4.0632664713157283 0 4.0632664713157283 106.29442291115993 0 0 0 0 -107.21508413874176 0.84503868798492476 0 0.84503868798492476 96.207833496082458 0 0 0 0 -118.63036842533802 22.9410844647864 0 22.9410844647864 101.50951366929803 0 0 0 0 -117.5495208730656 18.049839865721879 0 18.049839865721879 79.919139067074866 0 0 0 0 -126.83548849122167 37.693322363515108 0 37.693322363515108 75.391868577207788 0 0 0 0 -100.23127892444609 20.269496366374369 0 20.269496366374369 85.816193564613059 0 0 0 0 -56.658857203820617 17.084388862487685 0 17.084388862487685 52.467512598464964 0 0 0 0 -101.36697167777578 27.353071925870609 0 27.353071925870609 65.600076465940219 0 0 0 0 -75.869469914932324 9.0380772064891062 0 9.0380772064891062 78.708261813066201 0 0 0 0 -102.42837855286962 4.241962790962134 0 4.241962790962134 78.26193951735695 0 0 0 0 -1.228073952327132 -11.28799387908721 0 -11.28799387908721 65.734368702334848 0 0 0 0 -54.422734726472754 5.9470832094630168 0 5.9470832094630168 62.879854830614931 0 0 0 0 -72.934893629191038 -101.81265939330478 0 -101.81265939330478 29.811534668286185 0 0 0 0 -75.578751425647994 10.909086119295807 0 10.909086119295807 64.911638331184804 0 0 0 0 -58.738873318529443 3.9876340199284641 0 3.9876340199284641 60.640043806284666 0 0 0 0 -0.97422826799221252 1.6900315412179694 0 1.6900315412179694 22.686309718817085 0 0 0 0 -15.806522149667671 -20.811506188446401 0 -20.811506188446401 53.131866065516078 0 0 0 0 -116.90285816307596 -24.499003831802838 0 -24.499003831802838 56.501240659543328 0 0 0 0 8.0704133052249745 -146.07131936094993 0 -146.07131936094993 -24.564342171535827 0 0 0 0 -2.8117823511467903 -9.980582005340743 0 -9.980582005340743 14.496917424618943 0 0 0 0 335.2008465527515 -20.067247994142235 0 -20.067247994142235 -100.34180763893346 0 0 0 0 169.52816088360896 265.27850019130165 0 265.27850019130165 191.63850105738675 0 0 0 0 -0.0050837224966739925 -0.52643067699443336 0 -0.52643067699443336 4.1693411324767453 0 0 0 0 -172.27802777760303 -3.963047703869961 0 -3.963047703869961 509.71343194606015 0 0 0 0 -51.687416696713171 -24.685809692709881 0 -24.685809692709881 133.47076645514608 0 0 0 0 58.91184492108232 121.50401148694982 0 121.50401148694982 110.37797509296797 0 0 0 0 -35.938581395323126 39.895244487255695 0 39.895244487255695 64.182248599343438 0 0 0 0 -35.722202464439704 48.167180597116158 0 48.167180597116158 350.34227783899405 0 0 0 0 42.60480690901386 -72.686351563072094 0 -72.686351563072094 173.16144541071117 0 0 0 0 -41.336023575818217 246.59214763231648 0 246.59214763231648 177.05971426239194 0 0 0 0 32.985181545258911 177.44537319781739 0 177.44537319781739 0.95229923502483871 0 0 0 0 -47.579548537499022 -104.077988304266 0 -104.077988304266 19.876459089013224 0 0 0 0 -69.223238877239737 -14.856201262724426 0 -14.856201262724426 69.937672714848304 0 0 0 0 -96.395173655072654 -16.843965358088099 0 -16.843965358088099 79.215366531789186 0 0 0 0 -110.90194406844421 -41.775272347869759 0 -41.775272347869759 66.494906776199059 0 0 0 0 -105.1665130289457 -32.055610225288547 0 -32.055610225288547 61.707522571130539 0 0 0 0 -2.278406846056761 -6.5991034814562326 0 -6.5991034814562326 54.854499767604239 0 0 0 0 -62.510870202938577 -34.576177258530379 0 -34.576177258530379 369.82542374935292 0 0 0 0 -111.60912280107732 -41.721745268831 0 -41.721745268831 67.28538245652453 0 0 0 0 -111.78276221976603 -43.452536760421935 0 -43.452536760421935 58.303495120664593 0 0 0 0 -121.35492862228784 -41.920496972539695 0 -41.920496972539695 74.335722677438753 0 0 0 0 -110.95991177392352 -36.051822968028432 0 -36.051822968028432 73.863466471811989 0 0 0 0 -120.23602579917724 -30.594007504550973 0 -30.594007504550973 83.018965272944115 0 0 0 0 -121.62235105062473 -32.864112066643429 0 -32.864112066643429 80.332107249458204 0 0 0 0 -122.38913029892547 -45.29739455257004 0 -45.29739455257004 63.607531763322186 0 0 0 0 -133.24137901531867 -41.539428533164028 0 -41.539428533164028 87.053670317447541 0 0 0 0 -135.89750849797838 -25.23967763013934 0 -25.23967763013934 102.50058320291282 0 0 0 0 -119.72953779233535 -12.727770097066241 0 -12.727770097066241 95.328003136164625 0 0 0 0 -118.60937265171492 -10.871988084316399 0 -10.871988084316399 98.384513432974927 0 0 0 0 -48.553476371923352 37.703770158241241 0 37.703770158241241 99.695248854372039 0 0 0 0 -26.764584691901746 69.613269466666679 0 69.613269466666679 77.448254367897789 0 0 0 0 -33.784725528782815 6.882871870573581 0 6.882871870573581 98.535570209969592 0 0 0 0 0.43788407797060813 -2.039143524965084 0 -2.039143524965084 98.104224436843651 0 0 0 0 6.0472024226381222 39.970892563974758 0 39.970892563974758 91.670991495426279 0 0 0 0 -11.696494220602744 18.172204858637997 0 18.172204858637997 140.34750268684729 0 0 0 0 7.7373306562217294 16.039927811034431 0 16.039927811034431 70.162507141780225 0 0 0 0 -4.7983010501050671 60.966207959162602 0 60.966207959162602 22.518751046460238 0 0 0 0 1.8637028366588311 62.786890661816869 0 62.786890661816869 21.230214873401565 0 0 0 0 -9.9482260728436813 62.363017104224127 0 62.363017104224127 90.655757393906242 0 0 0 0 -14.518623495856446 11.870015280233929 0 11.870015280233929 68.501686058567429 0 0 0 0 -24.502052051523606 20.980560869080364 0 20.980560869080364 21.85892642752151 0 0 0 0 76.803423994988464 40.445722922954701 0 40.445722922954701 -97.790077075409499 0 0 0 0 -7.2086240451055721 29.197298515600707 0 29.197298515600707 38.584289600710264 0 0 0 0 -74.36665833731098 169.54090664291471 0 169.54090664291471 4.6990158519802208 0 0 0 0 -0.36637275454118157 3.2540601862703511 0 3.2540601862703511 -4.5393717091108101 0 0 0 0 -91.747986528031106 67.244352143901779 0 67.244352143901779 86.776608892691002 0 0 0 0 20.73652497103194 44.082675881589239 0 44.082675881589239 -3.4498815183833358 0 0 0 0 -0.58803524868750401 30.609406930501791 0 30.609406930501791 66.189231191878207 0 0 0 0 -39.551307403255123 130.14733649759 0 130.14733649759 26.750630547649735 0 0 0 0 -15.136217884916665 28.829834133860309 0 28.829834133860309 27.266320844021386 0 0 0 0 26.457510090313008 -21.931229199650261 0 -21.931229199650261 19.807253604769357 0 0 0 0 93.364536984359347 15.51019827055643 0 15.51019827055643 40.759156110587355 0 0 0 0 55.588564899532429 29.01898360928999 0 29.01898360928999 43.196203030223842 0 0 0 0 201.98785412697566 197.01213291624299 0 197.01213291624299 207.38265987310297 0 0 0 0 -6.0029623066034219 33.464509713201551 0 33.464509713201551 158.94732719315289 0 0 0 0 -0.94912878262607592 13.262433464671631 0 13.262433464671631 174.19158903622883 0 0 0 0 59.785028402082133 62.428883447894805 0 62.428883447894805 78.961998684884747 0 0 0 0 21.943347875797485 -121.35757727383134 0 -121.35757727383134 134.74291382898082 0 0 0 0 -10.301737335709959 13.595893266650819 0 13.595893266650819 377.58199123961458 0 0 0 0 2.3670812495727205 -3.4062328519758012 0 -3.4062328519758012 136.91229366246262 0 0 0 0 40.396228457369034 -61.07600078536052 0 -61.07600078536052 150.92612549224577 0 0 0 0 51.334305083174741 -27.233698637894122 0 -27.233698637894122 -0.87693007796042366 0 0 0 0 -8.3669360675055486 14.019280906057247 0 14.019280906057247 12.51911639532409 0 0 0 0 12.624043112657773 -4.1239817892146675 0 -4.1239817892146675 46.789921215509821 0 0 0 0 71.758824264777786 -2.4227392120919831 0 -2.4227392120919831 46.838492531285738 0 0 0 0 25.673531959207196 14.302757297482458 0 14.302757297482458 10.30862337724102 0 0 0 0 1.4913978481179129 -7.0329892549762008 0 -7.0329892549762008 55.369130228365975 0 0 0 0 -22.983119701633314 -26.267035214510543 0 -26.267035214510543 247.81665054072073 0 0 0 0 -0.094502701508076825 0.35543466458656781 0 0.35543466458656781 0.38205874287454478 0 0 0 0 25.106470784878866 -2.6691265642912185 0 -2.6691265642912185 123.70908385503571 0 0 0 0 0.0078729047052705781 0.73295346875745793 0 0.73295346875745793 -0.65708157821942592 0 0 0 0 -18.154018795117395 1.2356709909017809 0 1.2356709909017809 193.16894186876743 0 0 0 0 -7.5405510485072682 35.6357549384702 0 35.6357549384702 114.21772224926099 0 0 0 0 -0.22800007408523015 -28.712834240173834 0 -28.712834240173834 125.73440052243586 0 0 0 0 7.9112935188022675 8.8381146201263618 0 8.8381146201263618 31.230320200666029 0 0 0 0 -2.7972603532954281 18.408766948507036 0 18.408766948507036 67.627095832693158 0 0 0 0 7.160036544094055 19.3573235538679 0 19.3573235538679 74.687124496547767 0 0 0 0 11.905212147151815 14.89616076569655 0 14.89616076569655 65.59822308665025 0 0 0 0 -1.971804215119846 -8.3806046130612231 0 -8.3806046130612231 69.645609753508325 0 0 0 0 0.26700569517947148 0.1997514364446431 0 0.1997514364446431 16.678533473770376 0 0 0 0 0.27429810870671645 15.154757866679574 0 15.154757866679574 93.653983078023884 0 0 0 0 2.2071328672955133 0.94572786046046531 0 0.94572786046046531 83.284606284123583 0 0 0 0 0.59627769104975892 21.490347247698388 0 21.490347247698388 54.833089771508227 0 0 0 0 -8.1817892777180532 28.150585292893084 0 28.150585292893084 125.30572487895188 0 0 0 0 -0.37215495933297937 -0.28904419677149562 0 -0.28904419677149562 21.870016503387518 0 0 0 0 3.753697556307543 34.790555866167779 0 34.790555866167779 30.003649232749012 0 0 0 0 -11.894039697829044 25.809177263132597 0 25.809177263132597 55.55938077141036 0 0 0 0 -0.14288923637650441 30.704804210006841 0 30.704804210006841 56.320085586368805 0 0 0 0 -1.0503605122506277 19.326206672528638 0 19.326206672528638 55.310263048094455 0 0 0 0 -13.451192424139037 38.076798369083463 0 38.076798369083463 51.177284371296992 0 0 0 0 -1.4432235643735112 26.343237538629182 0 26.343237538629182 42.057412276661125 0 0 0 0 -5.6193822002051093 21.152036780280469 0 21.152036780280469 67.356765804775932 0 0 0 0 -22.529839987488685 7.1596297490468714 0 7.1596297490468714 122.20983703535512 0 0 0 0 11.146228958047686 23.083683831373492 0 23.083683831373492 37.340982814850577 0 0 0 0 17.072580981569217 -3.6989563123061089 0 -3.6989563123061089 88.737221406758181 0 0 0 0 -19.292763479031919 50.083016936348031 0 50.083016936348031 66.182870160992024 0 0 0 0 -2.3466556691921658 24.497404760159075 0 24.497404760159075 47.841826267342988 0 0 0 0 -36.677727283984495 65.873085348746827 0 65.873085348746827 72.603180406145839 0 0 0 0 -47.844539449446984 40.014875184722769 0 40.014875184722769 77.011869928202941 0 0 0 0 -3.4930445841637265 25.851209025102435 0 25.851209025102435 25.515150884049945 0 0 0 0 -76.769485025381073 65.085322241508038 0 65.085322241508038 -134.1268834161292 0 0 0 0 -10.174878683334345 2.3868002611599195 0 2.3868002611599195 35.510097534096481 0 0 0 0 -1.3942520267151144 0.47569853982962229 0 0.47569853982962229 4.2258873473778422 0 0 0 0 -1.0209772308062384 37.077768108050805 0 37.077768108050805 54.477289966511307 0 0 0 0 -9.2241522076246838 22.247886767037926 0 22.247886767037926 80.163893264341823 0 0 0 0 1.6775804598505601 14.385352215456805 0 14.385352215456805 83.339087912925606 0 0 0 0 -0.31292897611984394 3.4247698323923714 0 3.4247698323923714 2.853342188931471 0 0 0 0 -14.198685033036668 6.6711247820571771 0 6.6711247820571771 64.599003685936623 0 0 0 0 93.386734892204458 85.789284817867156 0 85.789284817867156 -252.88651054029287 0 0 0 0 8.7606989261721537 19.496910303554614 0 19.496910303554614 63.85434165215338 0 0 0 0 -52.593400881396065 18.660778395180387 0 18.660778395180387 -87.586298468380846 0 0 0 0 -94.270521105937462 63.842107121067784 0 63.842107121067784 -46.822628220874321 0 0 0 0 12.712724768776525 68.864153377797265 0 68.864153377797265 -94.43183758785608 0 0 0 0 -38.193282130923222 142.10660213814299 0 142.10660213814299 60.410719466468436 0 0 0 0 19.079518603833549 2.5030090305563135 0 2.5030090305563135 -30.092807166465718 0 0 0 0 151.11494906299549 -92.990990804169996 0 -92.990990804169996 -289.73446884582199 0 0 0 0 -65.002899610726445 95.383730598835427 0 95.383730598835427 -46.369670339445292 0 0 0 0 8.6906802468938622 9.2190359058022295 0 9.2190359058022295 76.184735543760326 0 0 0 0 2.1216052585803098 1.7501611079247397 0 1.7501611079247397 -0.92088878954945041 0 0 0 0 2.3060176414312537 21.642114553715146 0 21.642114553715146 108.61933095677887 0 0 0 0 12.35876819236023 25.157661753062712 0 25.157661753062712 81.27656961134926 0 0 0 0 12.274401325054896 27.347437380642077 0 27.347437380642077 73.453689245012356 0 0 0 0 8.1693459532535826 18.809664118814453 0 18.809664118814453 74.82307268261502 0 0 0 0 7.74813063831607 28.698479688733642 0 28.698479688733642 76.530085814171457 0 0 0 0 3.172396999427292 20.930314310911854 0 20.930314310911854 64.09037948367768 0 0 0 0 0.29446534891421727 10.38713762562017 0 10.38713762562017 22.98547324843004 0 0 0 0 4.1795187076613729 19.949808240073253 0 19.949808240073253 79.002904448831032 0 0 0 0 5.3307624806584499 44.289185671124869 0 44.289185671124869 65.532659466477071 0 0 0 0 2.6012149994385254 27.635971549816531 0 27.635971549816531 73.984862990375404 0 0 0 0 4.0746496981359996 34.109401081790566 0 34.109401081790566 94.874301228886907 0 0 0 0 4.7465350857942212 12.60130143913193 0 12.60130143913193 87.662804658098139 0 0 0 0 -4.6885121958239324 15.593051187997844 0 15.593051187997844 76.56919293797182 0 0 0 0 0.71300558170742079 24.327804512558941 0 24.327804512558941 83.513087453538901 0 0 0 0 0.99680953882852918 48.344688821191085 0 48.344688821191085 77.73089649846429 0 0 0 0 2.9960025746813166 2.2584665456117055 0 2.2584665456117055 10.120410403893811 0 0 0 0 14.455902842742944 4.2812173317179258 0 4.2812173317179258 52.157761643989943 0 0 0 0 27.880194794795898 55.021896818673667 0 55.021896818673667 89.199093634381711 0 0 0 0 -12.165836377377962 -15.638652923880823 0 -15.638652923880823 25.186195460410595 0 0 0 0 14.564437118235361 -16.55661251478233 0 -16.55661251478233 62.183168867964469 0 0 0 0 49.516623367683678 11.308138124813922 0 11.308138124813922 31.188487333931334 0 0 0 0 12.355550140853666 -19.48947169497842 0 -19.48947169497842 96.765425144477376 0 0 0 0 16.76674140526984 -26.392587926555279 0 -26.392587926555279 53.527284428630082 0 0 0 0 -4.5872385631759087 -22.283749757310392 0 -22.283749757310392 24.842698092704879 0 0 0 0 24.787231022891774 35.267345896199913 0 35.267345896199913 52.558204026086699 0 0 0 0 13.21501576835135 -0.54351160785972752 0 -0.54351160785972752 53.571032799381101 0 0 0 0 -24.507321599538272 48.516301868645655 0 48.516301868645655 144.24793014715578 0 0 0 0 -0.14955031124831741 -1.3345814177065893 0 -1.3345814177065893 0.66250577757808626 0 0 0 0 -53.667276562875486 40.356322811481732 0 40.356322811481732 153.3812233271567 0 0 0 0 0.56468554442851371 -1.9232455396446309 0 -1.9232455396446309 -0.43260518029728523 0 0 0 0 11.225306997829648 36.337006690794169 0 36.337006690794169 93.800067650392293 0 0 0 0 3.0559307349644769 -11.921152295936167 0 -11.921152295936167 84.923373139457226 0 0 0 0 0.58155719195656275 7.8496749389270235 0 7.8496749389270235 103.18647919940122 0 0 0 0 2.6129030373926181 -22.266054441042041 0 -22.266054441042041 46.98707260090567 0 0 0 0 -22.928699996877185 -33.890607498902682 0 -33.890607498902682 140.36136202276612 0 0 0 0 -27.414628302923006 -26.026265842346675 0 -26.026265842346675 167.35118239083022 0 0 0 0 -5.1714079193548059 -15.87442445112174 0 -15.87442445112174 157.13512698213253 0 0 0 0 -34.118580828298036 -12.767604001327527 0 -12.767604001327527 158.84988180513847 0 0 0 0 11.52686426878924 15.507763804197054 0 15.507763804197054 115.15574234346786 0 0 0 0 114.83874486666264 34.149251643073512 0 34.149251643073512 67.265646592436042 0 0 0 0 1.21527816641043 0.49732638092486781 0 0.49732638092486781 0.044960726712337973 0 0 0 0 -6.0210878756165584 42.726286759344475 0 42.726286759344475 159.37487329002579 0 0 0 0 51.620512855474772 -139.90050758458165 0 -139.90050758458165 -77.615679397067197 0 0 0 0 18.796144801514401 -70.627375379419391 0 -70.627375379419391 100.08535957363893 0 0 0 0 -3.6707365399902301 -179.18029285621378 0 -179.18029285621378 93.65501156846949 0 0 0 0 -19.854561125185342 -95.877061166026976 0 -95.877061166026976 210.69666829285052 0 0 0 0 -22.421203197710099 -132.24785833881566 0 -132.24785833881566 161.2341795704051 0 0 0 0 -98.248163681063488 -50.57558725896979 0 -50.57558725896979 300.38985205927747 0 0 0 0 44.445648840890499 -152.81596535269455 0 -152.81596535269455 259.22839671155089 0 0 0 0 -24.623936682089152 -25.318103521341982 0 -25.318103521341982 175.43582907052587 0 0 0 0 -87.974136470329995 -18.232892293172881 0 -18.232892293172881 176.39602075335461 0 0 0 0 -4.1328951351764944 13.545686610857544 0 13.545686610857544 164.01918820718498 0 0 0 0 -116.31275396505043 0.72796067212675553 0 0.72796067212675553 177.2074990760305 0 0 0 0 -2.7391544865389283 17.073564382308533 0 17.073564382308533 171.45838695217137 0 0 0 0 -57.740220819376304 19.306577740888315 0 19.306577740888315 198.3235568807122 0 0 0 0 -202.43655724732571 68.050838686393035 0 68.050838686393035 218.05861147066071 0 0 0 0 -131.5581308906967 39.568934992674258 0 39.568934992674258 162.78263340044214 0 0 0 0 -78.093555564536672 -11.781376463982099 0 -11.781376463982099 578.88605925345837 0 0 0 0 -77.765180990910721 -14.296198023563193 0 -14.296198023563193 216.94941688290419 0 0 0 0 -63.934070101711313 115.49928653008283 0 115.49928653008283 204.94396791009967 0 0 0 0 -133.75138737720562 41.019008887958535 0 41.019008887958535 323.26827830474576 0 0 0 0 9.2927849912721285 95.870314233775389 0 95.870314233775389 213.60783899145463 0 0 0 0 88.713737828355079 141.27675934061153 0 141.27675934061153 234.76188394956989 0 0 0 0 118.89743809414222 86.039537422271678 0 86.039537422271678 175.72250135299055 0 0 0 0 68.777291740083911 51.033477516736639 0 51.033477516736639 155.94156935823776 0 0 0 0 205.56669061358957 312.03529258693015 0 312.03529258693015 755.44521241592884 0 0 0 0 294.83431228978543 -356.85119478861634 0 -356.85119478861634 716.9025607266293 0 0 0 0 763.7114830127141 -251.83109018910363 0 -251.83109018910363 180.35746039841979 0 0 0 0 2.5530501344170213 -3.6983524744880043 0 -3.6983524744880043 7.5979393569558908 0 0 0 0 5.8276567279208393 86.859824041712272 0 86.859824041712272 30.461864778544623 0 0 0 0 -3.9103867882097507 -434.2689460091085 0 -434.2689460091085 43.57758061196364 0 0 0 0 5.2178641730961868 -3.9338130820036028 0 -3.9338130820036028 1.9503941310768056 0 0 0 0 -122.71908517263307 120.78704288234076 0 120.78704288234076 247.96240895014535 0 0 0 0 -210.91988549468164 70.510388093126494 0 70.510388093126494 563.17830130534639 0 0 0 0 -196.79213911512807 -1.0507723812279437 0 -1.0507723812279437 823.13696273429832 0 0 0 0 -82.683934204074404 82.253598368069163 0 82.253598368069163 306.58044129244081 0 0 0 0 224.96822755073299 368.46252425257262 0 368.46252425257262 569.89475545963069 0 0 0 0 -82.986644164746508 89.810681168013616 0 89.810681168013616 308.48829852630843 0 0 0 0 -11.570934278974562 23.696595375418838 0 23.696595375418838 180.93277190356821 0 0 0 0 49.073032855081237 196.07492631040896 0 196.07492631040896 166.7291423558836 0 0 0 0 145.31071889671875 89.11015138645962 0 89.11015138645962 182.32976299098846 0 0 0 0 171.29877403597595 14.347807939499944 0 14.347807939499944 -20.705420863072504 0 0 0 0 273.38424621334252 -206.61416768270828 0 -206.61416768270828 122.56189851060844 0 0 0 0 57.94823309063861 -70.021803995565051 0 -70.021803995565051 372.71468975223979 0 0 0 0 637.74646310897788 -9.3401258135609169 0 -9.3401258135609169 195.29313492516667 0 0 0 0 -0.088754438678314437 87.263784810056677 0 87.263784810056677 323.10248644346575 0 0 0 0 76.604799133257671 -61.818378892550754 0 -61.818378892550754 102.91365578281693 0 0 0 0 33.342553489498094 -145.76390136082046 0 -145.76390136082046 182.6949041611806 0 0 0 0 -14.574068743758659 -106.23678412957815 0 -106.23678412957815 329.94576222778414 0 0 0 0 28.16560827327487 -164.52340670396006 0 -164.52340670396006 304.4651633030735 0 0 0 0 -0.17758909148371776 -6.1142277029143575 0 -6.1142277029143575 85.348595910977565 0 0 0 0 -424.31121535529007 -45.895561584497045 0 -45.895561584497045 520.73918195842998 0 0 0 0 -13.150107243423236 -9.5642839279898908 0 -9.5642839279898908 87.577225812514371 0 0 0 0 -5.0097220950784731 65.209928710144595 0 65.209928710144595 -75.281585281587468 0 0 0 0 68.123023663592903 -204.0615235013247 0 -204.0615235013247 105.51141814488801 0 0 0 0 74.089687755471175 -116.83756991664995 0 -116.83756991664995 -54.206970414350508 0 0 0 0 -57.942653599404593 0.19001121888868511 0 0.19001121888868511 82.740310318187767 0 0 0 0 -1.7251310850790276 166.61240539131541 0 166.61240539131541 -145.58021216359339 0 0 0 0 -262.91646772342654 103.12006691493298 0 103.12006691493298 143.45873018605198 0 0 0 0 2.1139785022071464 -14.318582979977691 0 -14.318582979977691 89.824179705567076 0 0 0 0 0.02043464324346933 -4.1948345518574159 0 -4.1948345518574159 85.276324399130488 0 0 0 0 -325.29269370667407 -41.99682611686876 0 -41.99682611686876 160.27417186529783 0 0 0 0 -105.23719186819767 -164.65412321415351 0 -164.65412321415351 151.08896678766178 0 0 0 0 -0.50163456490655067 0.78726464616107639 0 0.78726464616107639 79.69450133362642 0 0 0 0 250.56541857517016 385.66006655782257 0 385.66006655782257 309.42521287797717 0 0 0 0 -1.9318763314520659 -1.7355095934993585 0 -1.7355095934993585 18.236245277849065 0 0 0 0 149.66616014518945 264.47377942157618 0 264.47377942157618 177.70374334843291 0 0 0 0 384.52828719882507 272.11796231489279 0 272.11796231489279 -57.144329440343427 0 0 0 0 87.039005030048443 444.14074773636094 0 444.14074773636094 460.01078329548182 0 0 0 0 0.3054418844663298 1.4939587299022552 0 1.4939587299022552 4.9058128143457793 0 0 0 0 -72.824543306780328 -30.764392130404303 0 -30.764392130404303 145.26597450859845 0 0 0 0 0.57033379966324715 7.7671714748794329 0 7.7671714748794329 136.27337003534194 0 0 0 0 -5.1137963795854189 41.451733284906368 0 41.451733284906368 -25.749887244142883 0 0 0 0 57.554542328271651 36.019465653334919 0 36.019465653334919 10.108200974093052 0 0 0 0 8.0997882052556065 206.28416354194269 0 206.28416354194269 333.08431516698329 0 0 0 0 -1.1424099120145002 -110.11726849291881 0 -110.11726849291881 157.10938175435876 0 0 0 0 -317.15680175163163 117.99960979942989 0 117.99960979942989 86.587499825342093 0 0 0 0 36.260307501345821 216.65076212463663 0 216.65076212463663 -467.45670111558866 0 0 0 0 34.180714890516796 -32.730534330920932 0 -32.730534330920932 -101.73601220868295 0 0 0 0 -0.089972611452455845 2.1969298591296926 0 2.1969298591296926 14.013294294249476 0 0 0 0 503.67692640714057 -166.7606493207204 0 -166.7606493207204 -790.70009597302851 0 0 0 0 366.75167563860475 -403.66910608643957 0 -403.66910608643957 -252.7437224763562 0 0 0 0 160.29333186001838 584.1505498546976 0 584.1505498546976 1450.0511353128677 0 0 0 0 -756.96830539734242 154.00898776635586 0 154.00898776635586 4471.5583005186636 0 0 0 0 -8.1139654711919924 893.49768954356841 0 893.49768954356841 4454.1268509736983 0 0 0 0 -0.24258135627360167 0.66478521903290577 0 0.66478521903290577 9.1702549032456204 0 0 0 0 -228.26952314035753 -343.20872837833303 0 -343.20872837833303 2029.1883419704827 0 0 0 0 1590.6918072325097 -1929.7209158080545 0 -1929.7209158080545 1370.0535902778647 0 0 0 0 2.4618639935353981 -2.0477959092471618 0 -2.0477959092471618 22.891571404034664 0 0 0 0 1052.7139835248374 682.41917148440552 0 682.41917148440552 2177.5085557355633 0 0 0 0 -297.82723182779699 842.08188912908372 0 842.08188912908372 4473.8023719880084 0 0 0 0 0.89774627884636637 2.7906668300902098 0 2.7906668300902098 7.293903351412439 0 0 0 0 -273.10350646768495 50.494400001785834 0 50.494400001785834 2831.2287358091562 0 0 0 0 612.93117954879767 -629.66835828897456 0 -629.66835828897456 -504.47273370067705 0 0 0 0 587.89427817276419 237.0522702593662 0 237.0522702593662 -897.09637334750005 0 0 0 0 -220.43375110002771 -89.026817409883279 0 -89.026817409883279 367.45689597824821 0 0 0 0 0.54131802322632083 -0.70182124556780257 0 -0.70182124556780257 58.412383573867373 0 0 0 0 379.74124046793077 248.33158252107387 0 248.33158252107387 -340.51946575555485 0 0 0 0 106.40068658152177 -125.38037925565732 0 -125.38037925565732 -196.29587793632527 0 0 0 0 103.87693261117192 -130.87688492728375 0 -130.87688492728375 136.44045772342361 0 0 0 0 1.8323603193236713 3.7253786540925233 0 3.7253786540925233 6.643442585394439 0 0 0 0 144.86341316205869 -87.556643549178261 0 -87.556643549178261 -470.00819725656766 0 0 0 0 -5.2848831484398033 136.79303125859587 0 136.79303125859587 192.70660085205964 0 0 0 0 -4.5193549249477201 207.40909684095823 0 207.40909684095823 584.91679644836404 0 0 0 0 -99.297786372430352 67.912779602993396 0 67.912779602993396 -24.221238525075023 0 0 0 0 -99.928346912605548 -98.808387514356582 0 -98.808387514356582 965.89269950002199 0 0 0 0 238.68747908498239 159.70018838674878 0 159.70018838674878 -0.55282447210993269 0 0 0 0 350.68364824829757 -112.03206715855777 0 -112.03206715855777 -41.424920695586479 0 0 0 0 159.25094691356992 36.064127597550396 0 36.064127597550396 -139.46662513232877 0 0 0 0 -84.814366409502554 -273.68561297541964 0 -273.68561297541964 -137.93761730511324 0 0 0 0 -15.356567619476436 174.94963727793947 0 174.94963727793947 27.537263064063154 0 0 0 0 90.119689202981704 148.67497643517709 0 148.67497643517709 646.62669940569322 0 0 0 0 -13.170478087416882 -155.88648304528033 0 -155.88648304528033 568.68563132708368 0 0 0 0 382.22238325689517 61.891704238623788 0 61.891704238623788 341.1614087152193 0 0 0 0 107.450036585525 -635.20445226855099 0 -635.20445226855099 1863.6222390861076 0 0 0 0 -511.12136000508247 -521.37373723754899 0 -521.37373723754899 1920.4487736188021 0 0 0 0 -303.84257811714991 -1315.3874634306267 0 -1315.3874634306267 4490.4983107311273 0 0 0 0 -409.91304004409972 390.15547420689654 0 390.15547420689654 1903.979285579815 0 0 0 0 -379.90355362910918 434.20194610273757 0 434.20194610273757 1884.7996706041886 0 0 0 0 -803.96334941347266 11.493445118634554 0 11.493445118634554 4502.5612250095264 0 0 0 0 -285.90982964083844 93.033119704836281 0 93.033119704836281 1908.7587161512611 0 0 0 0 10.412331893578994 210.98871228903954 0 210.98871228903954 532.51252891408512 0 0 0 0 11.087815867056634 -2.895323796721641 0 -2.895323796721641 69.238453168494743 0 0 0 0 -23.528882580074097 -212.64974414556764 0 -212.64974414556764 550.38520416260872 0 0 0 0 5.3524765865710791 -20.956342176042881 0 -20.956342176042881 37.79780375891778 0 0 0 0 -1.5142621500045319 5.7868978610913473 0 5.7868978610913473 23.41089152534029 0 0 0 0 -112.50069495394666 198.28664618545736 0 198.28664618545736 455.43377646240697 0 0 0 0 8.8532646293167545 -389.32806273069582 0 -389.32806273069582 1038.3752099456906 0 0 0 0 10.238888925995566 -7.4834073349779828 0 -7.4834073349779828 7.8795225614137507 0 0 0 0 17.241513363309423 115.98233281559078 0 115.98233281559078 301.34726359325578 0 0 0 0 -211.85667683981228 -199.8705405912624 0 -199.8705405912624 -130.46891634218628 0 0 0 0 -35.284447720544797 -314.50573700581231 0 -314.50573700581231 -368.48354251301498 0 0 0 0 -1.3787839623590008 0.52611138783959177 0 0.52611138783959177 5.3562167797862514 0 0 0 0 -49.917310460399676 13.888820743268298 0 13.888820743268298 166.38551354265655 0 0 0 0 -23.24967327365448 71.357849601656199 0 71.357849601656199 158.45357315190631 0 0 0 0 71.455820094928185 20.679602299132966 0 20.679602299132966 138.62137097160303 0 0 0 0 -50.271525146030399 -39.706530601026316 0 -39.706530601026316 90.640989621417248 0 0 0 0 -2.1526330845599659 -36.741734961586189 0 -36.741734961586189 27.02707232915418 0 0 0 0 -22.543367094916221 0.2910698337618669 0 0.2910698337618669 59.447309077571845 0 0 0 0 -34.880190367108867 12.934783321470604 0 12.934783321470604 182.39646630601783 0 0 0 0 -1.3010550744440934 -6.5678113425929041 0 -6.5678113425929041 102.83661903704342 0 0 0 0 -1.5164511614884706 0.71746682768434766 0 0.71746682768434766 16.89013050790571 0 0 0 0 6.9900519718671603 -4.8122704668421648 0 -4.8122704668421648 87.573330450017238 0 0 0 0 -22.138459487687669 -22.126929941419803 0 -22.126929941419803 251.43830183550017 0 0 0 0 -1.3922567452136718 -84.642559997460921 0 -84.642559997460921 95.756539148249431 0 0 0 0 -771.61105652437629 420.73817862036231 0 420.73817862036231 851.54935520965955 0 0 0 0 221.66933597654378 74.025355392699566 0 74.025355392699566 47.5358557124855 0 0 0 0 2.7633688087335555 -2.7951829987136989 0 -2.7951829987136989 2.7673220434207622 0 0 0 0 204.30317137633222 -44.665614250588987 0 -44.665614250588987 -18.16763447028643 0 0 0 0 216.7627567938062 -89.273844022143749 0 -89.273844022143749 -226.20513602225401 0 0 0 0 6.6834853940545633 2.5421047334593254 0 2.5421047334593254 19.874341620863497 0 0 0 0 880.19792179833075 66.507951292471262 0 66.507951292471262 130.09504809671489 0 0 0 0 5.3424673315707878 -6.7649567877233494 0 -6.7649567877233494 102.88125306854272 0 0 0 0 5.095463442817163 -8.6965126982977381 0 -8.6965126982977381 108.42364949705006 0 0 0 0 5.7240869722743755 2.7782342119998873 0 2.7782342119998873 -3.1808433882814029 0 0 0 0 9.6306320434978261 -14.797491515582806 0 -14.797491515582806 89.179456290294183 0 0 0 0 10.769698224315789 -9.0799717478948878 0 -9.0799717478948878 87.901284467588994 0 0 0 0 2.1894794577347056 -3.4424905933119589 0 -3.4424905933119589 85.39453529876846 0 0 0 0 7.8143790901166312 -12.763354361182792 0 -12.763354361182792 83.31054475356359 0 0 0 0 4.3891784449829174 -8.0184858663415071 0 -8.0184858663415071 83.536326066976017 0 0 0 0 11.567114265159034 -14.212448036625574 0 -14.212448036625574 82.007196366866992 0 0 0 0 -3.4140686941027525 -11.155166643577104 0 -11.155166643577104 78.70660286956263 0 0 0 0 10.298641657531789 -6.6741933092198451 0 -6.6741933092198451 74.115654325709329 0 0 0 0 -0.15036686648550401 -2.6674786861103748 0 -2.6674786861103748 74.037666191849212 0 0 0 0 7.6558009897391912 -6.0629560775014397 0 -6.0629560775014397 72.417109636124223 0 0 0 0 -6.6652723303327548 3.3482027732825372 0 3.3482027732825372 91.08889530779561 0 0 0 0 11.933109888149829 -10.1016745529123 0 -10.1016745529123 79.120191677659022 0 0 0 0 7.7165667126321296 -7.6053954965409503 0 -7.6053954965409503 88.008937200909713 0 0 0 0 -9.4543665708861191 -14.929929583422343 0 -14.929929583422343 57.684514848090487 0 0 0 0 -1.0586674630753805 -13.902768347503297 0 -13.902768347503297 77.389305896977021 0 0 0 0 4.4099113545721593 0.94101331705314806 0 0.94101331705314806 80.520578323761583 0 0 0 0 -0.81939593544211675 -5.7247885958131519 0 -5.7247885958131519 84.319633375765989 0 0 0 0 2.8170587747881655 -10.766297884390042 0 -10.766297884390042 58.429783622967079 0 0 0 0 -0.9320838040698618 -1.5419369377923431 0 -1.5419369377923431 77.22087324745371 0 0 0 0 -12.436416371654559 -16.633280538117106 0 -16.633280538117106 64.649812544565066 0 0 0 0 -7.1541241797734267 -17.600260655724469 0 -17.600260655724469 58.343252395553577 0 0 0 0 -2.108376294714617 -6.7550373648045934 0 -6.7550373648045934 61.421267551006167 0 0 0 0 -7.6966376309196676 -6.0570643694973114 0 -6.0570643694973114 67.521436325245304 0 0 0 0 32.156943113837016 20.431807072183801 0 20.431807072183801 85.474253113527084 0 0 0 0 31.067121455059151 16.741135377324099 0 16.741135377324099 77.594028547726339 0 0 0 0 -1.9217705913256111 15.477528289397014 0 15.477528289397014 86.681943379589939 0 0 0 0 -35.26871301328444 29.634298452765506 0 29.634298452765506 90.936878190164862 0 0 0 0 -32.427769521757597 24.378687986754812 0 24.378687986754812 92.757661761266718 0 0 0 0 11.411905125873517 22.485568536205392 0 22.485568536205392 82.576382291885238 0 0 0 0 -6.1247022375940077 5.350636597173434 0 5.350636597173434 81.533334683976136 0 0 0 0 6.3108520150312017 11.122549198829802 0 11.122549198829802 74.995324754800095 0 0 0 0 -11.097008513713885 -11.355420127539205 0 -11.355420127539205 57.920391162777065 0 0 0 0 -16.122769892901047 -8.1357867836777586 0 -8.1357867836777586 88.038755375913752 0 0 0 0 1.4294515460755974 14.123952833226213 0 14.123952833226213 83.013572183146607 0 0 0 0 -21.657768614513934 1.7460151826944639 0 1.7460151826944639 100.35060145540047 0 0 0 0 -16.149624989084131 -1.6364198910305277 0 -1.6364198910305277 93.889576169924112 0 0 0 0 -17.286340879760189 8.7194392233941471 0 8.7194392233941471 77.48107379902649 0 0 0 0 -19.242296789516622 -15.984564247980416 0 -15.984564247980416 113.33768077196146 0 0 0 0 -167.38677189966938 35.411143616511254 0 35.411143616511254 54.361717807492823 0 0 0 0 -76.572498312878452 -28.854391343076713 0 -28.854391343076713 76.083143507697969 0 0 0 0 -9.0934471871655749 -4.0015079582785376 0 -4.0015079582785376 12.265052919263695 0 0 0 0 -1.676760985482173 6.0355311623578416 0 6.0355311623578416 9.9773263126433562 0 0 0 0 0.44785081690633888 21.919801004551118 0 21.919801004551118 84.622177962926799 0 0 0 0 2.4995423724640702 27.887353194637967 0 27.887353194637967 34.1929085833643 0 0 0 0 2.9670727210304904 18.320190765181906 0 18.320190765181906 81.584690222583959 0 0 0 0 4.9231048585077133 28.439034316188554 0 28.439034316188554 83.655956600276113 0 0 0 0 1.6679593956996541 15.434075997698528 0 15.434075997698528 80.282268220431433 0 0 0 0 3.611770312486442 15.369369003943575 0 15.369369003943575 72.333606850981596 0 0 0 0 -0.69587791694266343 15.30073892447399 0 15.30073892447399 98.316203020498506 0 0 0 0 0.94373655607341789 24.394180640389095 0 24.394180640389095 83.923026198030129 0 0 0 0 -0.87106586478665182 -5.3339130677423032 0 -5.3339130677423032 76.535548864727218 0 0 0 0 -4.650289343287568 -3.1477269734314177 0 -3.1477269734314177 109.03479164974124 0 0 0 0 0.038498086001865772 -0.82302442889428562 0 -0.82302442889428562 23.513585361086527 0 0 0 0 0.020800080118462461 7.7672595399617421 0 7.7672595399617421 88.077585178616573 0 0 0 0 -1.0028496337373647 -1.2599459842889686 0 -1.2599459842889686 72.587888942479367 0 0 0 0 -12.484850780514535 11.824061688355869 0 11.824061688355869 81.845679812133312 0 0 0 0 -10.745183875418206 20.803924955020193 0 20.803924955020193 72.270574630456395 0 0 0 0 -17.081181308825762 13.929853924448253 0 13.929853924448253 87.005886702856515 0 0 0 0 -31.274415097324891 -1.4816519334999612 0 -1.4816519334999612 73.832929652664461 0 0 0 0 -20.749962585266985 -0.37448494967247825 0 -0.37448494967247825 61.571722053806297 0 0 0 0 -76.768002802372393 25.385433647184982 0 25.385433647184982 163.30597151476832 0 0 0 0 -3.2932844150931966 7.623099958073638 0 7.623099958073638 71.318195671786725 0 0 0 0 -23.055509563716782 -8.6754450681892195 0 -8.6754450681892195 63.705272352235625 0 0 0 0 -1.1429906429081171 -1.0493363689915043 0 -1.0493363689915043 17.032585270590474 0 0 0 0 -7.1393466895133315 -23.145221112696163 0 -23.145221112696163 102.00907571143762 0 0 0 0 -14.79320620617224 10.869756288815466 0 10.869756288815466 37.771718660356981 0 0 0 0 15.279389056262971 6.1099921860823088 0 6.1099921860823088 107.35276546872046 0 0 0 0 -14.748640567855382 3.6825273811002859 0 3.6825273811002859 15.362233113901738 0 0 0 0 -13.014276724818046 -23.412472587733646 0 -23.412472587733646 81.210396714861417 0 0 0 0 -92.448644836336825 -10.291968606718001 0 -10.291968606718001 106.59235013007128 0 0 0 0 -58.648461066181312 47.673468272584614 0 47.673468272584614 309.13395621034579 0 0 0 0 -26.136435086205957 -11.23367159981014 0 -11.23367159981014 108.06865748254216 0 0 0 0 4.2767492056955234 5.3132686127355555 0 5.3132686127355555 97.128036205012904 0 0 0 0 15.734544459598297 -27.807844550084372 0 -27.807844550084372 65.196953826430274 0 0 0 0 49.760425195675204 -1.7229394406931533 0 -1.7229394406931533 -60.969215152872493 0 0 0 0 10.849277942682296 -10.42705786011601 0 -10.42705786011601 40.626264842260809 0 0 0 0 334.18820720309327 1016.7280797585845 0 1016.7280797585845 1448.841585562237 0 0 0 0 -144.05987390681003 -192.17508220255695 0 -192.17508220255695 280.3080863525829 0 0 0 0 38.314106396231168 -34.552781103655093 0 -34.552781103655093 43.530862047768039 0 0 0 0 182.90579118747667 443.61872328338359 0 443.61872328338359 247.88236383014009 0 0 0 0 -773.70987054303612 -540.67038478258473 0 -540.67038478258473 4492.036633067386 0 0 0 0 153.29060418861116 -567.78982169161338 0 -567.78982169161338 1859.0102495041647 0 0 0 0 859.2720332485635 -1590.4032668996297 0 -1590.4032668996297 1925.8142335663215 0 0 0 0 1.3439968372374604 1.2754625093562453 0 1.2754625093562453 17.865285887895993 0 0 0 0 823.50612859678984 2787.5324405680731 0 2787.5324405680731 4489.9610429131935 0 0 0 0 14.106481106317785 -9.5501253004216551 0 -9.5501253004216551 12.04882096534476 0 0 0 0 2239.0467535887678 -464.53306982492722 0 -464.53306982492722 -579.57579803528643 0 0 0 0 79.602412059189547 1520.2255451747769 0 1520.2255451747769 4498.6530292036596 0 0 0 0 -223.55436708627391 522.09345336106344 0 522.09345336106344 2001.1424791492464 0 0 0 0 32.2770106410686 -28.247335617541268 0 -28.247335617541268 23.700284050681489 0 0 0 0 87.908859554030641 -235.11275637189465 0 -235.11275637189465 -184.26619555099751 0 0 0 0 -19.545805244835151 -215.72900108710473 0 -215.72900108710473 1015.7769940543585 0 0 0 0 151.02276772247046 -41.893429625146382 0 -41.893429625146382 -34.435593821886869 0 0 0 0 293.24431226347065 -179.11406718358194 0 -179.11406718358194 97.844612001672431 0 0 0 0 -2.9669453994670576 3.7291768478089438 0 3.7291768478089438 -3.7977676477206899 0 0 0 0 -11.33665824140553 35.322980740864296 0 35.322980740864296 182.354675143024 0 0 0 0 -99.88116455781892 64.462081650788605 0 64.462081650788605 122.41291818261379 0 0 0 0 6.5089376349478698 27.790180331532611 0 27.790180331532611 83.376456440870243 0 0 0 0 -64.181221007893782 41.138852658943506 0 41.138852658943506 123.50228529450396 0 0 0 0 -7.9207794072425806 -1.7902588038831624 0 -1.7902588038831624 12.124588830405841 0 0 0 0 -10.073271630321869 48.786659849007265 0 48.786659849007265 119.4988293529168 0 0 0 0 146.38453647088647 -122.34340014560803 0 -122.34340014560803 339.95719810928131 0 0 0 0 -1.4363036125630071 -2.9889472790156759 0 -2.9889472790156759 0.37500945606189617 0 0 0 0 -65.4622344105818 -43.949326761323391 0 -43.949326761323391 47.100709540092794 0 0 0 0 13.18842143042184 20.804888443912205 0 20.804888443912205 84.56960121295333 0 0 0 0 -177.30227699240709 -39.176066394429654 0 -39.176066394429654 101.32455277952977 0 0 0 0 76.479515300098114 -427.82912689043224 0 -427.82912689043224 -375.791386674151 0 0 0 0 0.85980815592311144 -1.4557421831058406 0 -1.4557421831058406 1.3179322047214939 0 0 0 0 -224.64516885799327 -102.31875443409808 0 -102.31875443409808 75.899921970678406 0 0 0 0 356.47477728943875 -842.40896528073608 0 -842.40896528073608 1746.3720730858113 0 0 0 0 328.47272081665483 -261.26060857473203 0 -261.26060857473203 201.50205712012757 0 0 0 0 -3.4641760046952754 -370.0931556241012 0 -370.0931556241012 1245.825953993859 0 0 0 0 957.77189975450494 -1783.4119095609421 0 -1783.4119095609421 959.70502211488201 0 0 0 0 95.177534200508063 -1703.8219166237686 0 -1703.8219166237686 3256.9445939388315 0 0 0 0 -419.34580180769285 -1515.7297122563323 0 -1515.7297122563323 3308.615151455735 0 0 0 0 34.894528480707805 -2416.2191079220065 0 -2416.2191079220065 4490.5236852113721 0 0 0 0 1359.5419392702916 -2741.8861910695778 0 -2741.8861910695778 3037.306012611909 0 0 0 0 -701.66659557444132 -618.35970180600998 0 -618.35970180600998 3387.8810240183157 0 0 0 0 -714.86153636792437 -1260.7597850771563 0 -1260.7597850771563 4500.5964439951231 0 0 0 0 -66.440121667235076 -1054.5104982152916 0 -1054.5104982152916 2042.6514982520675 0 0 0 0 -371.93267978741181 -1036.4634890312173 0 -1036.4634890312173 3278.7572079597958 0 0 0 0 -36.947079252458593 -663.10985557123422 0 -663.10985557123422 2688.8800940015717 0 0 0 0 -17.454952558291552 -537.47919118314894 0 -537.47919118314894 1353.6492346735758 0 0 0 0 -2.9052541468980015 0.16431704733776087 0 0.16431704733776087 4.5145661613898795 0 0 0 0 -10.109031132590985 -895.08797306096676 0 -895.08797306096676 2036.7233331079856 0 0 0 0 -100.70896121270806 -629.38922888305387 0 -629.38922888305387 1283.0238184283371 0 0 0 0 232.70287308137267 -839.31382462169495 0 -839.31382462169495 557.02276891221845 0 0 0 0 52.981248135199849 -537.89432557654072 0 -537.89432557654072 1263.2211830965471 0 0 0 0 64.2604575819621 -467.18557054401026 0 -467.18557054401026 1313.0168618036878 0 0 0 0 237.34865566904494 -377.44763513900762 0 -377.44763513900762 742.72624155654194 0 0 0 0 295.58646995440347 373.90308594816179 0 373.90308594816179 528.57893037531176 0 0 0 0 -6.3668261119300951 266.25450155480939 0 266.25450155480939 389.03345203240133 0 0 0 0 -43.073505436050823 -167.18183225339453 0 -167.18183225339453 488.10356563396635 0 0 0 0 134.66378893353439 -105.36020397935317 0 -105.36020397935317 407.56746249286516 0 0 0 0 -61.584617634134702 -149.42792280412687 0 -149.42792280412687 600.78879917275344 0 0 0 0 -169.87583124302296 17.861763697495917 0 17.861763697495917 297.88778433625339 0 0 0 0 -101.81082806528445 -270.76042486837105 0 -270.76042486837105 306.88224425265798 0 0 0 0 -154.43008225590893 1.083833207077987 0 1.083833207077987 140.65457743532534 0 0 0 0 -188.34334230923139 -29.229157093730464 0 -29.229157093730464 128.94260914401093 0 0 0 0 -92.214874958676887 -132.74496169348276 0 -132.74496169348276 168.29212237090542 0 0 0 0 -445.80045495117633 218.70949574160113 0 218.70949574160113 -6.7656418229234987 0 0 0 0 -1.844291690815572 -1.1544749239678964 0 -1.1544749239678964 -0.67485297428646618 0 0 0 0 -340.05294804030666 -122.20829953283737 0 -122.20829953283737 197.85384123683616 0 0 0 0 -106.49085490126203 206.16223407522921 0 206.16223407522921 9.4734977181906288 0 0 0 0 -293.03798353043356 238.04900944588735 0 238.04900944588735 143.74130093000713 0 0 0 0 -151.99850828654053 160.78842359491682 0 160.78842359491682 136.26808264873398 0 0 0 0 -375.23452341492123 -9.2220327259892656 0 -9.2220327259892656 182.72477314784192 0 0 0 0 -128.65475611427865 54.891244428647042 0 54.891244428647042 146.95054127507319 0 0 0 0 -95.351151528795839 -18.342511666232895 0 -18.342511666232895 94.118885446631964 0 0 0 0 -113.3198809317033 75.129787348523678 0 75.129787348523678 123.41601637077838 0 0 0 0 -61.292036873176642 66.301680695985851 0 66.301680695985851 105.29964697352989 0 0 0 0 -73.735590620622588 176.0735275883053 0 176.0735275883053 135.5865033705486 0 0 0 0 -131.76610093928798 127.92453382016265 0 127.92453382016265 101.33097309831646 0 0 0 0 -22.995628815825967 144.46308958450754 0 144.46308958450754 61.639102196757449 0 0 0 0 -66.082054326142611 147.62645730200165 0 147.62645730200165 73.86875740421965 0 0 0 0 -51.418413220548928 83.951002144545782 0 83.951002144545782 68.219841155761969 0 0 0 0 -8.3967710639960842 104.57752766082558 0 104.57752766082558 78.020173467528366 0 0 0 0 22.697169762654198 92.229781352689315 0 92.229781352689315 82.903438720124541 0 0 0 0 191.47235308626034 133.95789555209558 0 133.95789555209558 92.929786357577541 0 0 0 0 -74.81995169729322 126.63690021261755 0 126.63690021261755 144.11781112397148 0 0 0 0 -73.388721977244586 247.59118554668385 0 247.59118554668385 152.80899608339587 0 0 0 0 77.891624298170825 192.26232502875973 0 192.26232502875973 85.751055568980519 0 0 0 0 -48.517187864406992 99.559616597463901 0 99.559616597463901 2.3446324478936731 0 0 0 0 -71.491582519802478 81.490524581451609 0 81.490524581451609 25.209015564774745 0 0 0 0 -68.50976572978243 79.31107468380651 0 79.31107468380651 -29.354056789030437 0 0 0 0 -247.46693091624388 120.92038650203904 0 120.92038650203904 -21.015236385197568 0 0 0 0 -157.53782981173435 42.976531973901729 0 42.976531973901729 -14.641405159054557 0 0 0 0 0.65291860361855925 68.620552305383171 0 68.620552305383171 29.835666247228801 0 0 0 0 -137.80596224313717 55.926302136445884 0 55.926302136445884 29.137716753779387 0 0 0 0 -50.146302365412566 86.483409210944956 0 86.483409210944956 -17.299079165729836 0 0 0 0 -57.316891367843368 114.83308515833778 0 114.83308515833778 43.449285871924076 0 0 0 0 -68.710032460937015 120.07335424888697 0 120.07335424888697 41.068156940309564 0 0 0 0 -52.529394971229351 123.76644775124078 0 123.76644775124078 49.73829868073517 0 0 0 0 -65.182369537216857 115.40090608367609 0 115.40090608367609 102.38362187242046 0 0 0 0 -40.987494088575289 74.184701644378947 0 74.184701644378947 67.413347291701939 0 0 0 0 -67.090051439298861 55.452046748818248 0 55.452046748818248 89.164489045506343 0 0 0 0 -82.330771410762353 84.9544999159898 0 84.9544999159898 88.763702576266951 0 0 0 0 -27.771882730523647 43.344758907262076 0 43.344758907262076 89.939366297287052 0 0 0 0 -30.52300569773621 65.563140111742541 0 65.563140111742541 73.282119616997079 0 0 0 0 -6.4742580920877515 57.495484073151601 0 57.495484073151601 54.106723001328646 0 0 0 0 -37.989940858510295 86.653063094330719 0 86.653063094330719 32.107059415495314 0 0 0 0 -47.431991041294424 90.887988452697755 0 90.887988452697755 54.762559634255012 0 0 0 0 -33.470917450002389 53.756257530476432 0 53.756257530476432 46.542065792829817 0 0 0 0 -31.134893234764718 64.983091861278808 0 64.983091861278808 43.334273619257146 0 0 0 0 -46.871456707758512 62.468338398946798 0 62.468338398946798 50.747000218587345 0 0 0 0 -13.545155668823213 56.639974501798861 0 56.639974501798861 40.311786818274413 0 0 0 0 -16.645299559414362 44.659520230795351 0 44.659520230795351 66.835245224196115 0 0 0 0 21.527170984530215 35.07479726915335 0 35.07479726915335 51.93686278223322 0 0 0 0 15.241360577241181 29.452928611244715 0 29.452928611244715 79.644710436681635 0 0 0 0 33.003985326107966 43.008895784289052 0 43.008895784289052 73.637438745892723 0 0 0 0 28.232342447762811 4.2841985666134406 0 4.2841985666134406 84.907058234304714 0 0 0 0 -25.519836165898539 27.745235504249649 0 27.745235504249649 42.004068171940162 0 0 0 0 -21.468978306493057 40.427532804751536 0 40.427532804751536 77.712920847581699 0 0 0 0 -53.342069290999007 50.910952028680185 0 50.910952028680185 60.205189811960736 0 0 0 0 -78.015419152320419 14.871058715281833 0 14.871058715281833 80.508858945806423 0 0 0 0 -47.597880791539524 55.915047627378954 0 55.915047627378954 -1.4928457234382222 0 0 0 0 -83.76003661138293 20.450982979447872 0 20.450982979447872 30.667436463729246 0 0 0 0 -72.439141971888148 68.787638445803168 0 68.787638445803168 12.492766268740525 0 0 0 0 -172.38193259240961 68.580196684408293 0 68.580196684408293 -30.335788485732337 0 0 0 0 -151.85675901379818 87.068766326046898 0 87.068766326046898 -25.565706512454199 0 0 0 0 -107.26786904926985 34.910868241051503 0 34.910868241051503 -9.7770025637291837 0 0 0 0 -124.47279109432657 25.146504762989935 0 25.146504762989935 1.9284662777317862 0 0 0 0 -103.290153888232 49.252684288943783 0 49.252684288943783 29.078206301375758 0 0 0 0 -116.54296326383928 13.665219272661489 0 13.665219272661489 58.376506327032985 0 0 0 0 -128.67869333534622 45.717410899032984 0 45.717410899032984 57.409234152990393 0 0 0 0 -113.70188500088011 12.317855314337066 0 12.317855314337066 106.46474644751652 0 0 0 0 -88.663618373667532 37.883391398587264 0 37.883391398587264 79.31794055634964 0 0 0 0 -112.51950250347249 25.039574784292199 0 25.039574784292199 88.010500086929824 0 0 0 0 -76.234615656980509 8.5391084425245936 0 8.5391084425245936 111.34354816754058 0 0 0 0 -85.998858560023223 28.347306889673746 0 28.347306889673746 113.91311064322508 0 0 0 0 -109.96371789157342 -0.19807973627030151 0 -0.19807973627030151 131.2318674329872 0 0 0 0 -127.79206658353587 -5.4043014490089263 0 -5.4043014490089263 122.4427140693515 0 0 0 0 -124.30748703056565 -17.51432383809879 0 -17.51432383809879 109.92437065308332 0 0 0 0 -113.99260632278265 8.5551634252806252 0 8.5551634252806252 112.31568635959411 0 0 0 0 -72.487044865828238 16.291498601447529 0 16.291498601447529 121.06258264123608 0 0 0 0 -102.69593983842276 -4.5010912631987594 0 -4.5010912631987594 133.75312040012795 0 0 0 0 -109.54895757192742 7.5427742670945008 0 7.5427742670945008 112.91232815949479 0 0 0 0 -42.438436426224484 -10.58609967625307 0 -10.58609967625307 94.399732815589232 0 0 0 0 -93.893990424436424 25.68851983557397 0 25.68851983557397 85.29336093114398 0 0 0 0 -117.33864396724061 -20.18174056722637 0 -20.18174056722637 103.53023613567711 0 0 0 0 -172.52182968266425 -34.81295701948693 0 -34.81295701948693 101.22523692887717 0 0 0 0 -126.55904104617127 -13.401179195916484 0 -13.401179195916484 103.39759261581639 0 0 0 0 67.087298761114823 -13.630015632224968 0 -13.630015632224968 20.833278802143468 0 0 0 0 -30.569001494388285 44.545276388959792 0 44.545276388959792 37.86147313866968 0 0 0 0 56.4958451232215 -41.171521045031113 0 -41.171521045031113 105.59313735151227 0 0 0 0 -26.202245487160951 26.047302305505582 0 26.047302305505582 135.74688359476204 0 0 0 0 -53.430149108191046 -7.381086824754675 0 -7.381086824754675 135.79828413446376 0 0 0 0 129.76363645094574 -104.32121052938237 0 -104.32121052938237 151.73376705119153 0 0 0 0 31.252879597198842 18.876831972042055 0 18.876831972042055 297.52453033032361 0 0 0 0 33.100005839061566 69.257773017026921 0 69.257773017026921 168.12611215711604 0 0 0 0 22.961384677579957 -17.120467244001702 0 -17.120467244001702 148.59076549198653 0 0 0 0 -41.936659421799504 46.48042159673787 0 46.48042159673787 149.17256390118382 0 0 0 0 -11.249831114887144 14.488085904447871 0 14.488085904447871 105.09098310138506 0 0 0 0 -35.552388340610101 26.565885691183666 0 26.565885691183666 112.88564677566319 0 0 0 0 -38.135546896996402 42.520624693162972 0 42.520624693162972 98.900195147100021 0 0 0 0 67.007946184506707 -4.1749899607466432 0 -4.1749899607466432 111.83659840863402 0 0 0 0 66.788347665952074 23.527431825110398 0 23.527431825110398 89.87792007976168 0 0 0 0 46.28503997542839 -28.181643415853614 0 -28.181643415853614 131.18512595426 0 0 0 0 81.486253809298972 -32.665371390557993 0 -32.665371390557993 96.288164066252648 0 0 0 0 45.256265889674012 -3.377243077437015 0 -3.377243077437015 127.08291466187802 0 0 0 0 97.156909099773401 -73.803855610474784 0 -73.803855610474784 222.64247947008698 0 0 0 0 180.05402021097117 48.23366489977343 0 48.23366489977343 135.90925063969189 0 0 0 0 94.454141842814622 81.9519912897631 0 81.9519912897631 71.410374067992961 0 0 0 0 0.088545048538835491 0.068318561702533032 0 0.068318561702533032 2.219034717735326 0 0 0 0 39.494993552882363 37.487469128212979 0 37.487469128212979 86.351871842896799 0 0 0 0 33.876961171008361 74.3193425546051 0 74.3193425546051 222.35172666224568 0 0 0 0 42.662884054907181 27.92335395833652 0 27.92335395833652 32.938869187135424 0 0 0 0 47.387164682985883 50.852283543510566 0 50.852283543510566 81.317213868747785 0 0 0 0 63.311947396578148 0.45244783438465674 0 0.45244783438465674 -10.731124462956359 0 0 0 0 23.23376558848986 37.853146758359799 0 37.853146758359799 88.865689090643173 0 0 0 0 20.625555627131746 46.050526150227597 0 46.050526150227597 131.86900244812568 0 0 0 0 19.281361187117682 27.121852122290875 0 27.121852122290875 90.590616721964579 0 0 0 0 17.46990216072345 26.409241336728883 0 26.409241336728883 97.687975645909319 0 0 0 0 4.847735760136004 0.66783745524844562 0 0.66783745524844562 96.323258135205833 0 0 0 0 30.174196468284151 -10.055664214487479 0 -10.055664214487479 143.02190950159638 0 0 0 0 16.609922532713114 12.830831596285861 0 12.830831596285861 104.58667535489076 0 0 0 0 28.814677762780207 -18.071942637743632 0 -18.071942637743632 109.47163640037707 0 0 0 0 39.270959461803244 -13.366130959910151 0 -13.366130959910151 100.91183845770138 0 0 0 0 13.198312668171866 4.9969557134918432 0 4.9969557134918432 78.304317142268701 0 0 0 0 52.708409110742878 -10.173903615759627 0 -10.173903615759627 80.955045499875268 0 0 0 0 8.535603414007312 -22.142607978199521 0 -22.142607978199521 91.024106338627462 0 0 0 0 11.800232392327189 8.7423046254480141 0 8.7423046254480141 92.956204288988374 0 0 0 0 26.805869445260043 -26.902335583650711 0 -26.902335583650711 147.75849327373726 0 0 0 0 0.15783342352102947 1.0179641463805922 0 1.0179641463805922 21.707540771198691 0 0 0 0 36.099233315284494 -10.658867813650431 0 -10.658867813650431 128.55212138385104 0 0 0 0 49.709728049369517 -29.065742624195991 0 -29.065742624195991 97.30622765467615 0 0 0 0 48.634434765205853 -34.02856585049949 0 -34.02856585049949 106.26944229203946 0 0 0 0 56.520997817460533 -15.045898896038125 0 -15.045898896038125 84.603934797989496 0 0 0 0 41.195619624844163 7.3339652933464095 0 7.3339652933464095 75.227907709420833 0 0 0 0 39.645630022795025 -7.7490652050764766 0 -7.7490652050764766 92.70275805714482 0 0 0 0 28.34850652502989 -2.9237380219856277 0 -2.9237380219856277 95.046108365942928 0 0 0 0 25.384512434811455 15.5701968544181 0 15.5701968544181 78.356952706424636 0 0 0 0 20.809331795940523 14.014819493204413 0 14.014819493204413 99.363268799805155 0 0 0 0 3.8485529579974456 31.340239118246245 0 31.340239118246245 77.283142434203455 0 0 0 0 1.6917731161159444 30.350395012826993 0 30.350395012826993 78.079362778385985 0 0 0 0 -15.345058879343362 46.812167065028916 0 46.812167065028916 74.940754941394516 0 0 0 0 -7.1483263244948496 25.246898532936029 0 25.246898532936029 88.107896009991236 0 0 0 0 5.9454941924523803 29.603932620524574 0 29.603932620524574 79.259133155348536 0 0 0 0 14.427619820010946 10.558406682946952 0 10.558406682946952 86.808380324771861 0 0 0 0 38.761297016649564 13.611297090366861 0 13.611297090366861 84.660826288355111 0 0 0 0 27.898176715482236 19.71480094618164 0 19.71480094618164 90.616861885369872 0 0 0 0 -21.57612359126324 -26.326172791195859 0 -26.326172791195859 58.488222494022921 0 0 0 0 -5.9883452045071008 -10.651231507549781 0 -10.651231507549781 73.661718464560067 0 0 0 0 30.725274536153478 4.5474186547435238 0 4.5474186547435238 112.49591101636179 0 0 0 0 55.370793608145618 -24.238734562255559 0 -24.238734562255559 122.68096644422621 0 0 0 0 38.931126699084984 -11.252699854678212 0 -11.252699854678212 112.65858399113495 0 0 0 0 39.472243431331066 -0.16327054002431396 0 -0.16327054002431396 97.049203222501092 0 0 0 0 51.749065185999086 9.1167265808180673 0 9.1167265808180673 104.03220669913935 0 0 0 0 6.5881938326874661 -8.2571267489111051 0 -8.2571267489111051 107.99035074268613 0 0 0 0 2.4385826850339072 -10.810007600699464 0 -10.810007600699464 111.84491718114441 0 0 0 0 -3.174489083996721 -9.4359570652423272 0 -9.4359570652423272 77.417521735183328 0 0 0 0 2.0247919656957478 -11.947075216851744 0 -11.947075216851744 66.864874421635704 0 0 0 0 9.6100588835529379 -14.597174524042202 0 -14.597174524042202 138.99746075096482 0 0 0 0 16.050383875754505 -23.138709553662011 0 -23.138709553662011 80.911528054683004 0 0 0 0 -0.14993907233419668 -14.611797451234104 0 -14.611797451234104 68.113869881610981 0 0 0 0 9.9621778689590883 -13.139990053870861 0 -13.139990053870861 83.583892021939391 0 0 0 0 7.623501289541764 -20.208452900253178 0 -20.208452900253178 103.64850409693099 0 0 0 0 8.6529390847088052 -13.725399009250395 0 -13.725399009250395 91.086130725409021 0 0 0 0 2.4550306517757008 -12.319922536027661 0 -12.319922536027661 81.473314552873489 0 0 0 0 -1.9987711088300557 -8.8014270856456278 0 -8.8014270856456278 101.62221934293484 0 0 0 0 2.4786088314940571 -3.262288225661905 0 -3.262288225661905 94.56867541138854 0 0 0 0 4.5381544049560034 -1.0117946396712796 0 -1.0117946396712796 110.38961270048458 0 0 0 0 11.687063720548394 -11.918736848412664 0 -11.918736848412664 91.736975279229227 0 0 0 0 -11.080337248801243 -16.578953891192214 0 -16.578953891192214 124.95046039338922 0 0 0 0 -4.1312341385315072 1.5704250105068525 0 1.5704250105068525 12.626797831111784 0 0 0 0 -8.49974692049841 -6.3114529228478204 0 -6.3114529228478204 121.21047542734595 0 0 0 0 11.502144793126718 -11.060390380313038 0 -11.060390380313038 102.09663066430949 0 0 0 0 -16.568361077909913 -19.509345626080176 0 -19.509345626080176 108.07870364010159 0 0 0 0 -0.44248250972106007 -9.2018125132926798 0 -9.2018125132926798 86.586375202867202 0 0 0 0 -2.2636063301509921 -14.62342480649022 0 -14.62342480649022 101.18490750799538 0 0 0 0 1.4094506038127292 -11.029216319562693 0 -11.029216319562693 79.70863848971203 0 0 0 0 -12.113431784012164 -4.4137310985606746 0 -4.4137310985606746 88.63088038834394 0 0 0 0 23.921931840487559 -19.683948631369276 0 -19.683948631369276 96.363391293416498 0 0 0 0 5.7317340408940254 -4.3950899766059592 0 -4.3950899766059592 88.910838698400767 0 0 0 0 6.6524815474031129 -10.532124015808222 0 -10.532124015808222 118.15034669317538 0 0 0 0 -3.2100290478155076 -3.5054823685832943 0 -3.5054823685832943 76.852233071476121 0 0 0 0 10.167919863184807 4.456725444570111 0 4.456725444570111 78.152511022854014 0 0 0 0 -9.2657938362735877 -18.380408347176854 0 -18.380408347176854 126.99683179310523 0 0 0 0 -56.313817661394069 -73.46494373116002 0 -73.46494373116002 54.276826233442989 0 0 0 0 25.28511553839121 -13.449836981319095 0 -13.449836981319095 54.450902752345428 0 0 0 0 -6.7378442009332327 9.4010376973644441 0 9.4010376973644441 17.799631797312657 0 0 0 0 7.3280981867983428 -3.2141893969892408 0 -3.2141893969892408 88.061773512716172 0 0 0 0 3.7812166737494408 11.490462892215874 0 11.490462892215874 99.032114096480655 0 0 0 0 3.9525255303989937 3.364325132846858 0 3.364325132846858 11.494418604813966 0 0 0 0 -2.7508922230560335 -16.082711233486137 0 -16.082711233486137 63.895747578969093 0 0 0 0 -6.907737421182901 -7.4858815575498738 0 -7.4858815575498738 62.081038773612818 0 0 0 0 -1.673726169340755 -0.78447286300519181 0 -0.78447286300519181 78.373741462713056 0 0 0 0 -21.727470593570843 -10.146546042824411 0 -10.146546042824411 106.63618305821728 0 0 0 0 -30.553100072231246 53.204668400318042 0 53.204668400318042 25.873189441626891 0 0 0 0 -0.84440252208275424 -0.27258229072734252 0 -0.27258229072734252 84.108296614868038 0 0 0 0 116.5832172485334 -235.44973640968965 0 -235.44973640968965 339.36766529777378 0 0 0 0 371.17962799250199 62.418981369410176 0 62.418981369410176 -139.36954526984482 0 0 0 0 -29.683586726175463 116.70895274192299 0 116.70895274192299 213.77510773896665 0 0 0 0 103.26631841631115 -209.04403172188177 0 -209.04403172188177 153.97282755078049 0 0 0 0 1.138655799517764 4.4063781448819697 0 4.4063781448819697 12.919226651810362 0 0 0 0 -0.72191783468655402 -5.5919655021874597 0 -5.5919655021874597 78.841592534940787 0 0 0 0 -0.88032036665708802 12.193155075743562 0 12.193155075743562 56.922622877755202 0 0 0 0 16.098267985156781 11.454218873677746 0 11.454218873677746 54.749856950642425 0 0 0 0 20.409661338702335 6.974551730643725 0 6.974551730643725 55.558491688745562 0 0 0 0 25.967612781603748 3.7707339726439386 0 3.7707339726439386 55.382916871923953 0 0 0 0 -47.95786453426399 -38.945436442205391 0 -38.945436442205391 139.08672792949073 0 0 0 0 -18.408376605433432 5.8703041168046184 0 5.8703041168046184 104.69646588700562 0 0 0 0 -1.2513997788637719 -1.9459673962898858 0 -1.9459673962898858 85.68254293357046 0 0 0 0 28.531600833729499 -8.1332515966660139 0 -8.1332515966660139 61.568780075162067 0 0 0 0 24.120786121901801 -2.5357869474682957 0 -2.5357869474682957 52.163074502667314 0 0 0 0 -1.4811129527742217 5.9079614066297523 0 5.9079614066297523 37.314162147107311 0 0 0 0 21.620072760113544 10.12716105938307 0 10.12716105938307 51.786292904696893 0 0 0 0 28.58030075181432 8.1989726094179787 0 8.1989726094179787 61.050228909734869 0 0 0 0 22.419141665473944 -3.6886921310142498 0 -3.6886921310142498 70.403017279721098 0 0 0 0 20.758549626342983 4.497869982431439 0 4.497869982431439 71.022787618509028 0 0 0 0 15.317770715410916 -4.2167074219432834 0 -4.2167074219432834 66.035382726375246 0 0 0 0 -0.33558823064355536 -0.10183225298771958 0 -0.10183225298771958 30.930173930172657 0 0 0 0 8.6491617389808653 95.815441783546703 0 95.815441783546703 30.666709820317919 0 0 0 0 -3.8742357087377872 20.39231695200661 0 20.39231695200661 64.095472636143256 0 0 0 0 2.6972583392443994 -6.9782544921326917 0 -6.9782544921326917 57.287183758453466 0 0 0 0 9.9679388053244011 19.038257093836407 0 19.038257093836407 41.970779143224718 0 0 0 0 21.79480624246753 9.0322934628347866 0 9.0322934628347866 78.691166865522973 0 0 0 0 -4.677327778217748 -17.190046147730868 0 -17.190046147730868 127.65757755961295 0 0 0 0 17.747387941814566 22.884489512882283 0 22.884489512882283 90.266008548824175 0 0 0 0 2.0897245735079824 1.1939863062482026 0 1.1939863062482026 85.007654699500819 0 0 0 0 -7.7724306174379549 8.1927062417581737 0 8.1927062417581737 9.6759469210297198 0 0 0 0 3.3781147496670201 26.009285186475608 0 26.009285186475608 4.711068825883558 0 0 0 0 1.9298944302679502 34.586166851935559 0 34.586166851935559 -0.8992568873509299 0 0 0 0 -18.629937587939366 54.186911622964544 0 54.186911622964544 -18.261171662190463 0 0 0 0 -50.969648718282997 44.298110632909811 0 44.298110632909811 15.92873142438475 0 0 0 0 -4.8623872849262817 15.264245585424717 0 15.264245585424717 5.0272410767710198 0 0 0 0 -4.7152726268167866 12.473730037897315 0 12.473730037897315 32.593724572551764 0 0 0 0 -9.8002159702582503 15.118292206854676 0 15.118292206854676 57.815900246246656 0 0 0 0 -3.2975988943943539 12.530047869469342 0 12.530047869469342 18.446362764393598 0 0 0 0 -24.542936541873729 22.26067889983824 0 22.26067889983824 31.903896916977828 0 0 0 0 -9.3621055189391882 17.408736340061296 0 17.408736340061296 31.51712512402446 0 0 0 0 -10.681825547903628 7.9454977238762865 0 7.9454977238762865 23.060243962007064 0 0 0 0 2.9803463730677322 4.0350358055293327 0 4.0350358055293327 38.749743849766674 0 0 0 0 -7.042734161656881 17.561196628550533 0 17.561196628550533 31.072471446255804 0 0 0 0 -26.555889879340612 14.091430280619534 0 14.091430280619534 14.7032466288656 0 0 0 0 -10.577918870548274 15.748970782202377 0 15.748970782202377 31.751233084738487 0 0 0 0 -5.7137494729922764 14.301555876343627 0 14.301555876343627 30.792450128181372 0 0 0 0 -2.3016927452604667 -4.0685273881572144 0 -4.0685273881572144 44.046422012703886 0 0 0 0 -37.222922712987383 -7.6704946505342377 0 -7.6704946505342377 28.747356482315809 0 0 0 0 3.9203927484844905 30.283744175810931 0 30.283744175810931 17.684763645954547 0 0 0 0 -31.08366021518259 8.9076853540100274 0 8.9076853540100274 29.711277967726346 0 0 0 0 0.35638719425623755 -0.10022819713428532 0 -0.10022819713428532 28.291675092639935 0 0 0 0 -31.231045826176342 -13.040375943382969 0 -13.040375943382969 47.333770413941238 0 0 0 0 -30.12913122678583 0.97557089803740382 0 0.97557089803740382 20.887860053975601 0 0 0 0 -3.5537090835311016 -3.6937151730961091 0 -3.6937151730961091 37.17297819798074 0 0 0 0 -3.2268902394309493 -21.199178893663429 0 -21.199178893663429 32.89965351986865 0 0 0 0 20.224271250292077 40.0338978524087 0 40.0338978524087 64.137234426336363 0 0 0 0 -11.360148866089347 27.143987722363818 0 27.143987722363818 53.190835580448038 0 0 0 0 -14.716230404682051 26.864207864211494 0 26.864207864211494 75.1145049269835 0 0 0 0 -5.9169640928290548 12.763587263274871 0 12.763587263274871 19.68271953891329 0 0 0 0 7.4870073182837587 -5.5105190681351814 0 -5.5105190681351814 75.278335528579191 0 0 0 0 -17.764654851299838 19.905636201656307 0 19.905636201656307 92.825962089176755 0 0 0 0 -4.7471368810865897 16.757420710215229 0 16.757420710215229 74.691585861163276 0 0 0 0 -2.8747110060417072 -9.921667413218529 0 -9.921667413218529 94.296628556953692 0 0 0 0 -16.877541981483546 -15.439800639986061 0 -15.439800639986061 95.203795172536047 0 0 0 0 -3.1334014334085074 5.7615563232597253 0 5.7615563232597253 66.102415502426311 0 0 0 0 21.180886351104164 -104.58843652487849 0 -104.58843652487849 40.803455735149328 0 0 0 0 -6.2421991772074765 -11.175695179617747 0 -11.175695179617747 12.408482598325236 0 0 0 0 50.739614398973572 16.501995333324885 0 16.501995333324885 57.814600753830746 0 0 0 0 -2.0024227944131781 38.72424892946583 0 38.72424892946583 166.64355321298353 0 0 0 0 44.354466972799855 44.444906527933199 0 44.444906527933199 58.497898586792871 0 0 0 0 30.99385854353477 -34.897718892738339 0 -34.897718892738339 106.92339982424892 0 0 0 0 17.924830326067422 39.460922000333085 0 39.460922000333085 159.7522218858503 0 0 0 0 18.099446413283431 -6.6201695449926774 0 -6.6201695449926774 74.723024318838725 0 0 0 0 26.854160483686883 -0.23658258057548665 0 -0.23658258057548665 54.720323683432071 0 0 0 0 7.5076294826254752 24.172753458846273 0 24.172753458846273 77.686536429537227 0 0 0 0 -1.4323123207946082 -0.50863699287583586 0 -0.50863699287583586 80.602469532183022 0 0 0 0 -22.103618351545606 11.954855064395815 0 11.954855064395815 71.046116536483169 0 0 0 0 -5.2343347243957226 -8.5991602190842968 0 -8.5991602190842968 63.50115399666538 0 0 0 0 -16.16193703935042 0.074370829759573098 0 0.074370829759573098 51.579511706600897 0 0 0 0 -16.160897124294053 0.42062222603271948 0 0.42062222603271948 129.7945170612511 0 0 0 0 -16.566583805300091 -11.374791294481838 0 -11.374791294481838 69.188302909460617 0 0 0 0 -42.188781648845094 -26.279045258859696 0 -26.279045258859696 86.445228795266303 0 0 0 0 -1.4918341892534026 1.0039226113303363 0 1.0039226113303363 65.54708663914522 0 0 0 0 -37.599565933417267 8.6723225409405131 0 8.6723225409405131 82.274007488740608 0 0 0 0 -22.11832762646327 7.7812507873713912 0 7.7812507873713912 64.516811556721223 0 0 0 0 14.452437449807803 11.463112585319323 0 11.463112585319323 31.182371532770048 0 0 0 0 -5.1554323581422068 -3.4077992406309932 0 -3.4077992406309932 43.4915524224416 0 0 0 0 -4.1384159350918921 -3.170916872074713 0 -3.170916872074713 11.093739173558902 0 0 0 0 0.70492433519085096 1.9622950830756452 0 1.9622950830756452 4.7494798317393929 0 0 0 0 -3.1451091524322692 31.463307178069954 0 31.463307178069954 30.480386986542726 0 0 0 0 -32.448195270946186 24.82286670855683 0 24.82286670855683 168.75270020513562 0 0 0 0 27.404516665046685 -114.55475803423906 0 -114.55475803423906 109.39742056153773 0 0 0 0 1.1665097321359812 3.0913994811756531 0 3.0913994811756531 0.0084883907958896998 0 0 0 0 -2.2460808169198572 12.20350279561535 0 12.20350279561535 22.001541662983072 0 0 0 0 -4.1106717461298103 6.2320758512287284 0 6.2320758512287284 26.019209928366763 0 0 0 0 -0.6870345495293172 5.1348042983559248 0 5.1348042983559248 20.202684268590247 0 0 0 0 0.34955005796822158 7.0950198622577432 0 7.0950198622577432 13.036194802762395 0 0 0 0 75.18444163002664 -38.919813726170105 0 -38.919813726170105 74.838303075546719 0 0 0 0 45.603782371146899 45.751488119065471 0 45.751488119065471 213.73938819933392 0 0 0 0 8.8630409169104496 -47.44133304283605 0 -47.44133304283605 59.230838711198885 0 0 0 0 0.54241191438752923 1.3825388287789906 0 1.3825388287789906 1.9251773238211172 0 0 0 0 12.205002881925832 46.10868376315193 0 46.10868376315193 -25.509924231482728 0 0 0 0 -18.630894367816495 -83.998954476192011 0 -83.998954476192011 61.258162070414983 0 0 0 0 -7.1969919000016702 -32.144779196976742 0 -32.144779196976742 81.610031943302602 0 0 0 0 0.10100371338068366 14.052392601733629 0 14.052392601733629 -15.863047900696984 0 0 0 0 -115.64346183961055 -199.50263636291493 0 -199.50263636291493 111.92243438761216 0 0 0 0 0.010444235237147936 0.33255270473350151 0 0.33255270473350151 0.8581954679304431 0 0 0 0 -0.75987989991202265 -0.53546413329186748 0 -0.53546413329186748 -1.020067575104548 0 0 0 0 5.8657893224727893 -45.845880235268851 0 -45.845880235268851 71.823042575881118 0 0 0 0 174.53101554258609 32.170051750923449 0 32.170051750923449 57.377634016302181 0 0 0 0 -25.134500060762356 -79.98103537253337 0 -79.98103537253337 96.912619688955601 0 0 0 0 5.2832785690611761 -42.16800681532186 0 -42.16800681532186 87.363391442224383 0 0 0 0 -14.776070225020547 -23.558440636246814 0 -23.558440636246814 84.282105374317325 0 0 0 0 -15.462070763279515 -17.500004739654287 0 -17.500004739654287 181.85779905490926 0 0 0 0 -10.512144822134807 32.297197335501551 0 32.297197335501551 180.82309701459599 0 0 0 0 -11.06629261833934 9.1873076348565519 0 9.1873076348565519 157.1487850479316 0 0 0 0 0.25047828400552896 73.656869690035819 0 73.656869690035819 279.64093700319063 0 0 0 0 41.968181749745739 22.32040881580906 0 22.32040881580906 227.72553867365059 0 0 0 0 -65.833540765090973 -9.9102430010389071 0 -9.9102430010389071 274.56015572221077 0 0 0 0 -24.221679223811304 47.0169245420675 0 47.0169245420675 275.87360103236279 0 0 0 0 0.82764839309244076 1.9558757300140428 0 1.9558757300140428 2.5006594376474141 0 0 0 0 -12.530399202464281 8.9749389890675957 0 8.9749389890675957 11.004181673371932 0 0 0 0 -1.1557593891876983 -0.24916889372980222 0 -0.24916889372980222 8.7709221240875195 0 0 0 0 79.543119417556653 137.17690879650763 0 137.17690879650763 203.90217040169227 0 0 0 0 0.42446982908979147 1.7468311261675638 0 1.7468311261675638 5.226338024450186 0 0 0 0 -0.0041696899015450902 -3.0637116450379835 0 -3.0637116450379835 14.88712571861106 0 0 0 0 -1.5485799037511467 -2.2972212485501586 0 -2.2972212485501586 16.93704385185265 0 0 0 0 -2.5229887709652092 -2.5795196181134088 0 -2.5795196181134088 17.745454280186095 0 0 0 0 0.6749388195110555 6.2036252786310797 0 6.2036252786310797 40.787379566725576 0 0 0 0 -3.9609944211039796 -2.1008619746143893 0 -2.1008619746143893 18.180391363909166 0 0 0 0 16.910022908060874 42.140178889691015 0 42.140178889691015 89.248294466691732 0 0 0 0 3.7155354752896965 7.0219196671089321 0 7.0219196671089321 -2.9885880419434727 0 0 0 0 43.947677504044663 74.380628319820971 0 74.380628319820971 112.96694887446938 0 0 0 0 -11.73329633951454 20.490411834277438 0 20.490411834277438 103.73948247815133 0 0 0 0 -0.94156415733068854 47.890283999564417 0 47.890283999564417 114.84285807033302 0 0 0 0 -45.741729017873595 27.310105142358225 0 27.310105142358225 106.74867433836334 0 0 0 0 -21.051089480945251 16.942490897810785 0 16.942490897810785 92.419242578180274 0 0 0 0 -37.208892973668014 -9.3192781181533064 0 -9.3192781181533064 90.265232167410431 0 0 0 0 -21.40171174433226 -17.842582801968092 0 -17.842582801968092 75.288733202592994 0 0 0 0 -0.61547954343049882 -0.077623300508426141 0 -0.077623300508426141 73.367800062840672 0 0 0 0 -1.3673327584078323 0.40007840876765499 0 0.40007840876765499 22.576527341045463 0 0 0 0 -14.776945337469513 -14.436442305615856 0 -14.436442305615856 53.551597803336335 0 0 0 0 -0.21005266947473245 6.776548537729119 0 6.776548537729119 58.643624998084988 0 0 0 0 0.07848339211500388 0.52873428184830118 0 0.52873428184830118 141.94511492878519 0 0 0 0 -1.0824434588312215 10.256001934507367 0 10.256001934507367 57.531009175974759 0 0 0 0 -0.79406266392970792 6.848273412178969 0 6.848273412178969 61.912417827174067 0 0 0 0 -2.6691332068841431 9.7042448426114447 0 9.7042448426114447 11.653677425537794 0 0 0 0 -1.8363795300146259 -6.5293701930513919 0 -6.5293701930513919 13.965283571589744 0 0 0 0 -60.952211694567161 -91.402351850774835 0 -91.402351850774835 4.2317737778503215 0 0 0 0 21.246950812354953 -35.728488348730025 0 -35.728488348730025 31.640857739523199 0 0 0 0 -0.41785021488759344 -7.0490946992793546 0 -7.0490946992793546 79.770472524914851 0 0 0 0 -9.4846401799309206 0.22404288868710864 0 0.22404288868710864 91.074497813649941 0 0 0 0 222.66057819620971 21.190309677913319 0 21.190309677913319 -91.100662493059644 0 0 0 0 1.3389104887388013 -1.7467751511082952 0 -1.7467751511082952 2.4334124469834251 0 0 0 0 45.406310714117552 5.5348035734623409 0 5.5348035734623409 -26.6222232734508 0 0 0 0 -50.797704815688888 -29.434823814866832 0 -29.434823814866832 247.16567680671142 0 0 0 0 -0.14559681407395575 -0.44966728367680275 0 -0.44966728367680275 3.088361826706624 0 0 0 0 -0.86360672095867053 -7.5683018159761559 0 -7.5683018159761559 4.5445384584600106 0 0 0 0 1.729277105324025 -5.1292761861072478 0 -5.1292761861072478 7.4944043741108999 0 0 0 0 4.9887627796535803 -1.2182102093793219 0 -1.2182102093793219 147.42297125105688 0 0 0 0 0.01019638456353982 -4.3430533102582558 0 -4.3430533102582558 150.3602530384087 0 0 0 0 0.74493604695716975 -5.500292498501949 0 -5.500292498501949 147.32293348600638 0 0 0 0 0.51997962600212055 -5.2140035434931633 0 -5.2140035434931633 148.61382887908258 0 0 0 0 0.73273733043526335 -6.0887859779904829 0 -6.0887859779904829 147.17126022801244 0 0 0 0 0.32640130857645566 -5.8433402362206834 0 -5.8433402362206834 147.37787475554796 0 0 0 0 0.82807146833534517 -8.2906512538756942 0 -8.2906512538756942 147.46577297122303 0 0 0 0 -2.0964672611139346 -7.5562247269917862 0 -7.5562247269917862 156.93516191441449 0 0 0 0 0.41876755237933688 0.31576262658242626 0 0.31576262658242626 -2.8485637245718038 0 0 0 0 21.571598234697891 5.4469265102925419 0 5.4469265102925419 75.283482805374661 0 0 0 0 -2.7306460181524308 28.049453777901363 0 28.049453777901363 160.31639153882861 0 0 0 0 0.69071187518066868 11.124364095900091 0 11.124364095900091 148.67182637762744 0 0 0 0 -12.827438048839376 17.161325056767964 0 17.161325056767964 148.69354491018748 0 0 0 0 0.21693418549956503 -0.026432481773525751 0 -0.026432481773525751 0.6741861449960993 0 0 0 0 3.1552814637711997 -6.1591632384188415 0 -6.1591632384188415 136.98980949711404 0 0 0 0 -0.003265637977245499 -0.68193239633546909 0 -0.68193239633546909 154.55319868361403 0 0 0 0 -2.1387919502229158 -17.261010360292858 0 -17.261010360292858 134.97760882343573 0 0 0 0 4.2921798206463455 -12.587038010020478 0 -12.587038010020478 76.550592477084137 0 0 0 0 -0.022383965090814865 -2.0396691834466765 0 -2.0396691834466765 116.51174254251237 0 0 0 0 -31.401810615776739 -17.587131355961901 0 -17.587131355961901 132.86149978674075 0 0 0 0 -9.4600788702962042 -29.212229700708122 0 -29.212229700708122 14.494552481453866 0 0 0 0 -10.348779675691725 -12.211764522820886 0 -12.211764522820886 77.676334597159439 0 0 0 0 0.055838723450723757 -5.8842189943097765 0 -5.8842189943097765 53.682382963350392 0 0 0 0 -37.672468279713328 58.374295437111869 0 58.374295437111869 215.001972829632 0 0 0 0 0.17269180944626691 0.88718465865397889 0 0.88718465865397889 2.0002678265963141 0 0 0 0 -39.461930756855125 87.342745686625676 0 87.342745686625676 3.9380588385829469 0 0 0 0 -60.39443096123648 -48.162267360654369 0 -48.162267360654369 406.02660977200139 0 0 0 0 -30.05690775912808 -160.99928101526166 0 -160.99928101526166 372.50601819567237 0 0 0 0 -0.090090688813098826 -31.470730721477594 0 -31.470730721477594 276.41713869036175 0 0 0 0 42.137435213410811 -240.82011421159768 0 -240.82011421159768 342.28160550986649 0 0 0 0 1.6644356476306776 1.1149704547829344 0 1.1149704547829344 3.6641625004053822 0 0 0 0 5.6824368600689468 -11.752559649452451 0 -11.752559649452451 446.45801274900441 0 0 0 0 4.7744270910570776 16.444639978464693 0 16.444639978464693 34.260466150532011 0 0 0 0 184.34100520908714 -61.352258862621966 0 -61.352258862621966 17.105670360382646 0 0 0 0 -22.724898823475314 -87.879982025639038 0 -87.879982025639038 157.88657384771795 0 0 0 0 -19.357029145105059 -105.46705634880345 0 -105.46705634880345 177.42375764304234 0 0 0 0 6.073636486844407 -10.182745559228351 0 -10.182745559228351 440.75637812903733 0 0 0 0 -25.264739238146234 -134.14622777840123 0 -134.14622777840123 143.33940053806873 0 0 0 0 167.36946971333938 -167.17529209577333 0 -167.17529209577333 212.71749811817426 0 0 0 0 13.499679878092593 -152.62856484189979 0 -152.62856484189979 430.95369770255638 0 0 0 0 -85.524714195177012 -15.755038964696723 0 -15.755038964696723 251.64470885254559 0 0 0 0 -37.290284227433553 18.156217968671626 0 18.156217968671626 64.284594224009197 0 0 0 0 0.80359503615460159 2.0400563731037948 0 2.0400563731037948 3.3093393213636659 0 0 0 0 -26.689772119898123 164.05314005090622 0 164.05314005090622 61.325916120096736 0 0 0 0 0.89096476373272537 -44.135896268511715 0 -44.135896268511715 82.323718135638046 0 0 0 0 -26.424202071160977 4.3727574119184283 0 4.3727574119184283 169.62026942677767 0 0 0 0 6.2715961949907744 -77.236953894099315 0 -77.236953894099315 223.73836167900299 0 0 0 0 0.76657857782658034 1.0319595118600944 0 1.0319595118600944 1.4167653729879817 0 0 0 0 143.23017854172849 63.233795061511046 0 63.233795061511046 95.51182544270705 0 0 0 0 109.93955152346652 141.17835751752864 0 141.17835751752864 -36.218817983452027 0 0 0 0 -28.086888968371454 15.896640485218086 0 15.896640485218086 95.17566506107687 0 0 0 0 45.973923361467143 -47.477456880424143 0 -47.477456880424143 4.9901108452177141 0 0 0 0 184.34332116156693 -199.53497033114218 0 -199.53497033114218 -35.868961453641532 0 0 0 0 288.48768766994618 78.405492614074319 0 78.405492614074319 27.531216082155879 0 0 0 0 112.53569823864868 102.96820026855494 0 102.96820026855494 472.12564927543281 0 0 0 0 89.053206415849047 -59.441182691974973 0 -59.441182691974973 -3.9058259988632926 0 0 0 0 87.535427170875778 -277.65927923830168 0 -277.65927923830168 516.56620988903342 0 0 0 0 15.894122069177854 -151.24524078073046 0 -151.24524078073046 304.81888339822763 0 0 0 0 261.17734674836493 157.4261044582563 0 157.4261044582563 7.6794905597053003 0 0 0 0 191.83099419957057 -19.796601511436165 0 -19.796601511436165 6.1116880890913308 0 0 0 0 3.3954662528006101 1.7981943477330731 0 1.7981943477330731 1.2789241280039505 0 0 0 0 29.304765911234682 111.78329061057957 0 111.78329061057957 -1.1681404786650091 0 0 0 0 45.472684499322668 119.40754476908478 0 119.40754476908478 -19.239053785269789 0 0 0 0 21.236366387409674 89.356042428084038 0 89.356042428084038 -30.804873289016541 0 0 0 0 73.125721306442983 22.781214029189869 0 22.781214029189869 -35.026571483642329 0 0 0 0 4.4875647947042125 13.20339957709075 0 13.20339957709075 11.401132252365642 0 0 0 0 10.185405679254046 -17.251017345308355 0 -17.251017345308355 320.93278499922599 0 0 0 0 6.7092742591736219 6.0080709533423828 0 6.0080709533423828 6.0506984061580624 0 0 0 0 6.4155121522335321 -5.4921192730835173 0 -5.4921192730835173 6.1790920620260295 0 0 0 0 -143.00389851459485 86.358677710915799 0 86.358677710915799 25.714605495290016 0 0 0 0 25.673470152321443 15.553916074190056 0 15.553916074190056 95.773406877637171 0 0 0 0 41.442905410292511 11.400370589898813 0 11.400370589898813 26.390358270557584 0 0 0 0 63.004360822556919 -52.672213482532243 0 -52.672213482532243 160.96369721411611 0 0 0 0 72.460813177436648 -56.435645621517324 0 -56.435645621517324 138.35208063101163 0 0 0 0 3.5506861419517461 7.5762789118640157 0 7.5762789118640157 76.409172130955767 0 0 0 0 -136.00308694312707 158.68382374684734 0 158.68382374684734 25.645788585548871 0 0 0 0 -8.2079999212286783 27.643422666987448 0 27.643422666987448 82.241360965760691 0 0 0 0 -34.421643968228182 19.864338734478224 0 19.864338734478224 61.422656113645644 0 0 0 0 -3.7280041378064794 -6.6244919370328859 0 -6.6244919370328859 51.993581139704162 0 0 0 0 -157.25612335472761 82.098569991561817 0 82.098569991561817 17.995413240976632 0 0 0 0 -6.647062939590433 95.752773805945651 0 95.752773805945651 26.005132329561889 0 0 0 0 22.287871631501048 192.5450696811331 0 192.5450696811331 28.24496521987021 0 0 0 0 -353.39499351786878 -10.161258178392018 0 -10.161258178392018 282.34851221919234 0 0 0 0 -197.98339139501024 231.72150455381052 0 231.72150455381052 623.5608040040388 0 0 0 0 1.0076568594750257 -3.8494345049144378 0 -3.8494345049144378 84.189833343167777 0 0 0 0 -121.06780900839908 86.590851244531223 0 86.590851244531223 -10.940593815001193 0 0 0 0 62.401457837833732 -47.480328095603909 0 -47.480328095603909 155.20366029061552 0 0 0 0 -18.248572543338469 -35.477106689122593 0 -35.477106689122593 67.588390486620483 0 0 0 0 1.8064861831999686 4.7750676210976337 0 4.7750676210976337 31.385769222873478 0 0 0 0 -20.58430930785849 3.6777208567355189 0 3.6777208567355189 98.785726370520877 0 0 0 0 61.090896413834344 -50.96901917930154 0 -50.96901917930154 150.2578476628114 0 0 0 0 99.278433856140367 -104.29566174608044 0 -104.29566174608044 35.701517589564901 0 0 0 0 -223.4785062462355 56.656748905028508 0 56.656748905028508 -11.699125292443796 0 0 0 0 1.7138490145472387 5.3398148851717906 0 5.3398148851717906 13.686609807702439 0 0 0 0 85.746283014125765 -28.01322631234143 0 -28.01322631234143 18.053917050739983 0 0 0 0 -13.137785074773092 -13.537749383671326 0 -13.537749383671326 51.692696040961891 0 0 0 0 20.617660700782892 -95.39660151854514 0 -95.39660151854514 80.983119667245774 0 0 0 0 -266.48453484957406 -162.75463606124686 0 -162.75463606124686 126.21976463904139 0 0 0 0 -181.52910639375659 -106.83805253664104 0 -106.83805253664104 155.73630564544874 0 0 0 0 1.7512545494731091 -16.290321683146928 0 -16.290321683146928 104.05726007073383 0 0 0 0 -7.3180987134624047 -178.44050033134408 0 -178.44050033134408 111.24529569609149 0 0 0 0 153.37501350560592 -63.052917407148925 0 -63.052917407148925 65.273220817325637 0 0 0 0 78.941719154113144 4.4761131533514344 0 4.4761131533514344 368.51031622399751 0 0 0 0 82.79764317022557 5.4382550690634162 0 5.4382550690634162 90.018124399706721 0 0 0 0 25.589868479051006 66.624046158098281 0 66.624046158098281 188.51789179930347 0 0 0 0 -165.40008966776713 17.884619008833397 0 17.884619008833397 139.46479707918934 0 0 0 0 0.13280668723384537 -4.2867815284318738 0 -4.2867815284318738 40.437930043808507 0 0 0 0 -140.98569400322413 97.180831775935076 0 97.180831775935076 360.55390582244581 0 0 0 0 -77.870239690298433 -85.401741481868157 0 -85.401741481868157 110.83592570779729 0 0 0 0 1.1184634640929314 -14.882146150444109 0 -14.882146150444109 120.3932352304185 0 0 0 0 -15.816106118866742 -70.745394930403563 0 -70.745394930403563 58.807125452265609 0 0 0 0 -11.523743699526541 -33.166483776883979 0 -33.166483776883979 204.76502391597023 0 0 0 0 42.816698854383461 -110.47290789476392 0 -110.47290789476392 102.72633628995391 0 0 0 0 66.824498000444464 99.453114399861079 0 99.453114399861079 219.1839826658877 0 0 0 0 0.042098246631046748 -3.2123183578906946 0 -3.2123183578906946 23.99226357798576 0 0 0 0 -1.4150696753130134 -63.492836051562335 0 -63.492836051562335 54.007205575704575 0 0 0 0 -6.1758387593587187 -15.56860972114373 0 -15.56860972114373 155.9416364696317 0 0 0 0 -13.934778879281154 -7.8754669596164604 0 -7.8754669596164604 148.51325996674132 0 0 0 0 0.42512130007886029 -3.922802675901039 0 -3.922802675901039 147.77759986805904 0 0 0 0 -9.087537338941921 -9.91439686693775 0 -9.91439686693775 148.68153825009358 0 0 0 0 -1.8938121319111385 -10.019151895921823 0 -10.019151895921823 144.77285600233881 0 0 0 0 -8.6213223101929941 -20.141537272087589 0 -20.141537272087589 133.15037777526595 0 0 0 0 -8.5439150034198974 177.68153437735236 0 177.68153437735236 225.9927762477455 0 0 0 0 -135.02869668546191 -24.181383202914731 0 -24.181383202914731 97.258970261133982 0 0 0 0 3.1533209899054149 -7.9650684959229494 0 -7.9650684959229494 16.220416619804041 0 0 0 0 124.12563354414146 190.8720404386404 0 190.8720404386404 123.63340123037051 0 0 0 0 43.153941573026714 203.24451037737163 0 203.24451037737163 231.07240525065208 0 0 0 0 -30.451368865820768 96.198877544324205 0 96.198877544324205 336.79967588993895 0 0 0 0 2.9791697443354344 -18.937020315648152 0 -18.937020315648152 130.45296798290968 0 0 0 0 227.16420857769674 136.38044677737162 0 136.38044677737162 122.78467474956415 0 0 0 0 21.994947192200499 -76.395879176860035 0 -76.395879176860035 -80.864467394087114 0 0 0 0 2.4961041002034019 -4.1057586557413686 0 -4.1057586557413686 4.9654739456625521 0 0 0 0 153.2591304174457 264.5145694959574 0 264.5145694959574 284.02316391713975 0 0 0 0 181.03332296958467 -215.7252362873769 0 -215.7252362873769 -0.6188296872205683 0 0 0 0 -235.03746271236923 -196.72197578111809 0 -196.72197578111809 0.21746340618119575 0 0 0 0 21.226553157421449 -91.305787861090721 0 -91.305787861090721 40.169515085450257 0 0 0 0 39.075124610142211 12.352115590249014 0 12.352115590249014 -0.43608138717172551 0 0 0 0 -17.461673464255 -44.312305498213391 0 -44.312305498213391 103.9738991556369 0 0 0 0 -16.859036590209143 -12.700730157346698 0 -12.700730157346698 115.95511970598091 0 0 0 0 -59.496665481298351 40.531830176843869 0 40.531830176843869 172.13657293625874 0 0 0 0 -25.515947421906233 12.496886837638428 0 12.496886837638428 112.14520552929361 0 0 0 0 -20.661491210059847 17.168390308500598 0 17.168390308500598 29.617525876537854 0 0 0 0 13.609552200271537 10.691200216631387 0 10.691200216631387 94.771990643625031 0 0 0 0 -10.035479470423979 -67.14191852337899 0 -67.14191852337899 173.61638434746419 0 0 0 0 -35.324228552567547 29.317695718460527 0 29.317695718460527 160.04346022741083 0 0 0 0 -24.616493365461729 17.851022836913998 0 17.851022836913998 117.47335732950989 0 0 0 0 21.824542131013004 -23.619667994997144 0 -23.619667994997144 105.00146400271569 0 0 0 0 19.557693377575788 -16.497018434783968 0 -16.497018434783968 138.87543632052257 0 0 0 0 106.74803455112487 15.331705852477171 0 15.331705852477171 150.40988795955855 0 0 0 0 7.1583385026619908 -37.265608180255867 0 -37.265608180255867 270.19974380916392 0 0 0 0 6.2388476024611919 -20.823311018641107 0 -20.823311018641107 170.0553253892358 0 0 0 0 13.165996361449288 -28.18340809298752 0 -28.18340809298752 142.11837196724809 0 0 0 0 -310.4850499785241 718.5857896718444 0 718.5857896718444 388.9381187813924 0 0 0 0 -21.970187107714811 19.5901513255221 0 19.5901513255221 116.67259001722837 0 0 0 0 552.43705413705516 198.9694432921533 0 198.9694432921533 -265.58964768898295 0 0 0 0 -4.8023194315956061 -34.23784349075504 0 -34.23784349075504 173.70699425537896 0 0 0 0 -360.32419719876361 4.0283218893891899 0 4.0283218893891899 166.52980667706106 0 0 0 0 -220.20993367327179 -386.22419271253602 0 -386.22419271253602 546.04590047505917 0 0 0 0 27.450564427045038 92.995944328706173 0 92.995944328706173 559.89999632108083 0 0 0 0 470.59464096154943 -119.26499878717732 0 -119.26499878717732 374.93781318172114 0 0 0 0 214.79491302542851 -178.21089244792529 0 -178.21089244792529 210.45445153948094 0 0 0 0 -0.58334825954221925 0.244610755317197 0 0.244610755317197 5.3166098549252183 0 0 0 0 -29.753549860069285 -313.39281546058191 0 -313.39281546058191 -420.99514579901006 0 0 0 0 -4.0944053240054927 -15.523155290567956 0 -15.523155290567956 153.77740661261487 0 0 0 0 27.310174569078299 -28.419945352936338 0 -28.419945352936338 141.3086553625144 0 0 0 0 17.536527195274175 -47.725755926743659 0 -47.725755926743659 161.60957487544511 0 0 0 0 51.627172346337829 -39.891410029573308 0 -39.891410029573308 145.90715886209364 0 0 0 0 33.928117523309993 -56.298762162026833 0 -56.298762162026833 157.55107203061925 0 0 0 0 36.433579295206073 -52.846217602800607 0 -52.846217602800607 147.30450905980251 0 0 0 0 -22.694416461725567 16.861440818941546 0 16.861440818941546 105.84037541767051 0 0 0 0 54.689065980304804 -38.194545788770483 0 -38.194545788770483 138.20445644852589 0 0 0 0 -124.18715296867038 347.13017956208932 0 347.13017956208932 41.240805413166527 0 0 0 0 53.31639973046822 -41.926358507003897 0 -41.926358507003897 140.98794467386324 0 0 0 0 65.554922932082263 -54.069617858283891 0 -54.069617858283891 140.36608088944922 0 0 0 0 61.762072380919562 -42.476521649216011 0 -42.476521649216011 131.92021292481513 0 0 0 0 60.795993690013347 -61.079569085748517 0 -61.079569085748517 157.76481880460051 0 0 0 0 67.791480486084765 -48.276998425077181 0 -48.276998425077181 147.13262428920279 0 0 0 0 61.960767857584869 -48.729270909141633 0 -48.729270909141633 142.11065533653709 0 0 0 0 50.482637052169594 -50.65242314347779 0 -50.65242314347779 153.68175166602305 0 0 0 0 54.129978641315574 -50.729613757499465 0 -50.729613757499465 147.55652665783418 0 0 0 0 28.427572025094115 13.603421689170148 0 13.603421689170148 4.3607052266265072 0 0 0 0 34.148052169602607 29.045582369673866 0 29.045582369673866 38.524296785915794 0 0 0 0 17.785704550059137 5.2034155458404712 0 5.2034155458404712 30.125792400918726 0 0 0 0 25.805534072357318 15.835842626682279 0 15.835842626682279 50.930406920226233 0 0 0 0 62.891291758161969 -45.583296766963031 0 -45.583296766963031 157.59786436674767 0 0 0 0 -2.4079487061941336 -0.2108534732433327 0 -0.2108534732433327 18.003447854724072 0 0 0 0 18.115790357655847 7.9446573415918351 0 7.9446573415918351 3.7240883878818494 0 0 0 0 47.816905759871588 -65.126105464012653 0 -65.126105464012653 137.64074683102808 0 0 0 0 31.890087246903619 11.793814104756166 0 11.793814104756166 3.8924512208432134 0 0 0 0 21.43568737429861 -7.1474896868612632 0 -7.1474896868612632 5.8361332005733857 0 0 0 0 77.63936708587795 -43.561310888499065 0 -43.561310888499065 56.409918099088827 0 0 0 0 7.0461787987762587 2.7666875835125779 0 2.7666875835125779 3.1279152894161797 0 0 0 0 29.6466968101563 -77.648646469668165 0 -77.648646469668165 158.68853449024027 0 0 0 0 31.378031349553567 -78.825097164270119 0 -78.825097164270119 147.73226437503763 0 0 0 0 31.721561637237755 -66.96812287146895 0 -66.96812287146895 162.23160335436842 0 0 0 0 25.987247973508602 -81.972160270008317 0 -81.972160270008317 167.03276391686995 0 0 0 0 13.718582868132216 -42.953378571357462 0 -42.953378571357462 156.06013108870684 0 0 0 0 3.6725391968268468 -54.395449113642826 0 -54.395449113642826 207.35419236449525 0 0 0 0 31.534387864364589 -107.77668526516572 0 -107.77668526516572 245.06197429030726 0 0 0 0 27.638587384992206 -81.319975052887457 0 -81.319975052887457 158.35679587876575 0 0 0 0 50.545908920922557 -49.436107371970138 0 -49.436107371970138 217.62626873065892 0 0 0 0 50.200831232204564 -31.313238461800211 0 -31.313238461800211 439.96186046468938 0 0 0 0 0.17468672883620717 -1.1200253468217021 0 -1.1200253468217021 5.1607022576816064 0 0 0 0 134.2034889522738 -168.87466519704685 0 -168.87466519704685 240.65529963837616 0 0 0 0 433.67662138032165 -8.8492018724537047 0 -8.8492018724537047 12.339638335339259 0 0 0 0 27.970995953262786 44.3892165919533 0 44.3892165919533 151.24552470451454 0 0 0 0 322.08541400642343 113.38829763063222 0 113.38829763063222 166.25607865471829 0 0 0 0 315.89430269687688 -98.208997197267308 0 -98.208997197267308 6.3353767692606198 0 0 0 0 177.35820437591661 111.61705017255736 0 111.61705017255736 -56.843135190945759 0 0 0 0 122.93385954065843 -118.48076236378256 0 -118.48076236378256 100.96271167556552 0 0 0 0 380.29661533466833 -37.461072717516799 0 -37.461072717516799 24.251940978865605 0 0 0 0 -1.0044037383585782 0.76519090732824679 0 0.76519090732824679 2.7149040003780556 0 0 0 0 299.45699741372852 -99.859201208462764 0 -99.859201208462764 36.572639025078388 0 0 0 0 237.03107277381105 -17.80093447775289 0 -17.80093447775289 -60.735430944041582 0 0 0 0 2.5375554962319598 -3.6982868210034212 0 -3.6982868210034212 12.40255523198357 0 0 0 0 0.57792332088688791 0.76422966744450704 0 0.76422966744450704 8.9782817694298274 0 0 0 0 -27.659194227692524 112.89788722676531 0 112.89788722676531 -26.883125255037157 0 0 0 0 12.415677017919847 29.896117816644619 0 29.896117816644619 19.926968993313494 0 0 0 0 81.695005054851819 -0.32709646856892505 0 -0.32709646856892505 28.848555786382349 0 0 0 0 117.43205518669721 -6.4647066961842938 0 -6.4647066961842938 11.335896061762469 0 0 0 0 84.449639403063841 8.6191522247536341 0 8.6191522247536341 43.180668132168648 0 0 0 0 0.043252397059463488 0.52685717762698658 0 0.52685717762698658 5.79705232446031 0 0 0 0 -148.40829020598994 6.3084424481494352 0 6.3084424481494352 85.831859986574273 0 0 0 0 -128.34784732873811 -8.3891913481420488 0 -8.3891913481420488 63.860144661302911 0 0 0 0 -145.67635066730736 11.013028777924774 0 11.013028777924774 85.508301387048334 0 0 0 0 -465.42748321224144 -63.336457197223353 0 -63.336457197223353 47.041477449154627 0 0 0 0 -209.83135369711772 6.7856537140032742 0 6.7856537140032742 66.094479145096557 0 0 0 0 -193.11059256308477 -163.35659984425365 0 -163.35659984425365 -117.07493360397348 0 0 0 0 -156.09750914727647 134.17312321035206 0 134.17312321035206 -72.571681490499031 0 0 0 0 -5.4290941178365948 3.228885597059076 0 3.228885597059076 6.2419286092611941 0 0 0 0 -162.77236562805331 237.40523931859025 0 237.40523931859025 -119.27191557316837 0 0 0 0 -39.979631822004876 -121.35023472766989 0 -121.35023472766989 -180.28837295389803 0 0 0 0 -533.21725547570259 -50.540162043020246 0 -50.540162043020246 187.67977019667887 0 0 0 0 -208.66344612171224 -132.46563875831635 0 -132.46563875831635 182.53646532051971 0 0 0 0 -358.17770330931216 148.47236803740088 0 148.47236803740088 1.8001928307203343 0 0 0 0 -320.17942626417801 -33.77177293773326 0 -33.77177293773326 44.419817329762736 0 0 0 0 -175.48867467430046 25.649971501752589 0 25.649971501752589 68.072694958784268 0 0 0 0 -308.00418056192825 -122.84156270920175 0 -122.84156270920175 153.49355613014632 0 0 0 0 -162.73879072125419 427.29403995773464 0 427.29403995773464 -985.28580421365041 0 0 0 0 1.0002834274021204 -2.2296265426240467 0 -2.2296265426240467 2.0938894389086613 0 0 0 0 -321.49473281396507 -96.950800597064188 0 -96.950800597064188 212.32795821761829 0 0 0 0 -249.869151110438 -635.51718924480519 0 -635.51718924480519 1169.9954003950043 0 0 0 0 -309.63909328358 -118.94181885162652 0 -118.94181885162652 198.00261714984663 0 0 0 0 -267.50281988876168 -160.10445630524919 0 -160.10445630524919 144.35273727206368 0 0 0 0 -87.742346436779371 -188.82996692917368 0 -188.82996692917368 179.10751159386564 0 0 0 0 -271.73416870532719 -82.568508516429574 0 -82.568508516429574 128.33198522319799 0 0 0 0 -107.21756430047628 -75.172210118274961 0 -75.172210118274961 172.24442598047608 0 0 0 0 -225.04892596707114 -107.83031847027451 0 -107.83031847027451 255.4814439089314 0 0 0 0 -241.90298771121047 -151.71695414563146 0 -151.71695414563146 167.75520502701693 0 0 0 0 -72.272109807893912 -186.29554118635497 0 -186.29554118635497 447.7895100185051 0 0 0 0 328.91838069683013 -178.43102584712688 0 -178.43102584712688 145.60571561830875 0 0 0 0 88.558612123827515 -30.514674648249638 0 -30.514674648249638 176.73879724224389 0 0 0 0 290.7773464585315 92.396627654859913 0 92.396627654859913 251.32729601611209 0 0 0 0 40.284147768978983 -107.11149953021595 0 -107.11149953021595 63.578149199864129 0 0 0 0 184.83806443077967 -39.149272990987811 0 -39.149272990987811 88.976687045258586 0 0 0 0 -4.5605469079769705 -99.689201750592474 0 -99.689201750592474 80.31320716474147 0 0 0 0 54.41928249792835 -172.2772242007959 0 -172.2772242007959 148.95000482380601 0 0 0 0 -56.555353975987373 -131.26040335340076 0 -131.26040335340076 83.740553621195431 0 0 0 0 56.782892056431479 -109.39574935603559 0 -109.39574935603559 12.733253360536764 0 0 0 0 35.030376477979871 -239.86468407657958 0 -239.86468407657958 -9.0763834706813213 0 0 0 0 -4.6126793765171783 -57.183491931852586 0 -57.183491931852586 104.44244098546915 0 0 0 0 92.725012523654527 -42.826709573850167 0 -42.826709573850167 97.39310889893386 0 0 0 0 -94.517240373841446 -100.73954116093773 0 -100.73954116093773 108.02487273981387 0 0 0 0 -51.942381122896222 -97.107361674970889 0 -97.107361674970889 176.1626577439456 0 0 0 0 -137.69164137712278 -87.821719315965311 0 -87.821719315965311 179.07189896457021 0 0 0 0 -109.05405798153207 -188.50708015915916 0 -188.50708015915916 175.11630344225705 0 0 0 0 -146.91680942283904 -181.60648111423507 0 -181.60648111423507 180.27309035705912 0 0 0 0 -20.526934708872044 -195.45475856419398 0 -195.45475856419398 170.96347746441461 0 0 0 0 14.334782770184347 -372.67795667222344 0 -372.67795667222344 244.42034194935331 0 0 0 0 1.6468330640475433 -3.4272818184738796 0 -3.4272818184738796 9.6601200023495437 0 0 0 0 69.386403326815071 -288.87223515263577 0 -288.87223515263577 -168.40022398366182 0 0 0 0 169.22018667781231 110.96989569499056 0 110.96989569499056 136.68279087723204 0 0 0 0 434.78115513385569 460.6244858570717 0 460.6244858570717 570.97131514953435 0 0 0 0 1.9040628763643408 -7.9219519952451947 0 -7.9219519952451947 27.010755140096137 0 0 0 0 -468.99678401689835 -125.6814540645064 0 -125.6814540645064 167.70763254481062 0 0 0 0 164.46331458863301 113.55468222155832 0 113.55468222155832 135.6260626834046 0 0 0 0 -54.265441899687403 -115.61076002483969 0 -115.61076002483969 49.219086522691214 0 0 0 0 -284.88834501367819 47.815109371751532 0 47.815109371751532 -9.4277535446744878 0 0 0 0 78.09598182305308 126.02660878741153 0 126.02660878741153 79.14227633000246 0 0 0 0 633.33429684261796 150.61068662937851 0 150.61068662937851 76.598049958833144 0 0 0 0 23.348561005663214 -144.62313905786141 0 -144.62313905786141 103.98170907533495 0 0 0 0 285.58576590719872 -329.37982042561271 0 -329.37982042561271 448.24832130253344 0 0 0 0 -50.096356883173939 -12.575345018798544 0 -12.575345018798544 216.29252498675487 0 0 0 0 20.303721779759826 -226.77560054408332 0 -226.77560054408332 97.234033987362636 0 0 0 0 -54.315747975565102 41.736943587569385 0 41.736943587569385 977.28637141476065 0 0 0 0 19.322283306129748 329.19957294648702 0 329.19957294648702 676.92705294614416 0 0 0 0 -142.21734454649061 -235.37938241251322 0 -235.37938241251322 662.98641064301046 0 0 0 0 -312.22141729753844 66.283176047614688 0 66.283176047614688 158.59099258249535 0 0 0 0 -277.96269242602602 -90.147825312469649 0 -90.147825312469649 377.54794875757216 0 0 0 0 -9.879097584297412 7.7959285106959442 0 7.7959285106959442 74.939966954695208 0 0 0 0 -12.433070190540805 13.419094756019994 0 13.419094756019994 68.599653228076136 0 0 0 0 -73.489197868009569 66.74012372107245 0 66.74012372107245 25.348355276211805 0 0 0 0 -254.37917730993496 353.8416805568886 0 353.8416805568886 109.3290749404332 0 0 0 0 63.203402965815599 49.610127790654587 0 49.610127790654587 -107.31349876367312 0 0 0 0 -37.44223461281149 -35.376868203315098 0 -35.376868203315098 83.97378343161472 0 0 0 0 -167.94417207158654 92.902951954212767 0 92.902951954212767 192.49874161327898 0 0 0 0 -14.656253395580279 -55.834650308581331 0 -55.834650308581331 59.178101135024917 0 0 0 0 -35.152029866139856 -48.831148383240361 0 -48.831148383240361 100.01913151526242 0 0 0 0 -12.195992029411974 9.6160640444471639 0 9.6160640444471639 65.289825520367316 0 0 0 0 -45.215332731814669 -17.636894908824615 0 -17.636894908824615 70.116163411075831 0 0 0 0 -79.002783848035051 138.85557906955728 0 138.85557906955728 -85.596022458754305 0 0 0 0 19.012635871371913 126.0825045303427 0 126.0825045303427 -151.84524054764188 0 0 0 0 -8.3191735715781316 11.065463472577157 0 11.065463472577157 4.5568932143340533 0 0 0 0 -3.3110085472290116 2.1909766150217536 0 2.1909766150217536 7.9072243071641566 0 0 0 0 -60.282026317185228 79.384785169022507 0 79.384785169022507 -27.590247473494856 0 0 0 0 -239.11462601927633 -246.00385152401577 0 -246.00385152401577 -92.81809382289066 0 0 0 0 -220.17745201703292 199.43006457043521 0 199.43006457043521 196.84252496718 0 0 0 0 71.51874126419716 58.601197520765709 0 58.601197520765709 76.047202790970914 0 0 0 0 -12.682513207982538 -22.308825389623962 0 -22.308825389623962 -3.0464251043304102 0 0 0 0 -18.927279232801993 -83.015048993278469 0 -83.015048993278469 -153.12348197831852 0 0 0 0 -22.943243397214701 40.98554440173757 0 40.98554440173757 -151.75273890224344 0 0 0 0 64.645202437489388 118.24695335607248 0 118.24695335607248 -156.74429699978464 0 0 0 0 127.37865177975254 43.780305274762213 0 43.780305274762213 -156.7440113963039 0 0 0 0 93.299520135218927 -16.848966630950599 0 -16.848966630950599 -214.91035934700631 0 0 0 0 54.549302639705274 -17.844613028457388 0 -17.844613028457388 -171.65901494369609 0 0 0 0 67.865221389712133 32.738522338040639 0 32.738522338040639 -144.89700725859984 0 0 0 0 276.79657737026037 40.216343162705016 0 40.216343162705016 -150.75198157328123 0 0 0 0 -295.81092771324279 -257.52219280363352 0 -257.52219280363352 94.278066734594177 0 0 0 0 -108.41051698699266 -80.987721424913616 0 -80.987721424913616 -105.02638877697245 0 0 0 0 -75.986808819198131 3.9984877806455188 0 3.9984877806455188 -76.659428306549671 0 0 0 0 -611.01229115696151 203.96178304469504 0 203.96178304469504 -266.46377348140231 0 0 0 0 -403.32967625210404 -498.07274705963937 0 -498.07274705963937 113.7767495343578 0 0 0 0 106.61966447895657 26.432849726090353 0 26.432849726090353 -337.93677872892295 0 0 0 0 34.007398655598081 -63.045745852592518 0 -63.045745852592518 -256.71720294687839 0 0 0 0 8.3425521550689155 -114.98529924911418 0 -114.98529924911418 -279.89738632528315 0 0 0 0 0.057756980902691879 1.7240138952306054 0 1.7240138952306054 -3.8518471896952917 0 0 0 0 56.221957555188141 -68.715099397845734 0 -68.715099397845734 -277.63205713499337 0 0 0 0 -168.75942782632228 296.15451281302376 0 296.15451281302376 -138.38460399480573 0 0 0 0 -554.41955212755727 -232.59315294650742 0 -232.59315294650742 -143.74021661136067 0 0 0 0 -1.4384160975222029 -0.03643564426389645 0 -0.03643564426389645 0.87016954102526256 0 0 0 0 29.994802207165776 -30.135088480681588 0 -30.135088480681588 -370.68088059793808 0 0 0 0 -404.27643744032139 -217.60439591854811 0 -217.60439591854811 -144.514326630102 0 0 0 0 -323.38845187127299 -260.84937474591425 0 -260.84937474591425 -218.78515323688043 0 0 0 0 -408.54165413793635 -347.7629981993814 0 -347.7629981993814 -243.27405665584956 0 0 0 0 -312.05752441230834 -221.29576735231967 0 -221.29576735231967 -168.20396952348528 0 0 0 0 -283.70839373220315 -230.29560522882821 0 -230.29560522882821 -182.09946259719436 0 0 0 0 -275.8410212574563 -290.3161109870307 0 -290.3161109870307 -268.65504238766152 0 0 0 0 -238.38790929615971 -168.52645572325127 0 -168.52645572325127 -172.44417902390705 0 0 0 0 -11.203187717824221 -115.9152445032305 0 -115.9152445032305 -188.88518399084569 0 0 0 0 382.42155754908526 -85.570276130310958 0 -85.570276130310958 -68.167707484972198 0 0 0 0 -225.94077521725558 -279.65985190164065 0 -279.65985190164065 -351.99647647576057 0 0 0 0 -242.04798030529491 -178.91944861455704 0 -178.91944861455704 -213.43462280608946 0 0 0 0 -227.05725775844985 -196.2323841478792 0 -196.2323841478792 -335.93458660307806 0 0 0 0 -278.94075466311233 -178.82570204821604 0 -178.82570204821604 -85.70431977660337 0 0 0 0 -283.19179747991893 -152.82916996075073 0 -152.82916996075073 -78.098107107245596 0 0 0 0 -257.248266366385 -148.40137845814752 0 -148.40137845814752 -235.14730007985781 0 0 0 0 -199.72369504490962 -160.32921197154064 0 -160.32921197154064 -77.458360161617748 0 0 0 0 -173.38747761666764 -166.44595764385303 0 -166.44595764385303 -75.996521204666351 0 0 0 0 -245.97750117725809 -202.12302044110402 0 -202.12302044110402 -187.23874088301091 0 0 0 0 -216.06379263117196 -123.95839903317392 0 -123.95839903317392 -118.27828025667259 0 0 0 0 -105.72677436981348 -87.151832290066523 0 -87.151832290066523 19.576642422791338 0 0 0 0 -226.26960702694055 -130.39254989901747 0 -130.39254989901747 28.219838481250918 0 0 0 0 -266.25159971247922 -185.77420380739932 0 -185.77420380739932 -0.33859875483904034 0 0 0 0 -166.75917100921197 -185.23972210017382 0 -185.23972210017382 53.927282617667515 0 0 0 0 -247.97114922534456 -223.46596330173998 0 -223.46596330173998 -25.203460079384968 0 0 0 0 -211.29664440872125 -194.24136282221025 0 -194.24136282221025 -30.82711545706843 0 0 0 0 -205.32283411259232 -145.10236598303891 0 -145.10236598303891 12.585097463728744 0 0 0 0 -224.92507176859363 -140.09252277260384 0 -140.09252277260384 128.34370065754774 0 0 0 0 -204.83791692495288 -130.22960667369625 0 -130.22960667369625 31.562147369875674 0 0 0 0 -4.3691964263914187 -18.985124616814382 0 -18.985124616814382 46.600944062070624 0 0 0 0 -154.07029232885543 -178.61608757841168 0 -178.61608757841168 -116.4777947372786 0 0 0 0 -167.38871115120855 -124.21692298015114 0 -124.21692298015114 16.399618822179036 0 0 0 0 -166.47120504900886 -155.69781795730523 0 -155.69781795730523 -103.18905155873654 0 0 0 0 -218.886023673409 -169.87297100762953 0 -169.87297100762953 38.995423096814193 0 0 0 0 -203.94910120026179 -195.17556695232634 0 -195.17556695232634 -79.726009846010129 0 0 0 0 -166.62802258643842 -122.91605526664353 0 -122.91605526664353 -26.659699548705248 0 0 0 0 -211.06867849470655 -144.43552969062512 0 -144.43552969062512 31.847052374680061 0 0 0 0 -204.92187932848174 -109.83621525698982 0 -109.83621525698982 101.90095915582788 0 0 0 0 -139.50514555033078 -60.245965900816373 0 -60.245965900816373 52.213796543946955 0 0 0 0 -266.53923359092551 76.515795941702891 0 76.515795941702891 79.282246095594019 0 0 0 0 -196.04487511208117 -25.707063520972952 0 -25.707063520972952 60.226039762113942 0 0 0 0 -244.68493726706947 -61.755430424080259 0 -61.755430424080259 58.057386287337067 0 0 0 0 -257.40609426803894 -81.250159526935022 0 -81.250159526935022 112.38104439834024 0 0 0 0 -224.85598173061976 -135.63826592238547 0 -135.63826592238547 178.21712048091285 0 0 0 0 -136.48384810816333 130.12657522389054 0 130.12657522389054 222.00003819953781 0 0 0 0 -82.146585646224707 4.8181390055126485 0 4.8181390055126485 270.38114808026876 0 0 0 0 -97.212776591435613 -111.67660873759814 0 -111.67660873759814 109.89254572175741 0 0 0 0 -218.33458808396699 -51.93166504326291 0 -51.93166504326291 -85.593768295722839 0 0 0 0 16.874720201355558 -300.82125609762397 0 -300.82125609762397 812.35243382786575 0 0 0 0 -74.454490169607197 35.371595253156556 0 35.371595253156556 500.97777144198699 0 0 0 0 54.834686725876054 -165.95731096430063 0 -165.95731096430063 452.00835452436149 0 0 0 0 3.789489137074737 4.7290006152714668 0 4.7290006152714668 3.8626600883337687 0 0 0 0 -76.125160303036864 121.03632078746887 0 121.03632078746887 845.40445221216623 0 0 0 0 61.800041111353039 721.67626235016905 0 721.67626235016905 482.49999760085484 0 0 0 0 39.700689965083711 607.91267229074947 0 607.91267229074947 -19.827756990655871 0 0 0 0 -99.041325905843678 30.060626956976193 0 30.060626956976193 607.38560613985464 0 0 0 0 122.74505353282757 220.57959098862921 0 220.57959098862921 363.85683677369525 0 0 0 0 -2.7131916823086613 19.305647302462603 0 19.305647302462603 478.48954284966749 0 0 0 0 -79.413170615356876 0.87488706845306297 0 0.87488706845306297 439.3967843376231 0 0 0 0 -8.9771670702457413 -12.34630791239033 0 -12.34630791239033 401.68963470558083 0 0 0 0 9.6534164028718266 8.2591936726765525 0 8.2591936726765525 19.974199642621727 0 0 0 0 -6.3279080912489007 -32.262684023637121 0 -32.262684023637121 233.5441662695448 0 0 0 0 9.0120266029316554 -0.68897147072857479 0 -0.68897147072857479 203.15973271381154 0 0 0 0 29.811704395311608 24.885650684445864 0 24.885650684445864 217.42813135018332 0 0 0 0 46.14529072428104 95.710608001318178 0 95.710608001318178 253.24896221325616 0 0 0 0 14.376378648119044 -0.82372512652000296 0 -0.82372512652000296 201.36518239954603 0 0 0 0 10.379716800108282 -9.0204349761934282 0 -9.0204349761934282 13.815468198148579 0 0 0 0 64.04053748111528 -5.8928973705515091 0 -5.8928973705515091 106.41822667911765 0 0 0 0 -24.120679449765703 -107.21501366590383 0 -107.21501366590383 123.92288122032187 0 0 0 0 17.762485371756156 -45.311338515632087 0 -45.311338515632087 145.94292106531793 0 0 0 0 62.723842397937347 67.567724721811828 0 67.567724721811828 119.53702207464084 0 0 0 0 -83.258720236768568 66.281632380585506 0 66.281632380585506 -375.81250315057696 0 0 0 0 -46.05358367536337 -9.3619364125333959 0 -9.3619364125333959 -82.173776181967696 0 0 0 0 -69.899515859494613 34.148933322799166 0 34.148933322799166 -0.62305445221136324 0 0 0 0 -39.893439468653924 2.112975539152103 0 2.112975539152103 21.250773157829826 0 0 0 0 -46.98738509434861 15.24733291148732 0 15.24733291148732 14.659560571533802 0 0 0 0 -24.657468123475383 26.029056746134302 0 26.029056746134302 19.363885550264968 0 0 0 0 -63.377486105697244 5.6073809038070976 0 5.6073809038070976 20.757724021575996 0 0 0 0 -0.21654227291981876 4.2511867155447618 0 4.2511867155447618 2.5279070186672925 0 0 0 0 1.7429488920939882 -10.081560598186329 0 -10.081560598186329 26.404687126559708 0 0 0 0 19.543662052139098 19.279113999209585 0 19.279113999209585 27.823696516457858 0 0 0 0 2.05473695325054 -20.151028494667116 0 -20.151028494667116 69.922120664850809 0 0 0 0 -3.7168506680579547 -4.0512586581966303 0 -4.0512586581966303 24.665297808536465 0 0 0 0 -152.52546738345154 -24.479547350386383 0 -24.479547350386383 46.199195483175572 0 0 0 0 -3.0762593273445784 -2.0835248303840217 0 -2.0835248303840217 7.754231619994755 0 0 0 0 -1.3273353046089937 -40.544509677372389 0 -40.544509677372389 50.666353069915203 0 0 0 0 60.530312182853777 -33.38379417037504 0 -33.38379417037504 -13.871402963131914 0 0 0 0 48.268477334013824 -3.4056215375749161 0 -3.4056215375749161 -16.564243007626828 0 0 0 0 -18.681916904631407 16.761361585331542 0 16.761361585331542 -4.1225590522808488 0 0 0 0 29.574376042912263 -11.861562913170928 0 -11.861562913170928 -22.754180238393019 0 0 0 0 63.291124857400064 -8.9753177087040967 0 -8.9753177087040967 -75.550366453448078 0 0 0 0 138.09349347581087 86.060078752580011 0 86.060078752580011 5.0679180320512387 0 0 0 0 124.65546058412644 49.943781486534135 0 49.943781486534135 -73.475112580592395 0 0 0 0 40.127158421747936 40.807343160558958 0 40.807343160558958 5.5518976456442033 0 0 0 0 113.40840585433807 67.648245901677001 0 67.648245901677001 13.589855192400137 0 0 0 0 47.412376273874088 58.274177694860555 0 58.274177694860555 12.25966523612442 0 0 0 0 -35.393960105722726 56.911040774597495 0 56.911040774597495 39.803833935337025 0 0 0 0 -19.423357789823967 21.413403115388064 0 21.413403115388064 17.125975293165538 0 0 0 0 -59.484049276183214 23.275852179373032 0 23.275852179373032 45.414971347607207 0 0 0 0 -61.014866186687868 -89.675775309937308 0 -89.675775309937308 -71.697380287972919 0 0 0 0 -112.90890475968808 -83.350076474336674 0 -83.350076474336674 43.493032428192009 0 0 0 0 -155.10175635448923 -191.79996434062923 0 -191.79996434062923 48.287800749836606 0 0 0 0 2.7344635416109142 0.19128886877291507 0 0.19128886877291507 -3.9569820853770921 0 0 0 0 -198.50220727434044 -135.53532525459013 0 -135.53532525459013 249.74795683418415 0 0 0 0 -60.734994276401039 -2.6002089870125928 0 -2.6002089870125928 167.09763154540269 0 0 0 0 -36.249316425119332 1.391403687208367 0 1.391403687208367 114.67515509831719 0 0 0 0 1.9589191308152749 81.347709708408729 0 81.347709708408729 126.88402174376824 0 0 0 0 177.21438261393519 305.68430565371091 0 305.68430565371091 572.04541154815524 0 0 0 0 221.62726717787029 121.82205378095387 0 121.82205378095387 82.951472139635371 0 0 0 0 93.616382846311353 54.974311622070672 0 54.974311622070672 69.164773969721864 0 0 0 0 9.7218803623040912 -145.17612064351124 0 -145.17612064351124 357.00168598368691 0 0 0 0 -2.8952412081629291 96.815604515748419 0 96.815604515748419 375.43256489404303 0 0 0 0 -159.24004644538707 -289.07131842244416 0 -289.07131842244416 1006.5406845431498 0 0 0 0 -69.314520275619998 -16.320046436316261 0 -16.320046436316261 1044.5720068234223 0 0 0 0 114.02966134353858 396.9365802374823 0 396.9365802374823 -42.896379775032983 0 0 0 0 1.6761514537388287 4.2230617588873542 0 4.2230617588873542 6.1972341963177371 0 0 0 0 -157.56701673655175 -264.15756534758839 0 -264.15756534758839 1366.9647473927471 0 0 0 0 -181.03274239549864 -274.87887334637344 0 -274.87887334637344 240.85868014575681 0 0 0 0 3.9707104083835274 -3.7869772281167826 0 -3.7869772281167826 3.6599200964361671 0 0 0 0 84.668681965996086 372.79657244590362 0 372.79657244590362 841.33317399941006 0 0 0 0 626.90674739813267 -666.61901883439714 0 -666.61901883439714 387.65215514179727 0 0 0 0 -119.73289075425782 -60.177564997662557 0 -60.177564997662557 1069.153040661964 0 0 0 0 -72.454191613189323 -51.420001896778558 0 -51.420001896778558 275.70256399158097 0 0 0 0 41.545614682343967 -522.08414778236329 0 -522.08414778236329 449.4427490321541 0 0 0 0 -138.80924866696614 438.55699332143377 0 438.55699332143377 700.6659738600938 0 0 0 0 2.9862999854814549 -5.2269370952292711 0 -5.2269370952292711 9.4295750586096858 0 0 0 0 584.69725382175579 -292.13260545014782 0 -292.13260545014782 -103.23146477390037 0 0 0 0 135.39664834865334 502.1390438052731 0 502.1390438052731 474.99786518633482 0 0 0 0 17.853969063653949 565.68282699804331 0 565.68282699804331 526.91411885101115 0 0 0 0 4.2932164841243816 -10.333502859911665 0 -10.333502859911665 20.518856525868983 0 0 0 0 -264.08206976712881 -222.75923839202733 0 -222.75923839202733 153.85823616707421 0 0 0 0 611.47446032877519 -256.87912312544177 0 -256.87912312544177 -86.609696064195305 0 0 0 0 -306.79256083026195 -199.6605200237409 0 -199.6605200237409 518.29979798804561 0 0 0 0 386.63774743172257 45.068670130742248 0 45.068670130742248 -202.1502481859352 0 0 0 0 247.01723983462568 223.28931613955501 0 223.28931613955501 -239.58017469734477 0 0 0 0 0.51004177703421261 -2.5667425999878049 0 -2.5667425999878049 5.0892758894931376 0 0 0 0 187.81685216382516 5.4031357856638351 0 5.4031357856638351 -133.09476246710983 0 0 0 0 3.7203919968828409 -8.8023291793904477 0 -8.8023291793904477 18.120505014285897 0 0 0 0 -279.66888870900391 -68.80375068196372 0 -68.80375068196372 205.60737718669407 0 0 0 0 -4.6880377508018682 -111.09009819744097 0 -111.09009819744097 -93.712661066276269 0 0 0 0 -92.488900183715032 -239.5447576077413 0 -239.5447576077413 169.79508643300505 0 0 0 0 136.43128483671649 326.85054004790436 0 326.85054004790436 -278.42912095943757 0 0 0 0 326.06388591102814 261.82253554804629 0 261.82253554804629 -357.16129884421389 0 0 0 0 -102.83796400990605 126.86840613188542 0 126.86840613188542 -105.44436395067896 0 0 0 0 -241.02912494294935 74.04256806129888 0 74.04256806129888 83.640955810260493 0 0 0 0 -385.2867783270105 -324.5834884640135 0 -324.5834884640135 949.46487988588342 0 0 0 0 0.25133359889583184 -3.7023095285246459 0 -3.7023095285246459 9.5140291340892418 0 0 0 0 -156.52788125349571 31.476563832140528 0 31.476563832140528 14.08384245461275 0 0 0 0 -42.42143037505457 12.086766360931506 0 12.086766360931506 17.042255088337697 0 0 0 0 166.95824986383712 186.94871624883672 0 186.94871624883672 -200.28800751683411 0 0 0 0 68.743599048757233 -163.91651181678026 0 -163.91651181678026 -102.89122249175489 0 0 0 0 4.0130182113050861 -4.7815317651936269 0 -4.7815317651936269 7.1730800827242547 0 0 0 0 329.13914882064529 -600.91012088976436 0 -600.91012088976436 660.98247390946199 0 0 0 0 198.28113887693979 510.29424529488824 0 510.29424529488824 67.760887598298723 0 0 0 0 61.454542512734406 1.8858996557537466 0 1.8858996557537466 -4.6344116241525626 0 0 0 0 46.110801504682058 7.1228862814168679 0 7.1228862814168679 -0.969509481015848 0 0 0 0 3.1068799654519808 -91.92527148874251 0 -91.92527148874251 107.54290596257488 0 0 0 0 103.78602417678803 -24.99433038913412 0 -24.99433038913412 -18.110531696911494 0 0 0 0 19.903707423952 -216.01685074818306 0 -216.01685074818306 454.83210307828995 0 0 0 0 -61.75522834565345 -49.017566152266227 0 -49.017566152266227 127.5022515254077 0 0 0 0 264.51230324482702 -128.50417633491816 0 -128.50417633491816 56.889293482150606 0 0 0 0 2.0256202426851768 -3.6233857954150324 0 -3.6233857954150324 7.1438298564275726 0 0 0 0 110.77075717528781 247.72564859220802 0 247.72564859220802 -8.7935789201292209 0 0 0 0 11.790751815937597 -15.944841083758384 0 -15.944841083758384 19.218870838870743 0 0 0 0 100.60424978422623 -415.35831321198202 0 -415.35831321198202 941.95901753249927 0 0 0 0 54.55040478414594 -103.82757174610742 0 -103.82757174610742 51.501783177634934 0 0 0 0 49.333532189862765 557.17288670008679 0 557.17288670008679 122.14620650363213 0 0 0 0 -4.8190033252203648 -31.657650979504979 0 -31.657650979504979 10.893051396647934 0 0 0 0 -87.277997226730349 72.102301964339858 0 72.102301964339858 94.088261364595382 0 0 0 0 30.586624187322741 231.47378643308184 0 231.47378643308184 18.598210007159651 0 0 0 0 -183.32803749956156 200.13814139344322 0 200.13814139344322 649.19367856196186 0 0 0 0 96.043019394824569 167.35230355102249 0 167.35230355102249 -325.32043140415772 0 0 0 0 -18.652380904697566 79.511807238595793 0 79.511807238595793 -82.218867394854897 0 0 0 0 8.5003516059945081 -15.068411689835102 0 -15.068411689835102 42.725719022162536 0 0 0 0 -14.042115450808069 -8.7638093184723402 0 -8.7638093184723402 -221.73608130245702 0 0 0 0 21.427502025637523 16.482472528725339 0 16.482472528725339 100.80829530523624 0 0 0 0 -39.910215263267673 -8.6497959849002655 0 -8.6497959849002655 117.99994551588316 0 0 0 0 -31.75392435779338 26.357135451244176 0 26.357135451244176 99.94573169760406 0 0 0 0 -5.071054660021673 -41.9245832231245 0 -41.9245832231245 269.86598561533174 0 0 0 0 83.910417698518074 98.219984293784364 0 98.219984293784364 125.36644625803456 0 0 0 0 176.45448183025121 -139.61294506255035 0 -139.61294506255035 -113.21662771784759 0 0 0 0 -236.51147723017129 97.710797218474909 0 97.710797218474909 359.43768065601034 0 0 0 0 0.81724940252892386 -3.714623975152989 0 -3.714623975152989 3.774494695976216 0 0 0 0 14.86516398919872 -185.92736676135246 0 -185.92736676135246 21.035073204431683 0 0 0 0 75.308847928113437 109.14041672847452 0 109.14041672847452 -29.64259097413742 0 0 0 0 51.130421668573945 -119.66931443144131 0 -119.66931443144131 -4.733065451393486 0 0 0 0 -0.66094580931030578 -172.73417035090824 0 -172.73417035090824 137.29765438110917 0 0 0 0 -26.62178958332197 286.38180860697685 0 286.38180860697685 291.65176124416757 0 0 0 0 252.10279553795317 -428.50814601144521 0 -428.50814601144521 -19.793023132275266 0 0 0 0 -344.31679462456123 -137.59230636218854 0 -137.59230636218854 70.509492546104639 0 0 0 0 3.306557399490023 -9.7427930031781642 0 -9.7427930031781642 21.344030843159146 0 0 0 0 -450.69252308691966 -184.14373893857191 0 -184.14373893857191 214.40771258802852 0 0 0 0 255.47202818483129 -99.987703865554067 0 -99.987703865554067 -32.212173603315023 0 0 0 0 629.00622348711977 218.64980067203214 0 218.64980067203214 -93.714521861256799 0 0 0 0 3.5353955309330476 -20.998702239263068 0 -20.998702239263068 143.77801413457348 0 0 0 0 -30.877359723679128 -23.552718876700965 0 -23.552718876700965 150.94371392126777 0 0 0 0 -17.94649569991255 -15.418560821290157 0 -15.418560821290157 153.29493412644661 0 0 0 0 -17.636150002701147 -15.987005079681694 0 -15.987005079681694 153.92444585594058 0 0 0 0 719.22339320628589 -1.763105431371514 0 -1.763105431371514 -262.10947988662519 0 0 0 0 4.5865053118102024 -26.803832701215647 0 -26.803832701215647 164.69045729541926 0 0 0 0 -38.090448123137826 -31.525538431000314 0 -31.525538431000314 165.77562173212573 0 0 0 0 -34.002778913110021 -24.852597104820234 0 -24.852597104820234 175.40469924319768 0 0 0 0 -52.394185441907823 -24.733154364221264 0 -24.733154364221264 175.42881177127856 0 0 0 0 42.827275722520426 57.902012955120881 0 57.902012955120881 26.810728874595952 0 0 0 0 221.53214808890334 -259.19231892182506 0 -259.19231892182506 45.078273244750562 0 0 0 0 3.3715438159112345 -5.6056752921159934 0 -5.6056752921159934 5.1448663897533038 0 0 0 0 146.66463073356135 287.55600946388586 0 287.55600946388586 -52.736584441663581 0 0 0 0 -332.76794830393374 -284.96909722323107 0 -284.96909722323107 147.06431725903531 0 0 0 0 3.9069005935956076 -9.3746428749948905 0 -9.3746428749948905 17.000943874747321 0 0 0 0 -159.38966629752395 12.434394769505161 0 12.434394769505161 16.62367618260032 0 0 0 0 -104.26538797728108 83.330007941505755 0 83.330007941505755 57.0616116477795 0 0 0 0 -89.535305090758584 117.81481991480541 0 117.81481991480541 13.254751398402732 0 0 0 0 -25.620659680337667 12.591287441602617 0 12.591287441602617 -2.9659549134303234 0 0 0 0 -52.564039713977763 8.8575681650108891 0 8.8575681650108891 68.5660595035406 0 0 0 0 -50.38537688755514 58.832772088728234 0 58.832772088728234 304.06162481699721 0 0 0 0 17.46442686015871 -281.4854290157964 0 -281.4854290157964 221.62340778484031 0 0 0 0 28.010270392710481 81.566463715806094 0 81.566463715806094 409.98030400488642 0 0 0 0 104.79234586393613 -472.89243856878602 0 -472.89243856878602 715.60579651608714 0 0 0 0 507.54735394543422 -441.78729520192792 0 -441.78729520192792 155.07166647301347 0 0 0 0 18.671662371882121 -270.12445723192286 0 -270.12445723192286 263.21738779041334 0 0 0 0 179.11999201373783 -326.74651655343041 0 -326.74651655343041 218.55561248037702 0 0 0 0 128.58781576740807 -111.82813958736187 0 -111.82813958736187 -84.177889545520884 0 0 0 0 -85.112545711912844 -206.00356315909448 0 -206.00356315909448 304.08186059768195 0 0 0 0 101.55636563529879 -334.2584911997692 0 -334.2584911997692 288.28441919432953 0 0 0 0 54.934460212617523 -165.31748293508281 0 -165.31748293508281 266.51237530919025 0 0 0 0 329.7639919188241 -59.587712834218109 0 -59.587712834218109 258.17250049941777 0 0 0 0 260.4127820803501 -224.24782836610757 0 -224.24782836610757 83.549273266740784 0 0 0 0 -9.590691896989938 -223.27461001780398 0 -223.27461001780398 206.74424791836645 0 0 0 0 -15.243193905813655 -169.68554750787825 0 -169.68554750787825 82.966704136706539 0 0 0 0 -54.535822443009238 -141.87566502373011 0 -141.87566502373011 175.17478174672215 0 0 0 0 -53.712587782727496 -100.38907807831129 0 -100.38907807831129 110.84471616399969 0 0 0 0 244.8433924008948 -504.4742919320779 0 -504.4742919320779 607.76954103349271 0 0 0 0 -189.83977911588914 -22.269353436699021 0 -22.269353436699021 250.78265944560553 0 0 0 0 3.6412928789486196 -33.28445131161881 0 -33.28445131161881 238.26967043285876 0 0 0 0 4.0848015070508659 -33.043821215874914 0 -33.043821215874914 220.42333452023479 0 0 0 0 -212.4996671707122 -218.55254038064595 0 -218.55254038064595 174.08857035041001 0 0 0 0 -111.01615887020449 -18.571731401731085 0 -18.571731401731085 223.64327680961287 0 0 0 0 -97.551288695004942 -12.654038750501059 0 -12.654038750501059 225.08839439180156 0 0 0 0 -86.199062327214378 -17.607311450323323 0 -17.607311450323323 205.60072821035283 0 0 0 0 364.26718696068747 194.10309690673603 0 194.10309690673603 -332.7927711602606 0 0 0 0 -524.08150117956075 17.455728919532703 0 17.455728919532703 255.28517203585943 0 0 0 0 -12.788096636548289 -496.34547571018811 0 -496.34547571018811 762.00421999202808 0 0 0 0 4.5380062860468655 -31.558472157202097 0 -31.558472157202097 194.19951096516934 0 0 0 0 -59.486999827410827 -29.020179634024316 0 -29.020179634024316 189.55449349529226 0 0 0 0 -53.599791855673189 -19.125915480712138 0 -19.125915480712138 190.13138472908759 0 0 0 0 -61.280698682931693 -25.070429403167509 0 -25.070429403167509 203.03177164317458 0 0 0 0 -48.627455191701046 -26.387924688566272 0 -26.387924688566272 128.34319913656509 0 0 0 0 -17.760078185093619 17.577954628482985 0 17.577954628482985 188.76160559895493 0 0 0 0 -17.077213237369854 16.696011459702277 0 16.696011459702277 184.90992371305765 0 0 0 0 -29.383607901991873 18.28370030156475 0 18.28370030156475 206.6897094756132 0 0 0 0 -33.980191921616992 2.7185873722337419 0 2.7185873722337419 188.48055222929588 0 0 0 0 -69.119190091307786 11.215655791371319 0 11.215655791371319 223.4877212944848 0 0 0 0 -104.47828409756238 -0.54317103147332091 0 -0.54317103147332091 225.46301533251608 0 0 0 0 -43.790286326495227 41.186659644983592 0 41.186659644983592 239.89262930885889 0 0 0 0 -12.294928609163513 16.929659864748828 0 16.929659864748828 240.8009205054841 0 0 0 0 -11.392651094591542 10.556227439010399 0 10.556227439010399 214.64155429960738 0 0 0 0 -5.4547189831876395 25.280269026610767 0 25.280269026610767 205.38746458475362 0 0 0 0 -3.5915677483791839 18.661076482079807 0 18.661076482079807 209.76087866549642 0 0 0 0 0.094705759285231145 25.773816885011911 0 25.773816885011911 217.2735554381361 0 0 0 0 -0.00015024476266653486 23.996410937252222 0 23.996410937252222 204.63228136437101 0 0 0 0 0.1160383155896838 26.258110172871966 0 26.258110172871966 188.85441262501263 0 0 0 0 0.065818054835756201 35.314844680723382 0 35.314844680723382 223.58416985381336 0 0 0 0 -0.097026700134795529 -0.039397761465011172 0 -0.039397761465011172 0.38819826594252049 0 0 0 0 0.013228315946038953 -1.6089547854353441 0 -1.6089547854353441 123.3779124832763 0 0 0 0 -3.3742368176795412 7.554150712385308 0 7.554150712385308 150.11581846572517 0 0 0 0 -2.9670180035603568 4.8933204695786117 0 4.8933204695786117 167.39046670663811 0 0 0 0 -0.24645132615083046 -0.14833092598476583 0 -0.14833092598476583 0.45618314294122797 0 0 0 0 -0.14612482109657599 -0.07225815018779258 0 -0.07225815018779258 0.31290118334982253 0 0 0 0 -17.989724647763744 20.072540682602266 0 20.072540682602266 244.77196302672382 0 0 0 0 -37.855890361277929 -18.081751275225542 0 -18.081751275225542 182.62222181895049 0 0 0 0 1.450435398128727 9.333474066144845 0 9.333474066144845 170.04344881734869 0 0 0 0 -0.32419330117689782 -5.1761347613792168 0 -5.1761347613792168 152.82538143301645 0 0 0 0 -3.6469796130642322 -9.7581337039155187 0 -9.7581337039155187 161.40511022107967 0 0 0 0 -3.4823219098703149 -2.3929305177880451 0 -2.3929305177880451 164.90970742975333 0 0 0 0 -1.3541763961658404 -8.7578320253014681 0 -8.7578320253014681 147.11364301107528 0 0 0 0 -3.511387892162757 -7.3371657308816793 0 -7.3371657308816793 148.60715088805591 0 0 0 0 -0.94693329182554065 -7.5491665850659047 0 -7.5491665850659047 150.57753699181194 0 0 0 0 -0.475076057647558 -6.4086129379825252 0 -6.4086129379825252 151.41940171076567 0 0 0 0 -0.0174869830095821 -4.0820409689840744 0 -4.0820409689840744 155.32471898250878 0 0 0 0 8.6690814385970043 -18.580664599131524 0 -18.580664599131524 73.353364059083106 0 0 0 0 -4.8654752761699456 -5.0258130716174492 0 -5.0258130716174492 88.733142316710655 0 0 0 0 3.7350385959830419 -2.9428171769795881 0 -2.9428171769795881 79.466529838551651 0 0 0 0 3.7507274257332028 -2.1786834100021224 0 -2.1786834100021224 91.538739003633964 0 0 0 0 1.3703261920468321 -4.9420276136479515 0 -4.9420276136479515 88.375672630105328 0 0 0 0 0.27849173785239145 10.189928331179544 0 10.189928331179544 95.803005730409495 0 0 0 0 -2.6568957409613176 0.77279602329508634 0 0.77279602329508634 105.64042178667296 0 0 0 0 1.4024906682811888 17.505578382733802 0 17.505578382733802 121.97308245915747 0 0 0 0 -2.1072428542190664 -8.0476220482632925 0 -8.0476220482632925 119.23560557273959 0 0 0 0 1.6504726876003133 -21.620318673760266 0 -21.620318673760266 139.3944439442057 0 0 0 0 -12.737432215818501 15.172234605996891 0 15.172234605996891 147.61848286748864 0 0 0 0 1.103154070537812 -13.649516442284948 0 -13.649516442284948 94.358201013543294 0 0 0 0 -1.1519079049362517 -13.942981618089107 0 -13.942981618089107 90.231617199983702 0 0 0 0 0.87365986864188017 -3.4321508369339426 0 -3.4321508369339426 88.611114876941429 0 0 0 0 117.15129973185321 32.261455907868367 0 32.261455907868367 -39.240608430931388 0 0 0 0 3.0074701354399735 -9.3796527789745596 0 -9.3796527789745596 88.886806893828179 0 0 0 0 1.3352207865651642 1.4462687869455948 0 1.4462687869455948 0.9856492962181278 0 0 0 0 5.3853819471665076 -39.990149345434702 0 -39.990149345434702 20.803121322125662 0 0 0 0 5.516232308291098 -43.450803138470746 0 -43.450803138470746 94.789783433370758 0 0 0 0 15.390558655209816 92.100855359945854 0 92.100855359945854 163.61461343938936 0 0 0 0 1.0342854431657569 1.090532693558643 0 1.090532693558643 0.91878269139262869 0 0 0 0 -81.452129572472757 -56.97401652429653 0 -56.97401652429653 475.86834087925308 0 0 0 0 24.829239577787575 3.3572383993487165 0 3.3572383993487165 177.00459140537896 0 0 0 0 3.2223032160554794 -14.266376304502046 0 -14.266376304502046 62.887789087719284 0 0 0 0 -0.91904852634752388 6.4432522603565303 0 6.4432522603565303 47.285194474732634 0 0 0 0 1.5140502699013578 1.7164176549410044 0 1.7164176549410044 1.3130227793724245 0 0 0 0 -13.046963810456134 -13.009915195298163 0 -13.009915195298163 75.664540382414998 0 0 0 0 0.50596116749210385 0.6645962950005142 0 0.6645962950005142 0.73111629298242065 0 0 0 0 15.525666704126706 15.04753105297641 0 15.04753105297641 9.9109956436132052 0 0 0 0 34.833885615458144 -56.645980807841624 0 -56.645980807841624 230.46217252393399 0 0 0 0 -2.8681168604733784 8.2466753291446366 0 8.2466753291446366 131.06121215142048 0 0 0 0 68.702274831491877 -32.242112806652585 0 -32.242112806652585 67.0980065433032 0 0 0 0 44.074097050491673 201.54532883936599 0 201.54532883936599 -5.2728068448377599 0 0 0 0 4.1592254981181114 4.7013981564584952 0 4.7013981564584952 5.6855794489769664 0 0 0 0 52.99986451092775 -45.006356054767821 0 -45.006356054767821 132.04993510285112 0 0 0 0 127.55726678549519 -141.11183726582738 0 -141.11183726582738 244.22665769132436 0 0 0 0 8.7618219340256225 12.852869118675343 0 12.852869118675343 18.626499789204715 0 0 0 0 -119.12050110507766 137.39090535930973 0 137.39090535930973 -41.476789527441724 0 0 0 0 77.777509774044688 -55.904614351024065 0 -55.904614351024065 128.74054667333894 0 0 0 0 -83.020122984068621 15.076688403973094 0 15.076688403973094 -1.0546719326230232 0 0 0 0 -4.3327855140123575 -10.982154741815975 0 -10.982154741815975 38.741149777344617 0 0 0 0 -40.944923751586202 52.585714662947794 0 52.585714662947794 82.761309665649605 0 0 0 0 -36.685310266598208 24.435021276702173 0 24.435021276702173 -29.359196955295602 0 0 0 0 -93.520572171633688 30.011595098410794 0 30.011595098410794 76.91737598565669 0 0 0 0 21.232302094526858 -38.091509496251092 0 -38.091509496251092 106.43705004554977 0 0 0 0 -43.998729336942233 52.974422926319676 0 52.974422926319676 81.31840822601589 0 0 0 0 -20.139682982419458 -15.422822060997987 0 -15.422822060997987 97.748861446525552 0 0 0 0 4.6278491187306372 24.882525621824243 0 24.882525621824243 150.15512083937938 0 0 0 0 21.004782193128904 -8.1649062200522167 0 -8.1649062200522167 78.994294439384248 0 0 0 0 31.789737673422906 -32.178114616548555 0 -32.178114616548555 69.646302043012838 0 0 0 0 68.911139469925274 -28.61796565079203 0 -28.61796565079203 65.716037658632558 0 0 0 0 13.190610168438687 19.726967035966133 0 19.726967035966133 30.206468135874076 0 0 0 0 -90.107371690972116 142.00182667642605 0 142.00182667642605 -19.354246993872948 0 0 0 0 -38.724222459195516 -20.74681896623224 0 -20.74681896623224 41.437387857011345 0 0 0 0 5.6210642652495153 33.240467120234825 0 33.240467120234825 89.776459986682312 0 0 0 0 27.541601743659839 -2.6918272542025079 0 -2.6918272542025079 70.911795825103582 0 0 0 0 20.109779692373877 -10.546804962905298 0 -10.546804962905298 78.175267291850105 0 0 0 0 29.995551696374378 -6.0403448376346205 0 -6.0403448376346205 69.762304246673011 0 0 0 0 -10.344382312588095 58.134803896475205 0 58.134803896475205 12.15170715176464 0 0 0 0 -21.663770528252712 13.186383411163739 0 13.186383411163739 27.018022622481542 0 0 0 0 15.148750846197629 28.139600998111888 0 28.139600998111888 38.44698807521219 0 0 0 0 24.734683682529294 5.5689655663099984 0 5.5689655663099984 80.393278941977769 0 0 0 0 -115.80021745256136 70.807741697851725 0 70.807741697851725 103.58664049055733 0 0 0 0 -11.263684629975412 13.540149104251601 0 13.540149104251601 1.7158723900346846 0 0 0 0 -36.871198955192085 57.849464728555176 0 57.849464728555176 56.074948884153855 0 0 0 0 -73.010247744661228 -14.27753212488733 0 -14.27753212488733 197.49981256519095 0 0 0 0 -40.999895880935156 -18.376897778158934 0 -18.376897778158934 180.32829987282093 0 0 0 0 62.812332482498277 -56.303486050862375 0 -56.303486050862375 127.18998357852706 0 0 0 0 -43.535779284279215 14.953866345024835 0 14.953866345024835 146.79866373337245 0 0 0 0 -47.921019387127217 56.461632984497555 0 56.461632984497555 81.565136551653268 0 0 0 0 23.474053155161528 -18.276992181661626 0 -18.276992181661626 121.34666807988469 0 0 0 0 -12.057974453373845 22.161299701434473 0 22.161299701434473 67.549584274172958 0 0 0 0 -26.862843829910389 57.421747766198223 0 57.421747766198223 81.913959132331001 0 0 0 0 -2.0691321970309513 12.198948595511212 0 12.198948595511212 0.87282327272014393 0 0 0 0 2.4483200739027566 -0.6836791545956018 0 -0.6836791545956018 -4.4494847738944259 0 0 0 0 344.49024068947688 527.0272936550864 0 527.0272936550864 437.38129894795566 0 0 0 0 -27.2808374665874 14.949911573317877 0 14.949911573317877 -47.50456450222373 0 0 0 0 -45.518833979546798 -32.061289757664781 0 -32.061289757664781 213.84379931997682 0 0 0 0 284.0690860581517 -30.000520658893947 0 -30.000520658893947 -95.170452497293809 0 0 0 0 -37.116016598936312 106.17559256030836 0 106.17559256030836 -50.1340489186382 0 0 0 0 0.21531837817747146 -32.701508494094014 0 -32.701508494094014 177.03807412800234 0 0 0 0 -171.61912008579793 -94.381768139271117 0 -94.381768139271117 278.95407063602943 0 0 0 0 -18.546008069718482 9.0177581206535251 0 9.0177581206535251 211.44935898626863 0 0 0 0 0.027864083504628212 -2.7605904977311013 0 -2.7605904977311013 5.3606954764825971 0 0 0 0 -8.7905274611766799 -152.76280743267762 0 -152.76280743267762 310.86721047131778 0 0 0 0 219.42829477966825 -130.32783032556654 0 -130.32783032556654 193.03570365028463 0 0 0 0 69.361976409589261 147.27139410720429 0 147.27139410720429 -85.34905042313585 0 0 0 0 3.6839447936151233 2.1132819717647262 0 2.1132819717647262 1.5281620211304947 0 0 0 0 66.320176644577259 -330.64990058283911 0 -330.64990058283911 428.01439048515959 0 0 0 0 11.240163849074634 -3.4455791317559488 0 -3.4455791317559488 -64.967600250927944 0 0 0 0 21.252690504726615 -13.493766817612595 0 -13.493766817612595 52.330229483460585 0 0 0 0 37.220851280874285 52.688789348773753 0 52.688789348773753 51.882281666270501 0 0 0 0 -78.11109461795877 0.018812030546541791 0 0.018812030546541791 39.280609077377449 0 0 0 0 10.584802819216293 33.162535722955909 0 33.162535722955909 51.328485960104899 0 0 0 0 8.5099807375811878 7.2970326809592851 0 7.2970326809592851 6.6488089079581769 0 0 0 0 -56.97337458046627 96.377230629760447 0 96.377230629760447 -31.751701042672721 0 0 0 0 30.748628611704589 -17.272134171426842 0 -17.272134171426842 -3.6012723193725833 0 0 0 0 -0.76310546354308428 -19.91795212332687 0 -19.91795212332687 -49.493569905330332 0 0 0 0 -4.0379612400401861 -1.545500526041284 0 -1.545500526041284 -0.37348190816107407 0 0 0 0 -57.840864619064632 4.6838039480812768 0 4.6838039480812768 143.47693948318647 0 0 0 0 49.070069968204507 52.41234793979288 0 52.41234793979288 17.289549368848839 0 0 0 0 -7.3616774002387046 61.887630254384874 0 61.887630254384874 47.381304264288701 0 0 0 0 -51.109811302281287 -19.325572967071821 0 -19.325572967071821 83.147187453053448 0 0 0 0 26.308039604425289 18.186825966824472 0 18.186825966824472 60.380194924457101 0 0 0 0 40.230608136758292 -37.456229174107648 0 -37.456229174107648 129.35779570032537 0 0 0 0 -2.908295486963425 -11.766589422284596 0 -11.766589422284596 149.82669837039066 0 0 0 0 13.374573662233592 12.927312118619565 0 12.927312118619565 10.672894447935814 0 0 0 0 -37.78635449818421 48.038321601111647 0 48.038321601111647 60.426827280753969 0 0 0 0 26.084901492464724 -60.731817696914732 0 -60.731817696914732 177.81919056229344 0 0 0 0 18.431865964876579 -10.708813861271665 0 -10.708813861271665 164.40198905436773 0 0 0 0 47.816172265830573 17.178446001350949 0 17.178446001350949 -45.789162238490462 0 0 0 0 -7.0344900254636045 1.361086790921334 0 1.361086790921334 5.6392191271661947 0 0 0 0 1.400573534432624 -12.532962302145279 0 -12.532962302145279 24.362958931579215 0 0 0 0 -21.030381477003175 32.33131842950479 0 32.33131842950479 71.176629690754908 0 0 0 0 10.736194716998124 15.353653317580807 0 15.353653317580807 19.220948020102085 0 0 0 0 15.870171630041114 17.330698688274424 0 17.330698688274424 45.256129433313617 0 0 0 0 71.492285622454801 2.2354031413342454 0 2.2354031413342454 27.878069564147381 0 0 0 0 18.209940324119543 -29.097341902105654 0 -29.097341902105654 159.36443587890244 0 0 0 0 0.11803473744151027 4.2558843370939208 0 4.2558843370939208 8.0719151380165943 0 0 0 0 3.4090227586118704 -4.0015151100122921 0 -4.0015151100122921 35.765840423873001 0 0 0 0 9.659836676331679 -14.533845219488171 0 -14.533845219488171 97.808738939231262 0 0 0 0 -7.4368882627516086 6.4906094325042432 0 6.4906094325042432 142.19324547454198 0 0 0 0 -8.330822602180433 13.487575039294825 0 13.487575039294825 90.278001315256688 0 0 0 0 6.6012431745084541 24.807591292352299 0 24.807591292352299 93.652656805019433 0 0 0 0 5.1264954771863032 16.172912537207267 0 16.172912537207267 48.006439547826673 0 0 0 0 -8.8047580280046986 63.028651547814661 0 63.028651547814661 53.690467686697957 0 0 0 0 53.37214676596659 22.490929105544637 0 22.490929105544637 41.949299887644884 0 0 0 0 1.511382258819487 23.914648727413205 0 23.914648727413205 70.711915053103624 0 0 0 0 36.56975309418408 -26.64024057207871 0 -26.64024057207871 100.86933453792335 0 0 0 0 -29.533363853143328 -17.633027953361307 0 -17.633027953361307 127.45590924456337 0 0 0 0 -28.336923261528227 48.241639697796927 0 48.241639697796927 105.15056040264608 0 0 0 0 -0.69376486807785387 28.503234964223651 0 28.503234964223651 67.197235130243385 0 0 0 0 35.617563606248041 37.024463947207551 0 37.024463947207551 79.723040068682167 0 0 0 0 -11.721822906791999 39.687492059110809 0 39.687492059110809 241.22864751409361 0 0 0 0 22.956691869832184 34.632163901332206 0 34.632163901332206 115.87440148611495 0 0 0 0 14.215687989620278 6.6656525635480648 0 6.6656525635480648 54.613924940858851 0 0 0 0 0.70509802166111468 -0.75718625678848639 0 -0.75718625678848639 0.50799405946224496 0 0 0 0 -1.1848414346861773 3.138693973163754 0 3.138693973163754 89.864377369802241 0 0 0 0 -0.16880307557165874 2.3919436933355769 0 2.3919436933355769 21.142595103035045 0 0 0 0 4.8236568311915562 16.321198255380295 0 16.321198255380295 75.81450594990747 0 0 0 0 -11.022181901874518 19.414151801380285 0 19.414151801380285 130.77172353919013 0 0 0 0 -13.552033802303463 23.881084594911954 0 23.881084594911954 140.89411929679773 0 0 0 0 -12.207148485051221 23.696332233415887 0 23.696332233415887 131.44090743688275 0 0 0 0 -8.7150510653591482 30.989487424238177 0 30.989487424238177 140.03908787624096 0 0 0 0 13.384694331725825 5.7920903353196991 0 5.7920903353196991 121.04541577178315 0 0 0 0 -15.674906892998706 23.457564467062184 0 23.457564467062184 117.16677310834802 0 0 0 0 -12.940793475332157 29.904692660402361 0 29.904692660402361 119.34785610691324 0 0 0 0 7.0049459024796761 36.175341794252745 0 36.175341794252745 67.80265942144797 0 0 0 0 -8.4348043943251128 16.134253923850338 0 16.134253923850338 96.404438701771141 0 0 0 0 8.8646853848486842 28.361265703671961 0 28.361265703671961 74.299398032639147 0 0 0 0 0.52005989083966142 31.67811511320906 0 31.67811511320906 76.418656333291437 0 0 0 0 -5.421906943363183 6.8866228204860818 0 6.8866228204860818 73.988564297411358 0 0 0 0 -0.21961361904080956 4.3035294018696746 0 4.3035294018696746 13.932556620215422 0 0 0 0 17.707967995381523 20.034676902609135 0 20.034676902609135 72.340774928496103 0 0 0 0 2.8644540039787536 1.1587397188858404 0 1.1587397188858404 12.264810672318124 0 0 0 0 -11.182215327700078 17.42127827035074 0 17.42127827035074 90.220518746609741 0 0 0 0 -14.532827554795404 12.369093733263071 0 12.369093733263071 86.994705130702641 0 0 0 0 2.3281552535956394 29.62162219441052 0 29.62162219441052 65.180680359910184 0 0 0 0 -15.23553733061317 8.525381490271684 0 8.525381490271684 98.758407649802393 0 0 0 0 1.6689697528062304 0.083860632688029568 0 0.083860632688029568 -1.4099024627223642 0 0 0 0 12.14720292824893 29.890286447600374 0 29.890286447600374 46.682700415778527 0 0 0 0 5.9592190538859313 39.403891315880173 0 39.403891315880173 63.286658756318502 0 0 0 0 7.8276102519510005 26.27284294904166 0 26.27284294904166 75.224340962347924 0 0 0 0 8.875424251416149 -2.4367993415576166 0 -2.4367993415576166 33.996083080462995 0 0 0 0 53.066669451779262 0.27768268703948706 0 0.27768268703948706 5.8788266187539193 0 0 0 0 0.6030730607891126 0.034474021238878549 0 0.034474021238878549 0.27428057357586866 0 0 0 0 16.868994740648873 20.027819789691421 0 20.027819789691421 90.506129510733444 0 0 0 0 -11.018785481795703 4.7095830743710394 0 4.7095830743710394 50.750485450786073 0 0 0 0 63.483232352123821 -23.70939003800413 0 -23.70939003800413 14.972977736222674 0 0 0 0 -0.036642424514153227 0.091401353511898265 0 0.091401353511898265 -0.20123827056065124 0 0 0 0 66.28640738556669 -0.43062265625485452 0 -0.43062265625485452 -17.340020540141268 0 0 0 0 69.538886460086587 41.506164786918816 0 41.506164786918816 0.33153191532073834 0 0 0 0 56.076945474557078 41.877869693678804 0 41.877869693678804 55.376011057225696 0 0 0 0 77.056290582352176 76.404276701836352 0 76.404276701836352 78.226552174317021 0 0 0 0 49.49280854188379 29.144297942536468 0 29.144297942536468 72.987544575975335 0 0 0 0 43.53832263304912 46.885493744382984 0 46.885493744382984 159.93382385766745 0 0 0 0 -39.886789224360655 8.3485592966317199 0 8.3485592966317199 68.671025323434151 0 0 0 0 61.566921971937063 45.383051658223849 0 45.383051658223849 70.948297099453384 0 0 0 0 44.219206015548252 16.835301601648098 0 16.835301601648098 143.0462911502691 0 0 0 0 87.595572311061915 63.69939515351507 0 63.69939515351507 148.32981115855364 0 0 0 0 99.675178039623916 76.692470540365321 0 76.692470540365321 263.47823765733847 0 0 0 0 77.469742714377162 16.154692404583329 0 16.154692404583329 240.71883123510634 0 0 0 0 99.407513012491563 89.591535400864814 0 89.591535400864814 164.99261700760553 0 0 0 0 20.918597711377288 60.522027237584552 0 60.522027237584552 282.48319550332963 0 0 0 0 20.119374716964387 50.139787465680456 0 50.139787465680456 174.99815657376166 0 0 0 0 -2.8383342934216671 9.1948816648873617 0 9.1948816648873617 234.99025356000493 0 0 0 0 8.2278477010909228 40.071271348868322 0 40.071271348868322 170.27371337591831 0 0 0 0 8.3103609678132671 50.792588238931785 0 50.792588238931785 142.98909706111226 0 0 0 0 -11.60008890914105 13.77460350265028 0 13.77460350265028 171.26287912576299 0 0 0 0 -11.897115411269965 19.988207971840893 0 19.988207971840893 138.20178184519682 0 0 0 0 -2.7083215927578124 29.99468029297077 0 29.99468029297077 122.8743076771425 0 0 0 0 -3.8817944386748877 38.816910496538185 0 38.816910496538185 112.69259175473417 0 0 0 0 16.346560074519857 51.833284322990949 0 51.833284322990949 96.889319748155685 0 0 0 0 16.439697377191123 31.915420134635497 0 31.915420134635497 102.70390312353265 0 0 0 0 46.222578222806291 64.006089979430499 0 64.006089979430499 113.99294189584907 0 0 0 0 -67.770903986660869 -88.314843544416362 0 -88.314843544416362 -73.325081722785399 0 0 0 0 -233.86780178393602 -121.52849612089813 0 -121.52849612089813 20.158303058473393 0 0 0 0 -147.49681933313877 -58.256597086314287 0 -58.256597086314287 67.656572853797115 0 0 0 0 -127.55803439639021 -56.580247363483068 0 -56.580247363483068 56.25603356504871 0 0 0 0 -128.70989909202854 -56.561117255558202 0 -56.561117255558202 56.264185967491358 0 0 0 0 -124.99349102346514 -46.882279775367351 0 -46.882279775367351 64.374860319134314 0 0 0 0 -130.30352408381668 -53.726219227839465 0 -53.726219227839465 55.593571252044057 0 0 0 0 -125.41327236019697 -54.857764498774486 0 -54.857764498774486 55.748086088191485 0 0 0 0 90.981996594622615 51.283086855779402 0 51.283086855779402 -217.07495784653293 0 0 0 0 -0.91410241756907507 0.28732660157240986 0 0.28732660157240986 3.1087697049324845 0 0 0 0 -123.5373163526931 -57.888149265052562 0 -57.888149265052562 49.002476374429534 0 0 0 0 -116.3801924286845 -50.777872420188942 0 -50.777872420188942 48.293819196231198 0 0 0 0 2.2701061824273427 0.080599181787256668 0 0.080599181787256668 8.7069098430627889 0 0 0 0 9.0360156548522355 1.0783773264884076 0 1.0783773264884076 17.796667169037391 0 0 0 0 8.2470557159035707 3.0298904520368524 0 3.0298904520368524 147.10463224437262 0 0 0 0 -52.606448032892331 -44.129831220252527 0 -44.129831220252527 -22.331828709386173 0 0 0 0 15.575909210126383 3.2461054365076052 0 3.2461054365076052 9.7175850729690865 0 0 0 0 15.352678652266604 0.75678669622539019 0 0.75678669622539019 -5.7138590882095741 0 0 0 0 36.534646681653612 13.539713962825772 0 13.539713962825772 15.627128603315214 0 0 0 0 -5.0752914728288729 -1.32652919179192 0 -1.32652919179192 40.241241068018752 0 0 0 0 -10.368879054343324 -33.476400509416635 0 -33.476400509416635 -4.4654820642463164 0 0 0 0 0.92296509523499526 -5.644499980854345 0 -5.644499980854345 14.575916871378951 0 0 0 0 9.3730884734668507 -4.7751140582986409 0 -4.7751140582986409 12.924139450708026 0 0 0 0 86.81511702815078 -12.581061692946605 0 -12.581061692946605 20.728096018385259 0 0 0 0 35.78797061208752 16.816443230356526 0 16.816443230356526 3.7947103074729966 0 0 0 0 -11.082273586565407 18.62721515710291 0 18.62721515710291 21.231522320085787 0 0 0 0 49.75849857256901 -22.132879057328864 0 -22.132879057328864 -33.175628571290872 0 0 0 0 -57.049977601305955 -19.5446701935889 0 -19.5446701935889 37.153816041136452 0 0 0 0 0.17070391751757774 -2.2204186248452231 0 -2.2204186248452231 10.938755570528684 0 0 0 0 -10.975606409922088 6.8559839792732191 0 6.8559839792732191 11.196118322157417 0 0 0 0 -17.92076580740104 4.7114352059215889 0 4.7114352059215889 13.562836183473337 0 0 0 0 48.210190689595038 -24.574718787793245 0 -24.574718787793245 -47.063618677882914 0 0 0 0 -1.1974394655231562 -0.4029977727277867 0 -0.4029977727277867 2.020143149910254 0 0 0 0 17.795477164419481 36.497259191375633 0 36.497259191375633 18.424759592569899 0 0 0 0 -3.461283317979678 -5.2177177892990585 0 -5.2177177892990585 137.00628909505031 0 0 0 0 32.649400099863442 41.421183583926904 0 41.421183583926904 153.71271427463398 0 0 0 0 27.121361277959409 12.432759884544794 0 12.432759884544794 232.43709312054125 0 0 0 0 38.426013084561873 32.173072543420858 0 32.173072543420858 195.23208181446535 0 0 0 0 8.7007015534431957 -16.398657878246922 0 -16.398657878246922 158.85885337330546 0 0 0 0 -12.266819017422449 20.369682168769941 0 20.369682168769941 126.75855508430686 0 0 0 0 48.89028894900116 -34.439791391396284 0 -34.439791391396284 10.01377702994796 0 0 0 0 0.37496519225990088 -0.74799137694166618 0 -0.74799137694166618 0.43108546029580452 0 0 0 0 40.914868501182809 -16.628718858264619 0 -16.628718858264619 -15.671004968338821 0 0 0 0 4.678927083241474 -8.8104875121743476 0 -8.8104875121743476 12.800899581780659 0 0 0 0 0.99230863802149472 6.3658484045021879 0 6.3658484045021879 46.72486661330413 0 0 0 0 -60.029980615398017 -21.558635120465624 0 -21.558635120465624 68.755401713671745 0 0 0 0 -3.0780581239671392 -43.16796936395076 0 -43.16796936395076 180.21819718825282 0 0 0 0 40.47446317454569 64.813920215619873 0 64.813920215619873 96.793865047569852 0 0 0 0 -2.2968868890638987 11.43769897299353 0 11.43769897299353 102.36681492256321 0 0 0 0 0.94772806927562669 -24.542315782084188 0 -24.542315782084188 62.297057492600288 0 0 0 0 -22.926575388792116 -46.906107775284909 0 -46.906107775284909 68.102591642571497 0 0 0 0 -19.602780168679828 -65.80238682565323 0 -65.80238682565323 28.54774523760716 0 0 0 0 0.68262345310529238 -2.2633563055157779 0 -2.2633563055157779 12.165541459107715 0 0 0 0 -69.482091914870125 97.611988105909404 0 97.611988105909404 -72.38198381527036 0 0 0 0 -52.201164174397036 209.21580393515978 0 209.21580393515978 -154.96747295184832 0 0 0 0 15.054455575042994 47.030015986718354 0 47.030015986718354 24.653599374607438 0 0 0 0 7.4368633642643545 -7.1280937552510295 0 -7.1280937552510295 -20.845346039299329 0 0 0 0 41.109613152711972 -5.6134449076635065 0 -5.6134449076635065 42.899229592148913 0 0 0 0 2.4522368947949382 -12.383542836536549 0 -12.383542836536549 41.024286248625259 0 0 0 0 -46.045732424534435 -55.244149353897228 0 -55.244149353897228 65.988282706734026 0 0 0 0 153.24927348507526 78.439256744059094 0 78.439256744059094 76.369446221237013 0 0 0 0 113.55135826535115 88.221797281323234 0 88.221797281323234 79.964672521557077 0 0 0 0 109.90373525551331 43.74732040076924 0 43.74732040076924 51.269465020886855 0 0 0 0 87.815429256424068 103.2372601409952 0 103.2372601409952 102.39513195712061 0 0 0 0 81.056641028310423 90.88851848730701 0 90.88851848730701 102.50197360180027 0 0 0 0 57.608153542797481 52.463315541994234 0 52.463315541994234 67.254896275902865 0 0 0 0 55.327358008673855 84.445113488139441 0 84.445113488139441 103.9737673382042 0 0 0 0 45.81766161284213 10.004187077807728 0 10.004187077807728 54.379856522897171 0 0 0 0 74.418654935689119 65.757194551886641 0 65.757194551886641 77.750969381100731 0 0 0 0 86.369781887004137 22.20976431616873 0 22.20976431616873 41.759036029106937 0 0 0 0 111.43198870477499 -245.59184462336998 0 -245.59184462336998 283.75229376216885 0 0 0 0 12.729226494718205 22.446982737717917 0 22.446982737717917 80.046694854885573 0 0 0 0 2.2248928193056923 -10.109983180852616 0 -10.109983180852616 37.563453444663793 0 0 0 0 43.046809604807947 47.778243224709058 0 47.778243224709058 85.354823407833464 0 0 0 0 5.9428402457901939 44.271829581837665 0 44.271829581837665 76.140579503204208 0 0 0 0 9.2457893694299855 38.8260516425471 0 38.8260516425471 81.928297822596505 0 0 0 0 7.6947568441682961 56.534749873855617 0 56.534749873855617 99.167329009040259 0 0 0 0 33.055479138420196 60.682595881953603 0 60.682595881953603 89.902404138250859 0 0 0 0 28.213928435436628 64.078895803922933 0 64.078895803922933 92.344542652790551 0 0 0 0 30.470327404857926 39.927587052894523 0 39.927587052894523 80.5973371550499 0 0 0 0 9.7610248764449352 36.214436509515508 0 36.214436509515508 91.278883337188745 0 0 0 0 42.229128385096374 85.008810311195703 0 85.008810311195703 103.47203695255308 0 0 0 0 19.287031518868389 44.119832687785674 0 44.119832687785674 103.8838772795134 0 0 0 0 18.914882091066829 53.71586924220901 0 53.71586924220901 65.600313103896042 0 0 0 0 35.602294197427682 86.921058088259088 0 86.921058088259088 121.65913517314766 0 0 0 0 52.559559193986161 110.22800305717101 0 110.22800305717101 121.45455103929271 0 0 0 0 63.103336073475475 89.177495239120617 0 89.177495239120617 95.052789651170315 0 0 0 0 51.314929009183288 107.6276329668508 0 107.6276329668508 116.03574613620003 0 0 0 0 66.959361813371288 117.80784454882087 0 117.80784454882087 121.93077332218672 0 0 0 0 47.040629350690324 118.83489983123582 0 118.83489983123582 108.12722989674148 0 0 0 0 37.487988692971385 127.46923121842701 0 127.46923121842701 153.95976495488867 0 0 0 0 37.855416913493627 91.491657299200597 0 91.491657299200597 130.26116198891395 0 0 0 0 18.31473608756869 66.694587518795743 0 66.694587518795743 167.81997454879456 0 0 0 0 41.509625133450413 79.356179321634045 0 79.356179321634045 167.22515876383113 0 0 0 0 54.242368266161748 42.31074387148692 0 42.31074387148692 130.90162179794424 0 0 0 0 29.706125943291681 33.461743141751867 0 33.461743141751867 264.74672093907429 0 0 0 0 59.461763184288884 62.047779176115 0 62.047779176115 210.049758398829 0 0 0 0 95.451984473459106 101.14104923509876 0 101.14104923509876 240.20851021939598 0 0 0 0 21.989914839292524 163.77257002447277 0 163.77257002447277 -9.9150017646024935 0 0 0 0 18.31212875130791 173.31381242916541 0 173.31381242916541 198.63214239012996 0 0 0 0 46.384918682407033 136.60382419391681 0 136.60382419391681 58.212768919562222 0 0 0 0 22.240799046357893 70.037222539758659 0 70.037222539758659 39.525433543582039 0 0 0 0 21.83484917650685 64.211551743464952 0 64.211551743464952 64.843902762560447 0 0 0 0 14.212409191984761 -9.4487728016156325 0 -9.4487728016156325 1.6713060961192241 0 0 0 0 20.582507350972719 15.163291959324852 0 15.163291959324852 86.29937315780262 0 0 0 0 5.995624295296011 10.870470464702521 0 10.870470464702521 94.130607952480204 0 0 0 0 16.277519363776719 8.1797083343117265 0 8.1797083343117265 80.061946214038471 0 0 0 0 42.310939534561612 90.688613288970373 0 90.688613288970373 98.830450099034351 0 0 0 0 9.8686967400508365 17.614119459762151 0 17.614119459762151 102.56137626971758 0 0 0 0 38.328220947715181 89.654056758459774 0 89.654056758459774 111.11099373565003 0 0 0 0 52.178585317999477 111.15085484204974 0 111.15085484204974 143.2052166163412 0 0 0 0 65.896256198413084 97.677587695196053 0 97.677587695196053 134.54967759268766 0 0 0 0 12.232513374392965 38.205937939725573 0 38.205937939725573 176.37072039524355 0 0 0 0 26.471827814270455 87.893527054635342 0 87.893527054635342 268.36756390849769 0 0 0 0 134.75909376567142 201.65586783832259 0 201.65586783832259 322.26463320725998 0 0 0 0 42.327462226615239 82.792347876098574 0 82.792347876098574 169.55762517649418 0 0 0 0 73.225988327286359 115.94497078660061 0 115.94497078660061 177.58123633151263 0 0 0 0 132.61510965527827 125.4137973508341 0 125.4137973508341 125.44833506314899 0 0 0 0 -0.54778864474186584 0.2328753622286186 0 0.2328753622286186 0.37018331969590434 0 0 0 0 -1.0701830928369418 -24.583777882538925 0 -24.583777882538925 141.41088928789759 0 0 0 0 -4.3833436226198046 20.682840157573082 0 20.682840157573082 177.85840101938811 0 0 0 0 -0.92511413772149353 -45.135249667058815 0 -45.135249667058815 187.41336841700104 0 0 0 0 -1.2706980753026187 -49.016462783681163 0 -49.016462783681163 249.71028867307905 0 0 0 0 6.517100244884432 15.472290646306647 0 15.472290646306647 239.0950733214413 0 0 0 0 25.521230526785985 -44.693197754946596 0 -44.693197754946596 232.70023938312806 0 0 0 0 13.287191387939174 -1.5120648136507953 0 -1.5120648136507953 281.54591954125158 0 0 0 0 56.14901160948898 104.77600261426051 0 104.77600261426051 447.45960305014887 0 0 0 0 32.416743763914383 -227.99324289871583 0 -227.99324289871583 393.14753389036196 0 0 0 0 -27.590693410690619 168.86805792381347 0 168.86805792381347 305.71181604869707 0 0 0 0 43.387347843231055 29.301088420739688 0 29.301088420739688 355.56083204894094 0 0 0 0 220.49128657588426 -30.194714703276986 0 -30.194714703276986 339.00046443707106 0 0 0 0 -19.927327253453768 101.15888895100943 0 101.15888895100943 652.43128204804088 0 0 0 0 103.05970151370366 232.11025744054859 0 232.11025744054859 502.19709025679913 0 0 0 0 -0.65385495022179274 0.47926390079882708 0 0.47926390079882708 1.1433222051828267 0 0 0 0 -0.79482381155870097 0.16396682427434683 0 0.16396682427434683 1.0940697278118137 0 0 0 0 55.930010700622915 138.19389064837742 0 138.19389064837742 236.64916734109283 0 0 0 0 0.65381953101914903 0.72077481649546371 0 0.72077481649546371 0.59845620782823516 0 0 0 0 -4.4868122913866273 9.9050676004626439 0 9.9050676004626439 -12.043732680825997 0 0 0 0 -0.31104407833959158 45.4301331896786 0 45.4301331896786 289.92093266813026 0 0 0 0 -2.9325322004854537 -0.96141778836264535 0 -0.96141778836264535 0.38980082078950318 0 0 0 0 -14.476770643071859 3.2766249050146143 0 3.2766249050146143 15.133334072637808 0 0 0 0 -10.969703404074039 15.745350119930663 0 15.745350119930663 10.179046997211117 0 0 0 0 1.8604137860093632 2.9157802849651091 0 2.9157802849651091 2.9849300818475228 0 0 0 0 0.72637485250151701 1.4172341806670516 0 1.4172341806670516 2.041180701079881 0 0 0 0 -2.3926626542347549 -3.1347588763092062 0 -3.1347588763092062 -3.0550397492224874 0 0 0 0 -24.75075808908764 -2.5216731991131383 0 -2.5216731991131383 -69.827602386123544 0 0 0 0 -116.61390156089251 80.702781945647075 0 80.702781945647075 -4.3473835188087833 0 0 0 0 -53.674398907634554 18.249589642240608 0 18.249589642240608 40.205905824994261 0 0 0 0 2.8035145934400134 -34.318713696651685 0 -34.318713696651685 39.378392456884285 0 0 0 0 -17.573419604818241 15.340353551171575 0 15.340353551171575 -34.508325806935318 0 0 0 0 0.45703998695839343 1.4028493515827307 0 1.4028493515827307 2.4871311779358791 0 0 0 0 -11.837566240584039 9.53798006375564 0 9.53798006375564 4.6710958093390218 0 0 0 0 -79.021079500691144 64.713894367687317 0 64.713894367687317 -16.683728623705974 0 0 0 0 -75.536759424560046 -0.62898578267049743 0 -0.62898578267049743 14.650520180613967 0 0 0 0 2.0190271858555833 2.6235624373329429 0 2.6235624373329429 2.4113144925485841 0 0 0 0 -58.050515618806685 -8.7511626100385911 0 -8.7511626100385911 13.348200436783372 0 0 0 0 -56.127853265668136 18.058840989178861 0 18.058840989178861 8.6339131312706741 0 0 0 0 -7.5754360540818197 5.4915350957235205 0 5.4915350957235205 -3.5194910859136144 0 0 0 0 -40.687545409220547 -6.7760021695066825 0 -6.7760021695066825 -42.130097450994072 0 0 0 0 -5.0409320219526421 -16.593968019830754 0 -16.593968019830754 5.2029622367554111 0 0 0 0 -8.1595490543295455 10.700267838827131 0 10.700267838827131 -9.314408125312184 0 0 0 0 -41.367298668491685 0.97838449198025046 0 0.97838449198025046 2.0656668602023274 0 0 0 0 4.1146710629432164 -34.248045099979208 0 -34.248045099979208 4.8413295971986372 0 0 0 0 -7.69621829397488 -21.965898929716786 0 -21.965898929716786 -4.9371790886325471 0 0 0 0 -17.731751761465148 -31.666046348269447 0 -31.666046348269447 72.693725408389582 0 0 0 0 -26.320377088060468 -11.416404193158087 0 -11.416404193158087 25.315527221264347 0 0 0 0 -31.143894427186751 -19.885522579243116 0 -19.885522579243116 12.189246129011735 0 0 0 0 -11.612124953885086 26.997960211308964 0 26.997960211308964 -21.078231531282654 0 0 0 0 -36.311553611454656 12.036216108186636 0 12.036216108186636 35.052887522040692 0 0 0 0 0.6495321681227324 48.352281785842933 0 48.352281785842933 55.802961136959311 0 0 0 0 -11.426304474813151 24.543608032530756 0 24.543608032530756 9.5273446728242561 0 0 0 0 -76.812195277614592 65.109780646118452 0 65.109780646118452 25.821161507061333 0 0 0 0 -15.592379880954923 54.318382302044483 0 54.318382302044483 27.831853099865839 0 0 0 0 -43.103308407616169 71.215504728228552 0 71.215504728228552 -7.6732730273797642 0 0 0 0 -29.120927547340216 46.938152977432765 0 46.938152977432765 7.7681569690321339 0 0 0 0 -19.663421869074682 43.749795542109496 0 43.749795542109496 5.1069606713426765 0 0 0 0 -52.663511297321747 60.997547412014683 0 60.997547412014683 26.63678545543371 0 0 0 0 -11.344275419153973 31.886633064459602 0 31.886633064459602 24.424956527422182 0 0 0 0 -18.837321979338412 39.975389970786637 0 39.975389970786637 27.157247807335807 0 0 0 0 31.472677885320081 50.163445690901426 0 50.163445690901426 5.3109253531438299 0 0 0 0 16.45217112710634 -39.439059762509714 0 -39.439059762509714 -51.008671724732267 0 0 0 0 103.95309140042468 -4.9892489968133305 0 -4.9892489968133305 -50.216331030853326 0 0 0 0 -89.536139472728792 -6.518432367425703 0 -6.518432367425703 25.257774555051583 0 0 0 0 -145.21201341101664 -26.097438076401886 0 -26.097438076401886 85.454708777237101 0 0 0 0 -22.759914235994074 -65.481718127011845 0 -65.481718127011845 174.90768729874253 0 0 0 0 13.590642182281726 -48.59393366164295 0 -48.59393366164295 7.3831526298454264 0 0 0 0 4.2458289721630535 -39.227008828034741 0 -39.227008828034741 82.679080470523331 0 0 0 0 0.51010048737144942 0.49615626873575991 0 0.49615626873575991 -0.7301988261216934 0 0 0 0 -29.743985693702598 -25.458241254273162 0 -25.458241254273162 458.45670567305933 0 0 0 0 254.0575621593523 83.690976732868876 0 83.690976732868876 -61.580973217020073 0 0 0 0 117.64869986012218 -101.10378755579586 0 -101.10378755579586 93.889459330152022 0 0 0 0 0.59166845420087189 1.2837801127126909 0 1.2837801127126909 1.1040202330714095 0 0 0 0 5.327513450694255 13.737200415114785 0 13.737200415114785 175.40697819214984 0 0 0 0 20.513293354040997 -37.753197154043846 0 -37.753197154043846 81.132304077400477 0 0 0 0 6.8141118147250381 7.0044974170887144 0 7.0044974170887144 66.11837934984942 0 0 0 0 12.756823209663935 32.981554560537916 0 32.981554560537916 -9.675293816413614 0 0 0 0 -24.193807664650478 4.7535138619641657 0 4.7535138619641657 90.069603715295671 0 0 0 0 -15.510453027003905 24.483688464199076 0 24.483688464199076 52.445445629491587 0 0 0 0 -2.4231289983711122 -16.0471898060905 0 -16.0471898060905 33.231671958346851 0 0 0 0 2.059029127046299 2.4124740579295221 0 2.4124740579295221 0.81825414342698366 0 0 0 0 -70.548892144876845 7.2425498391603469 0 7.2425498391603469 48.698205279375543 0 0 0 0 -10.498153753368115 9.5144410656648688 0 9.5144410656648688 -1.7285366651194636 0 0 0 0 -44.555904013803001 54.085297678735515 0 54.085297678735515 27.816820610751165 0 0 0 0 -0.47701134422427582 0.93436432822476689 0 0.93436432822476689 2.6002885075033362 0 0 0 0 -50.635077540887664 -26.05460190361373 0 -26.05460190361373 31.504920147723169 0 0 0 0 -24.976156619338781 51.682688366978255 0 51.682688366978255 -44.314210353567887 0 0 0 0 -9.1723175028250807 9.0327262140344828 0 9.0327262140344828 -44.764846939309791 0 0 0 0 -51.070365752181601 -9.9424499392789585 0 -9.9424499392789585 53.686745625309413 0 0 0 0 -19.234587468089558 6.2870256824899116 0 6.2870256824899116 3.8118608084623702 0 0 0 0 17.349221883970358 -18.662860787917452 0 -18.662860787917452 46.697093213439075 0 0 0 0 -8.4532042229916442 -12.822166627327533 0 -12.822166627327533 78.872464660158585 0 0 0 0 -12.670094924722662 -65.439867053855778 0 -65.439867053855778 107.94486790704832 0 0 0 0 -33.960708124008647 -29.264674326350359 0 -29.264674326350359 68.76370051059348 0 0 0 0 48.600540058692445 -37.470080190545559 0 -37.470080190545559 120.65968165410231 0 0 0 0 45.629917582378425 -51.34475624499828 0 -51.34475624499828 120.45878190502708 0 0 0 0 -34.386568969640734 -22.880327556251359 0 -22.880327556251359 118.6031998515391 0 0 0 0 0.19237936327556016 -0.39526238006673964 0 -0.39526238006673964 -0.033827271404774706 0 0 0 0 77.424640039848555 18.92479482928502 0 18.92479482928502 91.891011732583138 0 0 0 0 -16.11253724652056 -75.009406003282493 0 -75.009406003282493 196.68578075590631 0 0 0 0 26.516364485147164 -37.554666600746714 0 -37.554666600746714 158.64470803268341 0 0 0 0 37.129225760085717 10.218321448590359 0 10.218321448590359 211.08047223078756 0 0 0 0 78.454515836147038 77.650459959430009 0 77.650459959430009 204.30636678779047 0 0 0 0 73.131655478902644 79.765577887485961 0 79.765577887485961 211.64359428202442 0 0 0 0 151.03920151761525 112.36729408164138 0 112.36729408164138 179.96116821713804 0 0 0 0 110.30099753356194 128.14442063463503 0 128.14442063463503 227.35390353769617 0 0 0 0 65.238148700378133 95.4151441121885 0 95.4151441121885 223.27560085674486 0 0 0 0 282.78770397470396 41.964600012674055 0 41.964600012674055 224.95674730624887 0 0 0 0 177.72391688388876 243.96327654492416 0 243.96327654492416 385.26648873733939 0 0 0 0 13.203975523739246 9.4703441248493618 0 9.4703441248493618 177.31071822155354 0 0 0 0 33.633462293936645 95.250789120611444 0 95.250789120611444 318.33459190305075 0 0 0 0 -161.42064973561446 -230.8698959236408 0 -230.8698959236408 354.54136291643954 0 0 0 0 -52.643016951559048 0.68792480034244363 0 0.68792480034244363 460.56835065913583 0 0 0 0 -17.131998120962635 -85.688300457279411 0 -85.688300457279411 306.93111557478551 0 0 0 0 -83.802379160234068 -102.68539228559166 0 -102.68539228559166 201.52536377327942 0 0 0 0 0.1149296669197275 -0.72923851560778985 0 -0.72923851560778985 -0.11758649701233992 0 0 0 0 -25.482756843152174 -223.2376957919214 0 -223.2376957919214 240.73018065897486 0 0 0 0 -5.2929185100722407 -225.8057675941418 0 -225.8057675941418 99.912518435434322 0 0 0 0 13.598129952618024 -82.799512684880028 0 -82.799512684880028 82.967351238279662 0 0 0 0 31.060523310223289 -50.565566962079174 0 -50.565566962079174 111.07405822729925 0 0 0 0 4.3852624407866188 -57.813701446542836 0 -57.813701446542836 112.16720604563488 0 0 0 0 17.980277276514471 -21.867013631293958 0 -21.867013631293958 49.580447381675185 0 0 0 0 0.18721133034460191 -0.92893966043743603 0 -0.92893966043743603 -0.27739058382088189 0 0 0 0 -3.2989717383741208 -83.095514360949892 0 -83.095514360949892 162.65008926470182 0 0 0 0 87.150660036282261 -68.334988761591376 0 -68.334988761591376 70.448353488942303 0 0 0 0 75.435929116431225 -76.496099583750038 0 -76.496099583750038 79.51721057917166 0 0 0 0 107.32998655819551 -25.439034684375656 0 -25.439034684375656 128.89911344616485 0 0 0 0 128.36865595210259 -37.50189172635146 0 -37.50189172635146 29.18365125857963 0 0 0 0 87.322787955426747 -77.922377589609823 0 -77.922377589609823 122.4088196705161 0 0 0 0 72.334440498067579 -134.34482592068889 0 -134.34482592068889 53.193101348842902 0 0 0 0 72.47148335842769 -144.84774382004161 0 -144.84774382004161 -70.790614337791339 0 0 0 0 27.040895429250668 -77.408571154490346 0 -77.408571154490346 0.9298015971944551 0 0 0 0 91.024260189494044 -83.929418626836195 0 -83.929418626836195 -23.559846874719369 0 0 0 0 44.80067674914153 44.179581897740718 0 44.179581897740718 83.368398789774801 0 0 0 0 -183.35245027401925 -59.559797987822094 0 -59.559797987822094 -58.982283053515857 0 0 0 0 -131.74066558622371 -47.248485221495685 0 -47.248485221495685 27.08368889871781 0 0 0 0 41.502792358114675 -40.885941616150376 0 -40.885941616150376 -84.197539051523563 0 0 0 0 -112.57761648398082 -69.697568848976516 0 -69.697568848976516 -90.099853296958031 0 0 0 0 -163.1163183129247 -90.413111197991384 0 -90.413111197991384 -193.87756290244579 0 0 0 0 -262.73233664859254 -155.02157209390134 0 -155.02157209390134 -88.119285618154208 0 0 0 0 -306.67681586809249 -52.132065669597068 0 -52.132065669597068 -155.04650580961606 0 0 0 0 -405.53863126570832 -112.99415152307483 0 -112.99415152307483 -144.59790537628578 0 0 0 0 -138.59701273333758 -104.68328028528049 0 -104.68328028528049 -118.86206118606788 0 0 0 0 -64.795447138996678 -213.53635721068713 0 -213.53635721068713 100.41521101997205 0 0 0 0 -579.33082644311014 32.355899843995758 0 32.355899843995758 -238.78191967948806 0 0 0 0 -249.02972467170457 40.4829068987965 0 40.4829068987965 -487.02218291799363 0 0 0 0 -131.42542833687548 -85.231341489663464 0 -85.231341489663464 -411.77743937366176 0 0 0 0 16.169398881737834 -126.05669714526084 0 -126.05669714526084 -216.67188375417027 0 0 0 0 -82.004648883076698 -320.27440935940103 0 -320.27440935940103 -136.89921677227539 0 0 0 0 -149.56753168552586 -169.70791897559684 0 -169.70791897559684 -90.297025555948494 0 0 0 0 -254.22413504665246 -391.53317238864474 0 -391.53317238864474 -222.16469089973543 0 0 0 0 106.71010304110337 -160.05672068490094 0 -160.05672068490094 406.92531274688008 0 0 0 0 111.91594028329882 34.362355011024192 0 34.362355011024192 42.331636983231874 0 0 0 0 -78.701056975652136 -144.6217452411729 0 -144.6217452411729 136.18969365048906 0 0 0 0 25.463116915510568 41.058704544137072 0 41.058704544137072 258.56161721411263 0 0 0 0 119.74047010584809 28.820603514333925 0 28.820603514333925 85.255939905133346 0 0 0 0 372.81035533711565 187.91843572579455 0 187.91843572579455 298.92923951622015 0 0 0 0 26.844428404568816 10.341249026474543 0 10.341249026474543 362.04066197519387 0 0 0 0 83.810132717202038 82.59756944238552 0 82.59756944238552 308.03653442994255 0 0 0 0 95.303795489308527 -28.396858908336071 0 -28.396858908336071 132.57197863893998 0 0 0 0 26.901422162372299 3.1747129736463648 0 3.1747129736463648 428.31370273310313 0 0 0 0 -13.663318754868158 39.970659645194246 0 39.970659645194246 549.58735319310654 0 0 0 0 115.65491084366931 187.68415341320724 0 187.68415341320724 270.69117893473594 0 0 0 0 -13.824283255690318 49.337924219683828 0 49.337924219683828 367.15972304283059 0 0 0 0 14.535556424990773 13.73556021404147 0 13.73556021404147 275.37731921611703 0 0 0 0 -8.6656091169497813 9.6957651434204308 0 9.6957651434204308 341.93144171208951 0 0 0 0 -29.780725535207694 -34.239643831115245 0 -34.239643831115245 330.26157722408243 0 0 0 0 -47.114571395069788 -5.1867505931622873 0 -5.1867505931622873 485.94553791466751 0 0 0 0 -47.11221406772006 39.625463645024865 0 39.625463645024865 489.4000814932806 0 0 0 0 -105.4351490902626 -33.823438014729618 0 -33.823438014729618 588.99251183098386 0 0 0 0 -35.261769910613651 141.07195951000267 0 141.07195951000267 683.26706738927169 0 0 0 0 15.308641502511591 4.4234123094611277 0 4.4234123094611277 132.36401384795317 0 0 0 0 -92.646148570728428 -108.5752480438332 0 -108.5752480438332 385.87247361030313 0 0 0 0 -0.33079459647837961 -1.2255041839851586 0 -1.2255041839851586 7.9895523424128214 0 0 0 0 -96.064396360240835 -154.2179119142711 0 -154.2179119142711 87.503027225908227 0 0 0 0 -144.39084718893193 140.41444959343835 0 140.41444959343835 784.69691113718727 0 0 0 0 40.584060429873489 690.59016687759868 0 690.59016687759868 456.92813717995887 0 0 0 0 108.3784065079136 23.838089971549607 0 23.838089971549607 377.12131396173936 0 0 0 0 152.25663277550487 -16.270535038180242 0 -16.270535038180242 277.98740639766584 0 0 0 0 147.42139879097329 15.802877949623507 0 15.802877949623507 177.41875297056686 0 0 0 0 150.09813441709997 33.335853400833912 0 33.335853400833912 212.81459525585524 0 0 0 0 113.45113001793663 88.514240649859858 0 88.514240649859858 182.07965706490882 0 0 0 0 139.78593644601028 82.904238001604881 0 82.904238001604881 161.80544519072282 0 0 0 0 118.02620997162276 72.840618046760028 0 72.840618046760028 231.17954152626044 0 0 0 0 135.17321791172367 64.996195142073702 0 64.996195142073702 207.09861575969808 0 0 0 0 132.99222349930909 24.032378828029323 0 24.032378828029323 211.56077590029156 0 0 0 0 100.01250984612585 42.971336387030533 0 42.971336387030533 302.48874326616351 0 0 0 0 117.86251179293231 -32.031572249532474 0 -32.031572249532474 275.82972213135145 0 0 0 0 87.793178625815017 28.294162579983094 0 28.294162579983094 207.30173629840465 0 0 0 0 115.66464281003169 -27.398554116447485 0 -27.398554116447485 380.40442202205304 0 0 0 0 72.044797776802909 19.39851783299855 0 19.39851783299855 608.14749749323528 0 0 0 0 203.68020281106067 26.753520391746861 0 26.753520391746861 408.19177095078521 0 0 0 0 89.410974231088403 -12.015652679343475 0 -12.015652679343475 428.08473323077123 0 0 0 0 99.283289923643053 -84.087329418554873 0 -84.087329418554873 692.67514690863027 0 0 0 0 0.68041270354234085 -1.4067497139439382 0 -1.4067497139439382 3.0469860251940872 0 0 0 0 120.82339866828181 266.42421359460423 0 266.42421359460423 680.08233207715386 0 0 0 0 39.833713187660237 -205.00623349530724 0 -205.00623349530724 342.61358293087687 0 0 0 0 -65.252939629114621 -118.37941509058874 0 -118.37941509058874 605.67257051642082 0 0 0 0 9.428875283680668 -61.854263730354432 0 -61.854263730354432 362.61827071145672 0 0 0 0 25.691935696747805 -81.117469072549284 0 -81.117469072549284 404.74536710653047 0 0 0 0 114.96036135151473 -37.371626706037205 0 -37.371626706037205 302.16018091879232 0 0 0 0 325.17041223196918 -80.484918004420251 0 -80.484918004420251 266.14998584923887 0 0 0 0 146.36814468205949 -206.10182775773501 0 -206.10182775773501 514.9793183045258 0 0 0 0 -37.498988624890103 -144.11630572202557 0 -144.11630572202557 566.20106449689047 0 0 0 0 51.412700599303776 -344.04623076765711 0 -344.04623076765711 710.3347824469929 0 0 0 0 143.87296309861071 31.075460714047949 0 31.075460714047949 524.967404171417 0 0 0 0 48.238583063880867 -214.63283499628233 0 -214.63283499628233 303.51589913653515 0 0 0 0 -127.17458142801752 -176.05058705405099 0 -176.05058705405099 422.05337989058899 0 0 0 0 -0.18174065653647631 -13.073298654930113 0 -13.073298654930113 -97.128192145799403 0 0 0 0 2.6048602172651272 47.297540865969495 0 47.297540865969495 237.15469918649615 0 0 0 0 128.77048276891463 -85.294753812057024 0 -85.294753812057024 137.64377224546479 0 0 0 0 -241.08964102556956 18.273323173267272 0 18.273323173267272 130.66697398010729 0 0 0 0 -100.7489642508624 -120.05980881165033 0 -120.05980881165033 153.69543358239753 0 0 0 0 -134.47920186384295 -260.5648427015185 0 -260.5648427015185 310.31875047356516 0 0 0 0 -375.05026519148691 -146.69080322792797 0 -146.69080322792797 220.03314793578102 0 0 0 0 -353.17858632181867 82.024264459883852 0 82.024264459883852 94.416118692450254 0 0 0 0 -3.4789895668435808 1.3580829518400748 0 1.3580829518400748 -0.90269058437449701 0 0 0 0 -180.52647074639458 143.2731854249032 0 143.2731854249032 78.115958066202438 0 0 0 0 -194.19111056835405 -144.3356513484141 0 -144.3356513484141 -80.407162187781068 0 0 0 0 -355.71895088557756 -97.538004752514098 0 -97.538004752514098 95.313204685007804 0 0 0 0 -277.63864467601985 158.98224767699594 0 158.98224767699594 138.21597886332893 0 0 0 0 -227.61717930144908 -6.2172573130155797 0 -6.2172573130155797 159.31726612752755 0 0 0 0 -134.19818644522763 36.316222187906533 0 36.316222187906533 144.84794648185562 0 0 0 0 -152.75181392073063 -59.989908007633858 0 -59.989908007633858 47.061855672043748 0 0 0 0 178.02499086059163 -27.768098699769325 0 -27.768098699769325 136.96516198394238 0 0 0 0 114.58228459729423 94.124262826193444 0 94.124262826193444 111.637467006306 0 0 0 0 -11.047394301960196 59.927084452141571 0 59.927084452141571 125.33607637412933 0 0 0 0 -100.55114997635587 120.83407276561775 0 120.83407276561775 160.59846098143498 0 0 0 0 -4.7418343543266701 86.018612374692111 0 86.018612374692111 169.60129573941958 0 0 0 0 106.2218560802055 71.091621406449121 0 71.091621406449121 142.1729081649064 0 0 0 0 54.988392831215378 104.38353176906458 0 104.38353176906458 167.35415556044609 0 0 0 0 127.5999254389157 73.706235801349976 0 73.706235801349976 166.93147005275387 0 0 0 0 106.78539528285364 108.42552992668789 0 108.42552992668789 202.84866116732155 0 0 0 0 51.567056147257745 35.145854092268564 0 35.145854092268564 244.17481266749382 0 0 0 0 32.741075488628894 142.84578968616552 0 142.84578968616552 227.2262156669085 0 0 0 0 57.067960326821094 66.965471403302217 0 66.965471403302217 411.20697556847881 0 0 0 0 -100.16189134646805 67.558339898809209 0 67.558339898809209 210.7185604427068 0 0 0 0 10.622953632637973 52.329964858470703 0 52.329964858470703 172.95376697176835 0 0 0 0 -23.556280707833537 117.43626531071641 0 117.43626531071641 177.65513185558666 0 0 0 0 -163.65741553974271 52.10123713970188 0 52.10123713970188 161.48277791339206 0 0 0 0 -165.46918297238915 140.50516794476061 0 140.50516794476061 150.61999531450647 0 0 0 0 -134.59249565560754 39.3019881969567 0 39.3019881969567 512.16697943370673 0 0 0 0 -0.33537325876339286 0.54105893263330529 0 0.54105893263330529 0.60013005951439702 0 0 0 0 -101.53247165923501 99.185012875188477 0 99.185012875188477 -16.856762303163123 0 0 0 0 -92.241101083564246 82.706216092690738 0 82.706216092690738 137.94078230882587 0 0 0 0 2.6934705517242037 -90.330333487454482 0 -90.330333487454482 180.00967781890176 0 0 0 0 -16.330792416653061 113.3645131750136 0 113.3645131750136 23.238438200911332 0 0 0 0 2.4427077657784526 3.1641384209428196 0 3.1641384209428196 2.4512040435666478 0 0 0 0 -8.4791610372864739 -12.412594510238705 0 -12.412594510238705 251.64343775786256 0 0 0 0 -106.7176162349098 22.017107610684434 0 22.017107610684434 114.70442428340175 0 0 0 0 6.3282563411977151 140.08631507801147 0 140.08631507801147 44.895290232361731 0 0 0 0 35.321618522060533 139.88246636049735 0 139.88246636049735 -167.27105145077439 0 0 0 0 67.937533749944635 148.73952213049643 0 148.73952213049643 29.056467737995263 0 0 0 0 3.5310648689044228 51.237790562343434 0 51.237790562343434 27.572921318365843 0 0 0 0 30.269432536561023 79.556507332819592 0 79.556507332819592 40.368338162239525 0 0 0 0 89.352631712807352 91.12312652219407 0 91.12312652219407 -3.1176929211214883 0 0 0 0 106.86593296169866 143.24056414185361 0 143.24056414185361 29.47678834584076 0 0 0 0 90.881299976189666 118.65096301153608 0 118.65096301153608 50.993908826450934 0 0 0 0 148.49153199490661 128.00753345032172 0 128.00753345032172 18.860213648033096 0 0 0 0 216.01951661457329 291.63343997636639 0 291.63343997636639 210.55270692335034 0 0 0 0 -49.91134958178057 86.3357300810585 0 86.3357300810585 194.29168197957188 0 0 0 0 -66.753566949501703 124.59283708012299 0 124.59283708012299 205.58674306526245 0 0 0 0 1.4575380958443411 1.355884290762603 0 1.355884290762603 1.2565633112186134 0 0 0 0 218.50683216652754 128.19453095467179 0 128.19453095467179 -141.48909036022997 0 0 0 0 116.0154955466279 72.311196361421025 0 72.311196361421025 221.84305708508327 0 0 0 0 53.474507513021877 18.171237174778071 0 18.171237174778071 179.12236403575298 0 0 0 0 1.0390316956844048 -0.88711384520658498 0 -0.88711384520658498 0.56629813270480156 0 0 0 0 50.277442770439166 60.418621290176816 0 60.418621290176816 248.20677916229397 0 0 0 0 -86.658267586310615 5.502469642124197 0 5.502469642124197 285.03413216834088 0 0 0 0 -32.931000019720386 5.962829561097351 0 5.962829561097351 218.10418337868759 0 0 0 0 62.308646652112316 26.964786067983368 0 26.964786067983368 184.31975105422316 0 0 0 0 185.72951051319501 100.97072210961778 0 100.97072210961778 -6.6845719526772882 0 0 0 0 118.67812542767922 -273.95693074403971 0 -273.95693074403971 525.14437972860469 0 0 0 0 -101.90436731077834 782.75254717018629 0 782.75254717018629 934.34272574981151 0 0 0 0 -2.1713089605141818 -98.842197489278078 0 -98.842197489278078 155.60219773768767 0 0 0 0 62.665403271355672 9.7622633696500998 0 9.7622633696500998 312.13133694560383 0 0 0 0 -69.075832818993945 -41.918830248256199 0 -41.918830248256199 241.65791383654596 0 0 0 0 5.1333676089262781 69.276863241353567 0 69.276863241353567 65.346576732848916 0 0 0 0 -48.96041015008916 -51.31287763821274 0 -51.31287763821274 360.25574315529593 0 0 0 0 46.840784249434535 67.637363864540021 0 67.637363864540021 257.18503055370638 0 0 0 0 2.8242500703754816 3.4924187161628595 0 3.4924187161628595 2.7228586277538014 0 0 0 0 0.55518055894364204 2.3543273692431228 0 2.3543273692431228 -0.21316017911370899 0 0 0 0 -5.1304223795083885 -46.707211052083949 0 -46.707211052083949 445.62881400925835 0 0 0 0 -143.53943015522432 15.178926265321024 0 15.178926265321024 97.461239177351672 0 0 0 0 -2.6582320148540362 4.4310924577657715 0 4.4310924577657715 73.488073482214531 0 0 0 0 -11.755231882080523 -39.857018551803776 0 -39.857018551803776 105.86033009395396 0 0 0 0 -27.524861324928061 -17.330515589080278 0 -17.330515589080278 73.70396094809621 0 0 0 0 7.2503879027621565 -58.39189108042774 0 -58.39189108042774 119.1166515028126 0 0 0 0 114.55008529449657 -31.054143128912983 0 -31.054143128912983 56.372480035675835 0 0 0 0 3.7076746463670958 17.483180891509164 0 17.483180891509164 43.717587733626715 0 0 0 0 1.7084941970353547 1.5754104625488878 0 1.5754104625488878 7.9612181812807865 0 0 0 0 63.496652570908168 15.826604517955275 0 15.826604517955275 7.5965603525919505 0 0 0 0 -142.05752204635229 -138.47654181459438 0 -138.47654181459438 622.9935972268504 0 0 0 0 270.75224113258378 134.70661236438173 0 134.70661236438173 373.77614519809867 0 0 0 0 1.1929231487474949 -7.2623202145031982 0 -7.2623202145031982 4.3940268311185662 0 0 0 0 -331.25563464726667 -1.4741399789127172 0 -1.4741399789127172 418.1829869404919 0 0 0 0 10.670778472821667 108.28390011434749 0 108.28390011434749 392.12626566852123 0 0 0 0 44.786654161541662 64.131101077819039 0 64.131101077819039 98.185297763106064 0 0 0 0 -73.104170433599663 16.016722733797906 0 16.016722733797906 78.741525908204494 0 0 0 0 1.2355942056430451 -13.529986348167398 0 -13.529986348167398 21.57351974052807 0 0 0 0 -10.949893410275081 -57.214042466534011 0 -57.214042466534011 55.772817825316451 0 0 0 0 -2.9731281661956643 -82.113411087990244 0 -82.113411087990244 106.76694648012563 0 0 0 0 -44.393771123698144 -42.441101005788369 0 -42.441101005788369 148.60751185966365 0 0 0 0 53.604845889898343 -18.394236905177422 0 -18.394236905177422 -15.572597432244947 0 0 0 0 0.70850318834445514 -2.3549049960807196 0 -2.3549049960807196 -0.80471452523508447 0 0 0 0 84.493115948898776 10.877539237939345 0 10.877539237939345 -164.91732624222277 0 0 0 0 4.9034696231319899 -15.786416309683304 0 -15.786416309683304 10.830381096615405 0 0 0 0 -13.425726001164094 41.177397949471924 0 41.177397949471924 54.715188445188687 0 0 0 0 -20.462659146594206 26.931957187764056 0 26.931957187764056 30.545826165282051 0 0 0 0 -25.344509701699906 9.4390227860203595 0 9.4390227860203595 84.360754063185595 0 0 0 0 -9.4085899389780892 -3.4048922276087978 0 -3.4048922276087978 50.126472222698794 0 0 0 0 13.589944568877478 42.182381701184568 0 42.182381701184568 132.39364072595163 0 0 0 0 -34.829517332879618 6.4504067974048667 0 6.4504067974048667 66.463180144844955 0 0 0 0 2.3045250703443116 -13.084582291470724 0 -13.084582291470724 6.5720369577502424 0 0 0 0 -10.947423120021391 0.91922863172207769 0 0.91922863172207769 4.358909997998353 0 0 0 0 13.040705920048595 -16.614472610988742 0 -16.614472610988742 -6.8180360852784361 0 0 0 0 -51.633324598356012 -47.520143706038652 0 -47.520143706038652 88.481759884460189 0 0 0 0 11.364796374768822 -21.505842761967472 0 -21.505842761967472 28.027196738989915 0 0 0 0 -28.017300541278701 -329.98130822445637 0 -329.98130822445637 -179.26034184033051 0 0 0 0 711.4720218763523 -118.76156248885673 0 -118.76156248885673 -233.53507583046485 0 0 0 0 -387.19243726111381 213.98609899236908 0 213.98609899236908 1325.7662404789007 0 0 0 0 -415.58185814539456 -479.64351365422345 0 -479.64351365422345 682.39000253008271 0 0 0 0 7.4804703224604232 -15.045641950963077 0 -15.045641950963077 26.807863577688835 0 0 0 0 -258.42112085712779 -49.52510156191056 0 -49.52510156191056 8.8935756620139728 0 0 0 0 -38.959036791811059 75.778850823307948 0 75.778850823307948 52.217885133544769 0 0 0 0 -51.979125348629168 49.166860363231535 0 49.166860363231535 144.88445586273883 0 0 0 0 0.50330267346043911 135.74815767393738 0 135.74815767393738 143.14969926984577 0 0 0 0 180.65444778891367 134.98799310303093 0 134.98799310303093 -57.484734662830306 0 0 0 0 -41.100990732911441 121.78988003232007 0 121.78988003232007 140.71688988208507 0 0 0 0 288.47526565291594 586.27760388118986 0 586.27760388118986 791.20070309351286 0 0 0 0 -153.58083628717839 32.953230631406768 0 32.953230631406768 143.57857526477187 0 0 0 0 -92.045769456165544 141.11001986984593 0 141.11001986984593 295.79351823103207 0 0 0 0 -196.8652727880816 30.36049866470421 0 30.36049866470421 389.56974562947653 0 0 0 0 -306.66327633586673 -211.24960103860212 0 -211.24960103860212 401.18197598846791 0 0 0 0 -13.628564373516019 -48.483692584378737 0 -48.483692584378737 133.24862208080251 0 0 0 0 -192.95222153191341 -271.56920536564394 0 -271.56920536564394 -29.603362048710551 0 0 0 0 5.2773784341917809 2.2969628116081964 0 2.2969628116081964 29.777462540624732 0 0 0 0 -147.08546392892038 -31.653697666839435 0 -31.653697666839435 -175.71578193780442 0 0 0 0 17.046930911354139 -502.37699358995815 0 -502.37699358995815 679.61853495771493 0 0 0 0 165.08238524585022 -485.64420809246985 0 -485.64420809246985 -432.53482722019271 0 0 0 0 3.4591510364733633 -2.1839949684949076 0 -2.1839949684949076 -2.7403752566220447 0 0 0 0 201.51272016245775 340.64798483266168 0 340.64798483266168 313.17273283336363 0 0 0 0 395.21923282661794 137.94678745189435 0 137.94678745189435 188.21052960881934 0 0 0 0 8.2985252126239359 481.86515041588973 0 481.86515041588973 593.84345504950034 0 0 0 0 280.15312394576108 -223.19911495155293 0 -223.19911495155293 -181.90852558440747 0 0 0 0 4.3814568382534764 -4.9300413535758985 0 -4.9300413535758985 7.3427369165631404 0 0 0 0 485.76350913383203 935.76728649592405 0 935.76728649592405 1146.2142341305616 0 0 0 0 -13.461237934305245 -234.72193302361666 0 -234.72193302361666 -179.89095515182339 0 0 0 0 -177.50658119345826 -191.28710630295973 0 -191.28710630295973 161.81930166906386 0 0 0 0 -114.56588727911594 -47.497819897092995 0 -47.497819897092995 2.7889921736641554 0 0 0 0 -170.65599180547406 -250.29864939439938 0 -250.29864939439938 -27.915932259922556 0 0 0 0 10.858791538124622 -16.109127311229564 0 -16.109127311229564 24.23732553143607 0 0 0 0 -126.40828969589529 7.2524838471217663 0 7.2524838471217663 178.1167929604203 0 0 0 0 -33.033748199999749 -57.147589419614654 0 -57.147589419614654 5.7151846884238804 0 0 0 0 377.70332857923859 -253.81995372543861 0 -253.81995372543861 218.60873772649029 0 0 0 0 228.91809902171121 -22.302499984681162 0 -22.302499984681162 -104.1262274800556 0 0 0 0 -72.382505577092161 120.62811364419122 0 120.62811364419122 536.54555719164273 0 0 0 0 5.3569095008836651 -6.4158986799096853 0 -6.4158986799096853 6.6012025164416457 0 0 0 0 -105.01831766767737 -468.41939220211498 0 -468.41939220211498 -191.70444561411932 0 0 0 0 -75.920734509882749 34.95450148852899 0 34.95450148852899 244.28750420155302 0 0 0 0 -9.5577914248274283 220.12530622169925 0 220.12530622169925 350.69782819407556 0 0 0 0 -92.394904803878376 -14.370523990852234 0 -14.370523990852234 175.75995650327241 0 0 0 0 -16.339833343778967 23.377861146607422 0 23.377861146607422 30.528574846388484 0 0 0 0 -20.241495759678923 -45.604138543316957 0 -45.604138543316957 134.13233452311454 0 0 0 0 -213.18660625310622 -216.39320108826905 0 -216.39320108826905 483.23370756415716 0 0 0 0 -207.46266674459457 -294.22616301372091 0 -294.22616301372091 43.85164089826867 0 0 0 0 -38.673413870510558 -39.204530205011906 0 -39.204530205011906 87.574999946906701 0 0 0 0 30.984685871411784 -177.16397431599762 0 -177.16397431599762 -65.607213319115544 0 0 0 0 -16.590506257177367 53.840858702031255 0 53.840858702031255 389.50236741096523 0 0 0 0 1.5076859721705294 -4.5298815258126659 0 -4.5298815258126659 -11.178354535426731 0 0 0 0 -1586.9382896237439 -838.45366763484344 0 -838.45366763484344 1453.4556098609937 0 0 0 0 -145.7629809296559 -167.54401406702527 0 -167.54401406702527 303.42275881024034 0 0 0 0 64.307605068041084 -64.252582813276604 0 -64.252582813276604 90.303474489050132 0 0 0 0 7.5838855020301956 -16.767700197026947 0 -16.767700197026947 34.268380627399864 0 0 0 0 78.964178462806103 120.13311220568085 0 120.13311220568085 239.8473078409188 0 0 0 0 88.820221078301984 134.96547655106497 0 134.96547655106497 234.10977890520007 0 0 0 0 437.08396718271615 91.846978539908378 0 91.846978539908378 -59.393469136986369 0 0 0 0 269.67434181635235 392.01904500622004 0 392.01904500622004 597.8625645178854 0 0 0 0 5.8901515844083328 -6.8297735171321268 0 -6.8297735171321268 9.1411055835981045 0 0 0 0 2.0023962399072843 -240.77015516247229 0 -240.77015516247229 -182.74021954110867 0 0 0 0 -81.994267997521462 -585.34381363553439 0 -585.34381363553439 -213.97890544141046 0 0 0 0 9.1546977212693808 -14.786885459501798 0 -14.786885459501798 20.477730026333916 0 0 0 0 -367.05597352531856 -460.32354193517494 0 -460.32354193517494 -241.18933407740406 0 0 0 0 -450.89960343572949 -391.92101095851694 0 -391.92101095851694 343.1904308786834 0 0 0 0 369.20205390956517 -262.52198381137623 0 -262.52198381137623 -394.9611845221616 0 0 0 0 -415.99013365082646 -223.78663774444976 0 -223.78663774444976 987.46085123854209 0 0 0 0 295.93005956479237 549.95304306137041 0 549.95304306137041 582.93168385575154 0 0 0 0 -454.77992716535965 92.354013649476201 0 92.354013649476201 687.638760257385 0 0 0 0 -380.53696972593116 272.83230416524384 0 272.83230416524384 644.26509642775818 0 0 0 0 0.36075813250559752 3.0706389892961781 0 3.0706389892961781 5.5637036286788799 0 0 0 0 -161.29614167167256 24.027251864314167 0 24.027251864314167 78.378166361701005 0 0 0 0 30.694878589974451 33.847004699193349 0 33.847004699193349 9.2989502625200657 0 0 0 0 758.5352807444774 -83.367519706942858 0 -83.367519706942858 -37.389635032428487 0 0 0 0 82.659994057522908 -5.8142983587486015 0 -5.8142983587486015 150.00668763562862 0 0 0 0 230.535667223686 -300.68145648331392 0 -300.68145648331392 696.40390614783246 0 0 0 0 69.026374173562658 221.59145877179799 0 221.59145877179799 61.219950792163218 0 0 0 0 -170.36407031458202 53.547188927146635 0 53.547188927146635 33.460056436746527 0 0 0 0 135.24580695882673 319.23049634777999 0 319.23049634777999 -15.72558141202353 0 0 0 0 124.59819042487425 113.38465660689144 0 113.38465660689144 194.65194720180989 0 0 0 0 308.43559715348238 543.14673433715689 0 543.14673433715689 679.11901047797073 0 0 0 0 29.2502853178338 -444.74235155574024 0 -444.74235155574024 1131.2907144675855 0 0 0 0 26.083555864378297 -316.20461050505673 0 -316.20461050505673 -33.586264980734995 0 0 0 0 16.781973867995589 -222.00334258602561 0 -222.00334258602561 249.18801223719493 0 0 0 0 -137.46277983483878 80.806457894262167 0 80.806457894262167 -344.39804533278948 0 0 0 0 529.57889524050677 271.8713258757125 0 271.8713258757125 -78.252669887551747 0 0 0 0 -63.549292607139378 538.31091072143863 0 538.31091072143863 -148.35311035023665 0 0 0 0 -38.85585101909092 53.291224798622352 0 53.291224798622352 -146.12111285679566 0 0 0 0 -193.04195815917205 -211.1104874932862 0 -211.1104874932862 577.59172104777826 0 0 0 0 -95.521736925989899 -105.5635228299252 0 -105.5635228299252 -236.35197230189442 0 0 0 0 -535.62074843780033 895.88722629708354 0 895.88722629708354 353.60196054115659 0 0 0 0 -370.02003782311476 -343.7197977455271 0 -343.7197977455271 -73.476255081848649 0 0 0 0 8.6156450711955763 -15.024702716732179 0 -15.024702716732179 22.591252667891141 0 0 0 0 -533.49546400367853 -36.588367299284073 0 -36.588367299284073 142.2054377208824 0 0 0 0 -50.65329283218216 -89.008051469299971 0 -89.008051469299971 -50.870041224905435 0 0 0 0 -67.563449826974875 -110.6304537400656 0 -110.6304537400656 138.41134961550415 0 0 0 0 -127.31786472268072 -150.00789397402195 0 -150.00789397402195 -93.446053524683521 0 0 0 0 -169.50146529565518 -14.899897207715185 0 -14.899897207715185 49.675916892831083 0 0 0 0 -145.22953470859284 33.425747912739098 0 33.425747912739098 242.35942149667426 0 0 0 0 -19.366565244991307 -11.972381111134382 0 -11.972381111134382 347.86479941369907 0 0 0 0 -11.495944716877602 50.095790414539806 0 50.095790414539806 105.66003084977592 0 0 0 0 -200.19996848705068 -91.93880934830122 0 -91.93880934830122 115.09598458931578 0 0 0 0 -210.27437961608757 -0.82053857628488913 0 -0.82053857628488913 -18.712682190065607 0 0 0 0 -236.28972625193637 -50.077392674448674 0 -50.077392674448674 142.57160962645321 0 0 0 0 -73.288690293195032 -20.789203842969073 0 -20.789203842969073 107.49002217056113 0 0 0 0 -176.09695628013651 -101.89918967357607 0 -101.89918967357607 118.50241318494409 0 0 0 0 -36.035499919944414 -1.962079501905464 0 -1.962079501905464 118.88893030891821 0 0 0 0 29.711089390271354 176.46543465852596 0 176.46543465852596 305.16040482531753 0 0 0 0 -11.566537285109916 49.558695693749542 0 49.558695693749542 186.74690388951785 0 0 0 0 -35.172782225841729 95.016049818700594 0 95.016049818700594 212.59651146757915 0 0 0 0 -6.7195506325407557 -31.106017782374352 0 -31.106017782374352 21.731672064709002 0 0 0 0 280.10366536686388 95.467190761594793 0 95.467190761594793 162.22616795104886 0 0 0 0 292.95328048703686 -2.5144150057585648 0 -2.5144150057585648 77.415412064941847 0 0 0 0 65.421981544752271 113.02868590656908 0 113.02868590656908 31.184665666828266 0 0 0 0 205.05550893426215 193.62377797935892 0 193.62377797935892 -131.66546526275124 0 0 0 0 5.7808110786577327 -66.582425543743312 0 -66.582425543743312 134.08409500183399 0 0 0 0 41.358448121075071 -59.415555180130468 0 -59.415555180130468 165.05683844552914 0 0 0 0 0.72933761170944678 -0.60892649557681011 0 -0.60892649557681011 0.36703967235391133 0 0 0 0 247.62111554466856 -68.620602445726036 0 -68.620602445726036 -332.43549091353634 0 0 0 0 6.6159633960073734 -140.25509206374409 0 -140.25509206374409 379.36486815405806 0 0 0 0 -20.674449528719165 -169.27905220749903 0 -169.27905220749903 86.433881376994577 0 0 0 0 158.6140949412802 -19.682417751493631 0 -19.682417751493631 153.38079200379252 0 0 0 0 -4.8160013561837332 -60.997727861147723 0 -60.997727861147723 255.3494767216971 0 0 0 0 72.080743753157094 -34.610864205533289 0 -34.610864205533289 54.167553332546959 0 0 0 0 84.366154515499147 -195.3604809675744 0 -195.3604809675744 233.51902208017418 0 0 0 0 -33.408531791707247 -55.367731335448298 0 -55.367731335448298 58.858094480565342 0 0 0 0 -7.6776502452048589 -55.712218160217162 0 -55.712218160217162 200.90322772199579 0 0 0 0 -13.145639454220197 -23.963676151048347 0 -23.963676151048347 91.132081651166644 0 0 0 0 7.5710198255778494 -18.433770605146492 0 -18.433770605146492 65.53740570242735 0 0 0 0 64.319867170156158 62.312887281477742 0 62.312887281477742 157.1360502640614 0 0 0 0 -11.948467517522353 -27.553483877444876 0 -27.553483877444876 86.686005829942175 0 0 0 0 13.323175861670393 -21.022303650168993 0 -21.022303650168993 6.832822913192004 0 0 0 0 -46.635078617104227 56.507925792422611 0 56.507925792422611 -53.752417928213617 0 0 0 0 1.9958084033942214 -33.07851705723624 0 -33.07851705723624 100.68934342815555 0 0 0 0 -7.0063995646625834 -6.6263555107775112 0 -6.6263555107775112 67.20003128581088 0 0 0 0 -15.816357766984083 -12.038135026672535 0 -12.038135026672535 85.436761043340084 0 0 0 0 -89.372317053661845 20.228227817150582 0 20.228227817150582 229.25263835340957 0 0 0 0 9.4707128453014775 -6.1245052636231776 0 -6.1245052636231776 236.17972564467846 0 0 0 0 5.4086960734525746 24.395366939488667 0 24.395366939488667 175.37412871486413 0 0 0 0 62.89014653845561 58.143214201670162 0 58.143214201670162 194.85686205293678 0 0 0 0 -16.78762379924251 -57.328394959408342 0 -57.328394959408342 77.141857008216903 0 0 0 0 442.33061157086627 344.32471672076645 0 344.32471672076645 -435.67970045656239 0 0 0 0 0.87154311184081923 -24.887402871199853 0 -24.887402871199853 19.061376406620042 0 0 0 0 -4.0425147968881205 -50.338639445227869 0 -50.338639445227869 60.448142228941009 0 0 0 0 -78.43379049013538 -22.774179373423976 0 -22.774179373423976 353.06172130968025 0 0 0 0 -110.79501829961555 -48.500962554298894 0 -48.500962554298894 -7.55335099594231 0 0 0 0 -38.607934972594414 -62.758523259887099 0 -62.758523259887099 6.4470058533103218 0 0 0 0 17.341569709623169 -36.545914874607796 0 -36.545914874607796 17.351784466777431 0 0 0 0 55.335960338984819 763.68344821434403 0 763.68344821434403 830.22829963448999 0 0 0 0 -8.2447219289517761 -819.38990462911534 0 -819.38990462911534 664.66146895918064 0 0 0 0 -211.72929848620947 -21.676994556321006 0 -21.676994556321006 808.77608506225079 0 0 0 0 -154.50626316386428 -454.32619196315591 0 -454.32619196315591 494.04460109466163 0 0 0 0 -79.320556129287979 -293.24560833818759 0 -293.24560833818759 229.68337718522889 0 0 0 0 -175.06167523924898 -101.10908083498134 0 -101.10908083498134 -60.272671366990835 0 0 0 0 -124.25674827087238 -416.54732449732273 0 -416.54732449732273 93.321539048039995 0 0 0 0 2.0510471040729219 -5.2621612286344117 0 -5.2621612286344117 11.489656931003395 0 0 0 0 63.698591522399113 -72.505652277561239 0 -72.505652277561239 73.589053948533547 0 0 0 0 -63.336713385987615 -24.579977381408753 0 -24.579977381408753 24.653900664357934 0 0 0 0 0.96648130640029839 -1.7240822575097425 0 -1.7240822575097425 14.998389851279256 0 0 0 0 -119.9851818818743 -36.434401103902928 0 -36.434401103902928 286.44548433999807 0 0 0 0 -168.99509058270522 62.581176349760426 0 62.581176349760426 91.904490990418708 0 0 0 0 153.6074030146313 -264.16622454534991 0 -264.16622454534991 229.09307119359437 0 0 0 0 -67.234838920359692 -342.32711075198313 0 -342.32711075198313 409.29604129031213 0 0 0 0 470.47478174349447 -507.49877373608251 0 -507.49877373608251 382.78809854199426 0 0 0 0 0.25149699706928474 0.72604137814445835 0 0.72604137814445835 4.6629699619971916 0 0 0 0 -3.3210888480738996 78.422415288270713 0 78.422415288270713 9.6430035013909219 0 0 0 0 -10.600782729391128 87.581582037746557 0 87.581582037746557 171.68368396311416 0 0 0 0 -44.588295576467289 9.1706826228983118 0 9.1706826228983118 457.28758357861807 0 0 0 0 -13.688248996214163 -37.527309212724504 0 -37.527309212724504 19.101070925527893 0 0 0 0 -25.022746418304234 -72.8977041409089 0 -72.8977041409089 85.488652809002815 0 0 0 0 58.864453933038391 -38.206865450330952 0 -38.206865450330952 19.628515493823215 0 0 0 0 23.125883789702129 -82.784871631040005 0 -82.784871631040005 69.144321356230648 0 0 0 0 -44.276781566721638 -41.413015708385501 0 -41.413015708385501 19.896664761747616 0 0 0 0 4.8999139382472094 -69.686384458400426 0 -69.686384458400426 -2.8890221223409753 0 0 0 0 16.6748099719739 52.993276255634555 0 52.993276255634555 -7.4797377032246004 0 0 0 0 21.070150407328867 -15.787094349932886 0 -15.787094349932886 94.253878399693349 0 0 0 0 -47.505816975500181 6.7990283764811466 0 6.7990283764811466 35.48729141773947 0 0 0 0 21.897194233425751 22.062469146078001 0 22.062469146078001 37.238288186170394 0 0 0 0 75.96733767419434 -0.68495515939139295 0 -0.68495515939139295 -16.874781292848638 0 0 0 0 39.575130774335094 38.168528453366889 0 38.168528453366889 121.80631682524108 0 0 0 0 25.447615736056534 -92.660062230257608 0 -92.660062230257608 347.50702300768899 0 0 0 0 51.009972236144876 -21.563413843046874 0 -21.563413843046874 88.555485810051323 0 0 0 0 44.476148527173677 11.736296919396409 0 11.736296919396409 13.869579022735707 0 0 0 0 18.719981305225417 6.224550903247291 0 6.224550903247291 107.65649510174262 0 0 0 0 -37.119828500413803 41.148567347270728 0 41.148567347270728 48.994221048234976 0 0 0 0 41.483594131667253 -138.42066370955877 0 -138.42066370955877 7.8174005575492629 0 0 0 0 -3.4661930825116682 2.2574570523205466 0 2.2574570523205466 2.5100393230276836 0 0 0 0 -1.845120494783453 -0.51206627249740677 0 -0.51206627249740677 2.2294700691161626 0 0 0 0 -2.2614591966366788 -1.3940187804691959 0 -1.3940187804691959 15.764123166140052 0 0 0 0 -31.374538505590408 30.089827066834914 0 30.089827066834914 0.91437260289967526 0 0 0 0 60.932220358090063 13.825463429726369 0 13.825463429726369 -77.088808845197491 0 0 0 0 -48.534094291023337 11.400388201125679 0 11.400388201125679 19.16744374611153 0 0 0 0 -1.6129208684976204 1.9719495939725817 0 1.9719495939725817 0.8524250195108749 0 0 0 0 -46.408050464351618 -71.685996003929176 0 -71.685996003929176 354.96575490615942 0 0 0 0 -126.79453055159956 -73.805462214277213 0 -73.805462214277213 399.81174141391239 0 0 0 0 -4.4011460427156575 1.807796229692272 0 1.807796229692272 0.061993602738301234 0 0 0 0 -218.08708088013054 30.693103444376902 0 30.693103444376902 985.05294221141958 0 0 0 0 19.625423657207193 -172.15983384630817 0 -172.15983384630817 351.50987148166132 0 0 0 0 103.73924088479748 -271.87832868423175 0 -271.87832868423175 259.26582905483883 0 0 0 0 -273.41828255651353 52.584955546944911 0 52.584955546944911 414.59431501048675 0 0 0 0 0.45138223691721913 -1.8492551193649263 0 -1.8492551193649263 4.7798001142546696 0 0 0 0 337.46108097727313 -388.34776173533828 0 -388.34776173533828 238.05528411432169 0 0 0 0 -133.06259789881233 -87.94038630239811 0 -87.94038630239811 509.31403393079745 0 0 0 0 7.3022743074134269 15.033091047622293 0 15.033091047622293 3.7210051793335879 0 0 0 0 54.969599166093985 -143.43139349967532 0 -143.43139349967532 54.617063850644627 0 0 0 0 49.473278308973704 -68.529687419726542 0 -68.529687419726542 109.1373165297482 0 0 0 0 26.460599967734197 -32.798426179990201 0 -32.798426179990201 129.17364294291474 0 0 0 0 18.047700181280561 -47.288458638256998 0 -47.288458638256998 176.89630444585055 0 0 0 0 22.202367197660351 -87.941395503505191 0 -87.941395503505191 222.25532242346344 0 0 0 0 33.88243738878873 -135.41006664497399 0 -135.41006664497399 199.41473053090886 0 0 0 0 55.141961697842817 -102.32797081476019 0 -102.32797081476019 208.34556221969979 0 0 0 0 56.534860065085923 -139.92210520747176 0 -139.92210520747176 246.58708698285045 0 0 0 0 -0.21470882016456017 -86.468347426860419 0 -86.468347426860419 265.01860995054813 0 0 0 0 19.809446148431789 -97.506159835093058 0 -97.506159835093058 296.34835694438516 0 0 0 0 27.482436957702703 -116.03352799865388 0 -116.03352799865388 261.51090448131617 0 0 0 0 18.407758841538453 -110.95731687159423 0 -110.95731687159423 281.76692199212266 0 0 0 0 -0.791661662772289 0.60794997349357516 0 0.60794997349357516 0.87744200254782356 0 0 0 0 -1.5233948154002519 -44.169081623796956 0 -44.169081623796956 -23.649520600880351 0 0 0 0 10.027836022683005 1.6880210456074565 0 1.6880210456074565 -15.316349568616715 0 0 0 0 20.446115152359198 -133.93583041113743 0 -133.93583041113743 309.99490308084569 0 0 0 0 -33.486165386716834 22.313124626802164 0 22.313124626802164 22.684070349128888 0 0 0 0 -8.4841877683736726 -1.0643671675659192 0 -1.0643671675659192 8.1700739237715752 0 0 0 0 -10.161686694259515 6.710486490977928 0 6.710486490977928 13.37724714738215 0 0 0 0 65.818978292817519 -61.265824048678041 0 -61.265824048678041 322.4885377598257 0 0 0 0 28.976601716869482 -95.418630703861709 0 -95.418630703861709 307.93048604458454 0 0 0 0 88.463705309263787 -105.09398111852352 0 -105.09398111852352 272.28981166519225 0 0 0 0 57.131742829811628 -139.99576142529986 0 -139.99576142529986 272.03754384731837 0 0 0 0 -9.3942325850448469 131.28780778906184 0 131.28780778906184 100.40649960376322 0 0 0 0 1.4490234952108949 148.90586616560176 0 148.90586616560176 119.02187818333186 0 0 0 0 -14.372912662307726 133.04441955857965 0 133.04441955857965 84.364712793845683 0 0 0 0 -17.728771188323208 113.39085196673841 0 113.39085196673841 82.452605208745808 0 0 0 0 -3.4909497177222875 119.58142277655134 0 119.58142277655134 43.706844139926943 0 0 0 0 -26.556606982224821 129.23538213154461 0 129.23538213154461 128.780347683336 0 0 0 0 -23.352611231014635 101.60416407076627 0 101.60416407076627 181.32801875364385 0 0 0 0 -63.940527918518455 151.36468154020622 0 151.36468154020622 140.2254348381357 0 0 0 0 -16.84034411954957 101.52409276954381 0 101.52409276954381 167.94333874572476 0 0 0 0 13.543174652192192 90.632449167351297 0 90.632449167351297 159.02125398787393 0 0 0 0 -31.271944722649778 171.37388319488855 0 171.37388319488855 135.70267956383759 0 0 0 0 -70.859226396727138 102.00787419294875 0 102.00787419294875 183.17161138352822 0 0 0 0 -127.08755644575831 107.15690051903221 0 107.15690051903221 129.44958254152789 0 0 0 0 5.5054441743363896 51.189358309093222 0 51.189358309093222 169.84334458700505 0 0 0 0 -101.78671420719957 51.461247482111503 0 51.461247482111503 -18.353418632621469 0 0 0 0 -0.38786661459983307 0.1247609427635723 0 0.1247609427635723 1.2792516681270545 0 0 0 0 -3.4603427292823494 -1.0399259029614782 0 -1.0399259029614782 7.6572882847205364 0 0 0 0 53.187415057152066 89.976286421682744 0 89.976286421682744 129.32551261398112 0 0 0 0 11.631816457008654 30.148124124018068 0 30.148124124018068 100.23236949300917 0 0 0 0 37.170194999147725 57.346313330603152 0 57.346313330603152 105.63607204999425 0 0 0 0 18.296365917800301 2.1803815753155504 0 2.1803815753155504 13.468146214872831 0 0 0 0 -27.11166793819848 67.89773756248178 0 67.89773756248178 161.29317474915297 0 0 0 0 63.574223524392551 96.241891060442867 0 96.241891060442867 162.7506836757675 0 0 0 0 23.041330664858606 103.58062452770537 0 103.58062452770537 177.97274529418792 0 0 0 0 8.5325480799990885 63.607878026434264 0 63.607878026434264 189.43125010571384 0 0 0 0 15.363025729760011 106.27335295472585 0 106.27335295472585 263.33175635962289 0 0 0 0 1.4302776563995752 -4.2896860387211291 0 -4.2896860387211291 7.1757755717152634 0 0 0 0 63.118802951062776 67.199440091699216 0 67.199440091699216 195.99302529611668 0 0 0 0 -72.334968907546397 1.2189377688791865 0 1.2189377688791865 15.039457383532863 0 0 0 0 -3.5996366880988147 0.69269634559655913 0 0.69269634559655913 1.8304163682503631 0 0 0 0 -66.610654582014831 52.165014867860009 0 52.165014867860009 369.26333246385911 0 0 0 0 -2.3577379458472478 -1.7481102523415757 0 -1.7481102523415757 15.372983356326586 0 0 0 0 0.055669584466026656 -0.38529301302571639 0 -0.38529301302571639 2.0919722451263141 0 0 0 0 -105.21746138345225 73.167308994874475 0 73.167308994874475 364.96227131204796 0 0 0 0 -130.25503680278194 139.72937338992915 0 139.72937338992915 328.77639501923113 0 0 0 0 -125.76085703659191 45.651519110826484 0 45.651519110826484 348.00308644756296 0 0 0 0 -129.98605410206255 -62.387964817666216 0 -62.387964817666216 -68.337938339704124 0 0 0 0 -154.27294841101639 84.398545605217805 0 84.398545605217805 284.37161059608843 0 0 0 0 -161.61241684185438 158.11470870018638 0 158.11470870018638 193.38610693150258 0 0 0 0 -4.0425276031028261 120.15088976419065 0 120.15088976419065 211.19806846963183 0 0 0 0 -24.096757296605801 123.98120504150211 0 123.98120504150211 332.9817994581972 0 0 0 0 49.79417507840617 222.68111084059638 0 222.68111084059638 342.69176451170642 0 0 0 0 55.53038315872891 103.13266845135877 0 103.13266845135877 326.49856994555739 0 0 0 0 -3.2282926074699523 0.59142155080611047 0 0.59142155080611047 3.0407534272419525 0 0 0 0 -401.88526183605245 -132.12270000128046 0 -132.12270000128046 61.285700690254089 0 0 0 0 -97.274918767101553 90.265610069956892 0 90.265610069956892 124.9326163746664 0 0 0 0 -1.2254636023273182 0.40337297803399963 0 0.40337297803399963 1.1047880823846015 0 0 0 0 215.60571425661647 412.76166525599729 0 412.76166525599729 444.1400824167722 0 0 0 0 -149.1354342271552 112.15903322152371 0 112.15903322152371 393.03424460194492 0 0 0 0 -103.66342158624002 177.80401223732042 0 177.80401223732042 305.22890457257745 0 0 0 0 -117.69136636226904 72.536870381787594 0 72.536870381787594 387.27815643268696 0 0 0 0 42.126007186713196 41.249324065414839 0 41.249324065414839 417.96645673745616 0 0 0 0 37.497260551066574 177.82377685813844 0 177.82377685813844 402.2710701918113 0 0 0 0 -100.62736740884114 93.089762341626738 0 93.089762341626738 355.04745888730395 0 0 0 0 -23.062221315359693 203.17948075388267 0 203.17948075388267 176.75813555091736 0 0 0 0 -22.9015346199742 104.88182279637476 0 104.88182279637476 157.63969913507754 0 0 0 0 131.22616166789112 224.15695592968405 0 224.15695592968405 248.76790154955233 0 0 0 0 -247.2500550320774 182.04891060858972 0 182.04891060858972 349.91206777108891 0 0 0 0 -59.303447863830797 -9.1783593853997445 0 -9.1783593853997445 177.9392672181566 0 0 0 0 -78.594071892853663 116.47622886376666 0 116.47622886376666 407.45900029326731 0 0 0 0 -31.162895409881003 -94.568691999781549 0 -94.568691999781549 432.8438774068054 0 0 0 0 -148.56778626236974 -15.636955354100792 0 -15.636955354100792 323.99696180120134 0 0 0 0 -136.7339392958695 109.25905806906121 0 109.25905806906121 326.30103324183438 0 0 0 0 -120.46627521094365 -35.563510921841953 0 -35.563510921841953 112.22147565199703 0 0 0 0 -173.5137465433113 -50.923511515629798 0 -50.923511515629798 226.02615029648587 0 0 0 0 -222.79719338203131 -201.07106908651622 0 -201.07106908651622 13.032831091375556 0 0 0 0 -241.96932948394942 -152.50755480797307 0 -152.50755480797307 -58.921310886638821 0 0 0 0 -242.55785867466193 -181.16578343546826 0 -181.16578343546826 9.9256830910017015 0 0 0 0 -190.1347981596773 -73.581259023681923 0 -73.581259023681923 142.63328283394367 0 0 0 0 -226.69271320776852 -81.331655789857905 0 -81.331655789857905 134.6634024452942 0 0 0 0 -180.00929519276224 -38.937225244313595 0 -38.937225244313595 186.88313064939575 0 0 0 0 -42.123754050006482 118.44669158625766 0 118.44669158625766 204.78980053514533 0 0 0 0 -67.998730940738085 -22.193930361272578 0 -22.193930361272578 53.973277480094112 0 0 0 0 -147.03343512004039 -39.102068005457113 0 -39.102068005457113 66.879423244703503 0 0 0 0 -414.35396982636667 -164.53116933018828 0 -164.53116933018828 91.841980953682651 0 0 0 0 -221.5427725058621 -65.707774831713323 0 -65.707774831713323 -75.338923878145579 0 0 0 0 0.50239380177431725 -7.0502884442432361 0 -7.0502884442432361 12.969032795511708 0 0 0 0 -47.385795176442116 2.8988701862908783 0 2.8988701862908783 32.969170368749474 0 0 0 0 -272.28908097956446 -210.22554996250255 0 -210.22554996250255 -39.672172987197882 0 0 0 0 195.35625235918087 391.24703892755133 0 391.24703892755133 610.32496770915168 0 0 0 0 -2.8660201360619535 -1.2526232342019057 0 -1.2526232342019057 2.6153751807927108 0 0 0 0 82.11238401798937 228.08608509147234 0 228.08608509147234 380.13506874447921 0 0 0 0 -119.30649206917315 62.046396424813793 0 62.046396424813793 796.1131886082876 0 0 0 0 -169.60452625608082 -75.281351488209111 0 -75.281351488209111 526.8026268126705 0 0 0 0 173.61420233609078 -150.51964560057604 0 -150.51964560057604 210.11862658308382 0 0 0 0 -107.14285294660476 142.06631207356259 0 142.06631207356259 763.20514590845414 0 0 0 0 194.7344441621882 201.21583559657404 0 201.21583559657404 428.9662136118277 0 0 0 0 -109.11430951552573 205.97337141128878 0 205.97337141128878 957.17838599997776 0 0 0 0 67.058252803829419 -188.29269906786431 0 -188.29269906786431 434.05339863540576 0 0 0 0 -213.51604715402573 -277.32896189849271 0 -277.32896189849271 -203.45852374620154 0 0 0 0 -4.31603763588131 -1.825742232541316 0 -1.825742232541316 4.565392599993487 0 0 0 0 -200.16927042924453 -203.92788182698132 0 -203.92788182698132 -177.29474885707896 0 0 0 0 -231.56906778496204 -233.26125564599079 0 -233.26125564599079 -77.104855502351711 0 0 0 0 -202.49956857078723 -149.53847986206017 0 -149.53847986206017 -50.238917304850474 0 0 0 0 -329.16483358677669 -306.34045163892188 0 -306.34045163892188 186.15114697278477 0 0 0 0 -209.50463681454585 -463.38512089841606 0 -463.38512089841606 -544.06004750011198 0 0 0 0 -23.690529413640434 -219.39272564514249 0 -219.39272564514249 11.699058216086996 0 0 0 0 -103.13521300352249 -186.12444660106848 0 -186.12444660106848 224.47697667705506 0 0 0 0 -0.6794210828938283 -0.3460119598866811 0 -0.3460119598866811 0.49983999508162213 0 0 0 0 -100.66540058707415 -131.85290262082344 0 -131.85290262082344 552.21236218716513 0 0 0 0 71.093033332487039 -279.38956624058119 0 -279.38956624058119 151.55386439750146 0 0 0 0 -42.754673809289216 -177.83986091394036 0 -177.83986091394036 205.03261824486617 0 0 0 0 7.7260342129538913 -123.44022707112163 0 -123.44022707112163 184.15885925803013 0 0 0 0 -1.0864996654443058 -1.3306409229552116 0 -1.3306409229552116 1.1226282374079162 0 0 0 0 -33.96044658788469 -185.97928908720496 0 -185.97928908720496 -104.04100855160868 0 0 0 0 -209.67625024333438 -107.58837544552443 0 -107.58837544552443 352.60963191319024 0 0 0 0 -23.837345698721379 50.129820870693948 0 50.129820870693948 145.40055474200199 0 0 0 0 -6.4442219691736682 -17.976187160740665 0 -17.976187160740665 407.64455152330265 0 0 0 0 37.239632138529259 -82.285210071460824 0 -82.285210071460824 194.86705720653117 0 0 0 0 42.267507193681922 -31.070535297829338 0 -31.070535297829338 49.157836326045071 0 0 0 0 56.715123065535181 -44.096893428599287 0 -44.096893428599287 65.52366480694036 0 0 0 0 -5.5955195456886031 28.708599803488141 0 28.708599803488141 56.701383992607589 0 0 0 0 -105.63526656059611 -10.639722920356689 0 -10.639722920356689 45.694025846300065 0 0 0 0 1.7147271659190839 -4.8807832041244019 0 -4.8807832041244019 11.043475650218966 0 0 0 0 0.014343147470754047 12.735992014040676 0 12.735992014040676 3.898748220923153 0 0 0 0 -4.3312899531688345 15.155666027922052 0 15.155666027922052 23.104946361116163 0 0 0 0 -5.6567162972409877 0.40597138184220682 0 0.40597138184220682 0.52332850706397949 0 0 0 0 -48.35168927407085 -36.745233960271435 0 -36.745233960271435 123.79907611242743 0 0 0 0 -44.012691981514763 76.835672312907263 0 76.835672312907263 273.27491432993338 0 0 0 0 -11.292632773880431 2.6502641574555668 0 2.6502641574555668 2.2380037474559771 0 0 0 0 -21.049028527324026 48.314090604915691 0 48.314090604915691 276.77832588517776 0 0 0 0 -109.06014270677065 -69.179805320501146 0 -69.179805320501146 203.58735842878377 0 0 0 0 -114.9189353355473 -69.690926536419283 0 -69.690926536419283 241.88127963222632 0 0 0 0 -120.31541927909166 -38.648261511116289 0 -38.648261511116289 308.06587329899685 0 0 0 0 -4.1121318662979647 -67.941016945473294 0 -67.941016945473294 136.37310233437847 0 0 0 0 -388.01064150698744 -687.34234100407775 0 -687.34234100407775 212.18534135735354 0 0 0 0 -677.82587529944874 -79.410059140701833 0 -79.410059140701833 1716.7189447915152 0 0 0 0 71.690098757360374 48.547943642883183 0 48.547943642883183 56.337540107842869 0 0 0 0 -43.526743245164198 -69.696825918033937 0 -69.696825918033937 240.10437077577808 0 0 0 0 6.6209740122923098 -71.584204913231659 0 -71.584204913231659 135.73482488031834 0 0 0 0 -19.423342805764605 168.89335570348339 0 168.89335570348339 250.42066123716722 0 0 0 0 275.4724378235444 -935.11226283267024 0 -935.11226283267024 -354.52715234984498 0 0 0 0 -240.19285045055364 -234.00574516264487 0 -234.00574516264487 100.06289300004937 0 0 0 0 1109.3266493317644 -66.181256055253471 0 -66.181256055253471 -53.923182773275585 0 0 0 0 -133.05199005919337 269.73984894567002 0 269.73984894567002 1259.9569811025349 0 0 0 0 207.73478175756543 -19.256970778601499 0 -19.256970778601499 1395.6018415301987 0 0 0 0 325.36990331102766 787.63727704458915 0 787.63727704458915 -751.46104942128477 0 0 0 0 467.03965420983786 546.04751615043688 0 546.04751615043688 2393.2057354581048 0 0 0 0 27.867261492485454 -32.577879295680759 0 -32.577879295680759 426.4408086013791 0 0 0 0 11.18123214796185 227.64830155908885 0 227.64830155908885 440.62912055466404 0 0 0 0 1.11968723284477 3.932076732986209 0 3.932076732986209 9.3804662356109247 0 0 0 0 -33.867940976175305 -35.64325246367298 0 -35.64325246367298 645.00950232400282 0 0 0 0 128.32497581045243 -71.92230285176538 0 -71.92230285176538 -120.58049721973657 0 0 0 0 125.01187065255925 -9.6843154565813165 0 -9.6843154565813165 -121.47942218658864 0 0 0 0 153.92869210198864 136.16972149864159 0 136.16972149864159 321.99767967293519 0 0 0 0 0.53715755353215389 4.2619884888862334 0 4.2619884888862334 21.324106951615967 0 0 0 0 51.212503298942579 -112.84887843292563 0 -112.84887843292563 -138.03444355972533 0 0 0 0 18.526507217382687 13.764722680651175 0 13.764722680651175 -88.280935889724788 0 0 0 0 -436.162965273434 210.13327638428154 0 210.13327638428154 467.63501090169484 0 0 0 0 79.314703941634434 1.100339932992938 0 1.100339932992938 -164.16708336473675 0 0 0 0 0.1417260091873167 -2.6280749779560368 0 -2.6280749779560368 10.404669746726361 0 0 0 0 582.13900915456952 -387.38361969286598 0 -387.38361969286598 -2941.6637622170347 0 0 0 0 112.59604805007577 516.55080319192075 0 516.55080319192075 -107.77144099003817 0 0 0 0 291.24566151462841 450.97057398107461 0 450.97057398107461 316.99989606223966 0 0 0 0 95.866555605246731 146.31047345066872 0 146.31047345066872 583.55332722599542 0 0 0 0 407.25544953325442 88.059980950925592 0 88.059980950925592 107.94879783712531 0 0 0 0 116.16679928921485 212.051169484811 0 212.051169484811 34.841761902429425 0 0 0 0 74.726878087124078 -229.70136729951264 0 -229.70136729951264 97.319504825142758 0 0 0 0 -15.451233949727989 -47.270412221156171 0 -47.270412221156171 133.21943231027649 0 0 0 0 -119.48835433402451 -70.111468374544927 0 -70.111468374544927 181.20355938150396 0 0 0 0 -177.42140945320079 171.11455324523564 0 171.11455324523564 360.41661600820987 0 0 0 0 256.62085822071504 100.42752997477706 0 100.42752997477706 180.58648138645816 0 0 0 0 7.6350112674703103 -13.956619120913981 0 -13.956619120913981 26.587565284496034 0 0 0 0 107.20347732988202 155.85783101001965 0 155.85783101001965 206.31118540593468 0 0 0 0 308.36047113453981 195.19516789971203 0 195.19516789971203 -26.667054220062937 0 0 0 0 -48.716222178649332 40.082309945706697 0 40.082309945706697 239.5331687173782 0 0 0 0 92.816016122764267 32.999188477289863 0 32.999188477289863 107.48648406653683 0 0 0 0 20.864439613278591 61.85931018102292 0 61.85931018102292 137.86353447250622 0 0 0 0 5.320972950614582 22.856594476262533 0 22.856594476262533 105.30890294536559 0 0 0 0 18.237066448806278 -24.3088843761902 0 -24.3088843761902 46.309280056288983 0 0 0 0 37.688783169704152 21.236430624179775 0 21.236430624179775 125.67158939477122 0 0 0 0 196.22869534193501 -52.856907327765839 0 -52.856907327765839 -32.261422991135532 0 0 0 0 13.135909217641995 94.737629955712464 0 94.737629955712464 -88.906057683255312 0 0 0 0 -301.50898478373125 -134.24653222051643 0 -134.24653222051643 130.73276990025852 0 0 0 0 -1.5202911293037495 0.17516479502627647 0 0.17516479502627647 5.1055602144523711 0 0 0 0 0.77098208581810468 -1.5713765112898272 0 -1.5713765112898272 31.903595387400856 0 0 0 0 -0.62156110567477829 3.9834185992414408 0 3.9834185992414408 22.534295736398288 0 0 0 0 -302.85194060023127 -105.42112087018836 0 -105.42112087018836 -15.217910854257752 0 0 0 0 -37.185636302803687 20.780526600368376 0 20.780526600368376 45.619766389905635 0 0 0 0 41.16260391369164 -252.20204788322712 0 -252.20204788322712 371.88771888952579 0 0 0 0 -143.08753567236215 94.488235557348162 0 94.488235557348162 -164.50577471409451 0 0 0 0 5.9909917536896842 -41.651750414269372 0 -41.651750414269372 62.870411532818252 0 0 0 0 52.824466449216857 -33.915272054562593 0 -33.915272054562593 63.605755657939881 0 0 0 0 10.821163531810498 -120.06882739269167 0 -120.06882739269167 256.13109914708184 0 0 0 0 70.668663512918442 -95.893251995828905 0 -95.893251995828905 125.30077383524622 0 0 0 0 -18.835860370260889 -39.159785477961123 0 -39.159785477961123 167.65658441971027 0 0 0 0 -19.560913001153352 -49.365867645288745 0 -49.365867645288745 195.7970503680408 0 0 0 0 21.224033082636197 -37.725846948696926 0 -37.725846948696926 51.678242462410708 0 0 0 0 10.467516359137335 -64.755129030563694 0 -64.755129030563694 54.449985865389863 0 0 0 0 -4.4470859233761075 2.1507076816124027 0 2.1507076816124027 147.8198849826731 0 0 0 0 12.494222591880316 -65.408344363557262 0 -65.408344363557262 150.9440491954083 0 0 0 0 -1.4468301980341494 -70.848310911322187 0 -70.848310911322187 10.548670499614673 0 0 0 0 -62.833383499894808 -72.104645550163696 0 -72.104645550163696 44.520082126029592 0 0 0 0 -95.67001030692154 -28.753941798484448 0 -28.753941798484448 13.489283978909953 0 0 0 0 -76.258927879347539 -3.9680074537100154 0 -3.9680074537100154 36.92839706828363 0 0 0 0 2.4591057315547005 -59.763589029520745 0 -59.763589029520745 75.253066518038395 0 0 0 0 6.7212229562946959 79.073156607650162 0 79.073156607650162 330.61048843448589 0 0 0 0 53.582088409274775 -12.262360168961095 0 -12.262360168961095 194.54840348361176 0 0 0 0 -61.493769037533639 -43.302405204995011 0 -43.302405204995011 363.40838763103056 0 0 0 0 -78.251731189304337 -83.557893276225514 0 -83.557893276225514 112.68429463187931 0 0 0 0 -45.220166233504642 31.399175459380785 0 31.399175459380785 175.3589028439601 0 0 0 0 -1.5208877256749684 -13.831874088901181 0 -13.831874088901181 -0.78238778110213048 0 0 0 0 -524.20678903084627 -75.277650856658511 0 -75.277650856658511 256.76083670199296 0 0 0 0 -62.885848762274691 12.029793783396599 0 12.029793783396599 210.25711951867561 0 0 0 0 -220.57554554957642 -298.18568724724901 0 -298.18568724724901 238.59243204747327 0 0 0 0 -248.2543186196109 17.48133614282051 0 17.48133614282051 -41.860733209497994 0 0 0 0 -77.516422079785116 -14.627825623098033 0 -14.627825623098033 -18.034415325964801 0 0 0 0 -259.29072398600329 -38.542596102670359 0 -38.542596102670359 122.40832361136199 0 0 0 0 -151.61158509774214 -81.670797027523804 0 -81.670797027523804 -15.033686683065298 0 0 0 0 -196.13112983330939 -23.278207079831191 0 -23.278207079831191 9.4250870046962518 0 0 0 0 -250.95379276002677 -80.31743396834645 0 -80.31743396834645 12.221580673394783 0 0 0 0 -472.39515692466011 -212.77611079215421 0 -212.77611079215421 -121.86323930195067 0 0 0 0 -12.465355581721894 6.0509289578494077 0 6.0509289578494077 24.149341562039027 0 0 0 0 -206.25848887830398 -45.134627889721742 0 -45.134627889721742 -18.758265927957837 0 0 0 0 -6.3043228285771695 11.103950835172711 0 11.103950835172711 140.3919968090662 0 0 0 0 -342.68087595459292 8.9754144333292061 0 8.9754144333292061 111.30171613025595 0 0 0 0 -324.02745365589999 58.161830580262176 0 58.161830580262176 125.10541109950282 0 0 0 0 -242.79590314183679 -58.260145077107154 0 -58.260145077107154 42.80554404790746 0 0 0 0 -145.04422199820692 -30.23998379646946 0 -30.23998379646946 31.208352318251855 0 0 0 0 -151.13786181293835 -40.453622751922012 0 -40.453622751922012 48.542430498608155 0 0 0 0 -94.64531489186993 -73.897059988652472 0 -73.897059988652472 112.18282002650813 0 0 0 0 -72.214089551510369 -43.125120151104056 0 -43.125120151104056 36.341229422716424 0 0 0 0 -276.93319181128754 62.196811752837675 0 62.196811752837675 98.550251006628969 0 0 0 0 -75.527623868521914 86.812712615414057 0 86.812712615414057 51.523022833716823 0 0 0 0 -5.4252048938456392 -7.5616195862275362 0 -7.5616195862275362 12.394298064274778 0 0 0 0 -143.29262945480059 -123.66152026175041 0 -123.66152026175041 268.36519646904344 0 0 0 0 -250.98338347097865 184.17008143063049 0 184.17008143063049 89.363964663571096 0 0 0 0 -268.63659841475146 86.180947437205759 0 86.180947437205759 194.11985264792747 0 0 0 0 -176.39592273229118 0.66663624351713224 0 0.66663624351713224 185.55867869195936 0 0 0 0 -105.52380317788447 -36.780784241796937 0 -36.780784241796937 199.59254992728529 0 0 0 0 -103.74643390194046 -32.460029700505402 0 -32.460029700505402 101.52240592973249 0 0 0 0 -104.03380222868373 68.43806246861277 0 68.43806246861277 144.28722555274726 0 0 0 0 -27.503681559075631 10.90900054640224 0 10.90900054640224 124.5132908737869 0 0 0 0 -34.048819208550412 -8.1899563349325035 0 -8.1899563349325035 151.07470519884009 0 0 0 0 13.736218900470249 -15.390084034061147 0 -15.390084034061147 62.741153889430279 0 0 0 0 -9.5563139251171378 -30.61399450841418 0 -30.61399450841418 65.783294418659352 0 0 0 0 -26.747451850508696 -46.645572696281306 0 -46.645572696281306 51.585653609086876 0 0 0 0 -75.21104438286784 -37.948134507823852 0 -37.948134507823852 101.94178444385761 0 0 0 0 -30.053779584271069 -57.030340725763381 0 -57.030340725763381 33.23874834831804 0 0 0 0 -76.876322539086686 -76.388348707128898 0 -76.388348707128898 7.8380552348908168 0 0 0 0 -64.134149616258128 -53.966640175614884 0 -53.966640175614884 36.806739466381259 0 0 0 0 29.052022478867002 -60.665125002638888 0 -60.665125002638888 -0.62120878345012898 0 0 0 0 28.414434055567654 -36.635439316672091 0 -36.635439316672091 -24.026327168234275 0 0 0 0 8.5213204754101071 -48.835369545678077 0 -48.835369545678077 15.225389022874879 0 0 0 0 21.973293420894151 -40.131389932175807 0 -40.131389932175807 30.067474886418495 0 0 0 0 4.4577800726187888 -55.67806526127606 0 -55.67806526127606 17.494327692256775 0 0 0 0 -89.847962102571273 55.398434281898517 0 55.398434281898517 144.1784015801677 0 0 0 0 -4.0238134673552395 18.487006370583003 0 18.487006370583003 7.4964207830562373 0 0 0 0 38.213412833791153 -39.683069661106856 0 -39.683069661106856 157.52339434954683 0 0 0 0 -4.4365009592274873 1.6660110229458951 0 1.6660110229458951 151.87987392868672 0 0 0 0 166.29899891920695 -260.19213422418761 0 -260.19213422418761 479.96169165005267 0 0 0 0 -0.89035968898074014 -0.22723637844216427 0 -0.22723637844216427 3.8057713623330187 0 0 0 0 -0.93385825775946252 0.56107087909836295 0 0.56107087909836295 6.4237578449184412 0 0 0 0 12.925464568506902 25.684787361906828 0 25.684787361906828 22.222127743309265 0 0 0 0 4.1775312749005025 0.40965383117872989 0 0.40965383117872989 146.78020167212344 0 0 0 0 -41.371351292883674 -52.707676562931738 0 -52.707676562931738 179.11981871672469 0 0 0 0 72.588556432846417 -101.44445952861861 0 -101.44445952861861 27.861163970592315 0 0 0 0 3.4929765710197263 5.9537999963645234 0 5.9537999963645234 5.2646133752929956 0 0 0 0 154.8080945113926 -177.6259238866287 0 -177.6259238866287 530.17686706271343 0 0 0 0 2.7738932251822916 46.628018139985215 0 46.628018139985215 12.864811933379315 0 0 0 0 -75.652253817932433 -10.297202004565406 0 -10.297202004565406 440.32669956878817 0 0 0 0 87.630044589764111 -408.92000285196264 0 -408.92000285196264 426.28177215168398 0 0 0 0 37.488572090167509 -305.89972407328605 0 -305.89972407328605 580.83311649110692 0 0 0 0 149.54380467712781 -365.15289000997291 0 -365.15289000997291 229.95648354482546 0 0 0 0 99.458286706244508 -286.42003716712497 0 -286.42003716712497 406.48977958663454 0 0 0 0 -13.249965758640144 21.650689560911815 0 21.650689560911815 176.52259947962375 0 0 0 0 72.588556432844598 -101.44445952857495 0 -101.44445952857495 27.861163970614143 0 0 0 0 72.588556432845962 -101.44445952859678 0 -101.44445952859678 27.861163970665075 0 0 0 0 6.0501425346306688 3.8872839172664158 0 3.8872839172664158 15.728488532210605 0 0 0 0 34.094696446435591 -35.67515426587488 0 -35.67515426587488 188.92615115458011 0 0 0 0 258.81473452510727 -243.76329337452626 0 -243.76329337452626 219.39902497579169 0 0 0 0 3.1847455491458465 -3.9648055201046049 0 -3.9648055201046049 8.2934974653502138 0 0 0 0 157.38439567209753 -346.83506205515005 0 -346.83506205515005 344.50826991273789 0 0 0 0 149.72647285764833 -272.79277137859026 0 -272.79277137859026 266.19677075430809 0 0 0 0 116.993429830487 -293.83706740174239 0 -293.83706740174239 316.37509313382907 0 0 0 0 55.792445809449418 -227.61793808631774 0 -227.61793808631774 275.5839077050623 0 0 0 0 48.707014466093824 -199.35684255804517 0 -199.35684255804517 270.8976931394136 0 0 0 0 12.537400989589514 -192.49634465739655 0 -192.49634465739655 359.0855961305133 0 0 0 0 37.385433943772114 -251.80286975430863 0 -251.80286975430863 480.17751906985359 0 0 0 0 61.326155191559337 -303.33188477758813 0 -303.33188477758813 442.10681774244586 0 0 0 0 134.27915565038984 -63.02914295702567 0 -63.02914295702567 296.02896186480939 0 0 0 0 17.013859728551324 -100.27478406872251 0 -100.27478406872251 453.68071205279011 0 0 0 0 26.188216379738151 23.135859343328775 0 23.135859343328775 166.53421307992903 0 0 0 0 1.9508684571164849 -67.164183185319416 0 -67.164183185319416 308.17064589188521 0 0 0 0 -11.206828323986883 34.585238227612535 0 34.585238227612535 173.73544131008384 0 0 0 0 -87.581398974250988 -0.98334808414074359 0 -0.98334808414074359 172.85709424485322 0 0 0 0 -18.903681606689133 -94.840933652259992 0 -94.840933652259992 247.83930381434038 0 0 0 0 39.23824699553461 -89.283646590462013 0 -89.283646590462013 235.3313680520514 0 0 0 0 -10.693515455790475 -121.0466218618385 0 -121.0466218618385 306.92048225110921 0 0 0 0 13.319129059731495 -108.99315876339097 0 -108.99315876339097 158.75540825240023 0 0 0 0 -39.318153477015585 -20.562856294352969 0 -20.562856294352969 53.315727218505344 0 0 0 0 -73.344587179321024 -32.487051091622561 0 -32.487051091622561 221.80478813992522 0 0 0 0 -149.80076759883741 60.102553591015749 0 60.102553591015749 150.65729951791582 0 0 0 0 -88.687549022432705 86.060229080302406 0 86.060229080302406 70.109044522992917 0 0 0 0 -128.29869486422831 60.645831780693698 0 60.645831780693698 -67.066584575863089 0 0 0 0 -253.83682485278223 -34.313497327500954 0 -34.313497327500954 48.340733248347533 0 0 0 0 -136.18026011733309 -39.634337479976239 0 -39.634337479976239 143.26119194975763 0 0 0 0 -113.69830804942831 -6.2838456090175896 0 -6.2838456090175896 22.048898292516242 0 0 0 0 -252.48545958348404 46.42711090832745 0 46.42711090832745 76.129967102271621 0 0 0 0 113.29469649378916 -226.77359691258243 0 -226.77359691258243 171.98848989515682 0 0 0 0 -32.179474983618036 -67.76590891200533 0 -67.76590891200533 -1.1948812800983433 0 0 0 0 -34.763076934892524 -188.57537069891259 0 -188.57537069891259 187.69828708449495 0 0 0 0 -47.84625857217361 -174.33952210249481 0 -174.33952210249481 234.58894303678244 0 0 0 0 -8.516844915882757 -129.54176635592739 0 -129.54176635592739 68.695602366264211 0 0 0 0 -41.728912191380005 -116.6134092921202 0 -116.6134092921202 203.09635787046864 0 0 0 0 -15.48891818654738 -173.95957597230154 0 -173.95957597230154 228.15229962526791 0 0 0 0 -3.3374652579841495 -152.52422076457151 0 -152.52422076457151 260.74577582166239 0 0 0 0 -6.9329063702953135 -174.70730730831565 0 -174.70730730831565 277.72775399056263 0 0 0 0 60.578733196278336 -228.50278438442911 0 -228.50278438442911 263.6901766408414 0 0 0 0 -19.522006319028151 -203.12064268739778 0 -203.12064268739778 217.67435113233842 0 0 0 0 -23.599101896805223 -214.13778407356585 0 -214.13778407356585 275.67117754107585 0 0 0 0 65.684225929178865 -132.10178046695 0 -132.10178046695 267.25337113573914 0 0 0 0 229.4762558038492 -126.89840723946691 0 -126.89840723946691 247.92358390601294 0 0 0 0 -141.0250498501955 -237.0280441379582 0 -237.0280441379582 318.85833909621215 0 0 0 0 -40.209671513552166 -211.92748077733995 0 -211.92748077733995 321.12318153085653 0 0 0 0 5.3006491433470728 -273.51655233792917 0 -273.51655233792917 280.59130400128197 0 0 0 0 -32.591237069304043 -228.12702155387524 0 -228.12702155387524 246.98136745403463 0 0 0 0 54.083494912707465 -65.833356362558334 0 -65.833356362558334 116.39954639241114 0 0 0 0 0.76094249169033912 -5.6343068500160527 0 -5.6343068500160527 16.582991170510738 0 0 0 0 55.788052831255072 -71.86664776302041 0 -71.86664776302041 99.983863165002731 0 0 0 0 101.52094515669984 164.61021909116971 0 164.61021909116971 190.04591564348084 0 0 0 0 -3.7405796031760303 -6.6184061850833835 0 -6.6184061850833835 14.100911175637279 0 0 0 0 -51.623421311458515 -270.47912194412856 0 -270.47912194412856 300.15118686334608 0 0 0 0 -162.7001583145825 28.312559510051415 0 28.312559510051415 257.99126481395797 0 0 0 0 -11.022428829448245 -10.568955739621245 0 -10.568955739621245 82.490962382831981 0 0 0 0 25.036338879279601 -22.779659285229172 0 -22.779659285229172 -15.513710297040419 0 0 0 0 12.798688234350266 -47.535683981579496 0 -47.535683981579496 82.259581065758539 0 0 0 0 6.234996007216095 -19.04522060692549 0 -19.04522060692549 25.812795102153046 0 0 0 0 145.19821618316519 -10.190905460149224 0 -10.190905460149224 48.857319393777288 0 0 0 0 0.87123668345826522 0.85918767287282449 0 0.85918767287282449 0.4022515246429279 0 0 0 0 119.53921474576077 -27.084909634631913 0 -27.084909634631913 199.49455019812376 0 0 0 0 37.620165566419246 -17.543802962180052 0 -17.543802962180052 236.48152471363574 0 0 0 0 123.28480664617132 -16.904842106652723 0 -16.904842106652723 144.96911780589244 0 0 0 0 36.413676427217524 -112.66197865141658 0 -112.66197865141658 -50.875987010812878 0 0 0 0 7.3889998541490058 -62.891787876724266 0 -62.891787876724266 154.35699568656855 0 0 0 0 1.3837465473434589 -37.909022200901049 0 -37.909022200901049 1.2359821571961298 0 0 0 0 -53.952803413614276 -155.48333958831245 0 -155.48333958831245 120.75976127709146 0 0 0 0 -131.5522943771233 -152.72661902962136 0 -152.72661902962136 98.536160059446047 0 0 0 0 36.950068426713187 -152.6878776290414 0 -152.6878776290414 83.505964054621472 0 0 0 0 12.199546120714331 -2.0995127122623671 0 -2.0995127122623671 147.1976653323436 0 0 0 0 -7.7449225686804297 -19.097999958849115 0 -19.097999958849115 125.67256968325381 0 0 0 0 11.158251083669143 -57.310994769220088 0 -57.310994769220088 139.73204353913206 0 0 0 0 -33.914443659144126 -64.026020977364169 0 -64.026020977364169 139.20135856022631 0 0 0 0 -63.585613165856252 -135.67961468262291 0 -135.67961468262291 57.574918220645486 0 0 0 0 182.15577812474942 68.4320286527294 0 68.4320286527294 5.487924019975253 0 0 0 0 11.369862080145737 -136.0651787536508 0 -136.0651787536508 162.13067566409245 0 0 0 0 0.21246567325904805 0.52351779152068745 0 0.52351779152068745 2.9048812407195097 0 0 0 0 -74.18014996468321 -19.359273528168615 0 -19.359273528168615 64.64486058086959 0 0 0 0 -146.60570904345946 -5.5512667804277953 0 -5.5512667804277953 82.332283018175076 0 0 0 0 -39.129063069967486 28.134864730484765 0 28.134864730484765 -7.9620683818793623 0 0 0 0 -0.5369631524437245 2.663802026664281 0 2.663802026664281 7.7485357095742309 0 0 0 0 -6.4290440648223139 17.716439990484218 0 17.716439990484218 29.415689520243177 0 0 0 0 -146.50453668361138 100.40705968973543 0 100.40705968973543 -45.001848038093613 0 0 0 0 -243.76732319202927 55.495267600926127 0 55.495267600926127 54.143580131102681 0 0 0 0 -180.06910660659901 -198.24385410584773 0 -198.24385410584773 -52.602264844378283 0 0 0 0 8.8236452221785839 -36.671900005811949 0 -36.671900005811949 65.808944456352947 0 0 0 0 229.84353321122904 54.930218151254053 0 54.930218151254053 53.440583171351136 0 0 0 0 33.320575080233198 -89.066651376740992 0 -89.066651376740992 55.216556877042876 0 0 0 0 128.06006635188106 -43.662812637521824 0 -43.662812637521824 55.155338495453179 0 0 0 0 116.8967560118127 -26.485306401347543 0 -26.485306401347543 87.525012607427016 0 0 0 0 -28.688697823155053 12.476875204774842 0 12.476875204774842 43.221018962343805 0 0 0 0 102.72483029427167 50.251794133564545 0 50.251794133564545 90.520870882486633 0 0 0 0 -1.8382158487786131 10.957066753535505 0 10.957066753535505 32.923793290141305 0 0 0 0 -304.12140987154817 15.951588043441006 0 15.951588043441006 89.308088197867619 0 0 0 0 -38.3957598462639 9.0491099784667313 0 9.0491099784667313 28.921882446462405 0 0 0 0 5.2639566573416232 67.158298972019111 0 67.158298972019111 90.900719212449076 0 0 0 0 -3.2315777254477993 27.103974023441207 0 27.103974023441207 54.679914677968668 0 0 0 0 -2.893968960643921 33.546860360341512 0 33.546860360341512 18.702585930580483 0 0 0 0 10.188721512813217 6.5105595826133644 0 6.5105595826133644 61.150998028343565 0 0 0 0 -0.23589268118614171 8.1243214672839645 0 8.1243214672839645 63.615823536157492 0 0 0 0 3.3716328972691403 3.3567969242130378 0 3.3567969242130378 2.7719237607597478 0 0 0 0 169.97822197621463 -13.479860178089439 0 -13.479860178089439 22.902137883087562 0 0 0 0 127.43034253919382 -36.660363035063256 0 -36.660363035063256 69.02200255643811 0 0 0 0 194.63890535235623 138.21062565829197 0 138.21062565829197 -47.453738972486462 0 0 0 0 -77.252549386734245 95.7748488090092 0 95.7748488090092 65.070931112284597 0 0 0 0 -310.08312742094131 -38.966533106169663 0 -38.966533106169663 -5.2685880028875545 0 0 0 0 -1.1771683593087321 2.5014101048534627 0 2.5014101048534627 3.7176449532299216 0 0 0 0 6.0854786201140225 0.90703390879754764 0 0.90703390879754764 73.397619995863039 0 0 0 0 60.919154969911574 -61.166313030124456 0 -61.166313030124456 126.68735061330386 0 0 0 0 23.896492132921253 -85.162529420969804 0 -85.162529420969804 82.250621272545914 0 0 0 0 83.593391110673963 -23.334412010939559 0 -23.334412010939559 131.65814950564709 0 0 0 0 39.46890847616487 -44.177140296038488 0 -44.177140296038488 121.14706570285921 0 0 0 0 2.4868939868446946 -2.3288939223503178 0 -2.3288939223503178 58.717574412574592 0 0 0 0 17.397387292133999 -16.068831334239803 0 -16.068831334239803 46.900658104896138 0 0 0 0 44.149466661644027 -28.630468499206245 0 -28.630468499206245 119.2740249743465 0 0 0 0 27.351465146421752 -32.018411066282354 0 -32.018411066282354 73.265950087169841 0 0 0 0 19.032595302358402 -28.75976866284261 0 -28.75976866284261 4.405387973694598 0 0 0 0 314.99022252393115 9.2686872075937572 0 9.2686872075937572 293.35914745080777 0 0 0 0 39.267208097461662 -38.838962506579264 0 -38.838962506579264 73.548109168205883 0 0 0 0 -5.8989517144591721 -4.3362051381474229 0 -4.3362051381474229 86.782180447071369 0 0 0 0 -307.61837134809593 129.49567070918056 0 129.49567070918056 515.89202303946513 0 0 0 0 39.436914529956994 -34.280892678485543 0 -34.280892678485543 56.733002898993163 0 0 0 0 -18.354286172822867 -41.539879016554551 0 -41.539879016554551 105.59135611773854 0 0 0 0 -60.363102871680894 -242.95465280306234 0 -242.95465280306234 -66.557261670566731 0 0 0 0 49.166485433470143 -47.655802888469907 0 -47.655802888469907 51.289206356228533 0 0 0 0 -5.1377510106992963 -25.606506057169419 0 -25.606506057169419 77.414018743131592 0 0 0 0 -100.39861166586616 12.87547521887609 0 12.87547521887609 146.85471364622003 0 0 0 0 85.978210970338182 -175.70862267526945 0 -175.70862267526945 126.38375207996796 0 0 0 0 6.0589776059136451 -3.8384113141130674 0 -3.8384113141130674 14.822212242584575 0 0 0 0 6.2818844774144509 -32.74808948688019 0 -32.74808948688019 37.386406537117182 0 0 0 0 25.565001638857666 -30.585213655318512 0 -30.585213655318512 19.662881790525262 0 0 0 0 -41.95769393129126 -22.312477918353579 0 -22.312477918353579 136.6232382763792 0 0 0 0 10.267690660993125 -5.1970902640763219 0 -5.1970902640763219 7.2376627320273146 0 0 0 0 -107.06932684616157 -38.495766807197356 0 -38.495766807197356 162.16274854460062 0 0 0 0 272.02876576976615 101.11991544770899 0 101.11991544770899 -21.760689630112211 0 0 0 0 -111.87210670305313 -38.555533345119898 0 -38.555533345119898 294.47277876806129 0 0 0 0 14.782537811048769 2.3164247694624009 0 2.3164247694624009 92.499797288643094 0 0 0 0 4.8209974951841783 -4.4090021217073279 0 -4.4090021217073279 -3.6803246200138675 0 0 0 0 34.217953121368055 4.4718031598808921 0 4.4718031598808921 46.562797892514027 0 0 0 0 -27.02370130861982 -22.445207748474331 0 -22.445207748474331 138.96575983537878 0 0 0 0 -29.134082662388892 -50.85664592856665 0 -50.85664592856665 7.0005731957471653 0 0 0 0 27.105368141537152 -59.277998413954606 0 -59.277998413954606 127.19697232655381 0 0 0 0 9.827040681815788 -5.8459317928754899 0 -5.8459317928754899 68.381573326972557 0 0 0 0 -3.8059873045108463 -5.5118149082563033 0 -5.5118149082563033 8.085603572254259 0 0 0 0 1.3407673598218988 5.7999331484393943 0 5.7999331484393943 1.3000935482012004 0 0 0 0 -2.7480749504510209 6.351743737324389 0 6.351743737324389 76.371131579833147 0 0 0 0 -74.032253063809094 -26.967571026108317 0 -26.967571026108317 116.89880822689747 0 0 0 0 -45.249291866221256 82.41118233638872 0 82.41118233638872 301.06838650130953 0 0 0 0 -92.657334696563169 -117.59284112021669 0 -117.59284112021669 241.67985831847091 0 0 0 0 96.078455803967415 146.83563379827115 0 146.83563379827115 134.97388888920432 0 0 0 0 4.9073484006285071 58.101552180690305 0 58.101552180690305 50.565207984049266 0 0 0 0 -42.903302263220439 55.680828132459283 0 55.680828132459283 111.01243398115548 0 0 0 0 -60.727285877565237 32.647026799611922 0 32.647026799611922 91.667175166665402 0 0 0 0 -61.395554640501729 0.69264347433500006 0 0.69264347433500006 79.507362465573351 0 0 0 0 4.4804456666279293 58.938251282143028 0 58.938251282143028 68.766437617563497 0 0 0 0 -4.4115962108446638 44.437424755600659 0 44.437424755600659 67.117325015364258 0 0 0 0 5.7103149074796704 21.85231965632731 0 21.85231965632731 15.83067290707168 0 0 0 0 -8.4864531381715551 15.522355331344443 0 15.522355331344443 17.829330035699058 0 0 0 0 7.7457322574732643 30.155500491243401 0 30.155500491243401 57.216151760986577 0 0 0 0 -8.9723307941310395 29.808868889535461 0 29.808868889535461 57.208979732176886 0 0 0 0 7.1907066777528144 45.427935119234462 0 45.427935119234462 51.184226886216493 0 0 0 0 -31.770474052499367 27.531775430823018 0 27.531775430823018 62.269862591070705 0 0 0 0 6.4167718425217117 39.773307226023462 0 39.773307226023462 48.643114785314538 0 0 0 0 2.2268447827253404 5.5926746485818288 0 5.5926746485818288 -2.4930017367293438 0 0 0 0 13.506081853743581 23.57051220752237 0 23.57051220752237 27.606696251357789 0 0 0 0 -3.1791036518142199 5.6926537659226781 0 5.6926537659226781 10.537912481182053 0 0 0 0 -4.6609514848489653 5.6534470483857149 0 5.6534470483857149 24.731355621486728 0 0 0 0 18.824951448553747 19.574792827239435 0 19.574792827239435 15.123565796956427 0 0 0 0 -83.351889065328464 11.300704610505363 0 11.300704610505363 73.5476422668944 0 0 0 0 1.9608075062501484 40.772161311695527 0 40.772161311695527 52.573089840343528 0 0 0 0 6.1662084098293235 19.196633179075434 0 19.196633179075434 25.007104352006081 0 0 0 0 23.54656114268937 23.934847400523722 0 23.934847400523722 17.449646942985055 0 0 0 0 50.127354093395695 38.71556742851476 0 38.71556742851476 23.838345035390375 0 0 0 0 28.388910817424517 3.0039876508117231 0 3.0039876508117231 19.69605858027262 0 0 0 0 10.285600818372814 50.051823222262101 0 50.051823222262101 54.366414788315524 0 0 0 0 -36.774749370625159 -78.096221864419931 0 -78.096221864419931 135.62201786438527 0 0 0 0 -12.517038193728354 -31.92393748260838 0 -31.92393748260838 55.455969129590812 0 0 0 0 -7.2331315783204593 -12.568047387964278 0 -12.568047387964278 7.2359213032682064 0 0 0 0 -41.449967621247197 -36.963951654430275 0 -36.963951654430275 38.892304962330854 0 0 0 0 -2.5715150580650716 4.7623398015078502 0 4.7623398015078502 74.203600896577981 0 0 0 0 -66.611205988768461 -25.093300173133684 0 -25.093300173133684 101.24791042737343 0 0 0 0 -59.842730373150289 -23.479923182241691 0 -23.479923182241691 94.019849185049679 0 0 0 0 -48.842876168097064 2.2489723189319193 0 2.2489723189319193 153.82334456544049 0 0 0 0 -101.90268112531589 -3.0677597161975427 0 -3.0677597161975427 227.83502119213153 0 0 0 0 15.888719752323254 125.19012348668366 0 125.19012348668366 196.02612068122471 0 0 0 0 -31.236798569844495 51.294180394032082 0 51.294180394032082 83.698340558556083 0 0 0 0 -41.345085608396857 51.798228591665975 0 51.798228591665975 112.9324399375073 0 0 0 0 -55.845437471673506 35.84763156476015 0 35.84763156476015 95.524790243849566 0 0 0 0 1.6976902148065953 30.101590757294574 0 30.101590757294574 20.48208811220789 0 0 0 0 12.153621799432585 18.721815501411584 0 18.721815501411584 41.939180332070009 0 0 0 0 -26.420214520033142 39.36668108455342 0 39.36668108455342 73.273067346428434 0 0 0 0 -4.2673825984380898 28.849840132031293 0 28.849840132031293 14.672954407092888 0 0 0 0 34.216716640772347 52.517346306263789 0 52.517346306263789 7.035439540311927 0 0 0 0 -18.697287777119982 52.945708061146433 0 52.945708061146433 83.915549215236751 0 0 0 0 17.197710433020347 48.557746752688217 0 48.557746752688217 49.342389443299908 0 0 0 0 -279.95218278297898 32.259872100450593 0 32.259872100450593 135.3929026179394 0 0 0 0 -1.9089191944755544 5.8862509507180381 0 5.8862509507180381 20.07646723117638 0 0 0 0 112.90744321670149 221.4849829074501 0 221.4849829074501 -1.9544944739172934 0 0 0 0 30.170998212508039 136.31018167289767 0 136.31018167289767 -89.469594501822939 0 0 0 0 -104.4686376289792 -3.3077848942702985 0 -3.3077848942702985 784.77990917551506 0 0 0 0 15.163399961854338 -445.37112118002915 0 -445.37112118002915 253.03085208349148 0 0 0 0 -25.039891463134154 210.32026800384119 0 210.32026800384119 -33.799966227335972 0 0 0 0 -104.81871983502629 27.190335999502764 0 27.190335999502764 -129.1577778019855 0 0 0 0 -0.11878142727289109 0.89131178251021481 0 0.89131178251021481 4.1034353116365168 0 0 0 0 1.5796502845673419 -3.554775925142966 0 -3.554775925142966 4.2757429070667001 0 0 0 0 27.041063201450015 -340.48607329586412 0 -340.48607329586412 240.92570897956102 0 0 0 0 258.01662160023159 253.60459071050263 0 253.60459071050263 234.9872640862086 0 0 0 0 138.05534319467051 63.944954664133547 0 63.944954664133547 29.342513991225132 0 0 0 0 38.484069032094794 60.457028188652657 0 60.457028188652657 -89.538880571664777 0 0 0 0 -29.917478153841557 1.2006531208608067 0 1.2006531208608067 195.92491872655955 0 0 0 0 32.7444097133166 -97.245742764811439 0 -97.245742764811439 268.67023893938722 0 0 0 0 -27.336501363463867 138.13813671567914 0 138.13813671567914 351.13307841821916 0 0 0 0 -25.965166785933434 229.21306118350549 0 229.21306118350549 85.530900449688488 0 0 0 0 8.6953830787460902 -14.66847852749197 0 -14.66847852749197 355.94510511763656 0 0 0 0 -25.61638201375365 81.47916432338252 0 81.47916432338252 178.04493158977129 0 0 0 0 88.407376883130837 -162.6489850128105 0 -162.6489850128105 262.78780622230624 0 0 0 0 144.50519798678079 -53.673162635592234 0 -53.673162635592234 176.93436821678725 0 0 0 0 117.07520873454837 16.343079796159145 0 16.343079796159145 -50.295666419777262 0 0 0 0 102.38588949253653 13.578075680579786 0 13.578075680579786 71.62684083107888 0 0 0 0 -32.869280723406519 54.455716284559458 0 54.455716284559458 83.131950855145021 0 0 0 0 338.21604051738268 -170.14515558270068 0 -170.14515558270068 91.026297493963284 0 0 0 0 117.97837841913724 40.952655661110839 0 40.952655661110839 93.536012601631228 0 0 0 0 57.251839267386003 -136.83246057636643 0 -136.83246057636643 265.74480855105139 0 0 0 0 -120.25755573699371 -304.8756415281423 0 -304.8756415281423 350.93574809306119 0 0 0 0 37.668351471082588 186.74207586943521 0 186.74207586943521 470.57305146365252 0 0 0 0 170.35340759650126 615.59794941774089 0 615.59794941774089 747.26561887033313 0 0 0 0 -314.55426849536053 182.60492814888858 0 182.60492814888858 23.610870930977399 0 0 0 0 27.934126385069248 -434.04508315663406 0 -434.04508315663406 -423.77101590148231 0 0 0 0 -1.5227430988069566 -0.81597783663943346 0 -0.81597783663943346 10.83804010220129 0 0 0 0 -42.676837056600561 7.7654141041566618 0 7.7654141041566618 -138.88341442704041 0 0 0 0 -114.7617993860531 43.157169666599657 0 43.157169666599657 0.88924818377381598 0 0 0 0 -339.73054294594385 57.344593322821311 0 57.344593322821311 13.935012402864231 0 0 0 0 -239.25034198120466 203.89313362821122 0 203.89313362821122 -43.523725266481051 0 0 0 0 -239.25034198117646 203.89313362813846 0 203.89313362813846 -43.52372526668114 0 0 0 0 -239.25034198119329 203.89313362817848 0 203.89313362817848 -43.523725266728434 0 0 0 0 -72.659103734471955 93.451423782753409 0 93.451423782753409 45.551483692943293 0 0 0 0 -3.453836340630005 -53.379233242609189 0 -53.379233242609189 30.409898539677215 0 0 0 0 -169.26722740117975 -36.576096773154859 0 -36.576096773154859 76.35050559602314 0 0 0 0 -53.655551768586065 94.049639294154986 0 94.049639294154986 -107.88777484020829 0 0 0 0 -6.7767784055892566 -13.27882982922069 0 -13.27882982922069 -0.029600461926334809 0 0 0 0 40.003155733209383 -74.837789607545346 0 -74.837789607545346 -122.22916931855434 0 0 0 0 -52.066702884761867 -1.5058016250059154 0 -1.5058016250059154 61.874678718618725 0 0 0 0 -211.46846575495738 88.585768418983207 0 88.585768418983207 191.55854173436092 0 0 0 0 0.43551301490122452 8.1445017091305871 0 8.1445017091305871 28.499019457291844 0 0 0 0 -58.377585698924804 -17.417362478472569 0 -17.417362478472569 24.11938700643077 0 0 0 0 -58.808243381913144 -109.5392073405219 0 -109.5392073405219 309.02617762140108 0 0 0 0 2.3476732710914803 59.465854628295347 0 59.465854628295347 119.7426170380495 0 0 0 0 49.936796948367373 11.829756274888496 0 11.829756274888496 444.48410726507791 0 0 0 0 2.2305868732628369 -169.39860778116872 0 -169.39860778116872 296.23888833814635 0 0 0 0 167.39604049265836 22.721039206959176 0 22.721039206959176 -242.46753942411306 0 0 0 0 112.59547274896431 -238.31682539806479 0 -238.31682539806479 433.17927614337532 0 0 0 0 2.225353565054359 -0.51805930011002488 0 -0.51805930011002488 0.23322101073081569 0 0 0 0 90.349893314752535 -118.73092769111008 0 -118.73092769111008 206.21953138382378 0 0 0 0 334.16776762445033 -45.050609802801773 0 -45.050609802801773 198.73441321896098 0 0 0 0 330.0327184052465 -253.87163857217888 0 -253.87163857217888 206.25220669158443 0 0 0 0 38.216620103280775 23.338657674010392 0 23.338657674010392 141.09045505184986 0 0 0 0 115.77481532480124 175.26934373118456 0 175.26934373118456 262.41147031652281 0 0 0 0 266.17423151258276 148.34271742089459 0 148.34271742089459 -119.99512680863336 0 0 0 0 0.40741605161605676 2.0235171793597146 0 2.0235171793597146 4.7709763719995237 0 0 0 0 273.37365145326567 -66.5124395078833 0 -66.5124395078833 -131.5966954466785 0 0 0 0 181.30045655203639 -135.85295560652958 0 -135.85295560652958 110.57167419312827 0 0 0 0 1.7401569064285525 -167.15352191024431 0 -167.15352191024431 297.5976379007152 0 0 0 0 -24.53226953578195 -210.42961956732415 0 -210.42961956732415 226.48374869794861 0 0 0 0 -49.910778960724656 -236.79253370854713 0 -236.79253370854713 446.06367057630467 0 0 0 0 47.925166962466847 408.27502087374705 0 408.27502087374705 -202.89252165938069 0 0 0 0 1.5762373926425353 5.4053469715065248 0 5.4053469715065248 9.3103439982170926 0 0 0 0 -80.09968300612951 -133.77128156587969 0 -133.77128156587969 -29.266016507555833 0 0 0 0 -393.40922788434369 222.31028977759888 0 222.31028977759888 321.38313639062471 0 0 0 0 -123.01870127347482 177.98674336696331 0 177.98674336696331 1078.6648151391928 0 0 0 0 -0.085883609393441418 1.3222887065819933 0 1.3222887065819933 7.7195521211571645 0 0 0 0 495.12367330262271 -676.76538057574089 0 -676.76538057574089 604.82949636567355 0 0 0 0 66.812483622637842 -52.437621543203932 0 -52.437621543203932 -18.332560341550561 0 0 0 0 -380.46233379790783 367.54891853946538 0 367.54891853946538 608.2762499049586 0 0 0 0 -22.066633172240302 -27.790064187190183 0 -27.790064187190183 1035.1992755797473 0 0 0 0 4.3866277045534048 -6.4405945374765352 0 -6.4405945374765352 9.3162782646457103 0 0 0 0 233.93399236421033 -773.01002466768114 0 -773.01002466768114 332.32215695670129 0 0 0 0 170.295149517901 -572.19805529429141 0 -572.19805529429141 -106.75989770817569 0 0 0 0 -83.391223405278311 234.14052999076512 0 234.14052999076512 1103.1850197026943 0 0 0 0 235.82737168121082 -807.40794829689821 0 -807.40794829689821 136.56514824912301 0 0 0 0 144.81874800796851 -809.02534958727847 0 -809.02534958727847 451.57005122649025 0 0 0 0 0.10038202582033251 1.2076076005268788 0 1.2076076005268788 13.275396633334211 0 0 0 0 0.47449379973394201 4.9960810864170968 0 4.9960810864170968 29.126448263795567 0 0 0 0 -529.77779620011404 202.51454935599395 0 202.51454935599395 381.03150581914997 0 0 0 0 -91.211539493758778 -41.637230777832883 0 -41.637230777832883 -24.165838994156729 0 0 0 0 604.71937874471791 770.9126852557165 0 770.9126852557165 478.40294216320262 0 0 0 0 221.90551558517791 -523.56502087599074 0 -523.56502087599074 952.22944734257271 0 0 0 0 78.923789099818407 4.2968697677315504 0 4.2968697677315504 176.24118587468911 0 0 0 0 55.779176014906852 117.6043051119068 0 117.6043051119068 -185.75801969510849 0 0 0 0 142.84151754662236 -180.81271382092018 0 -180.81271382092018 95.706191535267862 0 0 0 0 414.92120364589209 -42.215592120312067 0 -42.215592120312067 -216.2110282694739 0 0 0 0 -13.37395192007034 -1.1595884306925655 0 -1.1595884306925655 45.371791995580082 0 0 0 0 1.0326186659579075 9.6815049023511826 0 9.6815049023511826 31.229377470853386 0 0 0 0 -8.3210802067067107 7.0888129468366969 0 7.0888129468366969 23.95777384823009 0 0 0 0 -21.276417685092895 7.5042053987606323 0 7.5042053987606323 36.728178557339561 0 0 0 0 -101.5541453953189 118.72551794511537 0 118.72551794511537 -31.632677327084821 0 0 0 0 175.3502201454707 -34.187686606773241 0 -34.187686606773241 -61.391595109587797 0 0 0 0 -13.6208509100897 24.571484795043943 0 24.571484795043943 9.6880443377885967 0 0 0 0 7.4276127638339631 50.429178453457098 0 50.429178453457098 -52.239553963809158 0 0 0 0 1.844486366298721 3.3071560592281957 0 3.3071560592281957 0.71197250254738265 0 0 0 0 42.801897586105412 15.701452550427348 0 15.701452550427348 -18.958982752901647 0 0 0 0 -41.917936243765212 -53.141744586042478 0 -53.141744586042478 20.988241025443131 0 0 0 0 49.444748755411737 -34.100240455395806 0 -34.100240455395806 24.951168183361006 0 0 0 0 -18.712270965460633 -12.660627049568575 0 -12.660627049568575 12.821446174601988 0 0 0 0 -6.9507799509611488 -31.312636730756822 0 -31.312636730756822 23.867418526897382 0 0 0 0 -239.88702834719291 -15.522957397362916 0 -15.522957397362916 49.640217422820569 0 0 0 0 0.18809010954888228 4.8699915426453195 0 4.8699915426453195 19.830209407276172 0 0 0 0 92.607687650206188 -92.042661180585128 0 -92.042661180585128 -43.292694530999142 0 0 0 0 103.06700989608433 -93.44440678315641 0 -93.44440678315641 -43.424743103048968 0 0 0 0 -32.644652871652497 -140.36654687920054 0 -140.36654687920054 10.260853258690986 0 0 0 0 -11.458231415101395 77.300396417002048 0 77.300396417002048 -131.04641108692158 0 0 0 0 -51.435144778847047 47.821169758230099 0 47.821169758230099 69.525209763654857 0 0 0 0 1.2596013446965879 158.78391538836877 0 158.78391538836877 162.35343425520114 0 0 0 0 -25.332250884876441 -148.22660066553908 0 -148.22660066553908 650.17646264664654 0 0 0 0 -107.38964575235684 5.7296728495930438 0 5.7296728495930438 81.912039314960566 0 0 0 0 -194.48346441542634 92.242994912743598 0 92.242994912743598 149.60647699800757 0 0 0 0 -1.9400753356411471 -6.8328835272150314 0 -6.8328835272150314 35.221768753814899 0 0 0 0 -61.317130838059029 -126.30749070034653 0 -126.30749070034653 190.17172038113495 0 0 0 0 12.570672988972888 -5.6876692282112344 0 -5.6876692282112344 75.086034417763585 0 0 0 0 -1.9736535843173786 4.9856485788779423 0 4.9856485788779423 9.6473792282219506 0 0 0 0 -188.9454552576783 234.08453857110726 0 234.08453857110726 13.737420613970244 0 0 0 0 110.01848508829315 -110.39967755746329 0 -110.39967755746329 185.8303755175657 0 0 0 0 89.284537617090791 -231.02415825061325 0 -231.02415825061325 254.28788858476037 0 0 0 0 -179.80376431497575 -174.13983432502573 0 -174.13983432502573 299.68074847498792 0 0 0 0 -319.68649511548858 88.712944481438171 0 88.712944481438171 158.2414644897508 0 0 0 0 40.294778237691958 -133.43114194920054 0 -133.43114194920054 382.88137355246727 0 0 0 0 -2.2616368177234922 1.5781408875973852 0 1.5781408875973852 8.6066534988515855 0 0 0 0 289.33592607128753 -356.57660881359334 0 -356.57660881359334 344.65324884664733 0 0 0 0 -99.877710047415988 209.38770709465462 0 209.38770709465462 -145.65175886536599 0 0 0 0 -0.30547382888717639 124.59318728747894 0 124.59318728747894 -111.80625389890338 0 0 0 0 -73.355586934307254 84.522409544231778 0 84.522409544231778 -119.95191824852373 0 0 0 0 -0.046606304390485492 72.94823658142559 0 72.94823658142559 -123.29858011532633 0 0 0 0 -0.48511264255704711 0.18789807523231161 0 0.18789807523231161 2.998050323983307 0 0 0 0 249.33762554666893 -455.60569182129984 0 -455.60569182129984 827.28480301082891 0 0 0 0 184.54446115575556 -140.26235330052987 0 -140.26235330052987 307.49306441805675 0 0 0 0 1.1485262137227432 -10.650445339306316 0 -10.650445339306316 459.23597630918812 0 0 0 0 55.992229529594823 -54.902270841041172 0 -54.902270841041172 342.70895664401178 0 0 0 0 -33.531978759418109 26.685557636057638 0 26.685557636057638 328.92717863428697 0 0 0 0 61.332779952881857 47.548053222270482 0 47.548053222270482 318.96214365380001 0 0 0 0 25.110881831820919 -0.51583343307720497 0 -0.51583343307720497 233.72034850640921 0 0 0 0 -0.27924140503550238 19.415815872500737 0 19.415815872500737 316.34356037780526 0 0 0 0 -121.26660294027303 2.6511065965896705 0 2.6511065965896705 258.66962677959236 0 0 0 0 -22.258293516053229 39.428249841044817 0 39.428249841044817 263.72370876849163 0 0 0 0 -186.51551984815092 -34.425087632749637 0 -34.425087632749637 344.24602989599225 0 0 0 0 -195.0377902148507 -6.8798268930859194 0 -6.8798268930859194 281.6669207757659 0 0 0 0 -36.631220778168938 -66.106486449905788 0 -66.106486449905788 492.67873542784946 0 0 0 0 -26.795409234316622 -28.48225805547554 0 -28.48225805547554 278.15252783734468 0 0 0 0 48.118604072976879 -98.751203472225825 0 -98.751203472225825 185.79492308206682 0 0 0 0 -212.89045837289882 -11.963953338985448 0 -11.963953338985448 330.5940752364404 0 0 0 0 -2.6151556211456199 -29.74058315349842 0 -29.74058315349842 259.54388623477234 0 0 0 0 -264.22512043844426 -114.07293163791473 0 -114.07293163791473 268.69670273135125 0 0 0 0 -203.11468823257826 -159.50030786016578 0 -159.50030786016578 288.41134401070303 0 0 0 0 -189.8785626902627 43.587647826283501 0 43.587647826283501 301.57483164462246 0 0 0 0 -156.94560525065481 -8.1872542988821806 0 -8.1872542988821806 203.25123310227355 0 0 0 0 -287.39860164316485 -63.014922034475603 0 -63.014922034475603 293.28767517533561 0 0 0 0 4.7899828260925625 -35.054691027390568 0 -35.054691027390568 250.38937927890424 0 0 0 0 -179.08099133813539 128.78245125939975 0 128.78245125939975 218.14857952157035 0 0 0 0 -473.2631362575903 0.23663756774476497 0 0.23663756774476497 367.22554507622772 0 0 0 0 -519.57663542442242 -200.90281423031001 0 -200.90281423031001 456.36605657036853 0 0 0 0 -121.25377313063397 -0.76363589492413553 0 -0.76363589492413553 230.87118348364311 0 0 0 0 -42.515753216590156 -44.439213485778964 0 -44.439213485778964 263.26889091253543 0 0 0 0 139.80263862968252 269.26561032088375 0 269.26561032088375 699.72442024169868 0 0 0 0 86.129681026641379 -33.747367904425118 0 -33.747367904425118 161.56986217897065 0 0 0 0 105.50596768075047 59.096226438954545 0 59.096226438954545 219.82132040900615 0 0 0 0 -141.13201950887151 126.13947073194913 0 126.13947073194913 348.8569712517492 0 0 0 0 -82.732443938788492 135.76647505148685 0 135.76647505148685 124.42586194678006 0 0 0 0 12.085431805673238 -88.264838822830825 0 -88.264838822830825 275.38622617210785 0 0 0 0 -99.420807609822987 27.395986597064621 0 27.395986597064621 261.54557690219372 0 0 0 0 -102.40670503527144 47.692976445967361 0 47.692976445967361 251.36566624719126 0 0 0 0 -8.0978808217546838 -20.099516832568327 0 -20.099516832568327 57.01977109788578 0 0 0 0 -0.47981216035309227 -3.3902468718294507 0 -3.3902468718294507 134.88730736775244 0 0 0 0 -22.093354971207077 -15.632513273274526 0 -15.632513273274526 141.95873579903855 0 0 0 0 -210.08973451188763 -47.32577648593724 0 -47.32577648593724 280.84004606917733 0 0 0 0 -22.491237079925071 22.58666896296856 0 22.58666896296856 116.33558596323556 0 0 0 0 16.615392214289155 -7.4958842184966699 0 -7.4958842184966699 121.22183746601513 0 0 0 0 -30.640709459217902 -17.22241558548194 0 -17.22241558548194 146.90130957287329 0 0 0 0 2.0000593660093724 -10.423160551430435 0 -10.423160551430435 127.86355527273003 0 0 0 0 -13.599605033022954 -6.0091425473146955 0 -6.0091425473146955 126.47056059241731 0 0 0 0 14.053667476005103 -32.318085529768723 0 -32.318085529768723 141.23492627013184 0 0 0 0 21.607696110197026 -25.898053953846102 0 -25.898053953846102 100.79671941655397 0 0 0 0 28.409551127886061 -11.912197688732704 0 -11.912197688732704 115.34048545042606 0 0 0 0 128.597403045384 -58.908638402419456 0 -58.908638402419456 34.009133171470694 0 0 0 0 29.405436134411477 41.735746843087782 0 41.735746843087782 28.361494982105796 0 0 0 0 -20.349948982884385 43.492614131170441 0 43.492614131170441 86.649240413408876 0 0 0 0 -137.78965710641069 188.64120456405362 0 188.64120456405362 4.6907857025471458 0 0 0 0 -22.291803517708484 42.950572375275158 0 42.950572375275158 80.536854091370202 0 0 0 0 16.637064763499769 -18.634741177627518 0 -18.634741177627518 119.33284651888243 0 0 0 0 33.398787298332991 104.9671843692995 0 104.9671843692995 354.83803392377013 0 0 0 0 -58.115067986314898 -82.273492661977798 0 -82.273492661977798 366.77379750797263 0 0 0 0 236.34361168856412 228.06842187218717 0 228.06842187218717 -189.32222761795856 0 0 0 0 -97.339032375172792 375.80750096055272 0 375.80750096055272 -164.25655469196863 0 0 0 0 218.36979768820299 -110.24124984445996 0 -110.24124984445996 -42.06922745378688 0 0 0 0 0.82446551515296918 1.4177906204684234 0 1.4177906204684234 3.3932181214873225 0 0 0 0 -14.618682300085993 -73.12923098711326 0 -73.12923098711326 313.74757891520858 0 0 0 0 28.468684533292503 -45.439592715292747 0 -45.439592715292747 40.042025551942061 0 0 0 0 47.209837132721532 19.629059747705469 0 19.629059747705469 41.540709550397878 0 0 0 0 -4.6736197625747309 10.505381757167925 0 10.505381757167925 207.50589418133313 0 0 0 0 -12.791257171332632 83.684625069428876 0 83.684625069428876 325.29081392936496 0 0 0 0 -22.446674570566756 30.611963015493529 0 30.611963015493529 207.95050090239613 0 0 0 0 23.292633695617951 76.172390753094078 0 76.172390753094078 332.90063610710786 0 0 0 0 -5.7182773774402449 76.057390751273488 0 76.057390751273488 386.42612804068267 0 0 0 0 -52.044492673264358 30.13775479499418 0 30.13775479499418 345.58096914105408 0 0 0 0 -33.087318118316489 45.746823723391572 0 45.746823723391572 319.55718711132795 0 0 0 0 -34.085668630626174 46.196120127779977 0 46.196120127779977 335.31307830347214 0 0 0 0 36.563824148921299 -7.5293337746115867 0 -7.5293337746115867 106.61251896187969 0 0 0 0 -24.177778411130021 9.1499439768776938 0 9.1499439768776938 339.85176173564651 0 0 0 0 26.045635099726496 -24.664966612301214 0 -24.664966612301214 239.87588288347615 0 0 0 0 2.0759825284481241 -0.42994698791086705 0 -0.42994698791086705 0.5296019624819408 0 0 0 0 163.51715898288194 2.5255286455685564 0 2.5255286455685564 249.1738309131033 0 0 0 0 4.6577123719998781 -30.452975778485779 0 -30.452975778485779 259.44580369903633 0 0 0 0 -23.68832640587425 -31.338243322414201 0 -31.338243322414201 438.64060388972757 0 0 0 0 1.3395463079940146 0.44271712114273498 0 0.44271712114273498 0.12167100300364098 0 0 0 0 128.47126269156843 15.051644602292072 0 15.051644602292072 -42.009437563593565 0 0 0 0 43.04346184548649 -157.82371817402236 0 -157.82371817402236 190.67664664407312 0 0 0 0 3.6817934007374333 -147.57498470806604 0 -147.57498470806604 261.15054490454349 0 0 0 0 229.98884613866585 -308.68068327057813 0 -308.68068327057813 369.87214601263258 0 0 0 0 52.107737463825742 -162.14408230343179 0 -162.14408230343179 253.87774129510399 0 0 0 0 250.91472601105488 46.502384066719969 0 46.502384066719969 200.5767175540459 0 0 0 0 669.96255398044468 -124.26365780134074 0 -124.26365780134074 270.04960615607706 0 0 0 0 27.216889437550435 -226.9482174115401 0 -226.9482174115401 379.84736729681026 0 0 0 0 74.217258358023628 -143.91241735546282 0 -143.91241735546282 434.09896787610523 0 0 0 0 26.510591908963306 87.165445936247124 0 87.165445936247124 466.53456165674288 0 0 0 0 10.668930081917779 195.86083507594594 0 195.86083507594594 239.01777204012615 0 0 0 0 291.13785920524697 -423.77506767673549 0 -423.77506767673549 794.8103407867311 0 0 0 0 -30.835329078579207 185.78061906713083 0 185.78061906713083 968.57140006591362 0 0 0 0 115.43355070460825 125.8341997096868 0 125.8341997096868 60.893768877991533 0 0 0 0 5.1197333944344612 8.2271196645149303 0 8.2271196645149303 10.050730738448223 0 0 0 0 -123.77604562072996 22.022771876985303 0 22.022771876985303 128.51172926004801 0 0 0 0 8.2347345090661292 -67.879044754590723 0 -67.879044754590723 -54.239364149435005 0 0 0 0 -112.37260592457187 -173.66552993744699 0 -173.66552993744699 285.9836567175953 0 0 0 0 -29.327970174760139 -245.25071304871744 0 -245.25071304871744 390.89050625875825 0 0 0 0 -44.167615492802952 -130.99186999643098 0 -130.99186999643098 302.74294517870294 0 0 0 0 91.621530063650596 -191.50417369250863 0 -191.50417369250863 221.31768448082585 0 0 0 0 -50.790591564460783 -193.05911950444352 0 -193.05911950444352 404.80288280114473 0 0 0 0 51.347855590405473 -226.3383158711182 0 -226.3383158711182 359.72648914057936 0 0 0 0 10.96093931832138 -135.73227137882714 0 -135.73227137882714 261.72549559413892 0 0 0 0 11.436448468829212 -127.518266891042 0 -127.518266891042 403.34167136347969 0 0 0 0 -8.225346997405552 -258.4390319979575 0 -258.4390319979575 742.97819590715517 0 0 0 0 1.1001422800970913 0.2488932812759117 0 0.2488932812759117 0.44554403025473377 0 0 0 0 115.17042685279017 -155.13768602988421 0 -155.13768602988421 406.69257427794946 0 0 0 0 89.588515224568255 -244.74353361351314 0 -244.74353361351314 523.41820378047123 0 0 0 0 380.77902233238365 -419.85503207544389 0 -419.85503207544389 244.44050352551858 0 0 0 0 63.262674628957939 -148.52954577046694 0 -148.52954577046694 1036.5949354870027 0 0 0 0 1.7189487650758384 3.3951241714390221 0 3.3951241714390221 7.1058702972001413 0 0 0 0 110.8602944283715 13.016178802197828 0 13.016178802197828 154.89310384861892 0 0 0 0 125.79004004748026 -281.69145421127905 0 -281.69145421127905 298.49809069014736 0 0 0 0 60.585107210183082 -77.140478795561648 0 -77.140478795561648 156.9672482465794 0 0 0 0 4.4160077641591871 7.1001794315690887 0 7.1001794315690887 8.4952066577320124 0 0 0 0 -3.0774134762468748 69.214386172694503 0 69.214386172694503 20.277838629772305 0 0 0 0 -0.47856022004948784 -17.294394453690074 0 -17.294394453690074 53.236494245815265 0 0 0 0 -95.385482479945949 -15.935683308995067 0 -15.935683308995067 453.04008837208676 0 0 0 0 -6.9331302047630743 89.977709906987002 0 89.977709906987002 199.92029604760319 0 0 0 0 -84.347476039321009 -30.558169268701022 0 -30.558169268701022 361.53718244007905 0 0 0 0 -53.427578783248691 -137.86221039837619 0 -137.86221039837619 480.21154224705293 0 0 0 0 -12.014033820641998 -122.15803691113615 0 -122.15803691113615 144.21820405057224 0 0 0 0 1233.5243546220745 -30.144384548995731 0 -30.144384548995731 -231.7208398093353 0 0 0 0 0.74205239588951599 -3.9432016872000588 0 -3.9432016872000588 12.784482443797287 0 0 0 0 -15.229002218752612 128.56214391966796 0 128.56214391966796 105.99473579302139 0 0 0 0 -71.16687185561068 -146.8991163739156 0 -146.8991163739156 292.60519723521429 0 0 0 0 35.922482474093613 41.768463746146153 0 41.768463746146153 334.88138793986582 0 0 0 0 -14.687318754868556 54.57564113882836 0 54.57564113882836 342.04578805372512 0 0 0 0 75.849540184860871 168.77384369802166 0 168.77384369802166 -8.6077062123367796 0 0 0 0 7.8385979744639371 -54.565919027381824 0 -54.565919027381824 -62.572645784251563 0 0 0 0 216.41259238919884 136.82931095060485 0 136.82931095060485 99.363006467607192 0 0 0 0 317.0897738064732 171.90947138073534 0 171.90947138073534 162.29238165414426 0 0 0 0 277.53942725179718 210.31365822258886 0 210.31365822258886 128.46706779598026 0 0 0 0 139.01273447162896 251.05522816975281 0 251.05522816975281 340.16620379226515 0 0 0 0 1.4623765139142826 -2.4923921455387372 0 -2.4923921455387372 9.3324108602391505 0 0 0 0 33.175473933667263 30.661187366476952 0 30.661187366476952 -43.287013274810306 0 0 0 0 1.4225386965016558 -2.0246743955404298 0 -2.0246743955404298 4.6475163275337081 0 0 0 0 571.25898566538217 381.69280792278005 0 381.69280792278005 182.95324777871429 0 0 0 0 690.68893399935041 543.32430498227768 0 543.32430498227768 405.3799776052183 0 0 0 0 684.66990660299234 509.06814635932096 0 509.06814635932096 292.17700128332945 0 0 0 0 402.41543778860614 403.31600934844755 0 403.31600934844755 556.57495013816515 0 0 0 0 555.35177006068898 574.92802749219845 0 574.92802749219845 611.13748795291758 0 0 0 0 224.20815379921714 327.95506726774329 0 327.95506726774329 873.84824035075144 0 0 0 0 685.78675936602417 610.18898982748806 0 610.18898982748806 622.89958200778347 0 0 0 0 52.306444311297128 133.44925410755241 0 133.44925410755241 451.4485657504556 0 0 0 0 177.63650789159601 210.51548357852153 0 210.51548357852153 328.97440427302354 0 0 0 0 230.09444222414277 330.54519056448044 0 330.54519056448044 509.17807004210772 0 0 0 0 311.80459680990316 274.16291870246641 0 274.16291870246641 375.73768206931709 0 0 0 0 157.53258219490272 157.78015839123691 0 157.78015839123691 512.95407760742796 0 0 0 0 41.904960756446144 40.119839325547218 0 40.119839325547218 585.02346679543734 0 0 0 0 115.20793269354363 195.17659407077736 0 195.17659407077736 511.40763678769872 0 0 0 0 213.1820198709986 101.55234748500152 0 101.55234748500152 521.97100716971909 0 0 0 0 217.18915553891657 -193.43890388973159 0 -193.43890388973159 606.10818331372138 0 0 0 0 90.72941345608433 -242.11700132041369 0 -242.11700132041369 352.23551389557542 0 0 0 0 110.52622366769958 -11.685390329033908 0 -11.685390329033908 302.16785536289535 0 0 0 0 448.28310556831093 -45.500704630841938 0 -45.500704630841938 302.80953335092272 0 0 0 0 404.86791510343346 -38.511658388963042 0 -38.511658388963042 475.59561621875037 0 0 0 0 333.52660652589293 -35.420317031326704 0 -35.420317031326704 677.46426434799832 0 0 0 0 336.42387665510523 28.489340959626134 0 28.489340959626134 1658.0105793855837 0 0 0 0 758.91593572929639 -132.42452518340724 0 -132.42452518340724 500.26855779781908 0 0 0 0 391.83002258320016 179.52726938246269 0 179.52726938246269 806.22603454894124 0 0 0 0 177.4627689291753 -79.334467869808577 0 -79.334467869808577 524.930631758034 0 0 0 0 59.314219569408912 -115.64717025017126 0 -115.64717025017126 365.05319920964394 0 0 0 0 71.590270221699086 -47.853302205538057 0 -47.853302205538057 736.06935660178715 0 0 0 0 109.91219081461834 40.678669486431318 0 40.678669486431318 300.56439667999075 0 0 0 0 99.067645678895133 31.867598027183703 0 31.867598027183703 433.75745988093331 0 0 0 0 2.9785431256618722 99.04062828615497 0 99.04062828615497 409.68803613401269 0 0 0 0 278.08361372683112 62.260289898797055 0 62.260289898797055 418.46203954357043 0 0 0 0 416.17382678069504 -48.619704593900678 0 -48.619704593900678 341.92519420121971 0 0 0 0 248.38468312746835 -66.733772263160063 0 -66.733772263160063 357.67532418836709 0 0 0 0 148.63201154726562 19.475526047237508 0 19.475526047237508 311.76898966857698 0 0 0 0 103.24731105226036 -48.32850871719711 0 -48.32850871719711 211.93059798980539 0 0 0 0 36.506553715677228 93.988186799262621 0 93.988186799262621 317.9419786413182 0 0 0 0 32.906349549513962 41.101264869317674 0 41.101264869317674 176.08087402814272 0 0 0 0 -7.8161365372416185 94.613942543015582 0 94.613942543015582 173.39375950197291 0 0 0 0 13.820137655469125 38.301894026735681 0 38.301894026735681 177.89235568522054 0 0 0 0 1.2971150527692747 -0.57125714229815117 0 -0.57125714229815117 -0.406259215747383 0 0 0 0 1.7675311343909863 0.12537713488770663 0 0.12537713488770663 -0.41627465102114058 0 0 0 0 194.61061007796712 -7.3784571783653519 0 -7.3784571783653519 -20.762503536214354 0 0 0 0 163.17838444538995 -87.893712381654041 0 -87.893712381654041 15.671094729328615 0 0 0 0 141.19955584191143 -143.78992731416656 0 -143.78992731416656 137.89760816321086 0 0 0 0 301.75061311941874 -208.77260939562711 0 -208.77260939562711 116.47048092790646 0 0 0 0 211.05334224343619 43.189680776888054 0 43.189680776888054 116.54884493041754 0 0 0 0 -0.36382244650657958 -0.38094813209256984 0 -0.38094813209256984 2.3947507870411471 0 0 0 0 300.56607042366375 -227.60155477972876 0 -227.60155477972876 362.97040314693459 0 0 0 0 120.64373342083604 -104.4203459565615 0 -104.4203459565615 2.8348398138723496 0 0 0 0 -0.62094329205064147 0.26205915069482444 0 0.26205915069482444 5.2160382361761037 0 0 0 0 118.88277762865982 -166.87870253248911 0 -166.87870253248911 130.86158901086583 0 0 0 0 105.23605755710201 -25.167166759865722 0 -25.167166759865722 -25.072387193198665 0 0 0 0 123.10089039934724 -53.017065239193471 0 -53.017065239193471 -5.8038489038444823 0 0 0 0 122.83860225957 -52.906917024479299 0 -52.906917024479299 -3.9569661942077801 0 0 0 0 0.12334357352501241 1.8035166245640628 0 1.8035166245640628 5.1892778781755737 0 0 0 0 5.9353197455832287 5.2562242918147604 0 5.2562242918147604 7.544856661290396 0 0 0 0 13.4183947164438 -22.35711478759913 0 -22.35711478759913 2.4189219062063785 0 0 0 0 -0.40298426347584204 3.9629868702541362 0 3.9629868702541362 12.005573432070776 0 0 0 0 -19.206438139396255 -36.523181014816146 0 -36.523181014816146 49.081513103155885 0 0 0 0 -0.93423542572881502 -26.365921987187903 0 -26.365921987187903 31.177500075227726 0 0 0 0 59.747206587378514 -43.701720677931007 0 -43.701720677931007 35.574882454377075 0 0 0 0 -28.646587786577015 -91.019569057829358 0 -91.019569057829358 163.88808106099896 0 0 0 0 -5.0666340791990336 8.8979343503702637 0 8.8979343503702637 49.319084562259235 0 0 0 0 -4.496150052509936 -3.8641032395549857 0 -3.8641032395549857 9.681145240355022 0 0 0 0 -111.09354702640155 24.681464342393156 0 24.681464342393156 34.732523633801975 0 0 0 0 -155.02092600415682 -2.7651323876852985 0 -2.7651323876852985 199.2579359449046 0 0 0 0 -137.45059087752529 102.43458184570773 0 102.43458184570773 80.832525175281262 0 0 0 0 -35.196804122124718 -61.587788990305853 0 -61.587788990305853 121.95551857318787 0 0 0 0 -42.253116856355291 -70.413949883699388 0 -70.413949883699388 168.18818655866926 0 0 0 0 -4.1708553950142848 -9.3028923692882088 0 -9.3028923692882088 27.383094678311082 0 0 0 0 -75.09428710565038 27.409839520332753 0 27.409839520332753 167.58899027653388 0 0 0 0 -72.516013506948326 -19.760897995921823 0 -19.760897995921823 122.87509064032929 0 0 0 0 -35.480851881936672 9.9842642055737088 0 9.9842642055737088 133.15964225513744 0 0 0 0 -33.236447855637962 32.111268790002669 0 32.111268790002669 338.59083303105581 0 0 0 0 105.54351225406032 113.15848677911708 0 113.15848677911708 141.31913196421738 0 0 0 0 154.77409249186576 -169.02825974720145 0 -169.02825974720145 170.30232985895418 0 0 0 0 228.72322837767058 9.7828665240158443 0 9.7828665240158443 110.20969733579113 0 0 0 0 30.509978629485772 63.060403272003896 0 63.060403272003896 236.63044548833568 0 0 0 0 0.92733794339397502 1.8780312897497993 0 1.8780312897497993 2.9389718297237835 0 0 0 0 87.311780432949888 49.145423167381523 0 49.145423167381523 -14.894431511365838 0 0 0 0 97.841379818501309 -220.61988996016407 0 -220.61988996016407 562.13265306349058 0 0 0 0 185.35458063221677 -171.9675007101232 0 -171.9675007101232 9.2182943054413045 0 0 0 0 36.031860171759149 -37.952882972302177 0 -37.952882972302177 20.209492235028847 0 0 0 0 -38.514840976190811 23.935240718026762 0 23.935240718026762 129.83882024050399 0 0 0 0 54.29912064124224 -2.3286483716565272 0 -2.3286483716565272 86.878257370401116 0 0 0 0 12.120066930350617 -33.531761155703862 0 -33.531761155703862 194.49959115270758 0 0 0 0 128.09921047310445 20.077279236465984 0 20.077279236465984 165.7772207416383 0 0 0 0 6.8289041187979143 26.900438731679088 0 26.900438731679088 6.9157563638654622 0 0 0 0 25.916172037389515 -25.456031100191467 0 -25.456031100191467 154.43184596753417 0 0 0 0 -6.8460261285056276 -6.7882804535511241 0 -6.7882804535511241 158.94248340027843 0 0 0 0 31.449269660487687 -16.542095429617802 0 -16.542095429617802 123.52899487569084 0 0 0 0 70.353427573405952 -49.076403172992286 0 -49.076403172992286 148.35476378434396 0 0 0 0 26.154451572904691 -5.3436271968821529 0 -5.3436271968821529 121.00798666533228 0 0 0 0 38.019250573525596 -12.921293352250359 0 -12.921293352250359 125.22596338314906 0 0 0 0 24.375239379174673 -16.539401573510986 0 -16.539401573510986 130.00456185511757 0 0 0 0 11.792369983813614 -7.0254350413779321 0 -7.0254350413779321 132.98246829781419 0 0 0 0 18.892922345860711 1.7491309032375284 0 1.7491309032375284 111.85863125279866 0 0 0 0 38.096892676391235 6.1004995007097023 0 6.1004995007097023 110.19293881793419 0 0 0 0 72.824388729246948 -5.1687954773333331 0 -5.1687954773333331 103.37378039824762 0 0 0 0 29.395736627465212 1.20845813200458 0 1.20845813200458 119.22725150044425 0 0 0 0 29.199431731712274 3.6900593984307761 0 3.6900593984307761 109.29733846642193 0 0 0 0 0.27599753106176195 0.22916369863742148 0 0.22916369863742148 118.10585834890662 0 0 0 0 -63.596047754214624 -8.9742255348646722 0 -8.9742255348646722 247.96835749773891 0 0 0 0 34.150295068276591 9.7457290923921391 0 9.7457290923921391 103.7522326799226 0 0 0 0 1.3297621969181956 -0.92147426203266036 0 -0.92147426203266036 0.2139365175113106 0 0 0 0 -53.481866879992822 -82.768470827380952 0 -82.768470827380952 311.78513209381072 0 0 0 0 18.894504744745579 54.896231532936099 0 54.896231532936099 137.84161036318983 0 0 0 0 22.090716520283763 20.570163788237551 0 20.570163788237551 70.797689084763988 0 0 0 0 1.3968157430427379 21.946868632632629 0 21.946868632632629 19.916958724147879 0 0 0 0 -29.117136705153797 18.877348081317905 0 18.877348081317905 116.8971022703663 0 0 0 0 -38.99994471207242 4.2614208423401578 0 4.2614208423401578 138.33761696279907 0 0 0 0 -12.218234476151338 -76.991954958444694 0 -76.991954958444694 88.862394174338988 0 0 0 0 3.9100524995264792 -24.268581659786875 0 -24.268581659786875 109.34288219626097 0 0 0 0 15.322634042502553 -27.222450589473226 0 -27.222450589473226 5.0939209847224518 0 0 0 0 -14.762887865237872 -64.376179081180453 0 -64.376179081180453 123.54317684544367 0 0 0 0 -41.008570850266551 -108.80886419463059 0 -108.80886419463059 207.46862506759499 0 0 0 0 -2.5094256416529674 8.9942848755590603 0 8.9942848755590603 152.18212161329575 0 0 0 0 9.0357182962659692 -21.508745202991122 0 -21.508745202991122 108.18749615414345 0 0 0 0 127.13797729300995 -187.00797882409825 0 -187.00797882409825 230.64385497820331 0 0 0 0 300.97588735472027 -23.771501097944565 0 -23.771501097944565 191.20221450926329 0 0 0 0 2.7839980868469567 -1.1766844328836896 0 -1.1766844328836896 0.1779368840915474 0 0 0 0 5.8013150635129485 0.91266440746069577 0 0.91266440746069577 1.0148008770166825 0 0 0 0 110.95820771656565 150.0531915206011 0 150.0531915206011 311.74655115918722 0 0 0 0 3.3830893436657234 -18.474130303488892 0 -18.474130303488892 106.70634407023317 0 0 0 0 13.278840659590998 -13.377079279525788 0 -13.377079279525788 108.93601634467632 0 0 0 0 13.692881150900746 -17.505997010623105 0 -17.505997010623105 95.221704931580462 0 0 0 0 12.238122043326712 -23.480956216288178 0 -23.480956216288178 101.98316333493131 0 0 0 0 11.418130870763832 -17.969664418666071 0 -17.969664418666071 122.34642726265884 0 0 0 0 24.029674245568401 -13.873249378197215 0 -13.873249378197215 96.413355865232006 0 0 0 0 24.090490882403856 -14.781136745641561 0 -14.781136745641561 59.653931915556313 0 0 0 0 22.063908811746728 -9.0329071455435042 0 -9.0329071455435042 87.328931037372968 0 0 0 0 21.513815127647263 -4.1019860124251863 0 -4.1019860124251863 102.21255269357061 0 0 0 0 -63.678569541487605 24.630927268673986 0 24.630927268673986 68.318627080210717 0 0 0 0 -31.176370272733266 -50.167907556282444 0 -50.167907556282444 66.12937854136544 0 0 0 0 26.22288878837594 -47.116351194068557 0 -47.116351194068557 113.54105990242351 0 0 0 0 1.8208597416426926 -16.226942218779186 0 -16.226942218779186 100.99989230604842 0 0 0 0 8.119064250915244 -42.43743896066735 0 -42.43743896066735 98.532346573359973 0 0 0 0 13.100787050550338 14.018602694414767 0 14.018602694414767 149.4257608181797 0 0 0 0 -32.066977828018025 -32.905273746553576 0 -32.905273746553576 115.94550452093245 0 0 0 0 0.64021233532596078 -0.49989494611288876 0 -0.49989494611288876 0.16248890061111076 0 0 0 0 0.24182778535623584 -41.710858177284535 0 -41.710858177284535 22.699082246152102 0 0 0 0 2.4472575377621979 -15.468944382446352 0 -15.468944382446352 54.026177188803558 0 0 0 0 2.1212692246104998 -0.98780258562715062 0 -0.98780258562715062 0.15639246250337813 0 0 0 0 30.939728574759101 -17.284388506952382 0 -17.284388506952382 93.883860917866514 0 0 0 0 -3.5026483033719842 -39.433432296907995 0 -39.433432296907995 168.02779863872274 0 0 0 0 10.91118042810217 -54.760875675125135 0 -54.760875675125135 146.56189923249622 0 0 0 0 -14.855413856853829 -36.315855977270985 0 -36.315855977270985 219.92310638408526 0 0 0 0 6.5365079136704338 -27.19144754981177 0 -27.19144754981177 -12.088816401309799 0 0 0 0 148.66116840208815 -162.64895117534616 0 -162.64895117534616 -159.61607099885441 0 0 0 0 -30.359329127656565 -48.120983891596552 0 -48.120983891596552 159.69059989677771 0 0 0 0 -4.9590187639877579 -28.7561932881205 0 -28.7561932881205 6.2578604612370583 0 0 0 0 -6.8400110578479598 -6.7400555232816259 0 -6.7400555232816259 109.88909488520585 0 0 0 0 -19.176583315529115 -41.938713886585901 0 -41.938713886585901 115.84122608687903 0 0 0 0 -10.231888528935997 -57.419746420207957 0 -57.419746420207957 111.13842437931453 0 0 0 0 -393.76897982537662 -53.935553258881555 0 -53.935553258881555 420.51756878371089 0 0 0 0 20.124303043603959 5.3527418421872426 0 5.3527418421872426 140.84238514406024 0 0 0 0 252.29721041653505 160.55924981315366 0 160.55924981315366 -151.23351072244986 0 0 0 0 6.8088003540814785 -13.134382992295166 0 -13.134382992295166 15.097786503179918 0 0 0 0 2.9238212533813561 -4.1037481597237502 0 -4.1037481597237502 6.4806019568757733 0 0 0 0 579.57654135429129 -303.79243057561689 0 -303.79243057561689 -309.75790033285739 0 0 0 0 111.02433523151717 263.73155354602204 0 263.73155354602204 616.29745383639238 0 0 0 0 173.4172119333607 -312.20826019877131 0 -312.20826019877131 -162.35190660110675 0 0 0 0 528.73731841446079 -568.64649695986009 0 -568.64649695986009 -359.46383118064841 0 0 0 0 -486.9327214709383 -36.154559206952399 0 -36.154559206952399 815.63183999161993 0 0 0 0 6.3730784002123517 -2.8215023499149936 0 -2.8215023499149936 -1.6892383170165033 0 0 0 0 257.16959057094618 -658.12821361512761 0 -658.12821361512761 -315.91292698183679 0 0 0 0 52.896559919101037 216.84037711101701 0 216.84037711101701 628.70988251299423 0 0 0 0 -85.72414767490136 -205.06314411485073 0 -205.06314411485073 550.63209580756666 0 0 0 0 29.042751487301985 -353.3991461850037 0 -353.3991461850037 226.05975392812979 0 0 0 0 9.593396092724106 -68.309686514257919 0 -68.309686514257919 85.300661366563872 0 0 0 0 -47.135518460424464 -44.187491620716173 0 -44.187491620716173 238.53914508907474 0 0 0 0 -21.654737948800175 31.037855078364373 0 31.037855078364373 204.62403531001473 0 0 0 0 -29.536304812223534 -107.80817754887539 0 -107.80817754887539 168.1923897707602 0 0 0 0 -2.146911312804936 -19.710306867581643 0 -19.710306867581643 116.06557782075646 0 0 0 0 -58.967451443612617 -25.231260157643192 0 -25.231260157643192 150.22329545141838 0 0 0 0 -47.050491475307354 -45.798804834004841 0 -45.798804834004841 117.58552536297429 0 0 0 0 -32.577412073858795 -1.4318375857474166 0 -1.4318375857474166 124.81406464110478 0 0 0 0 -15.351814554494366 17.076201176144991 0 17.076201176144991 59.77717562298777 0 0 0 0 -21.791708194498824 45.935635725974862 0 45.935635725974862 139.96695982019082 0 0 0 0 -10.06474079881491 4.3196910913538886 0 4.3196910913538886 56.48830021302274 0 0 0 0 -4.7367345166034767 4.3117696025328769 0 4.3117696025328769 39.83015810631332 0 0 0 0 -8.7502781117696031 30.685805257096945 0 30.685805257096945 178.92884140905517 0 0 0 0 -21.738490452894439 44.263408505677944 0 44.263408505677944 181.28020879426458 0 0 0 0 -1.9115865299286288 0.13028527008572155 0 0.13028527008572155 24.786542610471997 0 0 0 0 -24.293775008837439 42.015975649510168 0 42.015975649510168 77.802471700526738 0 0 0 0 -529.26636702617452 -277.87749161889224 0 -277.87749161889224 94.316812707955251 0 0 0 0 -74.353016059044876 80.170754094124277 0 80.170754094124277 4.6806749904644676 0 0 0 0 -17.571692870158554 30.566420327601328 0 30.566420327601328 15.652681300622135 0 0 0 0 -14.245979042038073 19.635393967255368 0 19.635393967255368 51.528437904318707 0 0 0 0 -4.0534415965088089 9.6377956579632382 0 9.6377956579632382 24.609497224853897 0 0 0 0 -0.086741751174116644 7.3708045863450025 0 7.3708045863450025 7.1763280039522215 0 0 0 0 -16.693654838907207 17.617342968704179 0 17.617342968704179 64.71636530917749 0 0 0 0 13.603568729921335 -5.2534778055960487 0 -5.2534778055960487 44.598695252937887 0 0 0 0 3.3655011251816402 3.1258135593356684 0 3.1258135593356684 -1.7122270189305482 0 0 0 0 4.2314590280889774 7.0160353767996355 0 7.0160353767996355 4.3691355886509768 0 0 0 0 5.9867920673741537 56.758756677685597 0 56.758756677685597 14.814870875040469 0 0 0 0 -24.93578414247213 152.41473401616349 0 152.41473401616349 -119.5776670158084 0 0 0 0 40.444717510953524 -4.6454042016921449 0 -4.6454042016921449 -50.966140828953939 0 0 0 0 52.883452422061225 71.541999764813681 0 71.541999764813681 -148.41333034857962 0 0 0 0 -83.324162723037261 13.214614749220345 0 13.214614749220345 27.601314318781078 0 0 0 0 -19.118831243764905 43.474092562266577 0 43.474092562266577 85.323127554235668 0 0 0 0 -11.505009461312738 152.29903468734847 0 152.29903468734847 -73.708957127470057 0 0 0 0 406.95430298944643 -115.98545589798596 0 -115.98545589798596 -32.873669354332378 0 0 0 0 469.02693778214052 -245.46620168283698 0 -245.46620168283698 127.09383938314568 0 0 0 0 -6.636574153767242 -37.744951853739622 0 -37.744951853739622 353.75830175710144 0 0 0 0 151.05505406720545 -271.87846165025258 0 -271.87846165025258 665.02746745866898 0 0 0 0 -201.32648518346377 297.28218463985831 0 297.28218463985831 51.730145580790122 0 0 0 0 -124.17473149495936 493.35212125249745 0 493.35212125249745 415.51104862763896 0 0 0 0 -4.5142758856968612 -18.725860415572242 0 -18.725860415572242 232.96219868215121 0 0 0 0 20.388986806064096 -60.647007664389605 0 -60.647007664389605 193.71671758209413 0 0 0 0 6.0783707398745719 2.3655228023853851 0 2.3655228023853851 213.50264849265659 0 0 0 0 -12.389853145096367 -101.54030079524091 0 -101.54030079524091 285.4212181965122 0 0 0 0 -29.815970093131455 35.29901747313852 0 35.29901747313852 410.67670972269843 0 0 0 0 20.537093699347906 -48.885549659302342 0 -48.885549659302342 185.49836187924666 0 0 0 0 38.851831728217348 -71.571872185952088 0 -71.571872185952088 176.96906187465356 0 0 0 0 36.376777908741587 -60.368643072644772 0 -60.368643072644772 126.25861773922952 0 0 0 0 2.1567384546286803 -42.664976137835765 0 -42.664976137835765 180.12334151858522 0 0 0 0 -26.475413122391046 -41.007092092899256 0 -41.007092092899256 201.03346350626089 0 0 0 0 -0.15792394844152113 -33.033796103023633 0 -33.033796103023633 141.26967068946578 0 0 0 0 -0.94201330911163961 -12.754354369865329 0 -12.754354369865329 144.39194645901 0 0 0 0 -124.21988423764864 -90.635268424430251 0 -90.635268424430251 238.88684459542856 0 0 0 0 -8.2453044093772618 -18.342236805208074 0 -18.342236805208074 36.534013776597675 0 0 0 0 -54.927175352088284 6.4343182513621286 0 6.4343182513621286 135.5480316457797 0 0 0 0 -23.478548423572988 -82.945807214560773 0 -82.945807214560773 91.240702385432087 0 0 0 0 -23.629507458945909 0.34402973056421615 0 0.34402973056421615 82.513463698700434 0 0 0 0 -21.943752944609415 -69.105316188194593 0 -69.105316188194593 188.78984713596583 0 0 0 0 15.119191621807204 -34.873368688611663 0 -34.873368688611663 136.17917654548364 0 0 0 0 -0.51732786093987215 -20.74901301085265 0 -20.74901301085265 205.9389732531854 0 0 0 0 62.503544132077536 60.677755268636247 0 60.677755268636247 217.13284312738688 0 0 0 0 -21.873955049727897 -15.907618890196318 0 -15.907618890196318 178.06601765868254 0 0 0 0 27.021488265512403 -6.9223242128791753 0 -6.9223242128791753 151.34725936215546 0 0 0 0 122.0155923633813 99.52679096951033 0 99.52679096951033 222.45854435752699 0 0 0 0 -210.60242520132499 -47.106906724005967 0 -47.106906724005967 206.84631787564285 0 0 0 0 -109.88730142613088 71.740315665330854 0 71.740315665330854 222.41460475833446 0 0 0 0 -1.1490097435214466 -89.369522733653866 0 -89.369522733653866 148.74736039603886 0 0 0 0 1.6631878278014223 0.73993997698119074 0 0.73993997698119074 -0.50447445120886414 0 0 0 0 -5.5869717149018925 70.735373399991659 0 70.735373399991659 376.34180235217354 0 0 0 0 0.56823044492610819 21.149400786736351 0 21.149400786736351 194.01172734230931 0 0 0 0 1.192903098866509 36.583331157118664 0 36.583331157118664 287.92191668754094 0 0 0 0 20.054442604106498 75.239484021505632 0 75.239484021505632 267.12506284052506 0 0 0 0 -22.662648256790362 18.8882946863705 0 18.8882946863705 307.73771956554265 0 0 0 0 9.6763929015744452 -0.96264132875512587 0 -0.96264132875512587 182.71835128342354 0 0 0 0 54.386502784130698 92.993705782027973 0 92.993705782027973 171.78214080163161 0 0 0 0 30.390590062395859 130.90380322468991 0 130.90380322468991 339.37427818660217 0 0 0 0 15.564924733779208 53.979223967515281 0 53.979223967515281 211.14423916988017 0 0 0 0 45.558378350547173 22.431619342882186 0 22.431619342882186 117.01082401238091 0 0 0 0 5.2549777789536751 -0.5386405521819313 0 -0.5386405521819313 13.103565753420604 0 0 0 0 59.819980429036605 60.917885359620414 0 60.917885359620414 169.94539464605623 0 0 0 0 21.329831583926989 24.77204596415686 0 24.77204596415686 148.78869204165676 0 0 0 0 41.058270104305393 36.154041601865174 0 36.154041601865174 131.75021259032656 0 0 0 0 4.2866376679893392 -9.5131650743205682 0 -9.5131650743205682 75.081084149769595 0 0 0 0 -1.8789686300257569 -17.528934572879692 0 -17.528934572879692 79.767165622217675 0 0 0 0 -7.1783471202252258 -39.299287405017822 0 -39.299287405017822 107.13746618491132 0 0 0 0 -68.463757710461323 -49.366256433873787 0 -49.366256433873787 135.54365952347143 0 0 0 0 -0.090618723238939047 3.1141113983697153 0 3.1141113983697153 13.40005592635902 0 0 0 0 -10.097231505167656 -36.0342020974349 0 -36.0342020974349 79.044902748748427 0 0 0 0 32.532633903733768 -27.67996680172655 0 -27.67996680172655 152.0872664923736 0 0 0 0 6.93874946505872 -9.6937175574494177 0 -9.6937175574494177 71.458786452916684 0 0 0 0 3.9681678025622955 8.1727970267781416 0 8.1727970267781416 11.308837640217238 0 0 0 0 -7.9943067443809923 0.88637894157727715 0 0.88637894157727715 162.72521208517719 0 0 0 0 28.915193040638322 54.152055461976261 0 54.152055461976261 82.580168173328275 0 0 0 0 -61.272945846591028 -49.594500669823901 0 -49.594500669823901 248.09782916957829 0 0 0 0 -59.904593336350899 -67.963059611007338 0 -67.963059611007338 64.465513887302222 0 0 0 0 -82.655054960978305 -78.989954628021223 0 -78.989954628021223 242.45009854109958 0 0 0 0 -61.630812855205022 -87.701036803235183 0 -87.701036803235183 252.03522293982678 0 0 0 0 -2.6115362140948761 -23.854492858050829 0 -23.854492858050829 1.1002625722719586 0 0 0 0 -62.893595891110635 -57.479643558239331 0 -57.479643558239331 40.394038515716829 0 0 0 0 -5.9298756243495117 -19.545457843328158 0 -19.545457843328158 96.138462563771498 0 0 0 0 52.636284713130181 -87.338577558359248 0 -87.338577558359248 11.521812622944708 0 0 0 0 -30.35879955630503 14.674370005777746 0 14.674370005777746 55.069884392221866 0 0 0 0 -62.327755662307027 -37.430876028454804 0 -37.430876028454804 132.68047253537952 0 0 0 0 -3.4989199953706436 -13.504047268545705 0 -13.504047268545705 58.186933523688054 0 0 0 0 -9.4678971033903281 -16.959915211329644 0 -16.959915211329644 106.94169824988057 0 0 0 0 -2.7625596939552626 -6.2162263697115208 0 -6.2162263697115208 49.646681275728099 0 0 0 0 -23.351911394484414 -3.6296350074801467 0 -3.6296350074801467 50.148417279749992 0 0 0 0 -34.728420999785385 -103.29569641840135 0 -103.29569641840135 27.847046540060546 0 0 0 0 -8.605488689870171 -15.681949396381214 0 -15.681949396381214 35.157706486121981 0 0 0 0 -26.759094111363538 -13.311497267823142 0 -13.311497267823142 65.978073922058684 0 0 0 0 -9.9096872301402072 -31.923663549736375 0 -31.923663549736375 62.140947243584378 0 0 0 0 -33.156178315477405 38.630320825719537 0 38.630320825719537 1.9100216340302723 0 0 0 0 0.059644671160462792 -3.1149629758451454 0 -3.1149629758451454 7.8776005067036863 0 0 0 0 -47.292507380526253 9.5836540349520192 0 9.5836540349520192 54.555085898726247 0 0 0 0 -2.7030025027989124 -0.75405074478711764 0 -0.75405074478711764 48.35574372248692 0 0 0 0 4.2452157174487759 -5.5578254772030391 0 -5.5578254772030391 6.1358843401320655 0 0 0 0 193.66223230787887 258.02452152008482 0 258.02452152008482 96.042088196176337 0 0 0 0 471.90009845542318 -105.47814882285456 0 -105.47814882285456 -6.2209501864053891 0 0 0 0 -254.53087882001887 42.48948650782404 0 42.48948650782404 107.06887998216916 0 0 0 0 -0.050201649361645728 -27.978515467722595 0 -27.978515467722595 84.962736514998568 0 0 0 0 -41.223644352699466 -53.667500546085648 0 -53.667500546085648 138.24027068631403 0 0 0 0 3.8638704665037267 6.7668155608625966 0 6.7668155608625966 85.798893412742473 0 0 0 0 -8.324447179195392 10.524255024253108 0 10.524255024253108 28.551525380810233 0 0 0 0 -159.10963955199804 103.12185153542669 0 103.12185153542669 342.56388434369001 0 0 0 0 1352.2949371858599 132.8383589056757 0 132.8383589056757 -147.72244729958402 0 0 0 0 3.9922797534406143 12.880969756440265 0 12.880969756440265 36.171164260483465 0 0 0 0 7.1381757548696356 2.4170799572730175 0 2.4170799572730175 138.87803207713296 0 0 0 0 -356.01405286125873 -1329.9151566895271 0 -1329.9151566895271 417.14304814464413 0 0 0 0 -5.5904863792906099 -0.30720498186565237 0 -0.30720498186565237 173.67742916422139 0 0 0 0 -1.8711070883281593 -16.513048323344265 0 -16.513048323344265 125.40537676104577 0 0 0 0 6.9343039846066858 18.041340646654135 0 18.041340646654135 139.37951192279434 0 0 0 0 11.699083322584443 -14.649585063038103 0 -14.649585063038103 76.592849571348779 0 0 0 0 4.8761396933045553 8.1430954785747645 0 8.1430954785747645 22.436538332502316 0 0 0 0 64.337603911736409 66.483130178590727 0 66.483130178590727 97.358099530407344 0 0 0 0 2.4278099397333497 -10.33433473251241 0 -10.33433473251241 134.78658584919776 0 0 0 0 5.0333111659305105 4.2622117845788807 0 4.2622117845788807 32.309974640170182 0 0 0 0 16.802436689002661 -36.769080497455434 0 -36.769080497455434 104.35818647761812 0 0 0 0 -0.10179669535572289 1.4062396006931124 0 1.4062396006931124 1.5769000899931269 0 0 0 0 155.09508244563443 63.424182393559022 0 63.424182393559022 565.15417839429574 0 0 0 0 72.516699947265039 -196.09201307288822 0 -196.09201307288822 207.00174361775862 0 0 0 0 312.48134215699827 39.487825380201684 0 39.487825380201684 -239.38584415943478 0 0 0 0 -29.324538404303667 42.474858412751928 0 42.474858412751928 146.31231137402506 0 0 0 0 1.9941500382094828 2.9254244004320356 0 2.9254244004320356 5.0563894406766394 0 0 0 0 -6.3370890525339973 10.037730295705842 0 10.037730295705842 191.88069606074714 0 0 0 0 0.93014346084572375 -1.904929450391375 0 -1.904929450391375 127.2758819190276 0 0 0 0 18.777582162947226 -9.0989181734330487 0 -9.0989181734330487 146.18441993989836 0 0 0 0 -7.3263918376800756 -2.3760473070890384 0 -2.3760473070890384 37.356776334306829 0 0 0 0 -473.25291705993533 -113.15830862724397 0 -113.15830862724397 688.69092188077047 0 0 0 0 -311.80352007203328 -102.03058602959936 0 -102.03058602959936 185.60979953414062 0 0 0 0 2.5789531569976796 -5.6987685254891574 0 -5.6987685254891574 92.828364013481405 0 0 0 0 -369.0518541869983 14.681515252843383 0 14.681515252843383 340.37680291227298 0 0 0 0 44.309754116419981 131.80889432931144 0 131.80889432931144 -61.241250049206428 0 0 0 0 -237.98940153276089 363.33014224431827 0 363.33014224431827 -626.66114692535484 0 0 0 0 -312.4886197393173 373.05027042007714 0 373.05027042007714 1232.6705041224486 0 0 0 0 1.2609365377572295 2.0279093056720967 0 2.0279093056720967 1.45118158058483 0 0 0 0 129.72589456863329 154.8875051320756 0 154.8875051320756 108.46631406396045 0 0 0 0 381.11291871738911 -100.86414599920681 0 -100.86414599920681 299.51535023281758 0 0 0 0 -94.090803178805345 -486.04657965965453 0 -486.04657965965453 656.47277063049842 0 0 0 0 53.039254270628504 222.12967108014709 0 222.12967108014709 401.86958665490965 0 0 0 0 381.7727943487476 -206.49688981122745 0 -206.49688981122745 101.78654271905543 0 0 0 0 -75.961452581380655 -2.4063024841707374 0 -2.4063024841707374 66.045440864749253 0 0 0 0 77.581218421700356 6.9479051825182978 0 6.9479051825182978 -43.818762098555453 0 0 0 0 -36.859271772172775 -52.853519354466698 0 -52.853519354466698 25.809764036079287 0 0 0 0 33.256171466747233 1.2691911446672748 0 1.2691911446672748 42.548824274737854 0 0 0 0 -12.914034907415214 -193.1187225238391 0 -193.1187225238391 -53.334085694846181 0 0 0 0 -122.5730875728209 25.217677922926669 0 25.217677922926669 144.96109960014292 0 0 0 0 1.2404912873659844 -8.1522987678947345 0 -8.1522987678947345 16.007232217862338 0 0 0 0 1.3838351800406934 -6.0471352778711953 0 -6.0471352778711953 89.513526284655541 0 0 0 0 150.59867024513926 102.71041458588843 0 102.71041458588843 21.649172518635169 0 0 0 0 0.042887788388357745 11.380399330388173 0 11.380399330388173 109.10686948597868 0 0 0 0 3.7089014711204094 45.108242855560093 0 45.108242855560093 149.74187698327296 0 0 0 0 16.932901686563248 14.607014530149172 0 14.607014530149172 76.47480162759166 0 0 0 0 4.6211147278233895 51.061511011954281 0 51.061511011954281 162.87374418912805 0 0 0 0 58.494827861418834 50.180102027981775 0 50.180102027981775 57.174254724406637 0 0 0 0 84.364466530910335 108.65631762915291 0 108.65631762915291 140.47747313723085 0 0 0 0 10.456971766321921 107.08994666872968 0 107.08994666872968 236.35828083820525 0 0 0 0 16.915890378856957 96.545343041609158 0 96.545343041609158 155.19833054952323 0 0 0 0 -39.536210135442076 -2.2168182703171624 0 -2.2168182703171624 309.10393328106147 0 0 0 0 -0.081799876701060675 13.779961352098326 0 13.779961352098326 195.79715978277818 0 0 0 0 -11.919806728361326 -51.997485066371155 0 -51.997485066371155 151.06610870263103 0 0 0 0 -25.984181125579848 -15.882496904436266 0 -15.882496904436266 162.18687398947077 0 0 0 0 -70.119113789294147 -56.66827068515704 0 -56.66827068515704 626.95521740164259 0 0 0 0 -56.063126340743814 -38.940776009665569 0 -38.940776009665569 243.66264569805935 0 0 0 0 -6.293257156867428 -59.179732690747187 0 -59.179732690747187 51.658086528041167 0 0 0 0 -15.309004208523778 -102.53097659171181 0 -102.53097659171181 252.55052329078899 0 0 0 0 47.025901377185839 -189.04384655834292 0 -189.04384655834292 45.584093523037154 0 0 0 0 67.736412730281074 -121.36038732450106 0 -121.36038732450106 -130.52659902046435 0 0 0 0 -0.35352889712451452 5.0976091875153458 0 5.0976091875153458 16.004875353552052 0 0 0 0 -10.575154302183728 32.988026335260656 0 32.988026335260656 -6.8695274522615364 0 0 0 0 60.967854077704203 0.66439037607051432 0 0.66439037607051432 -113.17887664894806 0 0 0 0 -83.416852044719604 40.527298545086524 0 40.527298545086524 25.046199709893699 0 0 0 0 -72.819915874000884 140.57342568523018 0 140.57342568523018 -366.42246962282479 0 0 0 0 92.992242694691271 -65.571084985596826 0 -65.571084985596826 -121.33849564945558 0 0 0 0 35.04885563009492 -46.051703880133573 0 -46.051703880133573 1.7093335153767839 0 0 0 0 41.161349707348933 -48.487508595349937 0 -48.487508595349937 42.199270582350437 0 0 0 0 34.548980337830045 -19.899310452339705 0 -19.899310452339705 -55.623913239105605 0 0 0 0 13.47490561203662 11.213995727230213 0 11.213995727230213 2.1872443159663817 0 0 0 0 0.038196304109336013 -7.0472199157156865 0 -7.0472199157156865 58.834356529725483 0 0 0 0 19.154438422479444 -14.044651573451119 0 -14.044651573451119 12.200605558202369 0 0 0 0 -0.32065635052116281 0.16939159098546952 0 0.16939159098546952 17.690351566190657 0 0 0 0 2.2936100575919194 2.9918340179501683 0 2.9918340179501683 3.4478691309632268 0 0 0 0 -3.0042790839841347 5.2630561828991631 0 5.2630561828991631 8.8792670881084632 0 0 0 0 0.0011090837896623031 2.9312638937044539 0 2.9312638937044539 8.202257056167582 0 0 0 0 -1.9766368988099441 0.86753415619023144 0 0.86753415619023144 6.1925051590660587 0 0 0 0 175.04655880649761 -167.48833069996908 0 -167.48833069996908 136.92432553011895 0 0 0 0 -0.24790596612915547 1.5782626940925155 0 1.5782626940925155 10.734741482476352 0 0 0 0 -12.175593235519496 4.086974583020492 0 4.086974583020492 17.141670547483955 0 0 0 0 3.6186287006967177 -78.817433251249895 0 -78.817433251249895 102.60506420195452 0 0 0 0 57.740163776149529 -82.136033109771233 0 -82.136033109771233 95.603904692310607 0 0 0 0 3.7733709600222483 -58.364052017655922 0 -58.364052017655922 111.44500091035297 0 0 0 0 -34.057720294592855 -60.604018435515172 0 -60.604018435515172 116.52050951286219 0 0 0 0 0.72225656149547468 -12.86516170954863 0 -12.86516170954863 140.74189541675116 0 0 0 0 -139.23523614783014 -78.007252123863509 0 -78.007252123863509 165.02889745241555 0 0 0 0 -14.074926542496428 -69.195516263629543 0 -69.195516263629543 131.4832027100565 0 0 0 0 -182.4481305780462 -36.043022533062867 0 -36.043022533062867 228.83045004126325 0 0 0 0 238.46970334154929 -216.14147102012066 0 -216.14147102012066 242.89016185189757 0 0 0 0 -115.24527945812997 95.448084560528514 0 95.448084560528514 393.68553190317471 0 0 0 0 -0.086449426574909935 -0.065918519716575474 0 -0.065918519716575474 4.0367505003533211 0 0 0 0 370.71010121460984 -466.30553019476793 0 -466.30553019476793 490.27095705953252 0 0 0 0 -0.0038605817433712422 1.3498909136605772 0 1.3498909136605772 5.7762152003415395 0 0 0 0 -25.978081901594667 -98.635989200512086 0 -98.635989200512086 198.75418358849129 0 0 0 0 -52.013004974310604 32.105734729797405 0 32.105734729797405 46.935257715449552 0 0 0 0 38.144901790782797 79.914490414375905 0 79.914490414375905 79.272377515168046 0 0 0 0 -1.4158442826151489 2.4987283512895004 0 2.4987283512895004 12.609347318697758 0 0 0 0 -29.756552661478281 82.267228736236575 0 82.267228736236575 92.468476624795585 0 0 0 0 -0.0083204381810779438 -1.3084330438214238 0 -1.3084330438214238 1.5793201037158724 0 0 0 0 103.62054438372259 29.942791242086969 0 29.942791242086969 -21.547936888491677 0 0 0 0 0.036003159215469017 -0.1335833869900398 0 -0.1335833869900398 1.1871957883601567 0 0 0 0 -0.36927341309645878 -0.74127260234841685 0 -0.74127260234841685 5.9494119668579515 0 0 0 0 -133.88825741277887 35.26890847991308 0 35.26890847991308 147.46469826649991 0 0 0 0 -36.473536650648043 128.5430944738473 0 128.5430944738473 162.20003191442811 0 0 0 0 219.03314211643064 143.6542483430967 0 143.6542483430967 44.397793242067564 0 0 0 0 1.6401263897827221 64.869221570450463 0 64.869221570450463 -1.720298516418552 0 0 0 0 -14.714784405807563 -8.7511024121777155 0 -8.7511024121777155 70.477812007258763 0 0 0 0 -151.15707409887818 72.059421106685477 0 72.059421106685477 138.85933719905734 0 0 0 0 0.81971254062641297 0.20316120200357091 0 0.20316120200357091 73.382053305197815 0 0 0 0 4.8962849521482212 -19.590754743541765 0 -19.590754743541765 71.601225810736651 0 0 0 0 2.1585225715078034 4.6466087033055885 0 4.6466087033055885 26.452291814367527 0 0 0 0 8.0328900328850068 4.7722219683491858 0 4.7722219683491858 30.65810160789988 0 0 0 0 27.854102527932127 -27.480356550440774 0 -27.480356550440774 79.139599537127651 0 0 0 0 36.319620531286091 -11.571629249898251 0 -11.571629249898251 66.986247118416941 0 0 0 0 14.301468575993681 -9.2230203818035079 0 -9.2230203818035079 61.617886549202922 0 0 0 0 6.4932984287520412 -9.9993614627601346 0 -9.9993614627601346 61.568043997097448 0 0 0 0 -5.5704741465577854 -12.886092603337602 0 -12.886092603337602 89.593342153292269 0 0 0 0 2.5294157260719365 13.379933726870604 0 13.379933726870604 21.888799850577612 0 0 0 0 26.96433337548649 -10.288775713874202 0 -10.288775713874202 134.06280958245043 0 0 0 0 14.915011808884856 14.196115925500635 0 14.196115925500635 88.623998390805809 0 0 0 0 11.953253672696064 46.222555072788964 0 46.222555072788964 83.819785408788448 0 0 0 0 -136.92862560519416 -11.509973337917472 0 -11.509973337917472 94.893783655948937 0 0 0 0 -9.7201813419395648 39.169103538875788 0 39.169103538875788 79.529165103042033 0 0 0 0 5.8849180279780882 13.600315447654111 0 13.600315447654111 55.563382082793396 0 0 0 0 -25.583331242548411 -4.6548990185256116 0 -4.6548990185256116 45.750003642810043 0 0 0 0 -6.8695447524531534 9.2858652087313942 0 9.2858652087313942 11.312996400882298 0 0 0 0 -13.711766174588449 24.375852812101868 0 24.375852812101868 104.39718951789268 0 0 0 0 -0.476707109568411 15.190304473283206 0 15.190304473283206 75.545765650045041 0 0 0 0 -23.37651210911099 37.308249082649127 0 37.308249082649127 87.367462311005511 0 0 0 0 -1.2942725041585299 -5.4547607136677811 0 -5.4547607136677811 11.490160724023781 0 0 0 0 -42.735959990775882 55.695807552314363 0 55.695807552314363 89.834507309598848 0 0 0 0 20.013344403379051 -42.700700892426539 0 -42.700700892426539 76.95802750979783 0 0 0 0 11.752129147835035 62.140955051741912 0 62.140955051741912 35.577635290450417 0 0 0 0 -6.0440951190039414 -31.385320074252377 0 -31.385320074252377 88.557319545507198 0 0 0 0 2.4862705282104227 11.031129462150176 0 11.031129462150176 50.60926315331875 0 0 0 0 -16.438690132445203 -15.347812433472427 0 -15.347812433472427 63.813683870845125 0 0 0 0 2.2564254656379341 -2.5404670192463854 0 -2.5404670192463854 37.897148043394907 0 0 0 0 18.535795033518397 13.65752091691229 0 13.65752091691229 70.539610161438759 0 0 0 0 -2.1403049610183107 0.0097670346148248655 0 0.0097670346148248655 56.235018970842418 0 0 0 0 20.903411991672101 31.633190998138161 0 31.633190998138161 84.283598864298256 0 0 0 0 -74.822764089696477 -50.114004226583347 0 -50.114004226583347 130.70388982918666 0 0 0 0 -0.37193486329426156 -1.7606112974754637 0 -1.7606112974754637 46.220998293896002 0 0 0 0 -33.82819034747439 -32.011869133062646 0 -32.011869133062646 87.504616796359187 0 0 0 0 14.090055643706307 11.734965829477005 0 11.734965829477005 31.62547983242257 0 0 0 0 1.7769724524416106 -11.001669154476886 0 -11.001669154476886 47.962300445594792 0 0 0 0 1.008226308905106 -6.2841901207066257 0 -6.2841901207066257 2.1725343939324375 0 0 0 0 -15.429429261108677 -77.327214392918904 0 -77.327214392918904 1.3661427133774851 0 0 0 0 -5.7240456411696528 -4.1113625804064213 0 -4.1113625804064213 2.7583181268419139 0 0 0 0 1.4432458697385109 -2.2369425909036948 0 -2.2369425909036948 3.4055879491938867 0 0 0 0 15.327196320842177 20.087912121474801 0 20.087912121474801 20.641436522535514 0 0 0 0 0.44268446002961381 -5.7161687628811535 0 -5.7161687628811535 16.728316437649767 0 0 0 0 -0.40795095204226745 -0.80911326255406379 0 -0.80911326255406379 3.7690438775595112 0 0 0 0 0.012677974571153492 -3.9716515550098848 0 -3.9716515550098848 3.5455970367474947 0 0 0 0 -2.1982003962819388 -1.6970114357391139 0 -1.6970114357391139 5.5039626305806451 0 0 0 0 -2.1891230791448391 -1.831129945392604 0 -1.831129945392604 2.2908710804331349 0 0 0 0 -3.2871677071104033 -2.7185641375399427 0 -2.7185641375399427 5.9484648827346973 0 0 0 0 12.492091750016215 -10.527698654987034 0 -10.527698654987034 3.5701172320987098 0 0 0 0 -2.4842202902133539 -7.5223286589698546 0 -7.5223286589698546 1.6057740343967453 0 0 0 0 0.57129597497826012 -1.1099480314198047 0 -1.1099480314198047 1.7135815154122724 0 0 0 0 -9.2748484310216135 9.1284818113344954 0 9.1284818113344954 41.345028275158256 0 0 0 0 -2.497402243119172 4.497755057134782 0 4.497755057134782 43.804777761673904 0 0 0 0 -0.038570469278495695 -13.511135399909108 0 -13.511135399909108 91.555852030942333 0 0 0 0 -7.0636631090961473 3.0685750132724934 0 3.0685750132724934 124.22473108652048 0 0 0 0 144.17240688057532 71.911519141867757 0 71.911519141867757 -113.42188056567102 0 0 0 0 11.080546428257499 44.829289188928669 0 44.829289188928669 142.2468244455813 0 0 0 0 0.51120061289859509 -0.6914269258819985 0 -0.6914269258819985 1.1269226744056482 0 0 0 0 18.395999422323825 29.868776644376339 0 29.868776644376339 27.881820959286415 0 0 0 0 -6.5676979753741165 -42.153733954910422 0 -42.153733954910422 202.39870811309083 0 0 0 0 -7.9835309534686445 -20.119090040650917 0 -20.119090040650917 113.58051336096833 0 0 0 0 15.606766603598139 -21.869808969386213 0 -21.869808969386213 62.47190334383049 0 0 0 0 64.646940909140767 -82.809550627789577 0 -82.809550627789577 114.16126046287536 0 0 0 0 -10.993476851035009 -14.973641608463367 0 -14.973641608463367 106.42224736849312 0 0 0 0 22.652060875009621 -39.138219822372776 0 -39.138219822372776 96.43445885318215 0 0 0 0 0.03390815362718165 -4.4555394022609107 0 -4.4555394022609107 75.556367422599578 0 0 0 0 12.798284831318092 -13.965704963971802 0 -13.965704963971802 72.121323073035455 0 0 0 0 22.761213660708862 -10.347514775174204 0 -10.347514775174204 54.389383225061465 0 0 0 0 26.299247704213897 1.5704881426008797 0 1.5704881426008797 56.608091040630825 0 0 0 0 12.387155880293374 6.8803690991990152 0 6.8803690991990152 57.326734195376048 0 0 0 0 26.90236270404354 10.439161454959503 0 10.439161454959503 76.598328668274917 0 0 0 0 17.760028231394699 50.918813996788231 0 50.918813996788231 77.463966094801435 0 0 0 0 2.9188380845958983 -9.984284201811036 0 -9.984284201811036 26.833123084971817 0 0 0 0 -1.2428024450497341 0.75516853564214159 0 0.75516853564214159 57.121494733681175 0 0 0 0 -63.116444337410087 -31.615730811568937 0 -31.615730811568937 81.323191499162931 0 0 0 0 1.728881651300457 -17.040208027723381 0 -17.040208027723381 55.684165973617212 0 0 0 0 -33.740044142933229 0.16186048179224599 0 0.16186048179224599 61.427476942830253 0 0 0 0 -21.283946363869749 -0.11262746766442433 0 -0.11262746766442433 56.798350807112001 0 0 0 0 -13.530684361736952 -14.449575128252036 0 -14.449575128252036 57.424297798417683 0 0 0 0 -81.973966304276246 9.0100519382685889 0 9.0100519382685889 64.120957336635911 0 0 0 0 -17.538023446174417 -5.7234963225382671 0 -5.7234963225382671 53.789372574683512 0 0 0 0 -7.0954502087421698 9.0027780820673797 0 9.0027780820673797 46.629525090073003 0 0 0 0 41.071699277437361 -13.729509562486783 0 -13.729509562486783 44.961503532354982 0 0 0 0 -28.145173956989993 -32.653724845473334 0 -32.653724845473334 72.234121671179309 0 0 0 0 -0.076259157221412466 -13.171137572936168 0 -13.171137572936168 53.515138265236203 0 0 0 0 -50.884383506073732 3.5391683788184309 0 3.5391683788184309 41.767773818079149 0 0 0 0 -2.9902201222671363 0.75869555661419952 0 0.75869555661419952 56.080204480134967 0 0 0 0 -3.2187782065037069 -7.5282368929920551 0 -7.5282368929920551 37.733141262122615 0 0 0 0 -11.046227802448811 -19.765481813206861 0 -19.765481813206861 55.199859649292193 0 0 0 0 -65.846014235114524 -29.79053649267189 0 -29.79053649267189 126.3888368231128 0 0 0 0 -14.143259133152696 -9.9607666389783844 0 -9.9607666389783844 57.818888251043973 0 0 0 0 28.116546197697289 -62.542467879498872 0 -62.542467879498872 92.487928111484507 0 0 0 0 1.0186872486234746 -12.061213455585275 0 -12.061213455585275 50.505799106061431 0 0 0 0 50.178024980360462 -11.965380945621291 0 -11.965380945621291 35.360343325446593 0 0 0 0 -23.548816713736329 28.512050611556333 0 28.512050611556333 35.032466782082338 0 0 0 0 0.4362308615886259 -6.3605001314274006 0 -6.3605001314274006 50.181513508542764 0 0 0 0 -124.17402997508995 -75.607548930871417 0 -75.607548930871417 261.75964510552876 0 0 0 0 -17.997063181365718 8.8167631295164028 0 8.8167631295164028 34.690795913164038 0 0 0 0 23.302032668874226 35.46250110412619 0 35.46250110412619 88.410887102043489 0 0 0 0 23.295763773989961 -5.9418775099038612 0 -5.9418775099038612 -9.4526344080222771 0 0 0 0 -3.8794210269438567 -5.8628083538929303 0 -5.8628083538929303 58.788501549077409 0 0 0 0 -61.944489791867909 99.283548495921423 0 99.283548495921423 133.60098173115693 0 0 0 0 0.69354509995892277 9.0647812598914044 0 9.0647812598914044 67.878082010528658 0 0 0 0 -202.17551308898209 9.8838949083083207 0 9.8838949083083207 77.205792282213224 0 0 0 0 -62.161506987792563 -89.404588353681902 0 -89.404588353681902 143.31127543885668 0 0 0 0 -204.77672390350381 -92.465911649582267 0 -92.465911649582267 200.76958136725079 0 0 0 0 -205.11777249826741 -9.895178576138278 0 -9.895178576138278 171.28343895862054 0 0 0 0 -29.426107944399831 -9.5275399702113646 0 -9.5275399702113646 53.247437457117485 0 0 0 0 -198.40962903137802 -75.489755535651057 0 -75.489755535651057 126.19843078236954 0 0 0 0 -4.1911302862407691 -6.7786699348636787 0 -6.7786699348636787 68.954907461971686 0 0 0 0 -8.8269273177953291 -5.8133371170403194 0 -5.8133371170403194 56.394306263681415 0 0 0 0 -10.306581520017858 -21.389472085313173 0 -21.389472085313173 58.743314892883063 0 0 0 0 -8.0256410581050659 -22.403785558533855 0 -22.403785558533855 52.159632694274478 0 0 0 0 -7.3342170028004148 -23.975560687540565 0 -23.975560687540565 55.726161664642859 0 0 0 0 25.141037332674614 -89.794571064390766 0 -89.794571064390766 12.701876432125573 0 0 0 0 -138.24137699447169 -145.18724246732381 0 -145.18724246732381 62.733649568690453 0 0 0 0 2.4887894462323121 -21.393971451921921 0 -21.393971451921921 72.602031831947016 0 0 0 0 9.5088467454363581 -45.933413540857146 0 -45.933413540857146 54.100597218013718 0 0 0 0 -18.800359766847805 -38.504036388865643 0 -38.504036388865643 52.157067818989162 0 0 0 0 11.736071931004062 -21.633827090645354 0 -21.633827090645354 49.330973673640983 0 0 0 0 4.7949773620257474 -34.018586435784528 0 -34.018586435784528 27.658856423571706 0 0 0 0 -17.36597280708056 -33.897567686101922 0 -33.897567686101922 16.632350254934863 0 0 0 0 0.32924282272508293 -2.8088935373637298 0 -2.8088935373637298 23.753754820003223 0 0 0 0 -38.48892323643895 -35.4754578220236 0 -35.4754578220236 25.174243917565036 0 0 0 0 85.481723264647854 -58.231120228071632 0 -58.231120228071632 2.2005494190088939 0 0 0 0 19.870299810559573 -65.042359037212009 0 -65.042359037212009 47.031441838902538 0 0 0 0 14.21153384326999 -48.681656173430383 0 -48.681656173430383 5.731165697956385 0 0 0 0 225.85815437328802 -54.75563027284079 0 -54.75563027284079 -2.6290441257260682 0 0 0 0 -72.844454840086897 -9.0797393214160138 0 -9.0797393214160138 38.348016331670806 0 0 0 0 0.13049017030787893 -1.1120723149391236 0 -1.1120723149391236 14.836877447349138 0 0 0 0 -41.771670704397593 -31.493304016250477 0 -31.493304016250477 47.675629614810532 0 0 0 0 77.771647014042287 78.157945542465313 0 78.157945542465313 8.9866602123729535 0 0 0 0 0.27833909392582329 -0.4957868880418137 0 -0.4957868880418137 5.2637147565911562 0 0 0 0 -7.1176688675163859 154.32032162371252 0 154.32032162371252 247.38110440871242 0 0 0 0 468.0708013102128 -201.98750757750531 0 -201.98750757750531 97.574661756525529 0 0 0 0 29.949259849489977 -108.30647648045669 0 -108.30647648045669 79.230010218612733 0 0 0 0 -74.696440073806087 -175.21914200795936 0 -175.21914200795936 501.46882128905418 0 0 0 0 -38.496943073874945 -22.829871428948536 0 -22.829871428948536 598.42849971487158 0 0 0 0 249.69777223940889 -230.33055126941872 0 -230.33055126941872 315.07595258281799 0 0 0 0 398.97308442077872 13.515207183203529 0 13.515207183203529 68.150688646826893 0 0 0 0 74.867519700287517 79.587677623088894 0 79.587677623088894 80.578521772753447 0 0 0 0 164.24116701382843 -40.685364087687049 0 -40.685364087687049 58.114576553314691 0 0 0 0 86.434384362572473 37.92360191696207 0 37.92360191696207 6.8941697045338515 0 0 0 0 64.522154311735449 36.71476295751927 0 36.71476295751927 -38.754131297584536 0 0 0 0 -75.192659918073332 107.62732733201119 0 107.62732733201119 21.561222983928019 0 0 0 0 40.081447625902001 224.13697293904988 0 224.13697293904988 345.09896642696367 0 0 0 0 -146.75315973329407 195.32267491756647 0 195.32267491756647 61.585228376439773 0 0 0 0 -517.21691130549698 48.1278172785278 0 48.1278172785278 270.36087384987695 0 0 0 0 0.44174401886848402 9.1881039019634478 0 9.1881039019634478 2.2633220161453664 0 0 0 0 -105.7610094198086 12.687626558557895 0 12.687626558557895 53.938633337944339 0 0 0 0 -3.4535792353018451 8.7168107403740578 0 8.7168107403740578 70.078779531839245 0 0 0 0 -13.345464601070944 18.052560432290193 0 18.052560432290193 79.680244866889552 0 0 0 0 1.2911407254435177 4.3201112969141917 0 4.3201112969141917 56.849670752546047 0 0 0 0 168.1214053250111 -429.96675642952323 0 -429.96675642952323 2050.9616694329306 0 0 0 0 0.64625605022526145 3.4420372498089975 0 3.4420372498089975 23.373564864869223 0 0 0 0 3.0278113738152825 278.34992027905173 0 278.34992027905173 -0.72040131480025593 0 0 0 0 -357.40648487421277 118.19980812784343 0 118.19980812784343 59.335295934230089 0 0 0 0 -54.969017775369593 121.74401548429159 0 121.74401548429159 -84.820094213857374 0 0 0 0 -207.38366273734653 -48.744191520436289 0 -48.744191520436289 206.12149546465662 0 0 0 0 0.97157543701037996 4.6115772149609668 0 4.6115772149609668 14.489328031259248 0 0 0 0 -187.41147745031162 178.50667857990265 0 178.50667857990265 -17.002242668284453 0 0 0 0 -94.150164831959003 -298.3780827050341 0 -298.3780827050341 336.04356825249852 0 0 0 0 -1.2905831988355312 0.73792776890051215 0 0.73792776890051215 62.173732253569426 0 0 0 0 7.5245768275627825 -0.84851298847934231 0 -0.84851298847934231 58.61280364630511 0 0 0 0 -10.279525235357369 -20.603251067776 0 -20.603251067776 78.172748602864885 0 0 0 0 299.90227048071597 674.01572225958807 0 674.01572225958807 -3085.3570292053046 0 0 0 0 257.37668802961895 -197.71582495465555 0 -197.71582495465555 73.823740811523749 0 0 0 0 -0.18594136240159626 -1.2704307759218167 0 -1.2704307759218167 6.1166513188167926 0 0 0 0 26.930464395403874 -38.705598684871802 0 -38.705598684871802 213.3642464588338 0 0 0 0 29.853437023892013 34.288341211031366 0 34.288341211031366 -33.274306302599143 0 0 0 0 -24.718188857007252 30.347295767976902 0 30.347295767976902 37.568714788969373 0 0 0 0 -1.1191659006597432 10.816172677766065 0 10.816172677766065 16.208915807688527 0 0 0 0 -2.3126503009084729 12.639295769235773 0 12.639295769235773 57.465735667765927 0 0 0 0 2.1086820845207352 14.51232422790072 0 14.51232422790072 34.575606390509449 0 0 0 0 -5.5435854810302772 15.73188165135798 0 15.73188165135798 44.53011835894722 0 0 0 0 -1.5498814273985451 33.246344332569834 0 33.246344332569834 32.447424795097618 0 0 0 0 287.37818981382304 -416.98583671717824 0 -416.98583671717824 203.70280092195026 0 0 0 0 -2.2333516178121045 -65.547591065966117 0 -65.547591065966117 97.163549941120436 0 0 0 0 0.79482853339914072 -38.501148800562078 0 -38.501148800562078 0.46108913522039074 0 0 0 0 -146.58794227556928 -47.696404445523513 0 -47.696404445523513 128.38002620841144 0 0 0 0 -46.242312565464943 -108.84866265692835 0 -108.84866265692835 103.23271215279237 0 0 0 0 97.719120239717085 -55.167348892806331 0 -55.167348892806331 40.778766126342816 0 0 0 0 241.18825637276586 164.26422357039701 0 164.26422357039701 -63.407641341284034 0 0 0 0 0.2350779408521948 0.88792074136101462 0 0.88792074136101462 5.4336105143823374 0 0 0 0 -22.001195665567025 261.67745905847187 0 261.67745905847187 34.156541805990855 0 0 0 0 70.410924013203839 115.24823231402843 0 115.24823231402843 -47.129940238730342 0 0 0 0 -94.744525893925584 148.41737521363393 0 148.41737521363393 20.168598424292213 0 0 0 0 3.0072761143715128 12.235381571055342 0 12.235381571055342 -13.704804788710504 0 0 0 0 -18.179952543296395 51.763755619933363 0 51.763755619933363 60.17002408792905 0 0 0 0 44.89570917335891 82.035002820506634 0 82.035002820506634 41.80068192667386 0 0 0 0 37.961084913175 72.352417659676576 0 72.352417659676576 28.435203210116015 0 0 0 0 25.044543487987539 141.52324519757531 0 141.52324519757531 -47.945965376216918 0 0 0 0 -90.494776719978063 79.529466859330569 0 79.529466859330569 -29.895765292691067 0 0 0 0 49.364925879676036 25.592004622014429 0 25.592004622014429 48.485165176942246 0 0 0 0 28.238628048681903 78.980529536609538 0 78.980529536609538 64.09326056183636 0 0 0 0 3.8701443208670243 0.30747747330259756 0 0.30747747330259756 -4.7016116600585178 0 0 0 0 20.263949348614915 11.408610977487115 0 11.408610977487115 220.0581891098409 0 0 0 0 16.164578992976885 33.213566042737511 0 33.213566042737511 126.43247183097992 0 0 0 0 46.620773175027352 8.7064284115112969 0 8.7064284115112969 93.566446661992813 0 0 0 0 64.108955531571382 22.670420893155097 0 22.670420893155097 52.890026290304377 0 0 0 0 33.829531904105806 30.673480566532817 0 30.673480566532817 90.825421145217035 0 0 0 0 23.281576767201614 60.311039321735734 0 60.311039321735734 44.429896621299122 0 0 0 0 42.339398317704649 29.036800689558277 0 29.036800689558277 63.253145142429275 0 0 0 0 4.9173022525919023 12.226963158954774 0 12.226963158954774 -8.1230751438642415 0 0 0 0 6.7048167775503771 23.213111972960178 0 23.213111972960178 40.478707158483303 0 0 0 0 6.6189348276082001 24.933673495543189 0 24.933673495543189 26.944885150362097 0 0 0 0 6.0930923898458786 15.084640596649066 0 15.084640596649066 18.916967801187468 0 0 0 0 8.1437813783388719 12.728136686811922 0 12.728136686811922 17.361690380454093 0 0 0 0 80.585653102763985 -42.123319853702924 0 -42.123319853702924 44.016419864419731 0 0 0 0 13.808010139566704 26.107759727769007 0 26.107759727769007 282.6243679595791 0 0 0 0 1.2516498125291373 0.14212653770204042 0 0.14212653770204042 3.9940651158605789 0 0 0 0 33.358174496627953 20.996002186104306 0 20.996002186104306 27.691426648088964 0 0 0 0 17.618405629744473 41.940405006720539 0 41.940405006720539 167.71574592011166 0 0 0 0 22.492404793810636 -34.056397530799586 0 -34.056397530799586 202.29738211209769 0 0 0 0 25.598936750598703 -45.432408783497522 0 -45.432408783497522 263.59237705204941 0 0 0 0 26.969254562757158 -26.524613920406409 0 -26.524613920406409 210.4157521979505 0 0 0 0 116.51239603721905 -16.989134181561894 0 -16.989134181561894 167.76813988445065 0 0 0 0 31.516640483385601 21.587965098700806 0 21.587965098700806 165.64680279582535 0 0 0 0 25.560760378117493 9.1536089242144953 0 9.1536089242144953 165.04886659325712 0 0 0 0 61.787599711635693 -20.636341724830345 0 -20.636341724830345 179.42593712695816 0 0 0 0 22.403401586237521 -35.17683217607555 0 -35.17683217607555 208.7914339306426 0 0 0 0 6.9176066648371943 -10.848994924970611 0 -10.848994924970611 215.75386815687125 0 0 0 0 14.462502860424488 -43.733421423184382 0 -43.733421423184382 205.51253347929742 0 0 0 0 19.406758840454472 -32.877175736684876 0 -32.877175736684876 212.56458617575117 0 0 0 0 14.529394908051245 -38.974351733806543 0 -38.974351733806543 205.05079993279651 0 0 0 0 22.741368480917515 -32.040830431480572 0 -32.040830431480572 173.18761023091793 0 0 0 0 17.905015028930393 -28.443730348401004 0 -28.443730348401004 207.19564377877941 0 0 0 0 27.43244884939304 -45.33618839407427 0 -45.33618839407427 205.14126814325573 0 0 0 0 28.374609565776382 -19.25321533947681 0 -19.25321533947681 180.01924867536582 0 0 0 0 23.407728660293401 -6.9209528445808246 0 -6.9209528445808246 155.86307197248971 0 0 0 0 66.68011276412858 -55.925223760001245 0 -55.925223760001245 164.73793186047988 0 0 0 0 103.70037474082619 -8.2340694956146763 0 -8.2340694956146763 44.676439830484014 0 0 0 0 62.702129455193017 -16.653379122613842 0 -16.653379122613842 123.74752930105024 0 0 0 0 61.56397661723895 -9.5124058536821394 0 -9.5124058536821394 90.784733626964169 0 0 0 0 65.733341766569083 -50.684963156782032 0 -50.684963156782032 147.86820062645347 0 0 0 0 66.526363340500211 -30.605195523465227 0 -30.605195523465227 119.38092338386923 0 0 0 0 96.069271900319563 -76.143988258463651 0 -76.143988258463651 160.98672633003298 0 0 0 0 32.807392276170503 -92.266894925523957 0 -92.266894925523957 266.61912356137691 0 0 0 0 -18.337893732127895 5.9237990922702011 0 5.9237990922702011 299.20346990946382 0 0 0 0 3.7551945351220297 19.341996042181563 0 19.341996042181563 228.82417376496596 0 0 0 0 7.5576005181557662 -9.3850481876725098 0 -9.3850481876725098 211.34150993568619 0 0 0 0 -11.874443344533404 32.722009131783125 0 32.722009131783125 220.98044016157655 0 0 0 0 20.030815974248753 34.606860142856021 0 34.606860142856021 97.961087067953486 0 0 0 0 18.180069877642609 25.975632742229209 0 25.975632742229209 146.40143323857319 0 0 0 0 7.2889930848788254 42.678694794998592 0 42.678694794998592 143.9582092094206 0 0 0 0 -8.8249242671054162 41.300526431150502 0 41.300526431150502 249.96107914163804 0 0 0 0 -3.243836402486977 65.805724500176439 0 65.805724500176439 152.82513248132454 0 0 0 0 25.010893801185091 24.080488242821957 0 24.080488242821957 27.519743018063309 0 0 0 0 -1.5622683978856458 30.553294517798349 0 30.553294517798349 102.09525560957991 0 0 0 0 18.984259763859967 -13.982731219166453 0 -13.982731219166453 65.86859221879422 0 0 0 0 27.569206486612387 34.511174148456121 0 34.511174148456121 28.459346668787475 0 0 0 0 20.11746253254762 -8.1411148362258245 0 -8.1411148362258245 -23.936750626322464 0 0 0 0 -79.587303440693404 19.244548445036344 0 19.244548445036344 45.65774209679148 0 0 0 0 28.224721059411422 13.811611909870408 0 13.811611909870408 80.002454917901559 0 0 0 0 26.05926540786578 22.190789654789114 0 22.190789654789114 92.733270835589792 0 0 0 0 28.816039111295396 27.800040341435306 0 27.800040341435306 99.396252982165606 0 0 0 0 20.210089538343652 22.396556809926551 0 22.396556809926551 114.54842282775644 0 0 0 0 26.429109120210484 34.422415497839211 0 34.422415497839211 118.65418036714254 0 0 0 0 20.929991038472792 43.929352071121684 0 43.929352071121684 100.47314713281958 0 0 0 0 21.454025021551274 27.462058956145484 0 27.462058956145484 138.44663813134684 0 0 0 0 12.666058322633319 36.349016965525152 0 36.349016965525152 149.35315229340631 0 0 0 0 23.08249719831224 11.295586633154016 0 11.295586633154016 167.6749489420763 0 0 0 0 26.18174532513946 32.197542292423805 0 32.197542292423805 144.37943351385911 0 0 0 0 -5.6905586371751724 16.134245327972167 0 16.134245327972167 145.90064296212222 0 0 0 0 -7.4869205926415816 20.689218969371723 0 20.689218969371723 137.79161898160237 0 0 0 0 5.8354974691917505 17.079133671693853 0 17.079133671693853 124.91488582084276 0 0 0 0 13.726170879228903 24.118753274673509 0 24.118753274673509 130.55855234631963 0 0 0 0 13.693608769784646 24.856174227541487 0 24.856174227541487 140.14200903958408 0 0 0 0 21.597654525826215 21.115885328494187 0 21.115885328494187 108.28539395582629 0 0 0 0 22.792351919587418 16.827948564979124 0 16.827948564979124 123.13678230917867 0 0 0 0 24.332895984762217 10.332864413063362 0 10.332864413063362 114.31028955329384 0 0 0 0 29.101073458028964 6.9162694173028285 0 6.9162694173028285 116.55485431604757 0 0 0 0 27.054848279793674 15.241481305583875 0 15.241481305583875 111.70522715101106 0 0 0 0 28.810434767660354 9.5878438973668381 0 9.5878438973668381 102.09298477480479 0 0 0 0 9.805592552248072 -10.880952308598353 0 -10.880952308598353 128.38329753430662 0 0 0 0 20.73107835955193 -1.0876186772256915 0 -1.0876186772256915 121.96462839100423 0 0 0 0 21.701095014751445 -4.3813701437575219 0 -4.3813701437575219 128.64656444118009 0 0 0 0 7.2645015595639961 -0.28860643853113288 0 -0.28860643853113288 127.56003749793126 0 0 0 0 -127.26741874807112 1.7202032673390022 0 1.7202032673390022 34.185315150636598 0 0 0 0 -7.9760221337164765 -15.343151159254361 0 -15.343151159254361 127.018938527499 0 0 0 0 12.588442709391643 5.4232314506480179 0 5.4232314506480179 133.58337594604382 0 0 0 0 -29.66468040136192 -1.3095849634446495 0 -1.3095849634446495 134.03921180208999 0 0 0 0 -8.6556089309520789 -14.470410789810082 0 -14.470410789810082 125.99382494220914 0 0 0 0 -156.04296018642037 -161.51302254966731 0 -161.51302254966731 -6.8135180916287936 0 0 0 0 14.375857583921743 -128.52565897340992 0 -128.52565897340992 -91.048528049646848 0 0 0 0 215.19914699586298 -15.230027835136752 0 -15.230027835136752 -50.344048859649774 0 0 0 0 -440.74355408205611 -490.88525120661052 0 -490.88525120661052 -105.96490268777416 0 0 0 0 -10.509979879219255 -12.573090844483239 0 -12.573090844483239 124.87650019925984 0 0 0 0 0.93580939360003867 14.126586141828739 0 14.126586141828739 130.7707507026862 0 0 0 0 5.2558329873280627 8.516162562660611 0 8.516162562660611 137.98278644440506 0 0 0 0 5.4787906613443056 11.860479181359551 0 11.860479181359551 164.50586525952167 0 0 0 0 -16.918060149485541 5.1060216548758035 0 5.1060216548758035 224.93897347594611 0 0 0 0 -16.702854693777908 -14.412061805429403 0 -14.412061805429403 108.79737596523046 0 0 0 0 -79.068929258626895 -19.855882092182583 0 -19.855882092182583 156.34536647259665 0 0 0 0 -62.154262258694644 -68.709792866608041 0 -68.709792866608041 130.30147992101593 0 0 0 0 25.05026815207998 -86.207081684518926 0 -86.207081684518926 152.78984560969548 0 0 0 0 22.343691247796755 -25.274101912415063 0 -25.274101912415063 56.527384769127821 0 0 0 0 -21.150986920437731 -24.230751405744741 0 -24.230751405744741 69.806436765073158 0 0 0 0 -990.90681997419188 -729.59873052336661 0 -729.59873052336661 273.94605551190034 0 0 0 0 -1188.2763621596896 -378.01927942567272 0 -378.01927942567272 4.115983591589611 0 0 0 0 -14.96880044846014 -6.9932645614830804 0 -6.9932645614830804 117.28540223615057 0 0 0 0 -0.19627850602217478 3.9351031375041927 0 3.9351031375041927 14.096131523796515 0 0 0 0 -622.57343652126292 541.55559807164536 0 541.55559807164536 463.77237776865059 0 0 0 0 -870.40172836475801 -331.02430969948045 0 -331.02430969948045 1345.8164681396847 0 0 0 0 267.86571911670751 393.7836144267435 0 393.7836144267435 842.99446356523549 0 0 0 0 692.87270082825171 -149.49257653252425 0 -149.49257653252425 -191.10357555714654 0 0 0 0 82.068286338224425 278.52112473792295 0 278.52112473792295 -75.717304034795234 0 0 0 0 -220.80676549350392 357.97759453206527 0 357.97759453206527 -0.25172261147235986 0 0 0 0 -163.00249928580206 486.43408507553522 0 486.43408507553522 181.98016762774932 0 0 0 0 13.509017343565915 209.73008265599492 0 209.73008265599492 -103.35668799973064 0 0 0 0 -20.281454782062156 112.85187630884684 0 112.85187630884684 88.35133790227701 0 0 0 0 5.7738281596837497 8.1843871609189645 0 8.1843871609189645 13.3305548946785 0 0 0 0 883.43981293633033 91.298502170987376 0 91.298502170987376 3.2751546730360133 0 0 0 0 231.69068716756874 -452.75022391941911 0 -452.75022391941911 991.16281224443446 0 0 0 0 234.7465288742651 842.53398843906689 0 842.53398843906689 532.52933557231518 0 0 0 0 -343.49087276184582 353.49425389539465 0 353.49425389539465 305.64368309506972 0 0 0 0 -245.09491432464984 519.30025178970936 0 519.30025178970936 284.1626167352515 0 0 0 0 -149.29227193808129 339.58542350876814 0 339.58542350876814 219.76592542593426 0 0 0 0 -764.88046795255013 84.046317077365529 0 84.046317077365529 305.17679243637031 0 0 0 0 -888.77821218694953 457.68173224259226 0 457.68173224259226 493.08154423203086 0 0 0 0 -538.37846602587524 311.06531682754576 0 311.06531682754576 253.35828474332811 0 0 0 0 -1531.003611410335 -600.97745758536621 0 -600.97745758536621 193.08923911721286 0 0 0 0 -346.35879736779873 400.79299465594067 0 400.79299465594067 248.06733335807803 0 0 0 0 -6.1078900811648094 0.55810385538163132 0 0.55810385538163132 40.910354636057463 0 0 0 0 -13.948265798191073 9.0236691872374024 0 9.0236691872374024 77.878391552139107 0 0 0 0 -6.6453173274662731 22.064180461447904 0 22.064180461447904 71.904607140000735 0 0 0 0 6.798509966343083 26.450652309027575 0 26.450652309027575 62.055050045211502 0 0 0 0 -6.0277290981041469 20.088394769321468 0 20.088394769321468 63.470198730289667 0 0 0 0 11.022470181512745 39.885360816137108 0 39.885360816137108 110.38646426613923 0 0 0 0 8.1486833527496856 55.760122387735464 0 55.760122387735464 99.558601152704796 0 0 0 0 13.759631240344788 31.104373724871216 0 31.104373724871216 50.529359019946384 0 0 0 0 -343.8491496508359 305.5041521592866 0 305.5041521592866 20.491885209842621 0 0 0 0 -496.27745049358236 155.86880253424897 0 155.86880253424897 -11.517379452372552 0 0 0 0 -340.69162065335331 311.44912377305445 0 311.44912377305445 -14.240572489870829 0 0 0 0 -461.93802900444098 335.51978692399643 0 335.51978692399643 256.94149627254956 0 0 0 0 3.5235345273113126 18.826578955435252 0 18.826578955435252 74.915194323504693 0 0 0 0 1.3991180856965002 32.82230488021014 0 32.82230488021014 50.420289092333405 0 0 0 0 16.502378903671342 25.966010297939647 0 25.966010297939647 49.733213563045865 0 0 0 0 -8.0929735761348063 7.3164936837874208 0 7.3164936837874208 54.48960814376386 0 0 0 0 -6.3267718815909575 17.051118078623404 0 17.051118078623404 53.596349210260087 0 0 0 0 5.306682582736812 18.469518062465795 0 18.469518062465795 74.255161021152162 0 0 0 0 9.1524831211518176 23.539270836074138 0 23.539270836074138 55.615469703650888 0 0 0 0 9.6478071079000074 13.766495349671459 0 13.766495349671459 76.136637381496257 0 0 0 0 5.434299224651113 25.7279234550806 0 25.7279234550806 85.400273164370446 0 0 0 0 -2.5077842637823302 -1.7664195543720069 0 -1.7664195543720069 19.652247580286271 0 0 0 0 -13.828904034269726 19.326807672572613 0 19.326807672572613 72.480923160430393 0 0 0 0 19.40504836515538 21.769503750816511 0 21.769503750816511 65.814538946462562 0 0 0 0 14.313737033657162 -9.3424142392796057 0 -9.3424142392796057 83.138479135290254 0 0 0 0 3.311223755577144 -8.2494749766525928 0 -8.2494749766525928 14.045957315780385 0 0 0 0 25.345139112591369 -10.805973950940825 0 -10.805973950940825 56.440057685009378 0 0 0 0 -7.4272396225087505 5.20111480003834 0 5.20111480003834 73.926259534368 0 0 0 0 23.660740323226037 10.72091801679926 0 10.72091801679926 91.059486643682249 0 0 0 0 17.685368950285749 -12.27493062947724 0 -12.27493062947724 85.079145866744511 0 0 0 0 15.366757538053168 11.821566476253736 0 11.821566476253736 16.938658721025632 0 0 0 0 -201.91549273838928 469.68530898156314 0 469.68530898156314 -363.96841771149411 0 0 0 0 -470.79714359632726 359.62922088002233 0 359.62922088002233 -307.60943920769205 0 0 0 0 -146.19085289460781 321.39969596684386 0 321.39969596684386 -343.35633310481353 0 0 0 0 20.950577287403554 23.510781853306923 0 23.510781853306923 24.070158672688791 0 0 0 0 -221.97473401586103 241.1722631741286 0 241.1722631741286 -73.785074081726634 0 0 0 0 -182.97941708141889 339.48107850770975 0 339.48107850770975 -195.39679599319061 0 0 0 0 -195.49012405087979 230.52392719241834 0 230.52392719241834 -250.48429759284772 0 0 0 0 -78.166819743424725 131.62327570383968 0 131.62327570383968 -161.68351655612787 0 0 0 0 -143.28860460037231 209.07617491864221 0 209.07617491864221 -326.42711183401116 0 0 0 0 -310.09460927996543 338.38482364437368 0 338.38482364437368 -177.43714443604313 0 0 0 0 -134.0185301743918 118.76821203321742 0 118.76821203321742 788.51599565247307 0 0 0 0 9.0785559860721463 5.363834243099646 0 5.363834243099646 1.5054699056969412 0 0 0 0 -79.923375608204879 323.02923379693311 0 323.02923379693311 -312.13922641598037 0 0 0 0 78.15901175796148 -217.91775318901 0 -217.91775318901 605.44131843720243 0 0 0 0 31.034672583747124 -55.206446219839563 0 -55.206446219839563 156.88726984949608 0 0 0 0 -32.543140600620632 188.14864586262411 0 188.14864586262411 166.95176583314606 0 0 0 0 21.682403231957778 112.13127100476413 0 112.13127100476413 253.91078022884903 0 0 0 0 102.75250455060541 179.2615722395276 0 179.2615722395276 -46.573422692876193 0 0 0 0 197.47118945678073 340.18270349410523 0 340.18270349410523 223.50806961159105 0 0 0 0 505.57466263649758 289.86650613448364 0 289.86650613448364 -19.353892058861675 0 0 0 0 -332.63614936654449 450.70468049764168 0 450.70468049764168 623.97793126516626 0 0 0 0 50.618346544954647 509.18231062862833 0 509.18231062862833 39.17058955723769 0 0 0 0 -329.77363220184378 520.80906289653649 0 520.80906289653649 574.1577608808002 0 0 0 0 -1078.4766914632694 -50.08053558114625 0 -50.08053558114625 362.23289355081215 0 0 0 0 -254.902481910559 1107.3131784990837 0 1107.3131784990837 1712.2437989058817 0 0 0 0 167.56974650878692 408.43713470890361 0 408.43713470890361 21.737568384149199 0 0 0 0 227.21193081133902 482.87557048035524 0 482.87557048035524 74.08986644478864 0 0 0 0 810.09253535349103 -7.5607032080461067 0 -7.5607032080461067 -12.623164269331028 0 0 0 0 1202.3317833102574 815.76763905527332 0 815.76763905527332 162.16483739879186 0 0 0 0 -300.77068340639943 1597.9748623055966 0 1597.9748623055966 4477.6379122586222 0 0 0 0 2099.0609672265723 975.4207585874392 0 975.4207585874392 530.32498502177623 0 0 0 0 -1260.2906911016751 -76.149451239522023 0 -76.149451239522023 944.65254948641814 0 0 0 0 13.842345133209372 31.523767263250193 0 31.523767263250193 4484.3611543388288 0 0 0 0 0.77464523131598328 7.7311008593754309 0 7.7311008593754309 28.073926247942353 0 0 0 0 -1483.7678602428789 -1473.1683349948489 0 -1473.1683349948489 -1325.7447659868631 0 0 0 0 -1296.563731945093 -513.00404650504788 0 -513.00404650504788 1764.5238102709118 0 0 0 0 -267.09069955501252 -209.7899771992943 0 -209.7899771992943 1666.2603288154351 0 0 0 0 -295.20517583946503 -111.28776925024431 0 -111.28776925024431 1575.7407571129006 0 0 0 0 5.7102456319079629 6.2376883013854751 0 6.2376883013854751 19.232421039784043 0 0 0 0 305.45592155717418 -1998.9220112322873 0 -1998.9220112322873 4491.4291683510091 0 0 0 0 102.0872429515 62.188487271449048 0 62.188487271449048 79.596777070692042 0 0 0 0 104.44246862551971 -402.58333094689442 0 -402.58333094689442 1436.0481928106237 0 0 0 0 113.57798229471791 33.079478045969154 0 33.079478045969154 140.03749014423374 0 0 0 0 8.0058122647956367 20.560867334515805 0 20.560867334515805 45.384376056281695 0 0 0 0 8.3020303299317675 18.765384141814138 0 18.765384141814138 242.71528165362542 0 0 0 0 -1.0840091852921887 26.404201714674855 0 26.404201714674855 57.590566070182831 0 0 0 0 -24.749373470792762 68.510636692873959 0 68.510636692873959 56.328851521087927 0 0 0 0 11.699963333227631 21.486747607000346 0 21.486747607000346 37.049805702003255 0 0 0 0 6.2337559176637436 12.229161927259241 0 12.229161927259241 14.703304989588638 0 0 0 0 -0.29760908553367749 2.7349348911037623 0 2.7349348911037623 16.322538279525588 0 0 0 0 15.110583368887092 52.172578882404196 0 52.172578882404196 -38.481017419652744 0 0 0 0 69.601322201695893 140.59472270818515 0 140.59472270818515 103.82292566911201 0 0 0 0 -11.667712193355328 41.938920912562025 0 41.938920912562025 111.61081689667481 0 0 0 0 0.043651184392729192 50.212575548606765 0 50.212575548606765 82.975319194971235 0 0 0 0 -5.0191838698024185 26.301645175888552 0 26.301645175888552 40.959367482544621 0 0 0 0 9.093456296830027 22.167332276734669 0 22.167332276734669 35.898145780614868 0 0 0 0 6.2285926066473598 20.174048041153842 0 20.174048041153842 44.305423090098259 0 0 0 0 -36.479185004821829 25.347491161304788 0 25.347491161304788 80.105480682774214 0 0 0 0 -11.845799113186331 22.583738777386316 0 22.583738777386316 30.523907405149657 0 0 0 0 2.9342632131429127 23.54717735821032 0 23.54717735821032 36.458615840572747 0 0 0 0 2.6511324757248076 35.445347808687075 0 35.445347808687075 71.142564670510183 0 0 0 0 -0.52793959797354795 9.1682294108463509 0 9.1682294108463509 2.6511416252735955 0 0 0 0 -10.54130919817808 8.5390009321095661 0 8.5390009321095661 36.594762909058545 0 0 0 0 -2.1830432367378876 13.154500734439353 0 13.154500734439353 49.129339116574556 0 0 0 0 -17.345867014281794 15.424893765062734 0 15.424893765062734 49.484587496750464 0 0 0 0 -0.81995294819807896 19.268340284608712 0 19.268340284608712 31.44661389545945 0 0 0 0 -16.358235111682554 21.013204062945391 0 21.013204062945391 23.366959496076632 0 0 0 0 12.861513594574351 9.1071268245696615 0 9.1071268245696615 12.788216989580508 0 0 0 0 8.1881788454768412 13.63543603317521 0 13.63543603317521 47.459973266952147 0 0 0 0 -10.820714496524687 9.0174610205166275 0 9.0174610205166275 41.0810650077091 0 0 0 0 9.242189452921366 22.084870393679012 0 22.084870393679012 70.628616889414843 0 0 0 0 -275.56523193789479 257.56262218305346 0 257.56262218305346 1653.072586447146 0 0 0 0 440.63037450444381 67.150156325849821 0 67.150156325849821 -52.068677626804856 0 0 0 0 698.92054989373923 582.9750507116114 0 582.9750507116114 442.12861947508645 0 0 0 0 3.5097020314426439 -13.721154041798556 0 -13.721154041798556 54.978731291447502 0 0 0 0 -625.11245129357121 230.11889183754101 0 230.11889183754101 49.830756320414366 0 0 0 0 -140.62500105480865 -27.911275192876928 0 -27.911275192876928 644.51340323385375 0 0 0 0 20.782186011528211 49.884115728171309 0 49.884115728171309 18.478314011357725 0 0 0 0 0.75291239664110687 0.59420704760620424 0 0.59420704760620424 -3.6195731086959313 0 0 0 0 -283.25275399501879 548.3677716760867 0 548.3677716760867 148.0336866263824 0 0 0 0 1930.9766709615524 -483.96597906202078 0 -483.96597906202078 -202.0715113027909 0 0 0 0 683.45318475692761 1999.3515980917509 0 1999.3515980917509 4408.5783303574426 0 0 0 0 5.791037681307575 -8.6207824585733945 0 -8.6207824585733945 19.617385171516844 0 0 0 0 2850.059737647789 -1498.989606639152 0 -1498.989606639152 711.88148465901031 0 0 0 0 1297.1197711249456 -1074.8357890628686 0 -1074.8357890628686 6356.9338939503359 0 0 0 0 -470.67971239918859 329.76611808951566 0 329.76611808951566 4095.4109270573244 0 0 0 0 -530.34860838797306 774.59733468048216 0 774.59733468048216 4502.2108824580264 0 0 0 0 44.052046490634623 -1291.4854840856078 0 -1291.4854840856078 2945.0967817980854 0 0 0 0 44.61288307288217 -1306.1195167463666 0 -1306.1195167463666 3124.3755158038985 0 0 0 0 3273.1394873208819 -956.50392134793947 0 -956.50392134793947 4500.8348928428968 0 0 0 0 399.54525049463791 -2558.6229634904739 0 -2558.6229634904739 5268.8178430562148 0 0 0 0 2613.3583795702561 -2615.5345835449698 0 -2615.5345835449698 1593.2291120008449 0 0 0 0 251.29281213838806 -1008.9346560452759 0 -1008.9346560452759 1883.4305425496132 0 0 0 0 3.6709125085061505 0.66590765849915101 0 0.66590765849915101 6.4853299882109994 0 0 0 0 925.59852357159753 -1067.6090785889246 0 -1067.6090785889246 1628.6224518933304 0 0 0 0 929.54008032083664 -2140.8624954428215 0 -2140.8624954428215 2986.2859373414103 0 0 0 0 970.89176856620247 -988.62697188629681 0 -988.62697188629681 928.10705713118659 0 0 0 0 1264.7379199094951 -1114.9178603686305 0 -1114.9178603686305 755.86515125466394 0 0 0 0 1381.5897731775249 -1804.2707949642281 0 -1804.2707949642281 1721.0328749658947 0 0 0 0 -323.23703453197868 331.32256090706505 0 331.32256090706505 240.16557632133481 0 0 0 0 219.16397442133803 -1210.1808931709907 0 -1210.1808931709907 2939.2226735072909 0 0 0 0 -185.01623784099172 -549.02298204896215 0 -549.02298204896215 2046.9995199529003 0 0 0 0 367.05186966966227 -1199.1724427413087 0 -1199.1724427413087 1630.9429768014525 0 0 0 0 254.98375206202559 -490.53584510534711 0 -490.53584510534711 164.95872787747066 0 0 0 0 -236.27471223875386 -273.34272771851829 0 -273.34272771851829 1019.7019286519062 0 0 0 0 50.552959467280289 141.43884429175523 0 141.43884429175523 204.78325189156021 0 0 0 0 -2.2495982734919799 22.976048791255664 0 22.976048791255664 36.84634340212574 0 0 0 0 496.37315153391791 -185.54144340184894 0 -185.54144340184894 -107.38937550813716 0 0 0 0 -11.056873106098465 21.777332849940649 0 21.777332849940649 58.398270253717783 0 0 0 0 1.5741206642047416 38.510861726019812 0 38.510861726019812 65.824771374704142 0 0 0 0 -3.7207110384729276 36.75236376975954 0 36.75236376975954 70.547222296820109 0 0 0 0 -10.846810038269837 11.522708521155408 0 11.522708521155408 10.546768501299198 0 0 0 0 0.61694711923458578 33.474827595253601 0 33.474827595253601 65.894268507887091 0 0 0 0 -173.58796114990196 164.99560872678558 0 164.99560872678558 258.01450592128094 0 0 0 0 52.851782856273985 -259.99672978409217 0 -259.99672978409217 29.189612165602739 0 0 0 0 -1.8922838102376947 3.6351840596285285 0 3.6351840596285285 24.736090532359299 0 0 0 0 -5.8749922698453219 55.208886889163068 0 55.208886889163068 68.6208182581031 0 0 0 0 -11.369513832581049 33.635426058186567 0 33.635426058186567 79.09612461085635 0 0 0 0 -0.80798015395970424 55.81661980118588 0 55.81661980118588 122.12561721751263 0 0 0 0 14.605559630523999 35.894317099591717 0 35.894317099591717 87.001916695886393 0 0 0 0 4.5106939664033234 47.272904680634383 0 47.272904680634383 81.754454142785107 0 0 0 0 0.81045685878120821 31.512357375017018 0 31.512357375017018 82.275750295113539 0 0 0 0 20.688032855840447 29.271474108143593 0 29.271474108143593 55.830346757997177 0 0 0 0 -0.26814162474875047 15.807801966489933 0 15.807801966489933 30.905746751232073 0 0 0 0 -15.041869554222103 6.6977900961937848 0 6.6977900961937848 29.61268198119069 0 0 0 0 -3.0434346848628846 23.683585002012109 0 23.683585002012109 52.180404962658642 0 0 0 0 -10.957783180775603 10.138555051146298 0 10.138555051146298 43.023667976410735 0 0 0 0 -3.6390223225070724 8.576333459669776 0 8.576333459669776 29.229861202272275 0 0 0 0 -12.724190052323138 11.38974819984287 0 11.38974819984287 49.302468180991127 0 0 0 0 -8.737308789850724 -7.541840013941048 0 -7.541840013941048 9.4520409918402208 0 0 0 0 38.618571893364788 52.431207702771644 0 52.431207702771644 59.22850407493388 0 0 0 0 -39.745722430569913 -10.650506759320706 0 -10.650506759320706 135.65944772365037 0 0 0 0 8.0086419619267417 37.896315819762094 0 37.896315819762094 126.31155964744539 0 0 0 0 33.400664201259133 24.56957804562262 0 24.56957804562262 102.16005354085792 0 0 0 0 31.210982196308123 45.923426336252305 0 45.923426336252305 57.81140149760904 0 0 0 0 6.0995486111363562 33.961931186833681 0 33.961931186833681 109.79534280796361 0 0 0 0 13.908223026427549 39.775222714415577 0 39.775222714415577 86.086015573284385 0 0 0 0 -1.2813471924785849 -0.90657855588963798 0 -0.90657855588963798 0.53036128326591836 0 0 0 0 15.707673556738854 40.571657090445569 0 40.571657090445569 113.78112009949109 0 0 0 0 12.409728049260139 37.188920172724465 0 37.188920172724465 95.744219535969023 0 0 0 0 15.136441899408226 36.788831231459881 0 36.788831231459881 94.181339155926253 0 0 0 0 0.84946876473918564 16.660012314886444 0 16.660012314886444 47.753779501450481 0 0 0 0 -0.64979807914109067 2.2487146953409081 0 2.2487146953409081 11.209548232107124 0 0 0 0 6.8846834190577866 15.154005808302458 0 15.154005808302458 25.572112352407999 0 0 0 0 3.6077779097895473 11.336862128996472 0 11.336862128996472 38.712524910690263 0 0 0 0 -0.051778611053237 13.138556049365434 0 13.138556049365434 46.053992597786419 0 0 0 0 -1.738873729571992 16.349003279297904 0 16.349003279297904 53.463482967359596 0 0 0 0 8.351117514703315 25.314839787206438 0 25.314839787206438 42.530882193503203 0 0 0 0 2.286846787381819 40.879069401651577 0 40.879069401651577 69.232423379195097 0 0 0 0 -0.9911903520966453 -0.70599753494963124 0 -0.70599753494963124 1.0188200920530619 0 0 0 0 -12.967870970845667 -1.180244403778488 0 -1.180244403778488 32.16828380379593 0 0 0 0 11.368093484142264 31.131287322987191 0 31.131287322987191 77.785087932570605 0 0 0 0 5.9522203188328149 37.007910117696156 0 37.007910117696156 71.811836038097681 0 0 0 0 -22.228287132670232 25.218782896756238 0 25.218782896756238 74.519809356890619 0 0 0 0 12.130787478876528 36.097013964244979 0 36.097013964244979 60.47079846890847 0 0 0 0 0.37473135686775372 16.738044719527934 0 16.738044719527934 -5.1854906201741784 0 0 0 0 620.93401535830981 -296.22078524468816 0 -296.22078524468816 284.45647626691061 0 0 0 0 11.874754488104593 52.432312375987465 0 52.432312375987465 92.133643222266983 0 0 0 0 110.25561872195158 294.96517535464955 0 294.96517535464955 10.270086511445697 0 0 0 0 -494.53116227431747 -95.379730222266517 0 -95.379730222266517 764.39536138528638 0 0 0 0 2.8767029258746573 23.258873146537937 0 23.258873146537937 34.644148037328961 0 0 0 0 -260.23564867980849 289.81916596608426 0 289.81916596608426 14.656446012319066 0 0 0 0 -4.8558375530303692 23.280242580804043 0 23.280242580804043 34.529934380083432 0 0 0 0 -5.6357505236325096 30.383467019724776 0 30.383467019724776 35.826422244354035 0 0 0 0 -15.539424977782801 9.3656110557494685 0 9.3656110557494685 29.500724359473679 0 0 0 0 0.35041633607560496 6.2440996046717459 0 6.2440996046717459 39.866173648090495 0 0 0 0 -8.2091415253442506 2.9518329864935993 0 2.9518329864935993 50.5677470963752 0 0 0 0 76.581079256887222 -39.171083578537946 0 -39.171083578537946 76.722008071286837 0 0 0 0 -1.4919517429128564 16.217755542996855 0 16.217755542996855 5.7697250345256066 0 0 0 0 -6.262856089018527 59.277094726690848 0 59.277094726690848 112.12683590251254 0 0 0 0 -20.751415747002625 40.175344482951914 0 40.175344482951914 36.379521831198872 0 0 0 0 3.580243144803875 29.426786293749856 0 29.426786293749856 21.181705746290049 0 0 0 0 3.7440841794150952 16.00949500193569 0 16.00949500193569 51.840228121495016 0 0 0 0 46.200213241740357 -16.601846753852442 0 -16.601846753852442 65.396832329555764 0 0 0 0 67.323795220870124 -8.7723015667870641 0 -8.7723015667870641 59.511082678596722 0 0 0 0 -6.7636691225531731 15.071556290759959 0 15.071556290759959 44.936127785737085 0 0 0 0 72.590128358339598 20.53246435624169 0 20.53246435624169 73.242553478834452 0 0 0 0 50.051162369775255 10.485497502421822 0 10.485497502421822 75.118941233697115 0 0 0 0 17.055037687625145 8.2329455961444182 0 8.2329455961444182 46.855460194259649 0 0 0 0 51.979159694462055 -8.0490359732502839 0 -8.0490359732502839 31.862663089617854 0 0 0 0 43.101079597602961 -3.2232944664647221 0 -3.2232944664647221 51.319595656466845 0 0 0 0 53.865280699076038 -16.124091927180416 0 -16.124091927180416 56.646636575838784 0 0 0 0 15.883748905633638 38.449905188535922 0 38.449905188535922 86.350416317764029 0 0 0 0 47.908960208592703 17.493138135796471 0 17.493138135796471 -21.305646929591603 0 0 0 0 8.1785323861943571 39.814968823907307 0 39.814968823907307 69.38973343269646 0 0 0 0 2.4165240533727115 126.72455451733185 0 126.72455451733185 -53.575366004690295 0 0 0 0 -2.7625048037325377 29.123214915375854 0 29.123214915375854 47.281265081390302 0 0 0 0 4.4566891683219243 9.4651222373899611 0 9.4651222373899611 4.1792436715835493 0 0 0 0 0.26794589044595474 -0.45575464732659299 0 -0.45575464732659299 2.256591811381611 0 0 0 0 151.51153122694723 4.8307234290914494 0 4.8307234290914494 -94.99589079778525 0 0 0 0 179.22675596749741 64.89237704059633 0 64.89237704059633 1.3939230072719511 0 0 0 0 146.03651540295851 -114.83087240028544 0 -114.83087240028544 113.26520977102336 0 0 0 0 60.566663093895386 -30.412410740158521 0 -30.412410740158521 31.464477193799212 0 0 0 0 -38.707909952054251 65.931124626920791 0 65.931124626920791 177.73942612476822 0 0 0 0 2.5317242145937371 -60.155628067797807 0 -60.155628067797807 230.02089656089083 0 0 0 0 50.576840220322765 50.38301060267986 0 50.38301060267986 196.66090503854502 0 0 0 0 267.46615451329581 -43.242540972336428 0 -43.242540972336428 203.42222477360701 0 0 0 0 -99.412104374423876 301.68070699312557 0 301.68070699312557 15.42148033324338 0 0 0 0 156.7155189511991 10.484468458060292 0 10.484468458060292 -40.494364982443585 0 0 0 0 -4.8884438967911592 -43.479615467913391 0 -43.479615467913391 58.100219156855019 0 0 0 0 -7.9775153778512049 30.588138571172749 0 30.588138571172749 72.989438954440629 0 0 0 0 7.0612690313864137 36.724404048246058 0 36.724404048246058 70.001343852153866 0 0 0 0 -177.77505640637901 -24.068122717886581 0 -24.068122717886581 733.95529399959196 0 0 0 0 -210.2700060838641 -106.63323739141197 0 -106.63323739141197 419.01496362057514 0 0 0 0 112.80598861894941 9.7685529250884429 0 9.7685529250884429 460.40408992800076 0 0 0 0 61.703535643847545 162.53948732114804 0 162.53948732114804 515.86450889817206 0 0 0 0 20.647349800724527 -240.50272909396517 0 -240.50272909396517 761.45931863065925 0 0 0 0 -170.10195652850689 -433.84110851369769 0 -433.84110851369769 1634.7319438533232 0 0 0 0 65.147727140797997 48.623648151631642 0 48.623648151631642 1054.4052213754258 0 0 0 0 -229.51471569453565 -271.90127734380076 0 -271.90127734380076 1723.0418770769029 0 0 0 0 116.26194073943327 -659.25860841490794 0 -659.25860841490794 809.9066402948938 0 0 0 0 -109.18866130037387 -974.36918009805231 0 -974.36918009805231 2340.5881622729357 0 0 0 0 -350.22875087996408 -6.1183037974551553 0 -6.1183037974551553 2680.322599879757 0 0 0 0 -786.17294989782022 -430.24972481263364 0 -430.24972481263364 3155.0128740575456 0 0 0 0 -789.06620910701406 -542.26427471945499 0 -542.26427471945499 3328.358699985758 0 0 0 0 -784.61990111672822 -1081.9039002174468 0 -1081.9039002174468 4499.0376350614679 0 0 0 0 -774.93627792639813 1077.0550503883533 0 1077.0550503883533 4500.5444091426325 0 0 0 0 -912.50791448744963 441.92279237549519 0 441.92279237549519 2970.8119305584696 0 0 0 0 -1017.8817776691895 124.34989218509872 0 124.34989218509872 4498.7139901887531 0 0 0 0 -339.62926108070133 141.18145738452586 0 141.18145738452586 1774.8632745759824 0 0 0 0 -399.19364997516118 364.50012525811326 0 364.50012525811326 2935.9438022295344 0 0 0 0 -112.28793361145131 60.286434479196032 0 60.286434479196032 1229.2020289192442 0 0 0 0 127.88476080385647 807.31010005052667 0 807.31010005052667 1631.8339110784727 0 0 0 0 46.371633970608173 77.851851168670692 0 77.851851168670692 1776.3886607918905 0 0 0 0 136.39315019232754 294.22941592559437 0 294.22941592559437 1022.9478976386745 0 0 0 0 253.68710414709398 -108.22205856031724 0 -108.22205856031724 48.378052664877032 0 0 0 0 0.83563220292888873 0.7474200082290281 0 0.7474200082290281 0.83990826732434343 0 0 0 0 17.030805860254077 30.666218037527869 0 30.666218037527869 44.608045235230747 0 0 0 0 -0.47940902069989288 1.3022075070526853 0 1.3022075070526853 -0.78416022086076609 0 0 0 0 148.97975255742358 229.94306011266599 0 229.94306011266599 269.32424470382648 0 0 0 0 -7.9344247852778915 0.35607850914200867 0 0.35607850914200867 21.699026233677884 0 0 0 0 294.1067444559593 56.582143207237095 0 56.582143207237095 -126.4998666386382 0 0 0 0 -89.172555010547512 17.633876178064384 0 17.633876178064384 567.44892214415449 0 0 0 0 -136.52483876043351 316.32042276673383 0 316.32042276673383 1013.2149807784735 0 0 0 0 46.135413686459856 357.06082087461982 0 357.06082087461982 995.61203939605912 0 0 0 0 480.05994844520859 1372.968322739056 0 1372.968322739056 2388.8212650672795 0 0 0 0 523.5270097284731 262.49025932304789 0 262.49025932304789 48.640376909213956 0 0 0 0 218.65529535310696 2121.0016077087421 0 2121.0016077087421 4491.6012860051269 0 0 0 0 -229.84727416781081 1174.4799072962487 0 1174.4799072962487 2494.0953997634206 0 0 0 0 1.7546346843766967 33.338324202908552 0 33.338324202908552 636.33651040783298 0 0 0 0 57.701794707070576 -1686.5568602603453 0 -1686.5568602603453 4472.7972485646696 0 0 0 0 1.4885388818406775 3.7873048839608501 0 3.7873048839608501 29.768422891961677 0 0 0 0 2421.4662400317702 2407.6090950701837 0 2407.6090950701837 2126.1652980589715 0 0 0 0 114.14284010576694 -92.487095110064729 0 -92.487095110064729 166.30637119035237 0 0 0 0 -2.8633930589213445 2.2658823956757743 0 2.2658823956757743 68.735600764393155 0 0 0 0 -1.2168990940061288 -0.49034959144768209 0 -0.49034959144768209 13.117253411833801 0 0 0 0 -0.31302242155328325 -114.55581049719331 0 -114.55581049719331 18.551979381780257 0 0 0 0 -30.139718362427828 -79.343922324929736 0 -79.343922324929736 -20.886464203022115 0 0 0 0 -54.580061565422625 -81.245585023018066 0 -81.245585023018066 73.605728596317931 0 0 0 0 -53.911090856840275 -86.30054214339907 0 -86.30054214339907 35.886807243776275 0 0 0 0 -1.7689357468966866 -4.7954636840456288 0 -4.7954636840456288 82.682476830206497 0 0 0 0 -80.970057319474307 -83.58193259894324 0 -83.58193259894324 38.119157460008864 0 0 0 0 -27.334845055768824 10.454676354784169 0 10.454676354784169 101.53449510561768 0 0 0 0 -16.717032426783362 7.2428514931161772 0 7.2428514931161772 99.320469192002747 0 0 0 0 -17.805061881386365 3.3457635446975473 0 3.3457635446975473 109.79656485820306 0 0 0 0 -21.568598352372874 1.6203123732266249 0 1.6203123732266249 109.14824939075334 0 0 0 0 9.2735372466320314 -37.999533180314756 0 -37.999533180314756 130.30742948094121 0 0 0 0 62.129852855233253 -37.65309890658682 0 -37.65309890658682 52.487244833610021 0 0 0 0 -0.10022440013378675 -4.9188034853076559 0 -4.9188034853076559 81.47249007057286 0 0 0 0 -33.087728974453739 -9.3190878860041266 0 -9.3190878860041266 88.084779498116404 0 0 0 0 -3.3867160096026794 -10.251457836233385 0 -10.251457836233385 80.663154700887389 0 0 0 0 27.554688379305048 -6.2482690388860647 0 -6.2482690388860647 72.709238667979662 0 0 0 0 29.691223478413917 -8.8560036815033527 0 -8.8560036815033527 58.182806628450635 0 0 0 0 0.15410707894545794 -18.092834483046317 0 -18.092834483046317 80.366034046201094 0 0 0 0 25.692766827212608 -6.9058767839742359 0 -6.9058767839742359 140.58900600724155 0 0 0 0 24.488777002638358 1.6742909365275409 0 1.6742909365275409 82.574429743777728 0 0 0 0 -0.59251103367283731 -4.1171016352445129 0 -4.1171016352445129 78.387132849642455 0 0 0 0 -27.123690017525419 -5.4737612829894715 0 -5.4737612829894715 85.944898713292787 0 0 0 0 -327.01321657465564 -1.4410742416221183 0 -1.4410742416221183 247.0806597690389 0 0 0 0 -0.29363373645386492 0.34123527095589168 0 0.34123527095589168 2.6943704041318597 0 0 0 0 0.14008193332055385 -116.77889521075122 0 -116.77889521075122 -58.127889690033044 0 0 0 0 397.99024833915536 267.91839097334741 0 267.91839097334741 157.73402067303687 0 0 0 0 -110.30997277193177 47.711505520877836 0 47.711505520877836 462.92379714729759 0 0 0 0 0.98640477653781666 -148.20616280256934 0 -148.20616280256934 139.55737341169151 0 0 0 0 -273.15749415520327 -103.48603847076811 0 -103.48603847076811 176.89383923917194 0 0 0 0 -61.314113133149078 3.3533903275747434 0 3.3533903275747434 11.5848028982291 0 0 0 0 -96.214907757435924 263.20110158482839 0 263.20110158482839 183.46207701290132 0 0 0 0 40.24797529437933 235.00904518722837 0 235.00904518722837 -106.97676344715364 0 0 0 0 12.05476442675312 45.936988800573701 0 45.936988800573701 67.420758461459982 0 0 0 0 214.47274900010871 21.042323297099756 0 21.042323297099756 -83.10979435151603 0 0 0 0 5.1467442412118389 42.189577778356764 0 42.189577778356764 66.776842245620642 0 0 0 0 156.47582990121043 -97.468061091105483 0 -97.468061091105483 120.97618468916653 0 0 0 0 207.15875666592672 -178.66296799088377 0 -178.66296799088377 159.34241184195389 0 0 0 0 110.91265674428925 -186.23369606983579 0 -186.23369606983579 312.64409861164563 0 0 0 0 110.44887448355392 -83.108636161272443 0 -83.108636161272443 196.01973868651112 0 0 0 0 105.22997084349331 -150.23323580943088 0 -150.23323580943088 93.517097930387536 0 0 0 0 -244.36784571273517 49.639534308573275 0 49.639534308573275 51.353874487844678 0 0 0 0 363.63765594993924 -12.189376631953564 0 -12.189376631953564 75.5629321617389 0 0 0 0 220.06364842292032 -118.06881696862865 0 -118.06881696862865 50.957128641965028 0 0 0 0 241.76191380975717 5.166039857392434 0 5.166039857392434 59.658748114914488 0 0 0 0 41.516988940786177 22.455930358223668 0 22.455930358223668 174.6514335701977 0 0 0 0 -0.78453619860753854 10.284450316813441 0 10.284450316813441 26.649658817361445 0 0 0 0 40.468397092836312 54.851200215515746 0 54.851200215515746 125.08705584134532 0 0 0 0 17.765565737898896 52.325346319313212 0 52.325346319313212 -24.219474825634279 0 0 0 0 23.623325132555465 22.619178514978557 0 22.619178514978557 42.348197194049135 0 0 0 0 13.296319582688675 47.944929665913449 0 47.944929665913449 70.925844719213785 0 0 0 0 -75.709807691092465 30.722393324231234 0 30.722393324231234 289.65131967102934 0 0 0 0 -57.71329250810777 57.998609945814678 0 57.998609945814678 185.04750456252896 0 0 0 0 -46.957971655876463 39.908609778191021 0 39.908609778191021 176.79978453479998 0 0 0 0 -62.29157951219986 50.522265071182119 0 50.522265071182119 202.6405928299173 0 0 0 0 21.521680074626516 63.496528250623292 0 63.496528250623292 90.024924975374972 0 0 0 0 -15.99672614636077 1.35627604967409 0 1.35627604967409 42.344095740059615 0 0 0 0 -29.118542492234155 43.696196691687874 0 43.696196691687874 150.072881099386 0 0 0 0 -27.343490570071481 85.233605433505545 0 85.233605433505545 164.78770567058291 0 0 0 0 3.3901791298915782 4.9513775582956896 0 4.9513775582956896 30.859261958170464 0 0 0 0 -20.684069095741506 -17.084885627209587 0 -17.084885627209587 175.95852807157644 0 0 0 0 -16.033476324806735 -9.013529945211463 0 -9.013529945211463 13.463022813485136 0 0 0 0 -3.2737873274545564 20.058592765878529 0 20.058592765878529 44.995302014374829 0 0 0 0 8.4731670722426315 -81.134144384148385 0 -81.134144384148385 270.36803233039973 0 0 0 0 77.946033719968909 -86.092914265034779 0 -86.092914265034779 120.11225096461203 0 0 0 0 -0.21778093989059055 7.6116136625146034 0 7.6116136625146034 21.832945573490704 0 0 0 0 -17.821081464509462 12.224441168424164 0 12.224441168424164 41.417604616124663 0 0 0 0 11.26713940870286 -122.17657757616325 0 -122.17657757616325 102.39593440168392 0 0 0 0 -5.3665626995834828 -0.72937390860761298 0 -0.72937390860761298 28.016025806795369 0 0 0 0 -12.416279276531554 17.684848883777249 0 17.684848883777249 17.758042190500419 0 0 0 0 2.128610770328546 5.0544683360359883 0 5.0544683360359883 12.695011598589915 0 0 0 0 185.46252999992021 -166.89372831861601 0 -166.89372831861601 127.01025541283889 0 0 0 0 116.82038469482677 -67.888176793102502 0 -67.888176793102502 58.612018545249157 0 0 0 0 7.0798584803442992 14.910451593778475 0 14.910451593778475 5.0224879258566943 0 0 0 0 17.556307420726853 -30.123322188294878 0 -30.123322188294878 89.868967725331458 0 0 0 0 80.523418747893402 -98.240703996155389 0 -98.240703996155389 274.56651173632326 0 0 0 0 114.24289436123036 39.829403363673919 0 39.829403363673919 8.5200903048698819 0 0 0 0 -72.939083248420786 82.419990770726827 0 82.419990770726827 470.44565729943497 0 0 0 0 190.79712920032853 199.99863883420676 0 199.99863883420676 67.631096010267356 0 0 0 0 -39.823113643320767 166.87063488833246 0 166.87063488833246 550.38391098946886 0 0 0 0 76.672957433405145 -118.46809713899347 0 -118.46809713899347 497.25312147117688 0 0 0 0 -97.768744741594674 -7.2725950785934401 0 -7.2725950785934401 275.77466226267461 0 0 0 0 75.036334014975409 -92.518177487044341 0 -92.518177487044341 138.13928368689449 0 0 0 0 75.028890816242892 -89.431675054662264 0 -89.431675054662264 168.82309796832033 0 0 0 0 0.27806551324983708 1.331682511266461 0 1.331682511266461 5.2415396925025206 0 0 0 0 296.70632484589078 -312.99261361878325 0 -312.99261361878325 380.56965464632049 0 0 0 0 115.95911664221967 285.73797382736575 0 285.73797382736575 327.7150191682922 0 0 0 0 -25.370969472763136 -12.035922535688769 0 -12.035922535688769 613.5333620974925 0 0 0 0 -35.621599924551674 80.357335432800824 0 80.357335432800824 190.54953414281044 0 0 0 0 0.93309035351558123 44.849296313092964 0 44.849296313092964 49.356550329976926 0 0 0 0 96.876821015968972 186.17420891535312 0 186.17420891535312 -171.8665209447081 0 0 0 0 -2.8054984968809897 33.309879585694453 0 33.309879585694453 12.152497698079616 0 0 0 0 -86.346960160811818 -103.1757536453506 0 -103.1757536453506 8.8149903905632527 0 0 0 0 42.242325806142844 31.420422586777931 0 31.420422586777931 -55.423244862320644 0 0 0 0 -13.638540434533411 -21.834515552547373 0 -21.834515552547373 8.5829146763499011 0 0 0 0 342.63467534307824 61.087254116218901 0 61.087254116218901 19.795341484123128 0 0 0 0 -2.8977919896177369 32.128723578509707 0 32.128723578509707 16.432894890163826 0 0 0 0 81.770351033891984 0.88076619443927484 0 0.88076619443927484 -188.73605168549511 0 0 0 0 0.23013652314052369 1.519806869989285 0 1.519806869989285 14.384427591098188 0 0 0 0 -0.78531181984362775 30.414489738886914 0 30.414489738886914 53.993041288702898 0 0 0 0 -33.522709406508056 1.781778951063643 0 1.781778951063643 80.588964108172604 0 0 0 0 7.127758504620715 52.233708501287765 0 52.233708501287765 135.59617881283157 0 0 0 0 57.837816006342052 -48.325780045980537 0 -48.325780045980537 95.504846724290474 0 0 0 0 13.824200790447776 10.128821600271522 0 10.128821600271522 41.102877291923505 0 0 0 0 103.20942057505658 -65.585247992506993 0 -65.585247992506993 7.908487719882487 0 0 0 0 -11.77637066004133 -154.94416558390276 0 -154.94416558390276 328.71220454943978 0 0 0 0 163.7230511006976 -149.47661970027821 0 -149.47661970027821 92.953592412384751 0 0 0 0 -112.43124748548507 90.736913854004797 0 90.736913854004797 472.61642680178011 0 0 0 0 1.3788970300300236 -3.6350562892966756 0 -3.6350562892966756 3.5944334994727996 0 0 0 0 70.175156603059889 -128.01828916408613 0 -128.01828916408613 154.18331497347754 0 0 0 0 -2.6747495289942091 37.786362483016418 0 37.786362483016418 63.68987968847717 0 0 0 0 159.54740396618911 -264.19732050922721 0 -264.19732050922721 295.75464144150305 0 0 0 0 -58.863813183905279 -72.476629205450081 0 -72.476629205450081 218.65114438893761 0 0 0 0 -86.736805256941921 -17.809987083360056 0 -17.809987083360056 172.94548905051488 0 0 0 0 -45.325131120412493 33.388510736607486 0 33.388510736607486 68.351257246114983 0 0 0 0 -26.185739403382456 -38.089121759520822 0 -38.089121759520822 186.80060092477106 0 0 0 0 -26.070693160287306 -40.494330070825526 0 -40.494330070825526 155.19758299705427 0 0 0 0 11.774049827917935 -61.044431897143113 0 -61.044431897143113 156.23839150933327 0 0 0 0 11.188153178136986 -71.067953692534502 0 -71.067953692534502 99.273884368309155 0 0 0 0 3.5113460965039565 -5.3995378073641405 0 -5.3995378073641405 155.33490080872434 0 0 0 0 68.120345786608368 -32.197232153813275 0 -32.197232153813275 114.22371482837434 0 0 0 0 -14.059402738959079 -21.719233223642732 0 -21.719233223642732 138.9598322619695 0 0 0 0 -14.201508753132998 -30.61066595147031 0 -30.61066595147031 160.46631091379277 0 0 0 0 -18.917406296219355 -32.539759153109912 0 -32.539759153109912 329.53256869243523 0 0 0 0 -20.380728985794121 -15.494959913278763 0 -15.494959913278763 162.23837040002945 0 0 0 0 38.73132544278451 42.043372175488912 0 42.043372175488912 31.142353329852085 0 0 0 0 17.0599974030863 -46.221081690783649 0 -46.221081690783649 155.35244380067161 0 0 0 0 283.94141900056366 -112.74826278747514 0 -112.74826278747514 71.946964296344959 0 0 0 0 1.445663694254147 7.1436984203160634 0 7.1436984203160634 -14.686335517064123 0 0 0 0 -0.60342381042669047 0.61232328562858562 0 0.61232328562858562 3.3958301368897992 0 0 0 0 -174.15269297217628 190.08553300692392 0 190.08553300692392 233.981478398533 0 0 0 0 173.07426400232771 -258.39906864046452 0 -258.39906864046452 229.13858769529179 0 0 0 0 52.559581224991689 38.406631685043067 0 38.406631685043067 51.178684241183873 0 0 0 0 42.088586723059052 70.92133217501032 0 70.92133217501032 112.2948373756667 0 0 0 0 21.415893420516625 -42.819308258223828 0 -42.819308258223828 45.30337027173664 0 0 0 0 -11.893460531898839 -6.6178716989273791 0 -6.6178716989273791 62.258157931374463 0 0 0 0 367.80675472423354 -107.52341303549474 0 -107.52341303549474 -153.56145750048381 0 0 0 0 6.6069150841857347 35.08887613740653 0 35.08887613740653 10.835707306208306 0 0 0 0 4.7999730634246909 6.7487387732604578 0 6.7487387732604578 25.088930801326409 0 0 0 0 1.9861150460885897 -0.31031596480168488 0 -0.31031596480168488 7.3797056472092066 0 0 0 0 70.358508663313842 50.939734321935248 0 50.939734321935248 147.64124253075715 0 0 0 0 139.28876688594255 96.103367635932955 0 96.103367635932955 -49.328575233535958 0 0 0 0 -55.583610549932018 -104.2036456999258 0 -104.2036456999258 210.32987464557664 0 0 0 0 80.154245948233324 -210.72584123361048 0 -210.72584123361048 73.241394413347734 0 0 0 0 -36.217654037938473 7.7309677267294319 0 7.7309677267294319 149.32071415659448 0 0 0 0 207.13457205045063 -74.133467803790609 0 -74.133467803790609 34.634597002353985 0 0 0 0 131.10868693033626 -48.824515107076877 0 -48.824515107076877 82.66058899376003 0 0 0 0 226.23706801781418 -175.38577809752678 0 -175.38577809752678 184.93477276777412 0 0 0 0 170.01584131217169 -203.87542022989874 0 -203.87542022989874 238.84261986037382 0 0 0 0 63.44198458236724 -196.91440055866497 0 -196.91440055866497 259.06389089713775 0 0 0 0 108.02444190441679 -192.3658965230552 0 -192.3658965230552 444.22902873402927 0 0 0 0 191.53289070050596 -288.16723607294261 0 -288.16723607294261 398.46991186284868 0 0 0 0 120.0167621380433 -149.28687590616028 0 -149.28687590616028 333.87816013400879 0 0 0 0 222.81913867634194 -275.36916788864619 0 -275.36916788864619 258.32775049931661 0 0 0 0 155.12097726573302 -279.40205977726146 0 -279.40205977726146 568.34213762907893 0 0 0 0 132.54202108169625 -300.18697455506117 0 -300.18697455506117 567.33444431584371 0 0 0 0 138.6950411425421 -391.52492737582543 0 -391.52492737582543 773.33206963277189 0 0 0 0 136.12565512803826 -336.76967456022976 0 -336.76967456022976 725.79562276339129 0 0 0 0 125.11523744885176 -235.66841070610462 0 -235.66841070610462 810.42889033882238 0 0 0 0 120.83491891421932 -295.33321292215987 0 -295.33321292215987 726.47621396368049 0 0 0 0 179.95857710306382 -224.84097563348041 0 -224.84097563348041 525.02467993690516 0 0 0 0 198.35777370215868 -266.10651147715998 0 -266.10651147715998 618.56736459297827 0 0 0 0 143.63173903115313 -337.63510514836753 0 -337.63510514836753 552.79061358849867 0 0 0 0 135.16240206694158 -173.0147373144755 0 -173.0147373144755 1085.9005935599271 0 0 0 0 60.032237862396187 31.227188194416158 0 31.227188194416158 -12.140103693154742 0 0 0 0 354.43259876444307 -403.69449165619108 0 -403.69449165619108 493.50039023747377 0 0 0 0 -0.14149820779595679 2.9912474957015358 0 2.9912474957015358 4.21885615376533 0 0 0 0 -12.072781277213551 20.538611860596575 0 20.538611860596575 3.6083683179604122 0 0 0 0 -0.10430303662743912 1.5409482633265483 0 1.5409482633265483 30.27038105842572 0 0 0 0 -9.7483134118036094 14.719318315342086 0 14.719318315342086 48.854101131097366 0 0 0 0 333.7399867794893 -316.9456115460307 0 -316.9456115460307 134.90649003424187 0 0 0 0 314.4017480021148 -181.4678311467942 0 -181.4678311467942 -108.71750114865063 0 0 0 0 304.08103150641637 -282.12957602818642 0 -282.12957602818642 255.29902847762423 0 0 0 0 235.45540526937475 -354.13306355577697 0 -354.13306355577697 518.81818094190385 0 0 0 0 231.04896524881724 -372.15111181940665 0 -372.15111181940665 802.48971786654147 0 0 0 0 197.04726028273717 -319.83548700995016 0 -319.83548700995016 531.56081870619346 0 0 0 0 228.53806667035542 -396.53089411938345 0 -396.53089411938345 681.64160314223409 0 0 0 0 298.05296402219017 -227.94701885950781 0 -227.94701885950781 711.72521554800551 0 0 0 0 -0.50771281629186849 -0.81793479283381387 0 -0.81793479283381387 2.9152535301630955 0 0 0 0 457.61889893589773 -66.503544923878508 0 -66.503544923878508 874.82857938885718 0 0 0 0 231.6874562592011 -275.99544678262464 0 -275.99544678262464 908.62019034986588 0 0 0 0 135.09412576390787 -385.03697572842793 0 -385.03697572842793 763.23216741946089 0 0 0 0 223.45884188867467 -351.00063653167672 0 -351.00063653167672 741.04984030293417 0 0 0 0 395.97800942089737 -532.38434695676392 0 -532.38434695676392 521.35901652406756 0 0 0 0 -74.346756624297512 71.489851023103256 0 71.489851023103256 -76.407151409559447 0 0 0 0 1.4464199100522213 1.1227085482538453 0 1.1227085482538453 -0.90471752675784955 0 0 0 0 151.73910082763814 -405.77459519290278 0 -405.77459519290278 699.53074964406551 0 0 0 0 49.525124824971954 -522.82224662012595 0 -522.82224662012595 1094.4879397912737 0 0 0 0 51.941347437187346 -517.12246483720446 0 -517.12246483720446 922.50127463672834 0 0 0 0 70.282010709884162 -442.72522257196397 0 -442.72522257196397 740.92825596855982 0 0 0 0 -92.031577795766864 98.963180928144084 0 98.963180928144084 -36.966809731915419 0 0 0 0 -85.824550042403132 104.67711777927616 0 104.67711777927616 -31.819274797871913 0 0 0 0 1.6665250758304477 6.8122948859930688 0 6.8122948859930688 18.145832208751607 0 0 0 0 19.50653429272927 21.289566857257341 0 21.289566857257341 40.640374459345367 0 0 0 0 184.56655146572234 -198.85057259869063 0 -198.85057259869063 88.889137230908091 0 0 0 0 116.29916880893995 -227.5343162235331 0 -227.5343162235331 240.94853107753443 0 0 0 0 113.92781490311449 -136.05938864328891 0 -136.05938864328891 128.27488654831905 0 0 0 0 198.81279710375338 -144.12586062386254 0 -144.12586062386254 18.344111912223525 0 0 0 0 141.00364512622195 -227.28354143359229 0 -227.28354143359229 268.43016702462774 0 0 0 0 141.82449924052906 -180.32504544343556 0 -180.32504544343556 297.39817873995889 0 0 0 0 65.180053368832432 -163.39463679769869 0 -163.39463679769869 296.76116097013255 0 0 0 0 -14.795913188248505 5.5017770603190002 0 5.5017770603190002 433.60399009834509 0 0 0 0 -48.619340099670694 -50.438559831241946 0 -50.438559831241946 943.90415413830488 0 0 0 0 -8.5541381266168273 30.125465326034711 0 30.125465326034711 66.172538072991841 0 0 0 0 61.438553380506164 -52.645609952378436 0 -52.645609952378436 425.42022309997992 0 0 0 0 172.9458417479932 -260.05060205189511 0 -260.05060205189511 248.358481855641 0 0 0 0 80.18325900382888 -237.24374350370726 0 -237.24374350370726 624.51956164025614 0 0 0 0 -131.2408634471999 47.429620586510282 0 47.429620586510282 166.51929665930629 0 0 0 0 -7.3721357743705322 -16.014790089223609 0 -16.014790089223609 128.43636248949832 0 0 0 0 -259.11097207153125 -128.82309347394403 0 -128.82309347394403 234.49364037117994 0 0 0 0 -92.486025715889468 59.217456665883674 0 59.217456665883674 299.68202403548275 0 0 0 0 -167.49945451569579 132.77956599022673 0 132.77956599022673 -32.130823050083563 0 0 0 0 -87.547525945369898 184.59854727355014 0 184.59854727355014 -213.45021013058795 0 0 0 0 0.50239218509657224 1.0805322819511041 0 1.0805322819511041 1.0317786103563371 0 0 0 0 169.38684418995393 -174.80817437974747 0 -174.80817437974747 328.42402039092121 0 0 0 0 -12.159068084489945 -266.03163265426701 0 -266.03163265426701 729.11621088125139 0 0 0 0 94.994913288892235 -137.29188622491529 0 -137.29188622491529 362.04204472866149 0 0 0 0 161.12685030325304 -116.93515837446466 0 -116.93515837446466 117.7123933638286 0 0 0 0 107.19092019856225 -111.09210942960635 0 -111.09210942960635 325.18423214684572 0 0 0 0 121.95062212810058 -249.05662917749214 0 -249.05662917749214 274.90616545589728 0 0 0 0 1.574017929807783 4.2028237257669474 0 4.2028237257669474 5.8207709825644685 0 0 0 0 63.84165125831737 -211.01236229115602 0 -211.01236229115602 752.91287400488363 0 0 0 0 55.047069660607349 -342.56057223480821 0 -342.56057223480821 678.00907949082284 0 0 0 0 84.842649063167528 -146.88806851886693 0 -146.88806851886693 622.22660893969442 0 0 0 0 -54.23545937885217 92.939552694573649 0 92.939552694573649 -91.629940996630467 0 0 0 0 -39.429216418031729 93.608504065552552 0 93.608504065552552 -62.517002696225973 0 0 0 0 -60.475714457551305 72.13895274881088 0 72.13895274881088 -49.07915483580291 0 0 0 0 -13.125178506517045 82.58001834575407 0 82.58001834575407 -47.601941436125344 0 0 0 0 -52.587116166848773 60.775039376358109 0 60.775039376358109 2.4234953143604798 0 0 0 0 -51.110711602031472 69.883779337620126 0 69.883779337620126 -125.52231568567004 0 0 0 0 -64.672099390495191 89.298599265953271 0 89.298599265953271 -66.92920291874907 0 0 0 0 -73.610730208736413 5.1278876651258543 0 5.1278876651258543 -1.3108020402505645 0 0 0 0 -113.20298663804101 57.154665779353309 0 57.154665779353309 -32.858301000680513 0 0 0 0 -44.464045432559942 -16.855386711164101 0 -16.855386711164101 -20.980498211603845 0 0 0 0 -3.6797168334921935 47.187590592804554 0 47.187590592804554 -42.463744027108078 0 0 0 0 -54.857150170437535 -62.676075984327326 0 -62.676075984327326 78.001035245019011 0 0 0 0 -74.279528294876854 -6.3094154843111028 0 -6.3094154843111028 -21.834055899231316 0 0 0 0 25.344094752070191 1.3387352371646557 0 1.3387352371646557 100.53064003346117 0 0 0 0 74.557532722148551 15.150973953069752 0 15.150973953069752 -13.318267850652774 0 0 0 0 -8.0671210736934427 17.000954550359893 0 17.000954550359893 46.898998706483326 0 0 0 0 100.5463318445095 59.322889298175141 0 59.322889298175141 61.146445634560223 0 0 0 0 40.27413866977281 56.517267888581046 0 56.517267888581046 -4.3096826142646023 0 0 0 0 -35.858270752316571 46.317147784055123 0 46.317147784055123 -8.0552403217288884 0 0 0 0 -70.450384080672436 96.868985504554985 0 96.868985504554985 8.3632069536397466 0 0 0 0 -47.444759985174457 74.549977383259829 0 74.549977383259829 92.893342042883887 0 0 0 0 -10.012859535365678 29.898526086375568 0 29.898526086375568 81.060432552178099 0 0 0 0 -50.315299251131023 -51.564170652718531 0 -51.564170652718531 316.81067551557499 0 0 0 0 -22.530551289588175 -33.673104829651493 0 -33.673104829651493 152.72912728115762 0 0 0 0 -19.286885992413318 -36.877711810087021 0 -36.877711810087021 232.80584974956582 0 0 0 0 -26.835239186692661 63.957848998604277 0 63.957848998604277 257.73298903059913 0 0 0 0 -63.644820498704803 -59.945068950459245 0 -59.945068950459245 753.14981598806662 0 0 0 0 -59.054421462288587 -32.475848090893123 0 -32.475848090893123 328.53234211749805 0 0 0 0 211.65249709477484 188.17647177522485 0 188.17647177522485 188.45254683213443 0 0 0 0 131.1347272285316 -117.31129759194118 0 -117.31129759194118 69.0112479611754 0 0 0 0 116.10909088798817 -112.42448982052412 0 -112.42448982052412 124.31556583827842 0 0 0 0 33.16290173324802 -129.27577874136932 0 -129.27577874136932 138.39078075695761 0 0 0 0 -43.17208016197236 28.238312557065001 0 28.238312557065001 63.824475413193795 0 0 0 0 2.0519952103528851 7.8641998577888028 0 7.8641998577888028 21.97168396533646 0 0 0 0 -96.580040720338971 118.53915316857274 0 118.53915316857274 15.157208280352279 0 0 0 0 -181.56370822711182 93.879647946080695 0 93.879647946080695 17.109676092746668 0 0 0 0 -59.596830160066176 88.160220222900534 0 88.160220222900534 -41.374216188451101 0 0 0 0 -10.114549289736516 -5.4940359847951186 0 -5.4940359847951186 66.080969667496902 0 0 0 0 -36.302932984763672 19.112147243386062 0 19.112147243386062 13.825590592231094 0 0 0 0 -87.19071803597798 31.945336773684176 0 31.945336773684176 174.41520685081741 0 0 0 0 -72.372522731651515 -77.418636662060635 0 -77.418636662060635 261.61114555488348 0 0 0 0 -172.71915594445633 60.815124547502819 0 60.815124547502819 90.30516818056276 0 0 0 0 1.8747788768235962 7.8836298784256513 0 7.8836298784256513 22.499562355782217 0 0 0 0 -103.60263538676421 15.790592822790131 0 15.790592822790131 66.857235228124438 0 0 0 0 -94.485492423530502 -61.216418974220687 0 -61.216418974220687 217.60067486182015 0 0 0 0 10.200134282619558 -59.330653596440243 0 -59.330653596440243 215.79706962330783 0 0 0 0 1.4977829061468053 6.7421730862926577 0 6.7421730862926577 19.833055266889545 0 0 0 0 50.428307966885484 -238.14295306347867 0 -238.14295306347867 400.12604620244019 0 0 0 0 -9.944070747866931 -47.957201058043211 0 -47.957201058043211 272.20955602727099 0 0 0 0 -65.124893517850012 -85.807360697926924 0 -85.807360697926924 321.27006944418463 0 0 0 0 -88.110611103004658 -93.683332816270195 0 -93.683332816270195 471.76343263192757 0 0 0 0 -114.32472137928561 -25.656321880782343 0 -25.656321880782343 432.21268709107062 0 0 0 0 -65.542123680094051 -28.907491295174623 0 -28.907491295174623 430.18615908001357 0 0 0 0 -71.755450231920065 -10.993009827942842 0 -10.993009827942842 432.32961786186388 0 0 0 0 -37.362701352317913 175.17821514850039 0 175.17821514850039 480.78479150183739 0 0 0 0 -31.042884034037968 252.66019538480987 0 252.66019538480987 1057.3987055119615 0 0 0 0 -124.09102847031296 -14.847304651608283 0 -14.847304651608283 719.29453316352192 0 0 0 0 -285.3333309282034 -165.05551356760225 0 -165.05551356760225 233.75577146652086 0 0 0 0 169.12564473088366 -245.70711360979612 0 -245.70711360979612 345.71298888571982 0 0 0 0 15.30804419317019 -116.26872362127142 0 -116.26872362127142 238.35492069013344 0 0 0 0 -2.7112038111297352 -178.47638987838036 0 -178.47638987838036 447.49750265220246 0 0 0 0 48.003744950855435 -256.47226603765307 0 -256.47226603765307 219.4339433926034 0 0 0 0 175.36919872544786 -150.40420192732199 0 -150.40420192732199 172.27277805025824 0 0 0 0 -13.601881414466156 -103.62329660388332 0 -103.62329660388332 270.17573025730599 0 0 0 0 -28.048338028652893 -106.54687466837822 0 -106.54687466837822 283.76669436185693 0 0 0 0 88.704934204656183 -61.858684394637748 0 -61.858684394637748 293.02784371021789 0 0 0 0 -23.898394921698753 -16.093391414794496 0 -16.093391414794496 423.53935618704054 0 0 0 0 20.407022253850108 -72.970996178178027 0 -72.970996178178027 298.72219237102399 0 0 0 0 20.921175279978115 -105.55906695912745 0 -105.55906695912745 737.87387778930042 0 0 0 0 10.574155435015175 4.9886009365501636 0 4.9886009365501636 4.4937711027895233 0 0 0 0 302.99033752489163 274.32587469722057 0 274.32587469722057 415.34168151799349 0 0 0 0 94.528166643196187 -81.822607282874742 0 -81.822607282874742 184.2129306006791 0 0 0 0 -68.390219882155407 -401.79954973639633 0 -401.79954973639633 -46.307865382925229 0 0 0 0 449.26989294164161 -44.173693314575758 0 -44.173693314575758 -459.24256508945473 0 0 0 0 -617.64268392573604 827.7817509785491 0 827.7817509785491 1226.8013194480409 0 0 0 0 -198.99413894459758 272.91422282504209 0 272.91422282504209 -23.164150017750217 0 0 0 0 10.600752166850633 33.663691646693351 0 33.663691646693351 69.623993498604335 0 0 0 0 -232.77949878660047 375.58250952029266 0 375.58250952029266 -254.21501121662732 0 0 0 0 95.513507793081999 -32.773404435042721 0 -32.773404435042721 -85.57249095851148 0 0 0 0 12.574477599338314 23.095965622867411 0 23.095965622867411 42.321379815493657 0 0 0 0 -12.680282545679882 10.642838976621654 0 10.642838976621654 84.870121597799653 0 0 0 0 -258.31976866727973 655.00929034447836 0 655.00929034447836 -65.625345367261616 0 0 0 0 -854.04144455153164 -439.52712446076112 0 -439.52712446076112 928.26736628127037 0 0 0 0 -84.257976910957325 412.12962078859414 0 412.12962078859414 -280.5809748734755 0 0 0 0 -50.106633990000773 -291.16052721739652 0 -291.16052721739652 -290.86048887837023 0 0 0 0 -40.594916905155515 -103.59113707283541 0 -103.59113707283541 177.82923478802331 0 0 0 0 -1.5356390540964759 -3.1193801298299455 0 -3.1193801298299455 6.0816154318606834 0 0 0 0 -40.594916905156651 -103.59113707282768 0 -103.59113707282768 177.82923478800512 0 0 0 0 -40.594916905156794 -103.59113707283495 0 -103.59113707283495 177.82923478803423 0 0 0 0 -185.34406074223148 322.34989611614401 0 322.34989611614401 -88.973835083830636 0 0 0 0 71.927008404739354 155.3359880564567 0 155.3359880564567 -125.10261705043376 0 0 0 0 -149.91426979394691 235.85133315784697 0 235.85133315784697 55.720012007059267 0 0 0 0 -18.361854216652318 91.580244943605067 0 91.580244943605067 169.90904301902265 0 0 0 0 -39.947641524203391 264.81386990868486 0 264.81386990868486 -230.8100757958855 0 0 0 0 11.292288201943904 28.340674468750876 0 28.340674468750876 238.40830067595198 0 0 0 0 74.333815771146362 79.11889205335001 0 79.11889205335001 -0.24655494562830427 0 0 0 0 -15.517490309104119 109.47080357967707 0 109.47080357967707 5.1095472969609546 0 0 0 0 22.4182897158563 23.422721514643307 0 23.422721514643307 8.7476066713580423 0 0 0 0 -22.756436606758282 25.747848136828736 0 25.747848136828736 -3.8697537149974579 0 0 0 0 -178.16925375864159 1213.8649025938503 0 1213.8649025938503 3622.8086046741519 0 0 0 0 184.32274471249013 -79.551463874729961 0 -79.551463874729961 1788.0347599299021 0 0 0 0 -334.65863040512744 898.8880299246739 0 898.8880299246739 3739.4931917443064 0 0 0 0 -203.43886786902473 1334.1930639107923 0 1334.1930639107923 4499.9079234148448 0 0 0 0 -8.7783434616933196 16.501368118819912 0 16.501368118819912 -11.988279557940857 0 0 0 0 99.585203714479803 52.105579293685878 0 52.105579293685878 122.99827424901923 0 0 0 0 101.7865549523531 984.57153777891654 0 984.57153777891654 3364.8531230682129 0 0 0 0 29.175623253269578 122.82379019639939 0 122.82379019639939 141.95677853688903 0 0 0 0 640.23521218319308 1881.574887886713 0 1881.574887886713 4264.6511145514305 0 0 0 0 587.28567010546453 1571.2727484255956 0 1571.2727484255956 3597.9756622177538 0 0 0 0 11.756591269285018 22.193041220957227 0 22.193041220957227 -9.0422306456220269 0 0 0 0 1139.6117325947666 2634.3339536459825 0 2634.3339536459825 4497.0063065259174 0 0 0 0 13.924911415556593 24.786603645885343 0 24.786603645885343 17.509761527201192 0 0 0 0 -13.426159924455924 6.5856139269527425 0 6.5856139269527425 78.831524678757518 0 0 0 0 -558.00259951728754 -240.90020118199118 0 -240.90020118199118 -421.34549544319452 0 0 0 0 -43.877934959594313 77.735369486554191 0 77.735369486554191 131.10559257142268 0 0 0 0 -1492.14829611753 -559.71438549248705 0 -559.71438549248705 483.76110859769688 0 0 0 0 853.97084917050245 1437.9286784161413 0 1437.9286784161413 1309.3750187107653 0 0 0 0 724.36501459206715 1056.1173636181056 0 1056.1173636181056 755.90970622598252 0 0 0 0 -17.259281567316478 108.36550130518845 0 108.36550130518845 413.82657575958365 0 0 0 0 787.90151660013339 874.30105407256656 0 874.30105407256656 559.41415533208055 0 0 0 0 -7.6525874791380035 9.3563288721582154 0 9.3563288721582154 -6.58531000789025 0 0 0 0 -17.448325821072022 97.230913655690003 0 97.230913655690003 322.87521050125724 0 0 0 0 11.717776961759512 4.8836672206271032 0 4.8836672206271032 219.24710986061109 0 0 0 0 916.0230047361357 88.432900261062969 0 88.432900261062969 5.0670873865929025 0 0 0 0 -14.471916491720712 19.925082140584621 0 19.925082140584621 -3.2321060592666413 0 0 0 0 8.9597727155952409 15.741922589342494 0 15.741922589342494 6.6066809099743864 0 0 0 0 -78.783345535193178 -29.757526288236477 0 -29.757526288236477 4208.6728821659635 0 0 0 0 323.55620795980843 896.74628829384892 0 896.74628829384892 3992.9323579402098 0 0 0 0 -438.73589676304601 680.81910578176212 0 680.81910578176212 4499.4437573133873 0 0 0 0 1096.4998057755024 234.88607181262341 0 234.88607181262341 4500.7977078683944 0 0 0 0 574.53051583410536 -673.49731698173491 0 -673.49731698173491 3043.4328486322956 0 0 0 0 387.12493099199099 263.98433988959914 0 263.98433988959914 3346.0434037017112 0 0 0 0 406.53355110100404 495.49699400629646 0 495.49699400629646 189.03248136293769 0 0 0 0 -399.15808965996496 -697.61088357740482 0 -697.61088357740482 4489.8631165066981 0 0 0 0 483.53738057374608 2705.4477809548403 0 2705.4477809548403 4491.0597551861993 0 0 0 0 -596.78590783479501 -1795.2105781449718 0 -1795.2105781449718 2022.7906010182051 0 0 0 0 -1.7346736772627045 -1.4654322106881246 0 -1.4654322106881246 23.843925562270286 0 0 0 0 -685.57995809828287 818.69654932730373 0 818.69654932730373 1551.5579064418616 0 0 0 0 -1189.6877976489407 813.03363410112433 0 813.03363410112433 4501.9055214542268 0 0 0 0 -928.69131678542635 514.22637489542603 0 514.22637489542603 3195.8056869405655 0 0 0 0 -806.92515610355167 1332.3706995938969 0 1332.3706995938969 3244.724651238248 0 0 0 0 -437.85738805652238 612.93477319106751 0 612.93477319106751 1633.0730259773336 0 0 0 0 -558.39310476178844 391.41489465544237 0 391.41489465544237 3234.9337722417822 0 0 0 0 -405.09410549164511 93.656354100174212 0 93.656354100174212 2102.649452691081 0 0 0 0 -623.83263447633499 -265.73369137208738 0 -265.73369137208738 2003.1230006451401 0 0 0 0 -566.73266050540781 291.92781903357809 0 291.92781903357809 172.19358783881944 0 0 0 0 -1272.8683092448366 -1310.1315759392946 0 -1310.1315759392946 854.05535957776283 0 0 0 0 -806.71097064666264 249.21495632733786 0 249.21495632733786 839.25306371064653 0 0 0 0 -104.10925133978128 1111.9597543932032 0 1111.9597543932032 851.13926795350926 0 0 0 0 -1306.8179570440566 103.75404261200219 0 103.75404261200219 1918.6817234061314 0 0 0 0 -4.9677998367477301 -4.9059426980007395 0 -4.9059426980007395 43.502456146539046 0 0 0 0 -2.3925538837881573 -1.7203548316836876 0 -1.7203548316836876 21.067186161379794 0 0 0 0 846.99880062897228 1174.7233623809934 0 1174.7233623809934 1088.5600152092684 0 0 0 0 531.16979843684976 537.7620330878417 0 537.7620330878417 445.49786694263275 0 0 0 0 211.42973273249072 911.69642213441693 0 911.69642213441693 1543.7100554406206 0 0 0 0 -3.1482550669552056 3.9693636156288932 0 3.9693636156288932 0.18134730905132557 0 0 0 0 404.25976987756508 1469.4776510887168 0 1469.4776510887168 1834.1359128855629 0 0 0 0 641.04522855905066 214.17949623154709 0 214.17949623154709 348.56743044511313 0 0 0 0 100.4330913878803 -422.11568366343408 0 -422.11568366343408 976.75713725207061 0 0 0 0 -34.954214521327913 366.86312074194393 0 366.86312074194393 1245.7336078090066 0 0 0 0 97.515537397167918 13.939354095065937 0 13.939354095065937 1418.2268571142831 0 0 0 0 991.11384392270156 1627.7850882376829 0 1627.7850882376829 2341.6315023465286 0 0 0 0 289.39220636651726 -421.23727424906792 0 -421.23727424906792 2247.63632688082 0 0 0 0 -621.79352231704468 -282.49288348306754 0 -282.49288348306754 828.87593543329058 0 0 0 0 -514.46094360561256 -585.51771346027499 0 -585.51771346027499 1512.146850936484 0 0 0 0 -129.54407614322508 1337.5087718471041 0 1337.5087718471041 146.56641406306471 0 0 0 0 -109.90528347815825 777.87480596161186 0 777.87480596161186 555.82729145925441 0 0 0 0 471.9467777002219 706.7326241755909 0 706.7326241755909 -43.375799166195065 0 0 0 0 1078.7614641539585 -101.57051449964729 0 -101.57051449964729 670.05052451962183 0 0 0 0 363.95587886983481 -833.60266052964835 0 -833.60266052964835 1278.5081451089845 0 0 0 0 -0.80177480805602386 2.9260401145437953 0 2.9260401145437953 9.1084221925297442 0 0 0 0 -112.88032576259502 -109.5223818827053 0 -109.5223818827053 1433.7758149442725 0 0 0 0 531.3159960588041 290.13825254737105 0 290.13825254737105 310.97759704848977 0 0 0 0 563.65761034255229 -185.20337974188413 0 -185.20337974188413 214.67352541159562 0 0 0 0 86.369853481150585 -265.60091037598522 0 -265.60091037598522 154.90598749236415 0 0 0 0 1.251227985355998 3.3153405057311858 0 3.3153405057311858 8.3167847485948272 0 0 0 0 308.82082361044741 137.13555171367807 0 137.13555171367807 -156.75617527783288 0 0 0 0 -123.43521685754558 657.52853558641073 0 657.52853558641073 332.90973661223688 0 0 0 0 362.2681945207388 457.83430534334275 0 457.83430534334275 552.49403318440272 0 0 0 0 243.88953920937706 -47.730259316464071 0 -47.730259316464071 724.56201948318994 0 0 0 0 69.613721900353454 -194.5280541133892 0 -194.5280541133892 501.631714285626 0 0 0 0 61.944675483730606 -65.759924452709129 0 -65.759924452709129 244.25282498865135 0 0 0 0 225.25449502205481 -269.17333584354401 0 -269.17333584354401 343.23714815783524 0 0 0 0 -313.196323993541 -210.16717256371521 0 -210.16717256371521 238.31795127462829 0 0 0 0 495.70722931302225 -790.70139927733544 0 -790.70139927733544 -6.3677058035063965 0 0 0 0 -156.83394601317923 226.26550861116539 0 226.26550861116539 21.24498320875864 0 0 0 0 -285.73502480409707 102.0078516424262 0 102.0078516424262 192.12503653426393 0 0 0 0 19.644384434078571 57.564905047000245 0 57.564905047000245 83.257769833064785 0 0 0 0 -63.679966692556263 123.97935793670695 0 123.97935793670695 90.323733572662604 0 0 0 0 -23.321108173209723 67.170914557491415 0 67.170914557491415 103.1167030086508 0 0 0 0 -45.134381389327473 93.930930459771389 0 93.930930459771389 51.653145718169981 0 0 0 0 -28.801708881667082 -54.934124495633114 0 -54.934124495633114 331.13764843488286 0 0 0 0 8.457044281052049 68.720258389174887 0 68.720258389174887 318.15778650607899 0 0 0 0 47.668284542407036 17.719666570210393 0 17.719666570210393 307.96141297002032 0 0 0 0 -44.62887129475439 163.83787674839459 0 163.83787674839459 419.0123124875272 0 0 0 0 159.11540152549378 -408.4576844071662 0 -408.4576844071662 670.92232610781321 0 0 0 0 -56.914976095729571 -63.997135296402121 0 -63.997135296402121 834.92468073557029 0 0 0 0 -10.909406115660204 -307.9276183183083 0 -307.9276183183083 480.34174396380786 0 0 0 0 -4.746969860960462 -251.07764339729147 0 -251.07764339729147 543.42183927748829 0 0 0 0 -3.3224209004735377 4.6174274089364324 0 4.6174274089364324 18.777100383495785 0 0 0 0 -177.61207203947288 -262.23261904079845 0 -262.23261904079845 544.72561975475242 0 0 0 0 13.485309547517204 -371.26308031806184 0 -371.26308031806184 323.47683829274501 0 0 0 0 120.82437774966172 -231.78122456021356 0 -231.78122456021356 504.19733749398483 0 0 0 0 98.224054209311163 -255.42052091063078 0 -255.42052091063078 874.57475785682982 0 0 0 0 138.54849499317189 -368.68566055835981 0 -368.68566055835981 475.10958285579727 0 0 0 0 134.64863289753336 -232.80940431222376 0 -232.80940431222376 451.30668239596343 0 0 0 0 238.03079989196283 -203.49140506480626 0 -203.49140506480626 675.64773285312731 0 0 0 0 290.46342328514686 -393.13961192860279 0 -393.13961192860279 540.63905278565153 0 0 0 0 352.60668782784893 -113.34165605562086 0 -113.34165605562086 1147.0893933574644 0 0 0 0 355.82684991968102 -374.55577633425855 0 -374.55577633425855 910.70697813323159 0 0 0 0 -229.4487218382086 -4.6022385453807146 0 -4.6022385453807146 2130.6548725636594 0 0 0 0 164.12839597063703 -638.86780220663968 0 -638.86780220663968 2168.8613402659098 0 0 0 0 280.85196799659911 -807.53500034881836 0 -807.53500034881836 1108.8214417759345 0 0 0 0 -2.1061267734970164 1.2624319134333959 0 1.2624319134333959 10.088501658047711 0 0 0 0 376.05923428870722 -1215.5857385359077 0 -1215.5857385359077 2697.3617933425558 0 0 0 0 -364.58345463036994 490.56665313087979 0 490.56665313087979 416.5509730381408 0 0 0 0 -148.28292055728014 -165.06665002617865 0 -165.06665002617865 2830.7672081235096 0 0 0 0 -140.01673525406818 -183.24142784219748 0 -183.24142784219748 2367.8364189631557 0 0 0 0 26.147329607664602 -410.61308272123756 0 -410.61308272123756 3172.5075861846835 0 0 0 0 -549.0018146991431 -386.31994606732724 0 -386.31994606732724 3174.0875654455431 0 0 0 0 -704.76375368711342 -71.552270863406193 0 -71.552270863406193 4497.3671730334436 0 0 0 0 46.269128833146965 -712.01990084505076 0 -712.01990084505076 2760.32581551147 0 0 0 0 -385.00130634386966 -959.81942815294076 0 -959.81942815294076 4502.2065149834989 0 0 0 0 40.623084518991902 -1171.2374805710124 0 -1171.2374805710124 2806.5521014285077 0 0 0 0 465.32088626680502 -2045.1861813915993 0 -2045.1861813915993 4488.8693604843183 0 0 0 0 368.12239707902154 66.534706125572029 0 66.534706125572029 1374.5610506378102 0 0 0 0 2405.0312388899833 -1440.1949154325891 0 -1440.1949154325891 949.78756265050822 0 0 0 0 12.501142349735249 -5.4318803150826707 0 -5.4318803150826707 4.9673741734484196 0 0 0 0 1050.9800372544751 376.71993214969865 0 376.71993214969865 -1301.4829843226041 0 0 0 0 88.478140156047232 723.80779248546605 0 723.80779248546605 4499.3795302649114 0 0 0 0 -290.06215656535187 -504.52177612008074 0 -504.52177612008074 298.185396669216 0 0 0 0 27.728965270039666 -21.68180843061749 0 -21.68180843061749 8.6231672206818821 0 0 0 0 88.430789499799431 723.12782531791891 0 723.12782531791891 4501.6963050903105 0 0 0 0 -286.91392448382908 418.09829234144854 0 418.09829234144854 4410.8281522400548 0 0 0 0 747.1415879052247 -359.5201630032326 0 -359.5201630032326 -1792.5966149976948 0 0 0 0 -97.123860726711428 292.3170646509331 0 292.3170646509331 1308.9093959943373 0 0 0 0 270.46558328686933 189.03273963369247 0 189.03273963369247 1302.5566346263759 0 0 0 0 286.18469810883835 672.39276402270059 0 672.39276402270059 624.44710695457661 0 0 0 0 304.82759244076328 70.47195212853336 0 70.47195212853336 1558.8883218467245 0 0 0 0 -11.405875530537742 407.28545445042641 0 407.28545445042641 1735.1210202103848 0 0 0 0 34.860515470767496 64.413657780503854 0 64.413657780503854 2044.7209523369306 0 0 0 0 37.492190901733579 64.805413129448482 0 64.805413129448482 1667.5274040081631 0 0 0 0 378.92379712857291 599.0016158283845 0 599.0016158283845 1370.9675359209921 0 0 0 0 -28.006623499128182 240.75344898220828 0 240.75344898220828 2521.4652771490428 0 0 0 0 385.59972485641657 -610.40134009442238 0 -610.40134009442238 3416.618523062928 0 0 0 0 384.59032977842617 -143.66567376014495 0 -143.66567376014495 2039.8904362357453 0 0 0 0 583.13536644371163 -1036.640093228378 0 -1036.640093228378 -1102.271058121602 0 0 0 0 4.2462620905347386 5.1698131925171058 0 5.1698131925171058 9.7275247502731084 0 0 0 0 139.04540132971852 -43.466325583859543 0 -43.466325583859543 2079.4013674304342 0 0 0 0 119.9015631483926 -456.8585554269348 0 -456.8585554269348 1949.999240858345 0 0 0 0 -8.3159929597122755 -133.49097530805466 0 -133.49097530805466 1698.0183074312254 0 0 0 0 73.784262865485744 -76.746762989503623 0 -76.746762989503623 1705.3342804487602 0 0 0 0 104.31791631720898 -141.70094672719733 0 -141.70094672719733 1833.3230468761431 0 0 0 0 119.40927162712251 -565.34159773862666 0 -565.34159773862666 1413.2118927407878 0 0 0 0 160.19316673756202 -198.84484421745037 0 -198.84484421745037 1200.0643697036628 0 0 0 0 123.29805600861869 -243.52237761431093 0 -243.52237761431093 1194.2117547771577 0 0 0 0 173.90494984336055 -97.785214868390995 0 -97.785214868390995 1498.6477334039855 0 0 0 0 244.78114051486136 -289.67701919812362 0 -289.67701919812362 1615.1285679771709 0 0 0 0 317.50491983823804 -159.58752095607633 0 -159.58752095607633 1041.08646381578 0 0 0 0 440.85777839979937 -274.43493215701665 0 -274.43493215701665 1063.3596222396759 0 0 0 0 854.63443852055002 -682.98643401303912 0 -682.98643401303912 1629.1786108186461 0 0 0 0 639.39460037362164 -60.405090113069718 0 -60.405090113069718 1421.7516816933567 0 0 0 0 147.88000682247002 61.630543416938963 0 61.630543416938963 1575.2507590165933 0 0 0 0 218.68293399238792 -145.25697644361799 0 -145.25697644361799 1515.4984377998308 0 0 0 0 178.02333425450252 -174.52492826539674 0 -174.52492826539674 -25.760896213574597 0 0 0 0 5.5406429782706255 -123.11174032132476 0 -123.11174032132476 587.15942672992696 0 0 0 0 -132.07293838943951 -204.05733198757116 0 -204.05733198757116 566.98603625882242 0 0 0 0 13.732055466666655 889.43789852682085 0 889.43789852682085 4274.935691220242 0 0 0 0 1005.6555506697384 1748.2939542425447 0 1748.2939542425447 3226.1734307092265 0 0 0 0 -3.3888126830351424 888.48393223015705 0 888.48393223015705 4494.7716345766003 0 0 0 0 18.818243667151549 -12.57860062022457 0 -12.57860062022457 17.550805874688336 0 0 0 0 158.89085769834537 20.217122326227582 0 20.217122326227582 -148.41497396585874 0 0 0 0 216.60211671301204 132.87491573564694 0 132.87491573564694 37.088838599895098 0 0 0 0 50.000799828621439 164.12044341730234 0 164.12044341730234 90.007701065875153 0 0 0 0 371.28752557889675 -324.47393313735847 0 -324.47393313735847 420.56422488806493 0 0 0 0 -215.71920128575084 89.571408865197554 0 89.571408865197554 129.84571803236759 0 0 0 0 -1496.007905103088 -761.51267803715791 0 -761.51267803715791 95.924801026896205 0 0 0 0 2.1362541128190733 -10.655237359102095 0 -10.655237359102095 69.648456832259342 0 0 0 0 13.349875419658753 -10.727402987169373 0 -10.727402987169373 7.5613989977875349 0 0 0 0 -284.7618038512806 452.07919631685581 0 452.07919631685581 4492.1358167510034 0 0 0 0 29.84822149041571 -33.340107886288479 0 -33.340107886288479 21.966195797008005 0 0 0 0 406.82371002712114 -1145.4822071834178 0 -1145.4822071834178 3362.599536581587 0 0 0 0 88.289928191890795 -661.83283188925429 0 -661.83283188925429 -881.69194144601647 0 0 0 0 -395.07225866403769 -376.46959613850191 0 -376.46959613850191 -461.98858066780804 0 0 0 0 1086.7056408740746 -77.52058295630259 0 -77.52058295630259 -626.83748422033204 0 0 0 0 1447.2944859870204 1052.7638581190906 0 1052.7638581190906 910.28593981179858 0 0 0 0 1089.8381782427177 -1366.7241451868413 0 -1366.7241451868413 -1168.8717130640403 0 0 0 0 -1069.4962364312591 2438.2168820969082 0 2438.2168820969082 4267.1747425617896 0 0 0 0 264.41278995910852 789.16346067289089 0 789.16346067289089 3184.0446138437965 0 0 0 0 38.495074503985961 -66.231341470103871 0 -66.231341470103871 -90.60271643124679 0 0 0 0 7.3988436882711781 13.399741090778027 0 13.399741090778027 28.06287013845888 0 0 0 0 368.70339833498474 1046.5135461455611 0 1046.5135461455611 1242.285284972535 0 0 0 0 435.31977624805813 -288.90532336760828 0 -288.90532336760828 3975.2582984042701 0 0 0 0 -292.74170775436505 -251.26889363132796 0 -251.26889363132796 -134.05382766918774 0 0 0 0 270.3265057259523 196.94545014395499 0 196.94545014395499 -49.467748279104171 0 0 0 0 29.991040792271633 83.544519849443077 0 83.544519849443077 4380.8981525903801 0 0 0 0 1319.0092841294427 -2289.4787559217439 0 -2289.4787559217439 -566.41692488633635 0 0 0 0 -879.20551383727206 1283.1067904652527 0 1283.1067904652527 5568.0570060569626 0 0 0 0 544.94446454765693 -644.9890144299552 0 -644.9890144299552 435.27950474115642 0 0 0 0 -1.3787649303684979 1.4566642651849797 0 1.4566642651849797 31.880557565040338 0 0 0 0 564.94814864524199 -1163.9511257554611 0 -1163.9511257554611 1977.5207074762911 0 0 0 0 -2005.3123068468676 1383.532940042898 0 1383.532940042898 3622.1290121155544 0 0 0 0 -3.8521872361379792 -193.74947566908304 0 -193.74947566908304 948.94680797015462 0 0 0 0 151.26959664989408 -324.25651064543854 0 -324.25651064543854 958.38552012726109 0 0 0 0 13.389432692527407 -708.50908561125652 0 -708.50908561125652 1908.4531940696652 0 0 0 0 3.4450055321009216 5.5147351343301665 0 5.5147351343301665 5.3712810527509198 0 0 0 0 598.72534882052878 317.49791722615737 0 317.49791722615737 600.65646412213664 0 0 0 0 -394.9861714506651 730.23377720764074 0 730.23377720764074 2137.0035377489949 0 0 0 0 -671.44065103196408 -451.54638570905809 0 -451.54638570905809 36.906496462815994 0 0 0 0 847.17925877451671 1179.3473471238303 0 1179.3473471238303 1639.3089852022772 0 0 0 0 615.19774571813468 295.72803850504351 0 295.72803850504351 2205.1094148324828 0 0 0 0 51.185036135603944 57.925764443948978 0 57.925764443948978 26.990339019539874 0 0 0 0 -102.49436124277054 -465.59053372605558 0 -465.59053372605558 1585.4707385780275 0 0 0 0 -220.8283211963826 -405.94530908037996 0 -405.94530908037996 1529.0848881183938 0 0 0 0 -171.2735939017175 -355.98852464494303 0 -355.98852464494303 1578.9094932091975 0 0 0 0 14.175523350708502 -1.605113057332872 0 -1.605113057332872 -27.627917827158086 0 0 0 0 -146.00135390770447 -504.90322579650092 0 -504.90322579650092 1492.366215492777 0 0 0 0 -195.12818448466624 -476.50309954058594 0 -476.50309954058594 1722.0566566873276 0 0 0 0 -130.65957157119192 -550.15603814456063 0 -550.15603814456063 1622.2388197113905 0 0 0 0 -204.57171667193143 -397.84183492874763 0 -397.84183492874763 1503.0741515823283 0 0 0 0 -302.92524630413754 -348.44831363509184 0 -348.44831363509184 1710.324743094392 0 0 0 0 141.96331531208017 -487.56563954594901 0 -487.56563954594901 1092.5695829255492 0 0 0 0 -207.08446343085234 -392.70672164856114 0 -392.70672164856114 1598.1817804670673 0 0 0 0 -19.74110426229538 -358.67487372021742 0 -358.67487372021742 1093.4259886139407 0 0 0 0 -142.26497074435883 -160.41582382820343 0 -160.41582382820343 1248.9941660945951 0 0 0 0 -167.88105422963417 -218.3660305902431 0 -218.3660305902431 1227.8685591511021 0 0 0 0 -220.51363507538008 123.47274820592429 0 123.47274820592429 362.33097665876267 0 0 0 0 -102.6664027492443 190.19511023416271 0 190.19511023416271 359.26257424069627 0 0 0 0 -337.03947048283226 263.80000407098487 0 263.80000407098487 343.39244051293645 0 0 0 0 -188.96687940975244 364.50163378883735 0 364.50163378883735 238.62889191621798 0 0 0 0 -407.44956143712625 285.34746108410764 0 285.34746108410764 254.78707064320042 0 0 0 0 -145.0912447558876 644.94877570226981 0 644.94877570226981 -185.65565937021165 0 0 0 0 -261.11549766741064 1206.5877514697677 0 1206.5877514697677 794.42598716866632 0 0 0 0 -243.37795037007891 1207.550788479637 0 1207.550788479637 216.35859403718496 0 0 0 0 -352.54333896787648 910.94576794380441 0 910.94576794380441 -1380.7632357962357 0 0 0 0 -73.274752418201388 863.7239458889344 0 863.7239458889344 -1389.251355047898 0 0 0 0 -485.78085428421764 375.32769255471067 0 375.32769255471067 -280.53729159992872 0 0 0 0 -338.20407763390722 509.44789507243695 0 509.44789507243695 -204.08627873455407 0 0 0 0 -216.10641660830879 385.82791936881404 0 385.82791936881404 -214.79651344300146 0 0 0 0 -548.65654493766488 629.00186451007175 0 629.00186451007175 -318.99298966543938 0 0 0 0 91.947921391096315 142.30066170814098 0 142.30066170814098 -298.24266879494826 0 0 0 0 5.1335144084952589 -1.2773626434219523 0 -1.2773626434219523 -3.9646488733485654 0 0 0 0 -115.08001074124331 -385.53482051651372 0 -385.53482051651372 -235.05472284426014 0 0 0 0 -331.05753949156497 764.63938451623108 0 764.63938451623108 -533.94302531136782 0 0 0 0 -189.47087011788017 602.77350405612879 0 602.77350405612879 -474.85885792212503 0 0 0 0 31.970667064022564 309.75070148483064 0 309.75070148483064 -93.954636859153652 0 0 0 0 -441.87205285611708 430.71154077665778 0 430.71154077665778 133.91043440125941 0 0 0 0 -304.72855305935082 313.20601618751607 0 313.20601618751607 240.93695483623014 0 0 0 0 -246.41826586000388 294.18991671410913 0 294.18991671410913 145.18441254161507 0 0 0 0 -147.78235485855839 405.76733014229831 0 405.76733014229831 -81.831556402390561 0 0 0 0 -79.632567796230433 283.65814311584836 0 283.65814311584836 128.45813405711669 0 0 0 0 -53.498761491071491 271.55360264991032 0 271.55360264991032 -26.027233185252044 0 0 0 0 -42.167414140123583 231.40891698322594 0 231.40891698322594 105.48525272101688 0 0 0 0 17.87386304885149 225.13390877948405 0 225.13390877948405 -77.33175074630708 0 0 0 0 1.0696295233792625 237.6669988136855 0 237.6669988136855 -35.494271351592033 0 0 0 0 11.317976191181515 256.07070521698915 0 256.07070521698915 -87.594652730302187 0 0 0 0 29.150645120447734 246.61095151544578 0 246.61095151544578 -124.52247435200843 0 0 0 0 341.75977221397261 176.02003792189134 0 176.02003792189134 -329.49019262931779 0 0 0 0 159.14736871435889 297.47189999202237 0 297.47189999202237 -245.56319283217454 0 0 0 0 76.949499921046296 61.859638887099678 0 61.859638887099678 30.217432416565313 0 0 0 0 354.18158581637181 516.00684136111886 0 516.00684136111886 -30.174458688881714 0 0 0 0 10.533286981357378 122.42722239465365 0 122.42722239465365 -140.0951473701025 0 0 0 0 1377.3436368134717 146.47377588008203 0 146.47377588008203 -2313.8218412958395 0 0 0 0 15.844207175198015 -5.9065231119672532 0 -5.9065231119672532 -23.32459056162854 0 0 0 0 -162.44827664005788 43.70607388256758 0 43.70607388256758 -36.117937727327217 0 0 0 0 -268.41508026865631 -239.23570192661282 0 -239.23570192661282 -132.44335171184139 0 0 0 0 -1.2638836175483448 134.838405154469 0 134.838405154469 18.50781812419882 0 0 0 0 12.164786132209883 205.26600509008676 0 205.26600509008676 -20.196638259352767 0 0 0 0 -32.216824439470656 199.17725596675882 0 199.17725596675882 -15.871968416151503 0 0 0 0 -7.5459729564026929 188.74528463114257 0 188.74528463114257 35.285303813794599 0 0 0 0 -33.955064785477589 190.57062666952879 0 190.57062666952879 96.446762055260479 0 0 0 0 -54.159785745345289 189.60613446415664 0 189.60613446415664 96.401291103393305 0 0 0 0 -72.23924336379423 203.21314850674389 0 203.21314850674389 179.84422499711218 0 0 0 0 -75.132139850938984 162.71660301557131 0 162.71660301557131 185.72290777302987 0 0 0 0 -71.05383078513114 144.99703237888025 0 144.99703237888025 245.23808475880196 0 0 0 0 -103.52267175535235 181.95301805550116 0 181.95301805550116 249.64345807272912 0 0 0 0 -89.571754159474949 181.60893531602051 0 181.60893531602051 213.78449285372335 0 0 0 0 -109.28488926445425 109.64861928691244 0 109.64861928691244 339.86030768329147 0 0 0 0 -132.89924404581507 172.24617045125706 0 172.24617045125706 309.97168334352318 0 0 0 0 -105.72557373940799 221.59454575481504 0 221.59454575481504 215.45062235907699 0 0 0 0 -74.133439914225164 218.55971809714356 0 218.55971809714356 105.62079181575973 0 0 0 0 -121.38483598337916 259.69072110681009 0 259.69072110681009 126.44624160563399 0 0 0 0 -171.29555110822548 228.10763314143696 0 228.10763314143696 227.73095372899388 0 0 0 0 -185.75624449219322 215.14668177553176 0 215.14668177553176 293.96613015940238 0 0 0 0 -106.29846281099162 157.73254501549673 0 157.73254501549673 282.38199193743367 0 0 0 0 -143.4058067577671 101.90790826118791 0 101.90790826118791 393.20884770502744 0 0 0 0 -74.235756619746098 5.4942365637652983 0 5.4942365637652983 412.68804202863976 0 0 0 0 -140.68246570539395 61.656048134023877 0 61.656048134023877 476.19465431498247 0 0 0 0 -79.965707934490638 74.91852455035405 0 74.91852455035405 387.99014608854486 0 0 0 0 -116.39835542928995 103.55887085178983 0 103.55887085178983 343.51956418507325 0 0 0 0 -237.06300081260451 168.36531918580658 0 168.36531918580658 381.64119435743487 0 0 0 0 -164.54039695603569 152.47120046386408 0 152.47120046386408 323.69970922797802 0 0 0 0 -186.62442910391383 106.76860390145885 0 106.76860390145885 445.93312491875258 0 0 0 0 -4.178160063406267 53.94906392550854 0 53.94906392550854 -30.290693249309243 0 0 0 0 -0.12874740236083237 72.250009864732164 0 72.250009864732164 -17.90157556238325 0 0 0 0 436.15670930766555 -333.56990929831682 0 -333.56990929831682 257.45035827088304 0 0 0 0 158.94181230277525 -9.4029790151375892 0 -9.4029790151375892 178.87563927679548 0 0 0 0 4.2604490572769134 9.0328428013775977 0 9.0328428013775977 10.339870154416687 0 0 0 0 381.13846531532249 -363.54183366681991 0 -363.54183366681991 774.13146547991164 0 0 0 0 174.24154970660175 133.13423660182934 0 133.13423660182934 283.51855862662342 0 0 0 0 297.87764663404778 -368.3845765708229 0 -368.3845765708229 602.11868189223605 0 0 0 0 -96.394836486824261 -160.16988284080617 0 -160.16988284080617 693.90875089756992 0 0 0 0 14.822988716784199 19.759081160036793 0 19.759081160036793 12.715302645393638 0 0 0 0 285.96533590534273 -475.10300626383605 0 -475.10300626383605 299.53219593616086 0 0 0 0 35.406977168205472 48.124746985306416 0 48.124746985306416 51.307321587575032 0 0 0 0 -249.87008047470044 -249.87064194891673 0 -249.87064194891673 -223.15568393532158 0 0 0 0 -0.69180852460815601 2.0847026988552528 0 2.0847026988552528 16.603294271135557 0 0 0 0 58.43887826934224 150.33264547622821 0 150.33264547622821 113.2857805902604 0 0 0 0 62.558275005473725 59.325340522984384 0 59.325340522984384 49.635175793854224 0 0 0 0 101.77568601806706 151.67974519995914 0 151.67974519995914 45.507980603313626 0 0 0 0 -224.92984272351714 296.55737956751841 0 296.55737956751841 147.10051905073283 0 0 0 0 -237.9276977604859 -212.61969646433317 0 -212.61969646433317 -172.75281472077768 0 0 0 0 9.608510316687898 152.89026965253652 0 152.89026965253652 48.248401456570718 0 0 0 0 47.775071452575503 163.3993465178537 0 163.3993465178537 41.03393669090292 0 0 0 0 -0.40758031245059101 165.28689141242648 0 165.28689141242648 87.008689828289789 0 0 0 0 191.62012353077716 154.22264430379937 0 154.22264430379937 -139.79345845002626 0 0 0 0 22.766905581625281 67.93840861719066 0 67.93840861719066 61.925205758268987 0 0 0 0 -10.900021563851624 82.25205665154499 0 82.25205665154499 46.272375128599379 0 0 0 0 77.432557304993679 111.25880635747126 0 111.25880635747126 72.438441810329095 0 0 0 0 56.140728626363028 67.996619490334126 0 67.996619490334126 46.443140756431276 0 0 0 0 -10.792581677211274 86.545158899065427 0 86.545158899065427 161.69240713126783 0 0 0 0 3.3997216394272982 116.78435160535446 0 116.78435160535446 77.646703832151616 0 0 0 0 10.86221758639374 58.985949876724433 0 58.985949876724433 104.38223718878308 0 0 0 0 -36.978234440401138 154.96410437406303 0 154.96410437406303 160.87868002420873 0 0 0 0 3.8461555156405893 148.34128339909876 0 148.34128339909876 95.381181208766066 0 0 0 0 -76.12720157425656 151.57321100035483 0 151.57321100035483 160.60146643631742 0 0 0 0 -44.012070510721969 111.14679614247143 0 111.14679614247143 202.81370997927661 0 0 0 0 -68.695274943480371 -182.67413815105124 0 -182.67413815105124 42.238167892221099 0 0 0 0 -34.659201707596367 116.53539365399047 0 116.53539365399047 164.13952022294507 0 0 0 0 -55.241801501981712 29.129816148824432 0 29.129816148824432 134.63201005129895 0 0 0 0 173.46867810567164 102.4178630639617 0 102.4178630639617 57.262573805368447 0 0 0 0 -61.608353572374114 -41.183643705596353 0 -41.183643705596353 210.20601025009455 0 0 0 0 -15.178432869039705 -4.1196058046272626 0 -4.1196058046272626 13.412735923050448 0 0 0 0 108.23917098686434 76.350482412417477 0 76.350482412417477 50.382598626690196 0 0 0 0 -16.76631738422293 71.437872435828467 0 71.437872435828467 48.273414111237798 0 0 0 0 -65.349494624348154 -32.155231487944548 0 -32.155231487944548 99.779199010466982 0 0 0 0 -8.8968453327868566 30.440624550111217 0 30.440624550111217 43.939520374823289 0 0 0 0 7.1412500415990507 14.566445078067773 0 14.566445078067773 38.49682078558908 0 0 0 0 -45.46037157839055 24.723752131646506 0 24.723752131646506 131.07054137008527 0 0 0 0 2.8175194637900027 6.1002151086838055 0 6.1002151086838055 -5.041421277795763 0 0 0 0 -120.26616705469542 168.68126124397986 0 168.68126124397986 -183.5341599090716 0 0 0 0 9.0145801340147109 52.663064941780796 0 52.663064941780796 65.620150877627921 0 0 0 0 51.039103815694034 108.46989734124872 0 108.46989734124872 197.73632520693354 0 0 0 0 412.24550912811537 355.06222644674563 0 355.06222644674563 -370.88951481159893 0 0 0 0 127.17951959955462 129.06152355551967 0 129.06152355551967 66.355382402369287 0 0 0 0 103.22997744659006 125.44628459703381 0 125.44628459703381 146.43277446284355 0 0 0 0 284.72104458310787 232.42606173205422 0 232.42606173205422 142.45986472658478 0 0 0 0 168.75073396435619 174.67038289402262 0 174.67038289402262 115.90344540883962 0 0 0 0 520.57976668972333 128.52144269480777 0 128.52144269480777 5.0306764382839901 0 0 0 0 216.19226942947353 18.186432206028257 0 18.186432206028257 -27.722641515458236 0 0 0 0 60.193416384376178 57.684729027881986 0 57.684729027881986 61.454531174298609 0 0 0 0 45.743101439580641 61.161202982748364 0 61.161202982748364 65.955154304378084 0 0 0 0 95.474944243136633 124.83116795271053 0 124.83116795271053 91.436139665813243 0 0 0 0 126.23923226025363 133.73864030874756 0 133.73864030874756 76.466144000194618 0 0 0 0 117.4891487408313 123.66412315269554 0 123.66412315269554 65.675357372620965 0 0 0 0 102.63937382456243 133.24803206187789 0 133.24803206187789 100.2098718717898 0 0 0 0 46.255752960696555 117.50213989554322 0 117.50213989554322 98.34070518743556 0 0 0 0 -126.5378293516078 93.242144997035211 0 93.242144997035211 222.73547844113955 0 0 0 0 5.2577939576667632 124.10657787587843 0 124.10657787587843 216.06544051018864 0 0 0 0 121.2823645069202 195.61362377519436 0 195.61362377519436 154.23646550153353 0 0 0 0 255.37009796778966 -2.6682782556981692 0 -2.6682782556981692 267.06153296511184 0 0 0 0 26.5127032036944 284.51169640710577 0 284.51169640710577 32.524686249591468 0 0 0 0 278.16373734324588 107.05413594967104 0 107.05413594967104 188.92169010786665 0 0 0 0 331.59767111434303 37.569502720643868 0 37.569502720643868 214.03069174108532 0 0 0 0 0.18825769043905893 42.576606201211689 0 42.576606201211689 360.16460961502889 0 0 0 0 389.23055907838807 435.72581431857725 0 435.72581431857725 457.93411038691193 0 0 0 0 181.69028596016733 147.80544823956006 0 147.80544823956006 299.74517646551976 0 0 0 0 150.13590104476452 168.79435242834234 0 168.79435242834234 743.40013123517565 0 0 0 0 -9.2731964253543993 168.32956990230014 0 168.32956990230014 416.49669607279066 0 0 0 0 -209.40654224349964 -628.56843870986268 0 -628.56843870986268 -337.60509489987817 0 0 0 0 -0.48813710937047716 1.3585870375004205 0 1.3585870375004205 3.1417519159251839 0 0 0 0 -4.5714481913844232 -4.237651886590271 0 -4.237651886590271 3.6425777118377738 0 0 0 0 -557.32513732471125 491.02904492504786 0 491.02904492504786 480.57315172839299 0 0 0 0 432.52640124960999 -110.12890729873106 0 -110.12890729873106 56.292704586200216 0 0 0 0 331.49623812428035 -215.37318334167139 0 -215.37318334167139 441.90067105262642 0 0 0 0 -68.490441492011996 2.1148193220087705 0 2.1148193220087705 332.07374426601746 0 0 0 0 1.1794760126537138 -3.181739135356672 0 -3.181739135356672 7.8285681657503972 0 0 0 0 -540.59336083092785 -288.44279794722024 0 -288.44279794722024 -90.765040105441585 0 0 0 0 6.3197009658815659 -82.08274012574293 0 -82.08274012574293 -4.2565730183778214 0 0 0 0 -355.48853102684825 -384.27061540003069 0 -384.27061540003069 -160.00668334532384 0 0 0 0 -260.14004762556942 -173.06093128839711 0 -173.06093128839711 250.84116923790498 0 0 0 0 341.09871965534467 228.41071473163993 0 228.41071473163993 205.82955451436283 0 0 0 0 133.21396758172705 142.32964557244486 0 142.32964557244486 174.55477513414189 0 0 0 0 -254.12504628562056 -27.544033461590516 0 -27.544033461590516 -30.90582619061388 0 0 0 0 -365.36817044334566 -187.55346480100934 0 -187.55346480100934 60.581896279891225 0 0 0 0 2.0526970879362949 -8.2685992349185042 0 -8.2685992349185042 23.314613615562124 0 0 0 0 164.24589156168986 160.80393928703961 0 160.80393928703961 158.59797920991696 0 0 0 0 -182.53128161875975 -110.68025223313998 0 -110.68025223313998 -49.943075577228228 0 0 0 0 -64.218095825797718 -66.327461527138439 0 -66.327461527138439 29.556261157467816 0 0 0 0 -200.29605994869962 -30.421667903610796 0 -30.421667903610796 154.60696398176333 0 0 0 0 -63.139997132640019 -77.920584051795231 0 -77.920584051795231 149.87652737068674 0 0 0 0 -223.83373230134748 -89.7808254430538 0 -89.7808254430538 91.34286842844449 0 0 0 0 0.3183173213894861 95.121169047519288 0 95.121169047519288 205.29665765215759 0 0 0 0 -48.146413097967525 33.027953783181147 0 33.027953783181147 148.3228311530911 0 0 0 0 162.94227833837158 139.21715819421843 0 139.21715819421843 148.86229238029046 0 0 0 0 61.171867935755472 50.519397067486352 0 50.519397067486352 125.13784200138616 0 0 0 0 -4.8456441481189358 144.65634326362124 0 144.65634326362124 238.00153849134404 0 0 0 0 124.90868659526859 111.31272292049835 0 111.31272292049835 143.1897193939194 0 0 0 0 -111.62313459743768 56.53709521334622 0 56.53709521334622 218.8858713246118 0 0 0 0 -52.993597689885661 10.962624269074702 0 10.962624269074702 162.81717630576426 0 0 0 0 -64.110145331126631 9.977915817752109 0 9.977915817752109 143.19325263522302 0 0 0 0 -257.28057806874494 -53.660979021331514 0 -53.660979021331514 268.36224697508987 0 0 0 0 15.707177316186062 63.530440412474491 0 63.530440412474491 175.64768852746784 0 0 0 0 -12.422535868002797 94.563925953494163 0 94.563925953494163 147.92209894255939 0 0 0 0 -120.13456188108103 88.193986806625617 0 88.193986806625617 197.84443484475923 0 0 0 0 -219.23461668757955 39.963026911784254 0 39.963026911784254 238.14904941052373 0 0 0 0 -67.678081018049852 53.515562962813419 0 53.515562962813419 241.61214558492429 0 0 0 0 -107.60817111813412 138.91868963188881 0 138.91868963188881 288.70724583504489 0 0 0 0 -40.867710949823959 96.789823361752497 0 96.789823361752497 309.45654429796559 0 0 0 0 -128.7387233698646 -50.921284122749057 0 -50.921284122749057 342.01211556449562 0 0 0 0 -95.966332197294832 56.664499877093476 0 56.664499877093476 419.26195372679649 0 0 0 0 -122.58736757927545 112.05347394340424 0 112.05347394340424 204.88993727008346 0 0 0 0 -66.294600694873225 -18.95139263341116 0 -18.95139263341116 456.24293860518083 0 0 0 0 -18.724940515476192 -61.569518866857834 0 -61.569518866857834 425.7628884177102 0 0 0 0 -79.494469184401169 60.93829337745774 0 60.93829337745774 415.90372624417068 0 0 0 0 -28.13454520538653 49.057055982339079 0 49.057055982339079 351.09231749610626 0 0 0 0 -97.189018827149994 40.79148578485183 0 40.79148578485183 550.72913563922339 0 0 0 0 134.53631188104555 69.360633863921976 0 69.360633863921976 374.37420808396564 0 0 0 0 83.862036505952346 -132.13326585834784 0 -132.13326585834784 468.82829609188775 0 0 0 0 -54.593996001240157 -108.46979669798748 0 -108.46979669798748 588.93732976134925 0 0 0 0 98.431402268043712 -64.735791953125954 0 -64.735791953125954 32.784792514969013 0 0 0 0 41.55316850906911 55.032306921330019 0 55.032306921330019 48.555372906266712 0 0 0 0 -4.8403763873736381 0.17887281656117437 0 0.17887281656117437 7.4153386230097169 0 0 0 0 52.531560626412102 126.52655064762075 0 126.52655064762075 446.46038643555221 0 0 0 0 60.155862892717778 -204.95593980950798 0 -204.95593980950798 223.61693267816736 0 0 0 0 -51.481272981607617 -50.114523519681825 0 -50.114523519681825 113.91793164199044 0 0 0 0 -12.079638311518281 -22.471869421950203 0 -22.471869421950203 -4.3378952801536457 0 0 0 0 78.833109226998204 -26.916131838283036 0 -26.916131838283036 -44.078436320851324 0 0 0 0 -64.162506218024646 21.73113225477573 0 21.73113225477573 -4.5109202886233106 0 0 0 0 -7.3429683147842297 -4.0440256158181001 0 -4.0440256158181001 25.448053384272498 0 0 0 0 -41.111679681842361 -8.2614126937914989 0 -8.2614126937914989 36.064217903600365 0 0 0 0 -25.241258007318301 -7.8396548252217144 0 -7.8396548252217144 19.673477096544701 0 0 0 0 -12.19083989084681 -5.3266509588299016 0 -5.3266509588299016 9.4327727159150925 0 0 0 0 -20.448708666654355 1.7485255055728075 0 1.7485255055728075 15.746329817725382 0 0 0 0 2.9238897940031165 6.9417480152842472 0 6.9417480152842472 1.8436045642301906 0 0 0 0 1.7456405152147809 -1.3242566548983064 0 -1.3242566548983064 -0.69019463722278829 0 0 0 0 -110.77440320667665 -250.38932197163376 0 -250.38932197163376 215.40685413692427 0 0 0 0 -20.235204658225268 -15.81857821089811 0 -15.81857821089811 9.7682609984387341 0 0 0 0 -210.96318066875392 53.218934850017831 0 53.218934850017831 219.24340650238446 0 0 0 0 -36.745458540413892 -55.199177454518576 0 -55.199177454518576 53.260800337244291 0 0 0 0 -19.272597337191002 15.686424252612348 0 15.686424252612348 105.90574817740962 0 0 0 0 -30.141260259841197 2.5607886054154712 0 2.5607886054154712 84.362954725457143 0 0 0 0 -93.716152139098995 -102.0872292606 0 -102.0872292606 111.21374351706254 0 0 0 0 -58.101065770411878 -0.46394999343101517 0 -0.46394999343101517 80.116385784371232 0 0 0 0 -17.831478734474331 19.239102936615382 0 19.239102936615382 103.3073041713651 0 0 0 0 -32.969792012826915 13.206821284066052 0 13.206821284066052 69.13097467341278 0 0 0 0 -25.373373053082105 28.640805746414117 0 28.640805746414117 91.605099313404935 0 0 0 0 -23.471531103962661 11.410919004230891 0 11.410919004230891 101.16014589026599 0 0 0 0 -31.696652772152447 -22.831411968145403 0 -22.831411968145403 70.460036721753568 0 0 0 0 -40.612192021529275 -18.93505217608697 0 -18.93505217608697 18.227318367467731 0 0 0 0 -25.348961118919412 0.10174317168083746 0 0.10174317168083746 34.769492630977169 0 0 0 0 -31.088762110166499 -16.188101432861004 0 -16.188101432861004 63.872750294787693 0 0 0 0 -19.305351596339307 -13.755569218683295 0 -13.755569218683295 58.787051612813485 0 0 0 0 -35.137218768402818 -20.262446291577362 0 -20.262446291577362 68.891217282420257 0 0 0 0 -37.404845841418592 3.9518553906254965 0 3.9518553906254965 112.02405614867166 0 0 0 0 -14.756120697040304 -2.8473095230500007 0 -2.8473095230500007 56.054741721566501 0 0 0 0 -10.687453251785882 32.711131146745174 0 32.711131146745174 60.335839443898294 0 0 0 0 2.2925945824823657 10.904680743073641 0 10.904680743073641 63.428265223730705 0 0 0 0 -2.5331120036989887 -7.9782474983403517 0 -7.9782474983403517 107.02373701261786 0 0 0 0 -21.43617234174269 17.813938928852551 0 17.813938928852551 52.920725006386903 0 0 0 0 -55.302011929245054 26.198750894573095 0 26.198750894573095 25.93567292408261 0 0 0 0 -38.805095860969232 -13.600073965291813 0 -13.600073965291813 48.41927382274298 0 0 0 0 -80.181558205451438 -6.0409891877352493 0 -6.0409891877352493 55.755315764377883 0 0 0 0 -2.7218201817158842 -42.67130990397709 0 -42.67130990397709 84.073615801029518 0 0 0 0 -10.509123511843427 -19.958818876708392 0 -19.958818876708392 75.157646235325956 0 0 0 0 -19.459167408178473 -1.2319801595076569 0 -1.2319801595076569 47.222267524855852 0 0 0 0 -30.266973209946055 0.087472868165605178 0 0.087472868165605178 18.737655524117486 0 0 0 0 -46.759130392639236 -26.11531233243295 0 -26.11531233243295 63.075460979613126 0 0 0 0 -22.978359198514227 -19.17796136780089 0 -19.17796136780089 63.233331222640118 0 0 0 0 -39.893457727746863 12.917762011653394 0 12.917762011653394 96.911244028706278 0 0 0 0 -20.012516477016106 20.810473387631646 0 20.810473387631646 66.264803928879701 0 0 0 0 -46.180118113912613 -29.586363244925451 0 -29.586363244925451 21.926355962030357 0 0 0 0 -66.402067751707364 64.252244821123895 0 64.252244821123895 32.987581102839613 0 0 0 0 -18.828455355745518 -69.682127464922814 0 -69.682127464922814 47.578720023913775 0 0 0 0 29.146956449957202 -146.3137209052602 0 -146.3137209052602 228.53891572306748 0 0 0 0 -13.470817872517131 24.36927322507745 0 24.36927322507745 39.631978581819567 0 0 0 0 81.956200148471453 -152.86456364500918 0 -152.86456364500918 183.5077893162088 0 0 0 0 -28.965960799321607 10.63017831565233 0 10.63017831565233 11.562205121849622 0 0 0 0 -3.600364671403244 1.6968014742085273 0 1.6968014742085273 9.4433869337970009 0 0 0 0 48.36894653142781 202.93954917791052 0 202.93954917791052 426.35189734725282 0 0 0 0 -80.400523802740281 -115.99770275716583 0 -115.99770275716583 546.27260346250841 0 0 0 0 -4.2350940984057583 32.426095773528075 0 32.426095773528075 64.829894742048509 0 0 0 0 -26.259380731964939 -5.2418111069655424 0 -5.2418111069655424 206.00595627417351 0 0 0 0 -67.625648105926302 -5.7651539071066509 0 -5.7651539071066509 294.20595101904473 0 0 0 0 34.5759585827509 -14.22115765788476 0 -14.22115765788476 55.125847609081575 0 0 0 0 -18.770640945764271 33.874279808740653 0 33.874279808740653 21.258349305022669 0 0 0 0 -20.898880082486357 -29.880914005894738 0 -29.880914005894738 138.28448936647328 0 0 0 0 -26.995364656310358 72.92948574329057 0 72.92948574329057 225.66196768900045 0 0 0 0 -88.794777915755731 52.594998607070011 0 52.594998607070011 307.3271022003828 0 0 0 0 -21.609579528140785 52.264694075463922 0 52.264694075463922 288.04335680612712 0 0 0 0 -125.37578232375108 -8.100562827399699 0 -8.100562827399699 313.87333203537855 0 0 0 0 -7.2516217960578615 -3.2327356039986626 0 -3.2327356039986626 63.7755835833741 0 0 0 0 46.312494326728483 -244.11405717501657 0 -244.11405717501657 113.19435956896632 0 0 0 0 46.312494326725528 -244.11405717502657 0 -244.11405717502657 113.19435956894449 0 0 0 0 -0.5253013545416243 -37.621878623594426 0 -37.621878623594426 174.80846649716551 0 0 0 0 -1.7209096136569286 -12.668601188568235 0 -12.668601188568235 8.711276669652591 0 0 0 0 46.31249432672314 -244.11405717502339 0 -244.11405717502339 113.19435956896632 0 0 0 0 47.965308378027657 27.745489608483695 0 27.745489608483695 146.84185587042884 0 0 0 0 -4.2890899523772532 -11.09835493232822 0 -11.09835493232822 58.759944466408342 0 0 0 0 4.7066536369055516 3.4989900765485729 0 3.4989900765485729 56.507052004016487 0 0 0 0 -60.170696630826569 58.781303873329307 0 58.781303873329307 288.02909776286469 0 0 0 0 -19.304169539546923 16.03985003004771 0 16.03985003004771 132.57085207924331 0 0 0 0 -37.330200899721859 42.978833247680917 0 42.978833247680917 185.0133231347732 0 0 0 0 -12.866293165580936 17.180599414463131 0 17.180599414463131 58.831893939110245 0 0 0 0 -57.844014240079559 19.768203941304819 0 19.768203941304819 158.74966083046729 0 0 0 0 -95.982141936554399 3.5358670434079613 0 3.5358670434079613 198.98583790277553 0 0 0 0 -13.916150583785569 27.162153704985126 0 27.162153704985126 27.599568743297091 0 0 0 0 -1.1208347941101877 -1.0557070633236236 0 -1.0557070633236236 2.9441305024491697 0 0 0 0 -22.380800183681004 -52.357635509715692 0 -52.357635509715692 103.45527640249566 0 0 0 0 -34.876742136076246 -2.2494670911437424 0 -2.2494670911437424 -2.325615373247274 0 0 0 0 -35.868241694154676 -7.1752989175656694 0 -7.1752989175656694 26.363012609571342 0 0 0 0 -7.7824955994734175 32.64435161991171 0 32.64435161991171 10.515136364095223 0 0 0 0 73.979409790859791 46.338433806260582 0 46.338433806260582 -107.88273455035596 0 0 0 0 -60.560093310900811 111.56165550742571 0 111.56165550742571 58.716005698043773 0 0 0 0 -61.826319677428273 155.86802095167718 0 155.86802095167718 164.6382520169991 0 0 0 0 1.8190949119498327 31.6312049952694 0 31.6312049952694 151.76343694938805 0 0 0 0 -126.99087965741819 54.614012446403649 0 54.614012446403649 147.68573905791709 0 0 0 0 -122.06001474914592 35.800453322206522 0 35.800453322206522 124.50495391092409 0 0 0 0 -132.04419596836851 34.260763538630272 0 34.260763538630272 128.51050990836484 0 0 0 0 -92.040566022496023 66.26151619506345 0 66.26151619506345 200.42051833376854 0 0 0 0 -92.060963240509864 81.442376280470398 0 81.442376280470398 143.83527003312702 0 0 0 0 -164.66650018412111 30.547926096014635 0 30.547926096014635 178.92114191530709 0 0 0 0 -98.006979821021787 0.13502167140745769 0 0.13502167140745769 93.173204502585577 0 0 0 0 -151.03883207564468 -18.520373517683765 0 -18.520373517683765 75.336953310501485 0 0 0 0 -197.81384726132228 -1.6186140296606482 0 -1.6186140296606482 71.633120563332341 0 0 0 0 -221.12163410542917 -75.416596535042345 0 -75.416596535042345 73.841411697645526 0 0 0 0 5.5136245007717974 -15.271504062996396 0 -15.271504062996396 33.303418125135636 0 0 0 0 25.304804271932881 75.839412001663732 0 75.839412001663732 137.75932552517952 0 0 0 0 116.93620792528782 97.371558448438009 0 97.371558448438009 65.405148369620292 0 0 0 0 111.00445548307744 15.236679047698999 0 15.236679047698999 87.63138100461947 0 0 0 0 -1.0921325350249256 15.882613417587763 0 15.882613417587763 79.219962708254116 0 0 0 0 0.59796720203485165 29.752090293532092 0 29.752090293532092 133.01469218121201 0 0 0 0 47.258872589227394 75.108360194512898 0 75.108360194512898 50.678730522911792 0 0 0 0 -1.227680730991942 1.0502725434293936 0 1.0502725434293936 19.789682978347553 0 0 0 0 -52.908027567604222 8.9546163477534719 0 8.9546163477534719 139.56233929522568 0 0 0 0 22.397042290331228 52.599739612719077 0 52.599739612719077 61.525180330365401 0 0 0 0 6.3260739792837963 -9.3469967301094243 0 -9.3469967301094243 57.779185926872785 0 0 0 0 23.541467119634945 -17.473037309093343 0 -17.473037309093343 83.363994993669621 0 0 0 0 -25.991818906715707 -0.32025887996132951 0 -0.32025887996132951 85.859982020272582 0 0 0 0 -42.806603959606946 17.709953802060227 0 17.709953802060227 70.133049521095018 0 0 0 0 -146.81436622566366 -51.990438493955594 0 -51.990438493955594 37.945819863180077 0 0 0 0 -75.152806740588858 -131.4625813284656 0 -131.4625813284656 349.10768448495946 0 0 0 0 -17.556213687463242 -156.21099379860971 0 -156.21099379860971 383.96334378895699 0 0 0 0 20.135094400636717 -64.687570476671681 0 -64.687570476671681 337.38265250329277 0 0 0 0 -32.321404595112199 -117.11257772738099 0 -117.11257772738099 349.66943269057083 0 0 0 0 -21.651282855476893 -132.51655205756833 0 -132.51655205756833 362.95692322088871 0 0 0 0 -25.834083680447293 -105.07498475907778 0 -105.07498475907778 335.21592408262222 0 0 0 0 -16.329857083268507 -92.377975685725687 0 -92.377975685725687 344.75303337813239 0 0 0 0 -24.484200965982382 -74.591435421345523 0 -74.591435421345523 340.38725419595721 0 0 0 0 13.949935003647624 -84.095050414674915 0 -84.095050414674915 318.68720127466077 0 0 0 0 -17.036885376726786 -81.459689849099959 0 -81.459689849099959 322.27577143505914 0 0 0 0 7.052123904641121 -64.761201833229279 0 -64.761201833229279 332.66368173858791 0 0 0 0 -60.98635103111701 -85.063542768490152 0 -85.063542768490152 344.64560666775651 0 0 0 0 -1.0165678031787699 -1.174747152431479 0 -1.174747152431479 -0.28196621217121987 0 0 0 0 112.80162454869151 -64.692908524135419 0 -64.692908524135419 29.114354576347978 0 0 0 0 -1.8690936622787895 -0.69073281908762851 0 -0.69073281908762851 0.14557088532951923 0 0 0 0 241.89310526025838 148.35054102618597 0 148.35054102618597 -233.77476704842411 0 0 0 0 -84.658898068471899 2.2134514176286757 0 2.2134514176286757 119.3470763535588 0 0 0 0 178.14187596329612 66.122600432398031 0 66.122600432398031 60.466240076173563 0 0 0 0 140.78008480287463 90.139990651718108 0 90.139990651718108 264.84711785263789 0 0 0 0 59.844108422500312 176.25717623063611 0 176.25717623063611 690.05553929955931 0 0 0 0 82.567317242024728 9.3187016181618674 0 9.3187016181618674 324.94332402292639 0 0 0 0 -159.37036349003756 -10.118250736413756 0 -10.118250736413756 623.55905268448987 0 0 0 0 -61.577947696823685 -192.570813645405 0 -192.570813645405 75.722484537734999 0 0 0 0 -219.07246642338578 46.885702247167501 0 46.885702247167501 402.55066033193725 0 0 0 0 -36.804303540791807 34.742356741655385 0 34.742356741655385 401.2108405114559 0 0 0 0 -92.590886331467118 86.416370685023139 0 86.416370685023139 420.75707391613105 0 0 0 0 -186.31434198570969 104.49169166123465 0 104.49169166123465 658.41550088603981 0 0 0 0 -188.85205235632566 -84.55815448188514 0 -84.55815448188514 110.70754981256323 0 0 0 0 6.1627047868441878 -108.55443134954839 0 -108.55443134954839 204.69599164204556 0 0 0 0 -204.39197122601729 108.40612022873893 0 108.40612022873893 423.46380128109013 0 0 0 0 -89.158925958065538 38.70810080496085 0 38.70810080496085 702.54793443009839 0 0 0 0 259.53572284195434 -121.18342526546621 0 -121.18342526546621 452.57077667651174 0 0 0 0 10.445191139531744 10.819568187784171 0 10.819568187784171 435.04601178722805 0 0 0 0 59.566371001273183 -129.42788852833473 0 -129.42788852833473 780.50814656048897 0 0 0 0 45.254517990772001 -123.55850360887416 0 -123.55850360887416 473.82292561854047 0 0 0 0 7.7249870745008593 141.78182793615269 0 141.78182793615269 753.65858309128816 0 0 0 0 246.18008905105012 98.674245551122112 0 98.674245551122112 536.11264489941823 0 0 0 0 60.677038052249827 -43.760790353493576 0 -43.760790353493576 473.42150107120688 0 0 0 0 138.55009095114747 -38.218659367696091 0 -38.218659367696091 409.16605199017795 0 0 0 0 43.15226387502662 -124.61188504239544 0 -124.61188504239544 411.64537702508551 0 0 0 0 113.79155572115178 -117.11432156433875 0 -117.11432156433875 334.32348999787064 0 0 0 0 69.333162528183493 -140.4946136108847 0 -140.4946136108847 341.25239119784965 0 0 0 0 25.036169558696201 -113.11987304452487 0 -113.11987304452487 334.44980628671874 0 0 0 0 48.024901792655328 -118.05136176159431 0 -118.05136176159431 271.16710934464936 0 0 0 0 30.138079719787129 -146.79566284576504 0 -146.79566284576504 318.05845622805646 0 0 0 0 77.926531724564938 -58.719655948265427 0 -58.719655948265427 300.49125401357014 0 0 0 0 39.570724170764151 -97.545820264705981 0 -97.545820264705981 362.65157983377867 0 0 0 0 0.86611715937351619 -103.48525109820912 0 -103.48525109820912 283.67590837764146 0 0 0 0 -38.746066836934915 -62.49255096745037 0 -62.49255096745037 183.04567679797765 0 0 0 0 57.980913333645276 -98.681887878661655 0 -98.681887878661655 169.4022545911721 0 0 0 0 14.083006136023414 -124.92022282973812 0 -124.92022282973812 270.73281379390392 0 0 0 0 6.12728398372019 -98.829979841008026 0 -98.829979841008026 271.61342961243918 0 0 0 0 12.15810335844526 -83.934829231453477 0 -83.934829231453477 219.50188185219304 0 0 0 0 -3.0896822001959663 -100.8513725722878 0 -100.8513725722878 300.4980923807816 0 0 0 0 13.009457247522732 -117.6156532921741 0 -117.6156532921741 278.1417386388639 0 0 0 0 3.5571549798880824 -133.67053553020742 0 -133.67053553020742 314.2882404645934 0 0 0 0 2.3108162768103284 -128.28293126986682 0 -128.28293126986682 318.24428369170346 0 0 0 0 8.0858298401586808 -139.7913662700912 0 -139.7913662700912 332.1110952103918 0 0 0 0 7.2887055173041517 -133.00156391757628 0 -133.00156391757628 345.28578111154638 0 0 0 0 -2.2835563428875503 -98.580822409680422 0 -98.580822409680422 312.71884084909107 0 0 0 0 20.407091531276819 -109.45033503160812 0 -109.45033503160812 315.81895176011312 0 0 0 0 5.7412499773745367 -122.92088587190665 0 -122.92088587190665 325.29278756482381 0 0 0 0 -1.1372598320231191 -112.52742169921112 0 -112.52742169921112 332.00904633553 0 0 0 0 27.647186496252289 -123.43452474361402 0 -123.43452474361402 310.90974810177431 0 0 0 0 4.4806241625879011 -118.58113920327742 0 -118.58113920327742 312.00622055592248 0 0 0 0 13.854573790884615 -116.73556395824198 0 -116.73556395824198 321.53866965435736 0 0 0 0 62.700338667713822 -81.83893079542031 0 -81.83893079542031 288.32617639218734 0 0 0 0 14.042656747222281 -119.07727584672102 0 -119.07727584672102 286.36610689984809 0 0 0 0 26.90984695312909 -101.32735717111791 0 -101.32735717111791 312.4650296739128 0 0 0 0 58.116713809623434 -93.40768982701411 0 -93.40768982701411 308.16457744422223 0 0 0 0 20.775912303999348 -73.214781181095077 0 -73.214781181095077 372.27909090279718 0 0 0 0 46.962803606073066 -55.922336143019493 0 -55.922336143019493 343.76637233131623 0 0 0 0 21.732801419508178 -59.991236036919872 0 -59.991236036919872 358.37245022525894 0 0 0 0 18.273068030134255 -60.552062013099203 0 -60.552062013099203 339.0981227416778 0 0 0 0 23.129989800420844 -79.993311474652728 0 -79.993311474652728 323.33415215698187 0 0 0 0 16.61706854506474 -77.088326461613178 0 -77.088326461613178 322.05356412756373 0 0 0 0 10.46988285743646 -89.900771944274311 0 -89.900771944274311 303.99207218759693 0 0 0 0 2.7522819703820005 -65.968450130205383 0 -65.968450130205383 324.1755930017971 0 0 0 0 10.528438004960663 -78.167707818094641 0 -78.167707818094641 266.89617772120982 0 0 0 0 13.980267226298565 -99.309318052008166 0 -99.309318052008166 282.01607056817738 0 0 0 0 -6.6757990160440386 -79.013752669372479 0 -79.013752669372479 298.6104889633134 0 0 0 0 14.86215451957014 -91.162681302921555 0 -91.162681302921555 299.6054808384215 0 0 0 0 17.575492036763535 -96.014994081357145 0 -96.014994081357145 292.26554506189132 0 0 0 0 23.660583181621405 -106.80809809085622 0 -106.80809809085622 302.18402468522254 0 0 0 0 34.764055606397733 -103.78193918631769 0 -103.78193918631769 302.97163843532326 0 0 0 0 34.233036577720668 -99.704434412124101 0 -99.704434412124101 302.81763130263425 0 0 0 0 -22.43146605652737 -102.27480591554195 0 -102.27480591554195 332.92505283010541 0 0 0 0 -30.801716607088565 -105.97032519909044 0 -105.97032519909044 378.36325090521132 0 0 0 0 9.6284011013458439 -92.871903144055977 0 -92.871903144055977 334.60546388964576 0 0 0 0 11.115054071203303 -84.827589132371941 0 -84.827589132371941 339.55222127003071 0 0 0 0 6.0890415056992424 -69.520691858881037 0 -69.520691858881037 354.71750037348102 0 0 0 0 5.9831430072545118 -71.230327131270315 0 -71.230327131270315 350.39081034531409 0 0 0 0 17.382700851123538 -67.548814125304261 0 -67.548814125304261 315.00830739829689 0 0 0 0 17.398863085552875 -71.255110309881275 0 -71.255110309881275 325.65449708125379 0 0 0 0 -8.142557519330694 -91.102154641077504 0 -91.102154641077504 298.12921359075699 0 0 0 0 -0.60125537868111678 -52.734947303588342 0 -52.734947303588342 334.56027506251121 0 0 0 0 56.743457680083338 -168.88420799012965 0 -168.88420799012965 216.93524575591437 0 0 0 0 60.808092924344237 -61.397374586129445 0 -61.397374586129445 311.63713151484262 0 0 0 0 39.99238513633577 -111.74477242213288 0 -111.74477242213288 292.71033142393571 0 0 0 0 25.530461897959412 -1.9978779885568656 0 -1.9978779885568656 65.25677559455653 0 0 0 0 -31.525921642002686 -112.26933318460942 0 -112.26933318460942 325.56862438532698 0 0 0 0 -70.483429783017527 -21.781822920718696 0 -21.781822920718696 344.50875660674501 0 0 0 0 -34.002948824551822 -74.409474071813747 0 -74.409474071813747 316.63806479237974 0 0 0 0 -0.89255675606944607 -0.087678919131064958 0 -0.087678919131064958 9.2153990269909229 0 0 0 0 0.56756883374328027 -30.165885229464038 0 -30.165885229464038 16.653702738272841 0 0 0 0 -23.03588837994338 9.4459722499668146 0 9.4459722499668146 8.1684554939035507 0 0 0 0 -31.660166000896425 -41.817789413536957 0 -41.817789413536957 97.426077514042845 0 0 0 0 -9.7268417906379909 4.9012986048328457 0 4.9012986048328457 75.221197108687193 0 0 0 0 -10.732058678198449 -13.192118901062756 0 -13.192118901062756 31.456641655574089 0 0 0 0 -18.112980251412839 -5.2348706907471865 0 -5.2348706907471865 8.4867569117531829 0 0 0 0 -10.918054117530005 -3.9947154696155565 0 -3.9947154696155565 3.7584777120240318 0 0 0 0 6.9551319699367014 -16.259883483027807 0 -16.259883483027807 42.65365078819741 0 0 0 0 -18.906007334020615 -10.805042563930328 0 -10.805042563930328 60.96368359112239 0 0 0 0 55.088080263490156 -57.860850472810853 0 -57.860850472810853 118.57127018632309 0 0 0 0 -5.1514270115000516 0.96258032621283007 0 0.96258032621283007 3.5016453557128102 0 0 0 0 -96.879427155688063 -45.269258543299657 0 -45.269258543299657 53.034852478071116 0 0 0 0 -155.1686178914606 -10.422080112475669 0 -10.422080112475669 96.379183594783171 0 0 0 0 -112.38462240234367 -61.556634208624018 0 -61.556634208624018 92.938987119079684 0 0 0 0 2.9122713737979211 7.7044065266345569 0 7.7044065266345569 21.752466923440807 0 0 0 0 -31.715099400521922 12.80034754702865 0 12.80034754702865 33.433769500101334 0 0 0 0 -16.180594875120356 -0.38493351100589734 0 -0.38493351100589734 28.453889103822831 0 0 0 0 -5.8872011489421183 -2.1356666554641208 0 -2.1356666554641208 -0.61725868644374771 0 0 0 0 63.630219943373959 -22.388959576957859 0 -22.388959576957859 51.500807518175861 0 0 0 0 19.925654792275054 -82.114232143489062 0 -82.114232143489062 254.51374948200828 0 0 0 0 21.890307815432152 -68.462552562566998 0 -68.462552562566998 273.08082773000933 0 0 0 0 21.588510567711637 -63.51441443918884 0 -63.51441443918884 301.44452540716156 0 0 0 0 17.134732150646414 -89.149430952049443 0 -89.149430952049443 295.9578291507496 0 0 0 0 15.231851281881973 -86.700147075753193 0 -86.700147075753193 293.49781399032508 0 0 0 0 19.691816064887462 -96.126467964844778 0 -96.126467964844778 274.04371451743646 0 0 0 0 -34.649593981088856 -9.0339174751134124 0 -9.0339174751134124 94.399660765746376 0 0 0 0 -10.090626429570875 -98.93498344393447 0 -98.93498344393447 268.69398440548684 0 0 0 0 12.036878799968235 -84.978540082305699 0 -84.978540082305699 277.44208485505078 0 0 0 0 -36.821919101906133 -58.870768340522773 0 -58.870768340522773 272.02329704232397 0 0 0 0 227.15443539968146 -97.135964942710416 0 -97.135964942710416 -319.04877329595911 0 0 0 0 -7.0808072419801391 -3.8749360916475837 0 -3.8749360916475837 -1.4931511810525748 0 0 0 0 -109.53407887836147 -5.6853380524407839 0 -5.6853380524407839 -14.779249996397994 0 0 0 0 11.171546841331292 -70.137102967943065 0 -70.137102967943065 106.50986368560916 0 0 0 0 108.48448725717753 -190.86591261261492 0 -190.86591261261492 114.94816841781721 0 0 0 0 59.952211745803652 -40.480510737630539 0 -40.480510737630539 58.173874290165259 0 0 0 0 59.030844441986119 -196.70064193382859 0 -196.70064193382859 440.56134631819441 0 0 0 0 397.79446669180834 -189.64479429430503 0 -189.64479429430503 108.89727626214153 0 0 0 0 215.67280014707649 111.65179809910478 0 111.65179809910478 494.45198692151462 0 0 0 0 161.03306320662159 -133.59080450967303 0 -133.59080450967303 178.8485499859089 0 0 0 0 210.21407407747029 -290.34664673174848 0 -290.34664673174848 -180.86336653030594 0 0 0 0 -363.96730690574623 -170.48421701628831 0 -170.48421701628831 202.86254204878787 0 0 0 0 44.383992783765279 393.40087502566166 0 393.40087502566166 38.875922741659451 0 0 0 0 -361.3120854235068 260.44075164917518 0 260.44075164917518 291.71618468913948 0 0 0 0 69.286748655818656 124.69486880562727 0 124.69486880562727 140.01421792636393 0 0 0 0 -44.988988980800968 326.3060647636521 0 326.3060647636521 292.41193257865962 0 0 0 0 2.5334350776938663 97.762395269732224 0 97.762395269732224 628.0469060979085 0 0 0 0 -19.536548643111018 267.90709696766862 0 267.90709696766862 672.29851060139481 0 0 0 0 453.43705218700597 184.55840020944015 0 184.55840020944015 -2302.057082256375 0 0 0 0 -264.13984075300687 -139.48135434649885 0 -139.48135434649885 1751.4578767912644 0 0 0 0 -84.531477733187785 89.667712421141914 0 89.667712421141914 1000.04028436722 0 0 0 0 6.7759457394565175 -1.2736368358888797 0 -1.2736368358888797 -2.2030405111086679 0 0 0 0 14.392305528531695 4.9571578227206885 0 4.9571578227206885 1.0592649003066015 0 0 0 0 18.05655472239232 -70.060363817785401 0 -70.060363817785401 820.37436134705786 0 0 0 0 220.98765197412877 213.01746676183757 0 213.01746676183757 -2217.2224445111642 0 0 0 0 -121.32546800568252 57.600784143276542 0 57.600784143276542 1261.9427230157016 0 0 0 0 -52.595335083020473 502.63979579594161 0 502.63979579594161 1607.3331917013711 0 0 0 0 134.09691932317583 471.56323184893699 0 471.56323184893699 933.69192203495186 0 0 0 0 220.03428036263131 24.832652993656666 0 24.832652993656666 557.25194072295562 0 0 0 0 987.79004541189352 588.89443116130133 0 588.89443116130133 822.36249142015004 0 0 0 0 29.524385352955505 426.38794505667465 0 426.38794505667465 -409.67294839503302 0 0 0 0 53.561513768485383 -41.461000545343268 0 -41.461000545343268 -25.319665449176682 0 0 0 0 8.0177128724705042 2.2706615346395722 0 2.2706615346395722 -0.47047887641217301 0 0 0 0 47.250792294442363 56.578336752703763 0 56.578336752703763 446.3291479817708 0 0 0 0 609.38174439502654 -411.46129066727008 0 -411.46129066727008 728.50142389629036 0 0 0 0 -37.203514604872908 -55.085074859933229 0 -55.085074859933229 305.06003016670093 0 0 0 0 -179.06938565733435 3.1329775154736126 0 3.1329775154736126 315.46047892130446 0 0 0 0 -321.53822467447026 774.80814441853727 0 774.80814441853727 330.75654042676069 0 0 0 0 -613.6109604380581 443.73660678310262 0 443.73660678310262 1457.6099008893361 0 0 0 0 -115.7412725266131 -56.853260195654002 0 -56.853260195654002 94.122488473862177 0 0 0 0 -12.547538197823314 -27.866628310221131 0 -27.866628310221131 100.45924261561595 0 0 0 0 10.454364396777237 -118.85557625944784 0 -118.85557625944784 56.921380657280679 0 0 0 0 -48.495965800886552 -126.59716090845905 0 -126.59716090845905 56.107467543537496 0 0 0 0 2.2137896578005893 -131.0441789090255 0 -131.0441789090255 224.73767860745284 0 0 0 0 -23.150689764031995 -65.605648249926162 0 -65.605648249926162 192.07224065525224 0 0 0 0 52.770515129464911 -96.183504908185569 0 -96.183504908185569 170.58599017962842 0 0 0 0 40.005620503874525 -100.81552993301011 0 -100.81552993301011 168.96978488680907 0 0 0 0 170.66203461328394 73.604765758485883 0 73.604765758485883 -104.27001076836314 0 0 0 0 49.350858689595043 -18.646914209064562 0 -18.646914209064562 81.172709505117382 0 0 0 0 176.39662528023655 -19.246869516689912 0 -19.246869516689912 16.057756825408433 0 0 0 0 156.83833294187389 -120.32571931138227 0 -120.32571931138227 122.10171245550737 0 0 0 0 166.88557349813982 16.887362350826152 0 16.887362350826152 -76.055824334282079 0 0 0 0 265.75144695749259 -104.36007255142613 0 -104.36007255142613 -26.552239909746277 0 0 0 0 146.95069908085225 -89.238903167715762 0 -89.238903167715762 75.522522881015902 0 0 0 0 263.33890515832377 -107.32120485534688 0 -107.32120485534688 -5.3331767589843366 0 0 0 0 281.53070440304975 37.151447745898622 0 37.151447745898622 -92.337692012428306 0 0 0 0 -8.6289913455293572 75.591035797973746 0 75.591035797973746 -10.781424500455614 0 0 0 0 -86.688687505062262 10.926251023956866 0 10.926251023956866 37.07959066289186 0 0 0 0 -17.645275934666643 10.592097184187878 0 10.592097184187878 52.151128419529414 0 0 0 0 -0.98109238240696328 3.0738944718617347 0 3.0738944718617347 3.808846504744217 0 0 0 0 -92.88504790541856 -40.283493277363959 0 -40.283493277363959 -17.018874660250731 0 0 0 0 -162.49238107546307 50.274142863407178 0 50.274142863407178 -6.0233904477208853 0 0 0 0 -85.010885364587011 -18.760380922132754 0 -18.760380922132754 -100.38057153830596 0 0 0 0 -10.759613031564186 -109.5680025250349 0 -109.5680025250349 216.78667390397459 0 0 0 0 -24.314415373739394 20.392177006346174 0 20.392177006346174 119.18088525524217 0 0 0 0 7.6239109663874842 -32.317508173844544 0 -32.317508173844544 80.03653791196848 0 0 0 0 -65.247186157172109 -86.230225587976747 0 -86.230225587976747 387.58098736652028 0 0 0 0 -82.700467090652637 101.7570111320274 0 101.7570111320274 308.33919206621067 0 0 0 0 -59.169746356117685 -104.95819534240582 0 -104.95819534240582 487.87521870776618 0 0 0 0 -70.418297178662215 -52.641904210098801 0 -52.641904210098801 479.14466091050417 0 0 0 0 -74.440823232733237 -91.772289215972705 0 -91.772289215972705 457.91722280946851 0 0 0 0 -92.292596441914611 -75.472950838990073 0 -75.472950838990073 458.96230988878233 0 0 0 0 -46.160787179585896 -65.359951053505938 0 -65.359951053505938 257.28052005732752 0 0 0 0 -52.911145009602478 -96.935801543524576 0 -96.935801543524576 427.15249477160978 0 0 0 0 -88.724094366798454 -78.178573904269797 0 -78.178573904269797 581.70035769286915 0 0 0 0 -89.937340383679839 -3.0422030237532454 0 -3.0422030237532454 693.00425869735773 0 0 0 0 -91.11931653371721 -28.940544981582207 0 -28.940544981582207 587.41518892813474 0 0 0 0 -84.231539741093002 -27.10204328688269 0 -27.10204328688269 576.79792111459756 0 0 0 0 -97.689118341530502 -109.40631146741543 0 -109.40631146741543 553.85430895067111 0 0 0 0 -82.94602993524677 -86.493265732351574 0 -86.493265732351574 509.34462399156473 0 0 0 0 -93.67122048687088 -34.553268454295903 0 -34.553268454295903 580.13488984527066 0 0 0 0 -83.404232817400043 -38.757730005650956 0 -38.757730005650956 494.71146239951486 0 0 0 0 94.763675880220944 -177.80238702626957 0 -177.80238702626957 356.68775534034648 0 0 0 0 140.53094993232025 -318.89093932675314 0 -318.89093932675314 519.29456134860811 0 0 0 0 127.98626895466495 -257.79087076158066 0 -257.79087076158066 566.31198211325682 0 0 0 0 256.91003998774056 -181.4580720544418 0 -181.4580720544418 -15.571013429405866 0 0 0 0 247.6971416528786 -248.20126176225403 0 -248.20126176225403 201.24274624988902 0 0 0 0 102.50380194700301 -193.79398667607165 0 -193.79398667607165 308.51568478497211 0 0 0 0 46.43190755615251 -110.80159230710706 0 -110.80159230710706 284.81549134559464 0 0 0 0 10.820103893031046 -174.52006877624081 0 -174.52006877624081 364.08447708324093 0 0 0 0 -18.930058870737412 -124.94073940691305 0 -124.94073940691305 340.74020559102064 0 0 0 0 -48.891770466219896 -146.70400573734514 0 -146.70400573734514 461.16582507116254 0 0 0 0 -55.799670029813569 -119.14659019131796 0 -119.14659019131796 531.469820954022 0 0 0 0 7.4906461484679312 -194.2056889847081 0 -194.2056889847081 534.20228862366639 0 0 0 0 -35.549470381844003 -177.25105879295006 0 -177.25105879295006 608.15072414177121 0 0 0 0 -20.304552600413444 -138.81434752263885 0 -138.81434752263885 544.85024955402332 0 0 0 0 -80.617527010896083 -68.244925748382229 0 -68.244925748382229 691.26241141057835 0 0 0 0 -89.007272443448528 -103.09022664940858 0 -103.09022664940858 622.72530830638425 0 0 0 0 -86.507439636982781 -98.189348479798355 0 -98.189348479798355 750.54472613794496 0 0 0 0 -72.896786676485135 -90.439887051397818 0 -90.439887051397818 902.58838957452099 0 0 0 0 -76.780992735112591 -58.53306397153392 0 -58.53306397153392 862.67902278390829 0 0 0 0 -8.0290161893321965 -229.01993117117672 0 -229.01993117117672 747.17355251300614 0 0 0 0 41.0182551275675 -178.69882309612876 0 -178.69882309612876 660.13594673608895 0 0 0 0 38.002234116613806 -241.19937811826094 0 -241.19937811826094 963.24416107556317 0 0 0 0 209.11171380985206 -380.6548354763363 0 -380.6548354763363 655.09772473259363 0 0 0 0 106.04434697776946 -253.62665101209859 0 -253.62665101209859 964.33090882190299 0 0 0 0 -74.301800489285597 -119.73143106819043 0 -119.73143106819043 1265.9432619751606 0 0 0 0 94.054373058108126 -187.26310473107151 0 -187.26310473107151 1366.4253276350282 0 0 0 0 338.94090113516268 -320.38182355230674 0 -320.38182355230674 1437.3361145123927 0 0 0 0 860.63462217882807 -275.48180823009534 0 -275.48180823009534 571.86061948582937 0 0 0 0 389.04451062398533 -629.04092430582386 0 -629.04092430582386 1059.6459507425898 0 0 0 0 225.26367149220766 -275.01390320059727 0 -275.01390320059727 671.48109046858735 0 0 0 0 1589.7088266848241 792.53908260823664 0 792.53908260823664 1807.0131738720302 0 0 0 0 1992.6922111247932 -569.32915274969127 0 -569.32915274969127 1212.9537906793641 0 0 0 0 641.93049315125063 -367.37201878026826 0 -367.37201878026826 1212.2409196306237 0 0 0 0 1352.3664589403634 45.099783791090886 0 45.099783791090886 361.93050137374667 0 0 0 0 339.92403504760205 125.32820705386621 0 125.32820705386621 372.87660395959392 0 0 0 0 821.62099110886902 -305.72018780605868 0 -305.72018780605868 -48.430570201191586 0 0 0 0 106.37416245047734 200.44797430359176 0 200.44797430359176 -308.97745554093126 0 0 0 0 546.1265375205503 95.105716672944254 0 95.105716672944254 -375.05985537420202 0 0 0 0 308.19968580876912 -450.05934684406384 0 -450.05934684406384 572.96522048581392 0 0 0 0 294.75380391481406 -279.49828430911293 0 -279.49828430911293 243.01164224774402 0 0 0 0 350.97233857986612 -302.35746406270482 0 -302.35746406270482 572.34540770524472 0 0 0 0 527.61992811424761 -239.69087913871044 0 -239.69087913871044 204.45573119993787 0 0 0 0 415.50542940168884 -170.25288698181248 0 -170.25288698181248 -162.85621810892189 0 0 0 0 342.50422379177053 -310.48609157082683 0 -310.48609157082683 178.00821234241448 0 0 0 0 202.07376868937195 -282.48512698651757 0 -282.48512698651757 243.14346954918619 0 0 0 0 331.57072909822 -151.58809307435149 0 -151.58809307435149 -287.30317084369017 0 0 0 0 273.2449202725104 98.308621735137422 0 98.308621735137422 -257.52775293122977 0 0 0 0 230.63615308667886 -10.106161217714543 0 -10.106161217714543 -524.17077806823363 0 0 0 0 -1003.3581990513794 -20.639242984878365 0 -20.639242984878365 -327.78745186538436 0 0 0 0 -383.19176831806999 429.3620023980402 0 429.3620023980402 -471.13425604828808 0 0 0 0 416.10491627122701 85.908200927129656 0 85.908200927129656 -532.00460994578316 0 0 0 0 61.269816501104287 -72.177216338153812 0 -72.177216338153812 -111.16817882365285 0 0 0 0 33.718949483974058 18.62594014498211 0 18.62594014498211 5.1972063721397888 0 0 0 0 379.74968714209035 134.18364197408664 0 134.18364197408664 -913.5224479342869 0 0 0 0 439.74659091946887 414.03689418993963 0 414.03689418993963 -1237.2177936437147 0 0 0 0 -9.0667154377990755 877.8414999934048 0 877.8414999934048 -1317.3930092304872 0 0 0 0 -42.826797188879937 114.9705842973126 0 114.9705842973126 634.60575390762097 0 0 0 0 -129.6730682717407 132.31365471770187 0 132.31365471770187 691.28598274894466 0 0 0 0 -98.144822790691251 148.43501460165862 0 148.43501460165862 662.41442233595808 0 0 0 0 -71.549898628889423 116.49951867152413 0 116.49951867152413 659.65317724298802 0 0 0 0 150.60597462272017 -8.918469388212543 0 -8.918469388212543 613.05374359918642 0 0 0 0 -141.65179122917107 84.138961358083179 0 84.138961358083179 763.49840907688485 0 0 0 0 -0.29577180029809824 63.892376396426698 0 63.892376396426698 655.8995031099912 0 0 0 0 44.855375035815086 -201.31212026521098 0 -201.31212026521098 935.56737137734308 0 0 0 0 -185.30433811531293 -81.499642342576408 0 -81.499642342576408 1325.8214144913945 0 0 0 0 -19.307480189319904 -27.493009098179755 0 -27.493009098179755 832.26950041280361 0 0 0 0 37.975591040178188 -457.40768111380748 0 -457.40768111380748 1258.8195125036909 0 0 0 0 223.99583890409667 10.011569938855246 0 10.011569938855246 675.07890000235057 0 0 0 0 375.56166043433586 -347.1516749819566 0 -347.1516749819566 859.72916402163173 0 0 0 0 69.802913625307156 -146.01142053553485 0 -146.01142053553485 524.43229693660396 0 0 0 0 9.2359363193770658 3.9094127164337067 0 3.9094127164337067 1.1953752480913522 0 0 0 0 -45.405217599989555 3.5834533145971363 0 3.5834533145971363 807.24015492126637 0 0 0 0 289.04571494065112 166.18245392979588 0 166.18245392979588 82.917229297840095 0 0 0 0 -94.07048618722547 110.10554533952381 0 110.10554533952381 816.24150970060236 0 0 0 0 43.658322953624236 26.760990287687633 0 26.760990287687633 14.177650947698602 0 0 0 0 -509.71257674655863 457.27512882500741 0 457.27512882500741 -213.43295132967978 0 0 0 0 -54.845093529778751 647.99219637737224 0 647.99219637737224 -761.15715102091781 0 0 0 0 -2.5145824391470342 54.88812602742837 0 54.88812602742837 105.67739568874822 0 0 0 0 0.58553742138446552 13.634646893135425 0 13.634646893135425 13.341837064815962 0 0 0 0 12.753170807578499 123.38957910546742 0 123.38957910546742 -279.26245098625077 0 0 0 0 15.612926231527522 23.348478849512418 0 23.348478849512418 16.142273047265192 0 0 0 0 9.5347593956621495 23.178117782692425 0 23.178117782692425 -1.6578725436120294 0 0 0 0 31.062387675573255 34.470834268931874 0 34.470834268931874 18.581752485455127 0 0 0 0 10.394312629251036 31.657393137125553 0 31.657393137125553 46.704935838354402 0 0 0 0 -134.78746249317646 291.2397696536209 0 291.2397696536209 -1185.5722496348899 0 0 0 0 -333.19817957752821 412.64321377747547 0 412.64321377747547 -1069.8554901918105 0 0 0 0 -384.93238279062643 770.51622723432229 0 770.51622723432229 -5.9974986043816898 0 0 0 0 -268.2426896625866 866.2457824663943 0 866.2457824663943 -1031.2568139518698 0 0 0 0 535.24393318820694 44.958652131506824 0 44.958652131506824 -685.84248773654963 0 0 0 0 -599.5794932952067 250.70166798554419 0 250.70166798554419 548.63321003619058 0 0 0 0 -310.66572499782797 -67.987168476727675 0 -67.987168476727675 1737.6230880610092 0 0 0 0 472.51065040275103 316.63315427243106 0 316.63315427243106 551.4458160593349 0 0 0 0 279.92419275330212 13.004913127151667 0 13.004913127151667 1408.732659167028 0 0 0 0 -362.54760383346911 392.22146097187942 0 392.22146097187942 1173.072845143106 0 0 0 0 -251.40141624439093 173.11303570585005 0 173.11303570585005 637.59570748936676 0 0 0 0 -68.192057042056604 -498.84085416963353 0 -498.84085416963353 1449.0427791337715 0 0 0 0 -265.69988462983929 -501.71125710404158 0 -501.71125710404158 2168.4330024209048 0 0 0 0 -230.64197386098658 116.9386950629796 0 116.9386950629796 206.12915769373649 0 0 0 0 5.4331255848537694 -29.774787504582491 0 -29.774787504582491 75.488038587885967 0 0 0 0 210.29366398569982 -661.63106683644583 0 -661.63106683644583 1719.5306799837126 0 0 0 0 23.696833266323711 -7.4510615553507762 0 -7.4510615553507762 6.6968495500168785 0 0 0 0 -1.5259317490493558 12.057347823569476 0 12.057347823569476 71.949419910301373 0 0 0 0 95.002191644627146 -155.13135114405486 0 -155.13135114405486 1530.4778212674428 0 0 0 0 49.406023292971213 -70.885513267237911 0 -70.885513267237911 3496.9564063000726 0 0 0 0 78.881642088275839 657.15418657024566 0 657.15418657024566 3323.4105582560223 0 0 0 0 511.35249047226444 -842.00013693420624 0 -842.00013693420624 3003.7061090088682 0 0 0 0 1312.7695894875537 1357.0717368673813 0 1357.0717368673813 631.18157435269677 0 0 0 0 752.92315936500017 1509.2814664200996 0 1509.2814664200996 2197.9052341083152 0 0 0 0 1367.776145101896 974.56690798912678 0 974.56690798912678 341.73683692861232 0 0 0 0 718.52264276520873 -200.37081932948786 0 -200.37081932948786 105.892298337596 0 0 0 0 9.2750584564445386 2.1419694776874323 0 2.1419694776874323 19.331805451700802 0 0 0 0 770.98808531297982 -1409.8223410279024 0 -1409.8223410279024 2676.571513775838 0 0 0 0 -50.029672100968014 131.04901493840225 0 131.04901493840225 1250.6813310719153 0 0 0 0 -33.102585867843118 266.58800331671955 0 266.58800331671955 1943.7839864800844 0 0 0 0 296.90036953819799 792.00365145260002 0 792.00365145260002 1560.704218935638 0 0 0 0 156.48188881606779 427.44500353345575 0 427.44500353345575 1507.7126090765814 0 0 0 0 662.87524730417681 700.2476262634591 0 700.2476262634591 641.70050634679501 0 0 0 0 205.47637091704655 490.95863074769659 0 490.95863074769659 889.69160749488219 0 0 0 0 105.27869247331137 530.05226965868133 0 530.05226965868133 1265.0451191051252 0 0 0 0 252.14481782152461 541.60070615974837 0 541.60070615974837 894.7838378051938 0 0 0 0 263.00206564553105 527.63858251566853 0 527.63858251566853 739.6057127861568 0 0 0 0 653.11476240407319 656.20003132765123 0 656.20003132765123 665.32737357041333 0 0 0 0 282.59653803076617 255.69285595467954 0 255.69285595467954 359.920053284186 0 0 0 0 537.4343707112007 360.58508510178581 0 360.58508510178581 270.57322617176396 0 0 0 0 -186.33442841204669 -432.14437987215933 0 -432.14437987215933 -161.17776421109738 0 0 0 0 -717.0626938702444 391.59462467431149 0 391.59462467431149 -269.63814165276199 0 0 0 0 -0.75878221237805121 -1.3659884182863209 0 -1.3659884182863209 7.3448297815546653 0 0 0 0 896.95922545557187 158.86409620582708 0 158.86409620582708 -660.47492279109429 0 0 0 0 709.59600741694157 177.92808694927953 0 177.92808694927953 -24.094086924946168 0 0 0 0 810.87999562589539 740.30001696640102 0 740.30001696640102 923.04038959750324 0 0 0 0 580.11953703492327 163.44879092433257 0 163.44879092433257 134.00034162795055 0 0 0 0 270.25768073338349 -1.9977687381615397 0 -1.9977687381615397 91.918058568247943 0 0 0 0 -85.173781599467475 -42.927935947678634 0 -42.927935947678634 208.09660925978096 0 0 0 0 -108.91192521638732 -123.00166948773403 0 -123.00166948773403 106.61757687409408 0 0 0 0 -18.979787991997 112.22392231642516 0 112.22392231642516 110.52550246136525 0 0 0 0 30.86277620314479 -59.405471933200715 0 -59.405471933200715 101.09482435839891 0 0 0 0 275.88925386674475 134.97465857422867 0 134.97465857422867 185.23085711876047 0 0 0 0 49.360284883521672 109.05613481131513 0 109.05613481131513 229.15900930922544 0 0 0 0 179.30879423760189 352.63766032330932 0 352.63766032330932 520.88758675966528 0 0 0 0 16.358241312352124 11.800474851856791 0 11.800474851856791 -3.3327040700653665 0 0 0 0 162.97317963453224 61.35216325408328 0 61.35216325408328 44.884445351686736 0 0 0 0 -28.385247077128952 -13.750261162604147 0 -13.750261162604147 70.725389218074497 0 0 0 0 25.414143911383299 16.340269306756369 0 16.340269306756369 18.009471452520657 0 0 0 0 7.1384354542018755 36.172705778161827 0 36.172705778161827 93.464157127020428 0 0 0 0 -68.020787247445696 93.453508820126444 0 93.453508820126444 229.46040571043704 0 0 0 0 125.31805656256438 119.10707060398272 0 119.10707060398272 23.473805820671259 0 0 0 0 2.319278817525479 47.855503139753949 0 47.855503139753949 37.499905841002153 0 0 0 0 -2.0051668638952833 50.792948468246323 0 50.792948468246323 74.226530000094499 0 0 0 0 -15.49967935353834 -52.389562694952474 0 -52.389562694952474 136.60818675018527 0 0 0 0 120.74604161613226 -47.473506407691048 0 -47.473506407691048 128.44347803689016 0 0 0 0 -20.842905227613301 93.330195578935673 0 93.330195578935673 455.06784618548409 0 0 0 0 -76.350908381235058 96.785933645271143 0 96.785933645271143 519.20950428405195 0 0 0 0 -77.481550835124381 -16.059620558864481 0 -16.059620558864481 530.82518607989186 0 0 0 0 -57.800300045215408 51.744342257050448 0 51.744342257050448 586.86858208209742 0 0 0 0 -64.058603555196896 21.262153033967479 0 21.262153033967479 457.42266389366705 0 0 0 0 -48.535851594768246 73.737519744856399 0 73.737519744856399 526.12673120264662 0 0 0 0 -74.198851740442478 6.8467343856755178 0 6.8467343856755178 536.49355911910243 0 0 0 0 -72.260410989539878 31.358308822375875 0 31.358308822375875 651.49448327624123 0 0 0 0 -19.646948479508865 133.54946560809185 0 133.54946560809185 649.76130778415973 0 0 0 0 -75.605887184876337 56.604669873282546 0 56.604669873282546 611.41352666702005 0 0 0 0 -42.379677664323026 156.82186426632688 0 156.82186426632688 626.19388670223998 0 0 0 0 30.898318469940932 238.34666197610204 0 238.34666197610204 639.31581775103405 0 0 0 0 31.095510464521794 175.81800046904391 0 175.81800046904391 564.95454286528184 0 0 0 0 6.7378610757677961 197.48867284634616 0 197.48867284634616 576.58763124445977 0 0 0 0 17.392132059208961 260.07391034071043 0 260.07391034071043 648.26794998506011 0 0 0 0 7.1642737502916134 311.90332941976158 0 311.90332941976158 806.44820597654325 0 0 0 0 -3.7270615845827706 274.17485571451107 0 274.17485571451107 675.75433100858936 0 0 0 0 -18.551695118501812 214.49204737374384 0 214.49204737374384 762.07921919070213 0 0 0 0 -73.769703321873749 130.34986540717364 0 130.34986540717364 715.58907908159017 0 0 0 0 -50.529128511757335 111.44665099830308 0 111.44665099830308 730.33087439709925 0 0 0 0 -97.950283813835995 -0.16675337955530267 0 -0.16675337955530267 693.36102166154888 0 0 0 0 -88.275913796074747 40.777243568911217 0 40.777243568911217 832.67322067636997 0 0 0 0 -92.960893219697937 51.988840527155844 0 51.988840527155844 817.06716699483513 0 0 0 0 -57.985477471853301 181.152277532874 0 181.152277532874 871.29697648188449 0 0 0 0 -63.839683243742911 206.28855871399719 0 206.28855871399719 814.81641165734618 0 0 0 0 -54.734935782502362 259.24539942547563 0 259.24539942547563 1054.477616341559 0 0 0 0 -68.19158548536916 104.49557546417054 0 104.49557546417054 988.85481616020843 0 0 0 0 -80.341226673031997 101.44759867817993 0 101.44759867817993 1009.5604698869865 0 0 0 0 -59.868580288371504 156.86231836749357 0 156.86231836749357 1201.5894969191231 0 0 0 0 13.256459814570007 334.58879960675404 0 334.58879960675404 971.60572181205498 0 0 0 0 12.809470767926541 348.90373356687655 0 348.90373356687655 868.5684725966712 0 0 0 0 16.097230205498818 305.31049007618276 0 305.31049007618276 790.53097466695908 0 0 0 0 138.9562215085698 410.9641496262193 0 410.9641496262193 659.85141774942895 0 0 0 0 131.64751233606239 326.25229711361317 0 326.25229711361317 545.98910331332445 0 0 0 0 57.015036202787996 306.44903404236538 0 306.44903404236538 581.45994703560427 0 0 0 0 167.31233874612644 293.48236987877317 0 293.48236987877317 388.27073820352962 0 0 0 0 -49.427025345016318 90.995913424030732 0 90.995913424030732 377.89939125083652 0 0 0 0 17.706269405989588 248.17557881548964 0 248.17557881548964 532.28497247659834 0 0 0 0 112.53534864222092 236.61712416786031 0 236.61712416786031 474.54109770391369 0 0 0 0 3.2557192996817861 10.453399802802437 0 10.453399802802437 -0.76266003925861092 0 0 0 0 88.847181584695591 279.66079042400361 0 279.66079042400361 605.00787150087126 0 0 0 0 77.88456968347964 336.0480666534022 0 336.0480666534022 549.56407799056615 0 0 0 0 84.999651087340681 258.8838245216466 0 258.8838245216466 495.09116538238595 0 0 0 0 53.948755885114224 288.66455817074529 0 288.66455817074529 566.34041721415997 0 0 0 0 65.429068184559583 316.32536192683619 0 316.32536192683619 632.8463454894063 0 0 0 0 91.389191128520906 265.50633709316025 0 265.50633709316025 554.11838897130292 0 0 0 0 77.812018046275625 264.98233226003504 0 264.98233226003504 561.6796773061651 0 0 0 0 67.072737484284062 182.97167428580406 0 182.97167428580406 515.44803614700504 0 0 0 0 96.405799767861026 294.2776105970479 0 294.2776105970479 659.4728418278246 0 0 0 0 141.13648177995492 255.4988120269154 0 255.4988120269154 527.45340469929215 0 0 0 0 113.15350376885544 247.50018962667673 0 247.50018962667673 570.24369018578 0 0 0 0 116.87464414604983 294.58929122060363 0 294.58929122060363 566.05065621655376 0 0 0 0 175.42981415469148 180.37700985393531 0 180.37700985393531 524.10471569177025 0 0 0 0 204.82972467729178 73.893693753936532 0 73.893693753936532 731.99890909023816 0 0 0 0 45.724395282930345 68.628313073437312 0 68.628313073437312 1158.1165033636789 0 0 0 0 -137.7079599509234 151.69807489345112 0 151.69807489345112 1330.0974608832912 0 0 0 0 -391.94609381708869 633.78582870845275 0 633.78582870845275 1608.3775050356894 0 0 0 0 38.234648752848443 252.54248314558208 0 252.54248314558208 672.80393452916178 0 0 0 0 -93.065769131288107 434.68535811451147 0 434.68535811451147 1183.7116877782319 0 0 0 0 -2.1363216413795882 2.1897046798386697 0 2.1897046798386697 -1.5273333183109772 0 0 0 0 -152.16820713745892 634.7970317285135 0 634.7970317285135 739.70746849551506 0 0 0 0 -69.205149537938269 518.07861223622604 0 518.07861223622604 490.27458159996604 0 0 0 0 34.860940131206007 276.9744444781245 0 276.9744444781245 443.3999208897294 0 0 0 0 -146.45801951008616 239.73068743928161 0 239.73068743928161 571.61044288658377 0 0 0 0 35.171898054057237 232.69511286404304 0 232.69511286404304 673.45289612605393 0 0 0 0 38.039299931890127 209.98389254890935 0 209.98389254890935 490.44820013956451 0 0 0 0 -70.241467277920492 121.18424368938213 0 121.18424368938213 468.2422725300421 0 0 0 0 62.354876816036267 -195.8847342572808 0 -195.8847342572808 1971.6283756682351 0 0 0 0 109.7594072748725 -214.4234577582647 0 -214.4234577582647 1356.3835492420983 0 0 0 0 -17.758463799760648 -331.43419922275825 0 -331.43419922275825 1781.9332873086096 0 0 0 0 -287.00039051569183 -274.73510858650843 0 -274.73510858650843 1817.3401445619384 0 0 0 0 -292.0261618223285 -193.17956474620223 0 -193.17956474620223 1547.8052135274993 0 0 0 0 -249.27254137282216 -450.2317907901961 0 -450.2317907901961 1790.9603556528973 0 0 0 0 -217.69794056000683 -400.92303199033631 0 -400.92303199033631 1680.1704468433018 0 0 0 0 189.82023023661168 250.03796484698978 0 250.03796484698978 -49.941135502704128 0 0 0 0 -201.92215711441077 -511.15584102300454 0 -511.15584102300454 1964.8903533513185 0 0 0 0 -318.980041835061 1115.1562396257564 0 1115.1562396257564 -3307.4316702605283 0 0 0 0 -15.474638421866224 6.9476816733756976 0 6.9476816733756976 7.4124423767814669 0 0 0 0 44.358416003032829 34.77524334286295 0 34.77524334286295 11.238760134213557 0 0 0 0 -199.89537633617147 920.02142501017806 0 920.02142501017806 -3530.3679401660065 0 0 0 0 -1.6399869058016137 -4.7444670459552469 0 -4.7444670459552469 -4.9197317421548874 0 0 0 0 -531.98332771789865 -336.4360666876546 0 -336.4360666876546 30.789773447075277 0 0 0 0 576.37629588462187 388.50955591530692 0 388.50955591530692 -3401.4070925404194 0 0 0 0 -261.68251880235812 -1208.4896350611616 0 -1208.4896350611616 3909.4507480489992 0 0 0 0 845.72102773546794 -219.89497288369603 0 -219.89497288369603 1687.3561149955422 0 0 0 0 1006.1019657075474 -771.72541803683953 0 -771.72541803683953 1530.5179103407572 0 0 0 0 635.17088999624866 -772.34826316564067 0 -772.34826316564067 1685.6039577791416 0 0 0 0 15.489844744739649 8.0174100511232922 0 8.0174100511232922 8.6467314904810237 0 0 0 0 -638.63489574921095 1270.4740080898391 0 1270.4740080898391 2989.9973524747893 0 0 0 0 -392.94790316928811 923.94919649536678 0 923.94919649536678 -322.29332462799357 0 0 0 0 78.344487742741421 1296.8749028729544 0 1296.8749028729544 -408.84565350987759 0 0 0 0 -604.17366942060653 490.55026883688333 0 490.55026883688333 -1010.8160362420914 0 0 0 0 13.669083329779369 -18.338463546673665 0 -18.338463546673665 -594.37318599193168 0 0 0 0 -275.66910951519003 244.03074759486299 0 244.03074759486299 1181.5467733204514 0 0 0 0 118.31675669186467 613.13288966888194 0 613.13288966888194 4263.7503314722708 0 0 0 0 391.73042402627925 -601.13799486432481 0 -601.13799486432481 531.55519145068138 0 0 0 0 -4.1398384914441717 -47.560267627661503 0 -47.560267627661503 20.352605047112295 0 0 0 0 83.195386718639355 726.07493377154606 0 726.07493377154606 4501.2790137724405 0 0 0 0 22.207481527695496 -37.987974739566162 0 -37.987974739566162 17.099813914233156 0 0 0 0 654.53807508762839 -73.231492043600156 0 -73.231492043600156 174.90420141622053 0 0 0 0 -239.06315371125856 -405.14493251682507 0 -405.14493251682507 1718.7380898659844 0 0 0 0 71.550407047915201 659.54707707128455 0 659.54707707128455 4375.1292176187562 0 0 0 0 0.017377503842908482 229.11809924942645 0 229.11809924942645 337.87379115616386 0 0 0 0 27.079140431464328 -24.910561396276393 0 -24.910561396276393 10.747985017526037 0 0 0 0 -386.89064602660437 291.37791301194193 0 291.37791301194193 1372.924708434309 0 0 0 0 37.0142836857558 148.4491236913891 0 148.4491236913891 240.67701708847744 0 0 0 0 -21.80074800454895 90.657473896044394 0 90.657473896044394 207.77915455205402 0 0 0 0 -2.3518591192550957 123.11878447727213 0 123.11878447727213 197.252647502115 0 0 0 0 37.449815236315771 116.59776280518781 0 116.59776280518781 147.36668011912116 0 0 0 0 -22.944993049641198 100.58108599044135 0 100.58108599044135 501.16876666326425 0 0 0 0 -66.023972722077545 -48.126718973568416 0 -48.126718973568416 51.940146176338807 0 0 0 0 -11.556488790680305 97.158378908090526 0 97.158378908090526 180.46892185148317 0 0 0 0 -19.913867842308811 8.3781063657985158 0 8.3781063657985158 18.054341778194221 0 0 0 0 -59.462169733254598 -42.410254854364169 0 -42.410254854364169 43.874482518132865 0 0 0 0 -8.413554369504709 39.13878633112472 0 39.13878633112472 271.35136338027951 0 0 0 0 -7.5734345153614413 112.00143992451922 0 112.00143992451922 173.75130072644242 0 0 0 0 -13.817817875707988 109.37198418301705 0 109.37198418301705 179.15615622968471 0 0 0 0 -13.359590545849642 102.05593063935157 0 102.05593063935157 173.88806277576077 0 0 0 0 19.43464652840678 52.763297402727055 0 52.763297402727055 85.904369467160322 0 0 0 0 -3.3268148423985622 54.247019630434806 0 54.247019630434806 79.022678150271531 0 0 0 0 -14.296258081187261 98.56139860487383 0 98.56139860487383 166.64472151098016 0 0 0 0 44.113719337434304 129.20494205580326 0 129.20494205580326 -31.050431183302521 0 0 0 0 -3.8371516057441113 81.551020059399889 0 81.551020059399889 143.20288772257481 0 0 0 0 -78.30110908082861 148.27517285335489 0 148.27517285335489 204.37289190280717 0 0 0 0 -59.585792414221942 47.392527697053083 0 47.392527697053083 160.46497108546828 0 0 0 0 194.13998991574817 251.11896332493052 0 251.11896332493052 -353.4427024029859 0 0 0 0 -130.65591421862518 267.58075014983842 0 267.58075014983842 237.25360045887555 0 0 0 0 -147.41164449625285 145.1712810827712 0 145.1712810827712 584.73683552373222 0 0 0 0 51.100031192133656 24.737659106954311 0 24.737659106954311 264.38840488129063 0 0 0 0 -106.71124542610698 321.93014540516697 0 321.93014540516697 3995.892545954157 0 0 0 0 -43.357758942533124 -50.456386808528691 0 -50.456386808528691 26.814167207260589 0 0 0 0 -58.655748074756225 537.21647102425777 0 537.21647102425777 4499.1524066835027 0 0 0 0 -313.4175018820626 210.3111991081314 0 210.3111991081314 3804.2615051485554 0 0 0 0 -57.367633876939266 227.40791363525568 0 227.40791363525568 3671.8344971930137 0 0 0 0 -20.973509805342761 224.94881244404314 0 224.94881244404314 3404.2855276722394 0 0 0 0 -529.43879112754576 -528.31221812600052 0 -528.31221812600052 4499.9972922540328 0 0 0 0 627.87140985372378 -1047.9845834992848 0 -1047.9845834992848 3022.6344574356553 0 0 0 0 -16.727396589372461 -385.73138230032055 0 -385.73138230032055 2740.7292107583417 0 0 0 0 -14.943396682174352 46.350024440223933 0 46.350024440223933 170.14106393708425 0 0 0 0 272.70999043028291 -348.85083952065179 0 -348.85083952065179 1815.9639710348201 0 0 0 0 -6.265517660056048 54.794045584938431 0 54.794045584938431 153.58832149429509 0 0 0 0 -15.848703830185766 -0.83394986884705702 0 -0.83394986884705702 15.21951385522118 0 0 0 0 3.2871237074841 15.366129189866555 0 15.366129189866555 39.803548522952042 0 0 0 0 -21.096028031595779 45.890828397590667 0 45.890828397590667 84.755567524960497 0 0 0 0 -24.57696645580252 29.603292926798503 0 29.603292926798503 17.639465112239506 0 0 0 0 -28.562033283978053 70.752177761216444 0 70.752177761216444 78.54714389675064 0 0 0 0 -0.96234827153193692 85.357171093957732 0 85.357171093957732 96.887849537204602 0 0 0 0 0.47745426504304511 36.379601261081589 0 36.379601261081589 57.962234104013277 0 0 0 0 36.552749684508854 79.555451276901294 0 79.555451276901294 58.564193355967291 0 0 0 0 -3.2341855873728491 28.610028546761896 0 28.610028546761896 32.586433774791658 0 0 0 0 106.27516618073787 170.93866995556164 0 170.93866995556164 98.165727925792453 0 0 0 0 -7.5406878684968195 4.4420428932362483 0 4.4420428932362483 4.2309990051784041 0 0 0 0 -14.003193867428507 24.945775993785972 0 24.945775993785972 31.611388449896481 0 0 0 0 -0.96166727016247577 41.626296746142003 0 41.626296746142003 65.445406811725263 0 0 0 0 -4.7675212650829053 54.00453110680246 0 54.00453110680246 84.966480126604438 0 0 0 0 -8.9044073852205656 41.504754457833769 0 41.504754457833769 96.867229003211833 0 0 0 0 -3.0142483391409769 50.067970191259519 0 50.067970191259519 82.869154849176994 0 0 0 0 -541.5178802359967 -129.9262383002424 0 -129.9262383002424 -6.1025735359598912 0 0 0 0 -501.18092662855179 338.93621019402781 0 338.93621019402781 -290.92726034429506 0 0 0 0 -390.40317148646955 114.83496477873996 0 114.83496477873996 142.79384893255701 0 0 0 0 -724.89692279106043 -31.707750534740626 0 -31.707750534740626 117.46040719385928 0 0 0 0 -192.96179531242501 -119.82676977934898 0 -119.82676977934898 -38.724290432437556 0 0 0 0 -0.81956056004664024 22.483826667830584 0 22.483826667830584 25.352224026515927 0 0 0 0 -461.26179781675319 -50.487509346334264 0 -50.487509346334264 13.202498131631728 0 0 0 0 46.546649489259153 62.134999862215409 0 62.134999862215409 11.647211177099962 0 0 0 0 -1.7604202379662706 3.1834810770169213 0 3.1834810770169213 16.900049460578551 0 0 0 0 -127.44020795292545 -154.92441637744196 0 -154.92441637744196 -71.927916862478014 0 0 0 0 -98.093909034756962 -283.24115263255953 0 -283.24115263255953 151.62116541349678 0 0 0 0 37.565468976861212 31.889122938875516 0 31.889122938875516 -5.9928718830051366 0 0 0 0 -249.03321149707199 16.615027263083903 0 16.615027263083903 63.274641182208143 0 0 0 0 -246.79764496175994 -9.2269639494916191 0 -9.2269639494916191 240.77942232514397 0 0 0 0 285.47737018589288 -96.230045628675725 0 -96.230045628675725 67.021300209453329 0 0 0 0 118.72485630426041 377.05137339646444 0 377.05137339646444 2075.8851216480398 0 0 0 0 -169.23676572765436 126.50614684380798 0 126.50614684380798 6.1063454584800638 0 0 0 0 450.20269989162568 1643.9233844572664 0 1643.9233844572664 1815.1890138371236 0 0 0 0 446.70861071091014 -379.48165155904189 0 -379.48165155904189 5128.6246494681909 0 0 0 0 1278.5432361977091 1075.1643985505798 0 1075.1643985505798 332.46017288015537 0 0 0 0 -174.62454645235812 -174.49235555415362 0 -174.49235555415362 501.77993643507943 0 0 0 0 3.7708397266506486 5.5560329950422158 0 5.5560329950422158 15.306482484741537 0 0 0 0 444.40212009332538 -985.85499646097014 0 -985.85499646097014 8173.4414289588749 0 0 0 0 -654.57034408410709 -611.14883932941302 0 -611.14883932941302 5175.2625577259878 0 0 0 0 353.44721179926279 722.13278179982808 0 722.13278179982808 4500.5409056659519 0 0 0 0 5.6067233100359992 9.0306123845851403 0 9.0306123845851403 12.701556791439117 0 0 0 0 757.81891345810573 1115.3975128381826 0 1115.3975128381826 -803.08395929986 0 0 0 0 -440.88139379146315 483.93289132087375 0 483.93289132087375 4429.3159327821668 0 0 0 0 629.44758729580815 1482.3898340249689 0 1482.3898340249689 2619.6134247291484 0 0 0 0 501.78728283154038 372.80036937760451 0 372.80036937760451 1261.6449332994525 0 0 0 0 251.38445919174006 674.21096849970854 0 674.21096849970854 2966.4112744263693 0 0 0 0 363.00449075040933 -263.11090393033737 0 -263.11090393033737 1498.7164730330987 0 0 0 0 461.58554463927032 -312.2664661355052 0 -312.2664661355052 1439.405900774058 0 0 0 0 333.97617513263759 -303.57547504652757 0 -303.57547504652757 1449.1697891341464 0 0 0 0 -744.08921864597687 922.82226958695537 0 922.82226958695537 114.9631150769128 0 0 0 0 -559.33906365530947 1006.4609661078284 0 1006.4609661078284 -307.05020244591287 0 0 0 0 7.9927771271221388 19.977389892408823 0 19.977389892408823 26.736736944273758 0 0 0 0 -577.53297712023277 150.69893410615623 0 150.69893410615623 835.69885462662933 0 0 0 0 456.14647071689598 -382.19836691259752 0 -382.19836691259752 750.33431738615036 0 0 0 0 687.82162162829309 -333.49106591178133 0 -333.49106591178133 531.31167947989888 0 0 0 0 1145.5415049379985 -1237.5327715115127 0 -1237.5327715115127 1457.8759969023668 0 0 0 0 1157.1561914226195 -0.38064336792740505 0 -0.38064336792740505 272.64445241229259 0 0 0 0 -392.78925331895971 28.950757607206469 0 28.950757607206469 772.06314368381572 0 0 0 0 -668.23886218968869 314.42744524977388 0 314.42744524977388 563.12868356000399 0 0 0 0 -345.05753870878652 154.20143684990035 0 154.20143684990035 283.7608146626153 0 0 0 0 -2.7263055686910382 -1.6604652732238492 0 -1.6604652732238492 1.330488515745472 0 0 0 0 251.52884224258696 -1324.8530337450793 0 -1324.8530337450793 -1081.9440942828805 0 0 0 0 -697.50523244719193 89.586102584551554 0 89.586102584551554 476.45579872724193 0 0 0 0 347.07564871056911 -57.078453349749907 0 -57.078453349749907 -480.76066868402995 0 0 0 0 95.996586479911457 -2142.4312716791828 0 -2142.4312716791828 1915.0646571147008 0 0 0 0 0.83053022423452827 -4.0593498255320473 0 -4.0593498255320473 12.681153090180146 0 0 0 0 -192.57957578440482 141.30871725673205 0 141.30871725673205 993.90325648405997 0 0 0 0 -207.53242269847624 -583.16296862272429 0 -583.16296862272429 2434.5791152318852 0 0 0 0 1268.9638705533116 -885.79767733711924 0 -885.79767733711924 216.84263478589128 0 0 0 0 0.41605451926140025 -0.67482116242404366 0 -0.67482116242404366 36.537913618630114 0 0 0 0 -4.1935735431407011 -308.7131727947708 0 -308.7131727947708 700.25442569228107 0 0 0 0 -19.013231271220775 -91.251258817828784 0 -91.251258817828784 -154.98156471362745 0 0 0 0 156.9461992503002 239.94590354282991 0 239.94590354282991 33.854438757727621 0 0 0 0 273.20271017768255 -99.935367437094101 0 -99.935367437094101 -188.49706470607634 0 0 0 0 194.78970244154607 -196.85675376225481 0 -196.85675376225481 227.94367937368224 0 0 0 0 -452.38000340513327 -228.29776355883951 0 -228.29776355883951 2336.5826046474249 0 0 0 0 -134.85004372154731 67.535267382911115 0 67.535267382911115 1479.2509841832943 0 0 0 0 -271.59796954314299 -510.40211410896518 0 -510.40211410896518 1276.2941100684984 0 0 0 0 -68.078135856454026 145.17756708058732 0 145.17756708058732 1320.6227158441034 0 0 0 0 195.99257636899404 -167.78578267197008 0 -167.78578267197008 -27.820853510376764 0 0 0 0 0.88798062443427683 -1.7676494443330739 0 -1.7676494443330739 2.4761352790665399 0 0 0 0 217.9422128382231 -439.36284118708863 0 -439.36284118708863 763.76361855219875 0 0 0 0 -6.5606823988923679 -373.70603822066914 0 -373.70603822066914 1434.3065493043723 0 0 0 0 58.69353920290564 -399.39254182890727 0 -399.39254182890727 973.34293666525627 0 0 0 0 215.87536236440616 60.774719520861254 0 60.774719520861254 126.49592877484974 0 0 0 0 42.526740211382275 -51.349543699529022 0 -51.349543699529022 1073.4011518584957 0 0 0 0 10.155818186156466 26.605066499032546 0 26.605066499032546 40.70685459797096 0 0 0 0 126.56952916056468 82.284396783579723 0 82.284396783579723 -170.53999128821306 0 0 0 0 -1.1903732498224686 2.6790141596851811 0 2.6790141596851811 13.448277779699907 0 0 0 0 -42.94877065385424 131.82946114653896 0 131.82946114653896 143.65806853532558 0 0 0 0 -47.883652531150688 112.34617817214166 0 112.34617817214166 164.39869607139917 0 0 0 0 -78.69732552535784 23.394463381227979 0 23.394463381227979 53.548341384303058 0 0 0 0 19.306814549728983 36.521570799210167 0 36.521570799210167 75.888702784461202 0 0 0 0 11.239908036937068 21.998454309600504 0 21.998454309600504 18.002256598883292 0 0 0 0 -0.68510547896357821 4.3339117545547197 0 4.3339117545547197 101.78563743038103 0 0 0 0 -0.8465214070474758 20.836279633003869 0 20.836279633003869 131.90294524289493 0 0 0 0 16.626035223384406 9.657679905238183 0 9.657679905238183 83.068669121887069 0 0 0 0 -13.413385718122754 44.238762981440232 0 44.238762981440232 86.655337128933752 0 0 0 0 1.8943560541636089 25.54640671920788 0 25.54640671920788 26.164087761935662 0 0 0 0 -30.836849675085887 33.272089553138358 0 33.272089553138358 75.678448840306373 0 0 0 0 -13.516149033267904 -0.29760786131501504 0 -0.29760786131501504 19.552245576375952 0 0 0 0 68.206842048572526 111.92410141284927 0 111.92410141284927 38.904047311822069 0 0 0 0 101.63381773179663 5.8268386370473308 0 5.8268386370473308 -180.74118296206507 0 0 0 0 -403.60670232431539 -198.26127900986467 0 -198.26127900986467 28.959831962907629 0 0 0 0 -818.70629850595822 84.804501674174389 0 84.804501674174389 856.16215660632588 0 0 0 0 -6.243274193779043 13.987500428014465 0 13.987500428014465 100.47069363121659 0 0 0 0 -312.89641835734096 -58.357145637910435 0 -58.357145637910435 244.96395757577557 0 0 0 0 351.58806896324404 -533.96105666551739 0 -533.96105666551739 461.50013777604909 0 0 0 0 38.611686671027201 26.214470094884746 0 26.214470094884746 86.412853020563489 0 0 0 0 7.7018113827380166 -2.695585633944944 0 -2.695585633944944 -2.0981101431931108 0 0 0 0 -185.87384320752426 -197.29526992222236 0 -197.29526992222236 829.51905406674632 0 0 0 0 -31.311314329203469 237.25753926048128 0 237.25753926048128 654.00947084423387 0 0 0 0 -34.357679864644069 99.83133498148527 0 99.83133498148527 211.87884047909756 0 0 0 0 -435.14166608695439 225.39727673174093 0 225.39727673174093 535.10183611977845 0 0 0 0 -838.78456937571718 137.20838236267082 0 137.20838236267082 517.79050737377838 0 0 0 0 -501.56328541978473 12.673980452760588 0 12.673980452760588 646.18814328459848 0 0 0 0 -289.99990513019111 -70.499022342555691 0 -70.499022342555691 -210.19929358508671 0 0 0 0 151.07569463508116 104.81111119771958 0 104.81111119771958 498.55618427507579 0 0 0 0 5.9804733537223438 2.9241220376466543 0 2.9241220376466543 -0.86124685579773086 0 0 0 0 -429.88356297067639 450.23162384920579 0 450.23162384920579 169.83289356008754 0 0 0 0 51.132735353004136 433.31025257590227 0 433.31025257590227 78.75728482712293 0 0 0 0 -430.44644539471574 472.5917708241177 0 472.5917708241177 503.53712903277483 0 0 0 0 66.013214255155162 485.4601634866558 0 485.4601634866558 469.30793530478695 0 0 0 0 -608.26197102362312 -760.48545058863965 0 -760.48545058863965 1300.0733714152593 0 0 0 0 396.30679743523388 31.111913972818002 0 31.111913972818002 278.50871542404639 0 0 0 0 -591.67560759821072 443.61356997034454 0 443.61356997034454 686.92997966130497 0 0 0 0 179.05520403358059 -39.011887609463884 0 -39.011887609463884 26.331055437782197 0 0 0 0 291.47551243067994 -833.17620718434955 0 -833.17620718434955 2088.3620641551533 0 0 0 0 9.6926584801441749 0.013772614086889234 0 0.013772614086889234 1.5373339602831422 0 0 0 0 105.17776409841031 516.90931199183979 0 516.90931199183979 1778.1505108559722 0 0 0 0 274.82971722313948 -41.654429487665766 0 -41.654429487665766 771.24784590359195 0 0 0 0 -127.84386584590902 446.7063417005993 0 446.7063417005993 683.76595311255005 0 0 0 0 475.32350827329083 236.62667515614885 0 236.62667515614885 17.283396285260096 0 0 0 0 436.74806531197419 387.75048651942052 0 387.75048651942052 691.54475819056097 0 0 0 0 1156.1661635366529 438.06704475689912 0 438.06704475689912 416.66284231060126 0 0 0 0 1083.7465058393091 -137.9625032588965 0 -137.9625032588965 -27.297930121436366 0 0 0 0 6.0608322962646994 9.285727177071891 0 9.285727177071891 18.056761351011517 0 0 0 0 835.26632880071065 38.242186397212208 0 38.242186397212208 -76.634141022223048 0 0 0 0 887.11752805539481 741.29389253272529 0 741.29389253272529 841.34666187161565 0 0 0 0 -469.80280715059234 -339.94487767338069 0 -339.94487767338069 1076.6589463855053 0 0 0 0 -502.81129183920348 -248.09050336045766 0 -248.09050336045766 1964.2100779403863 0 0 0 0 -359.58499743308244 47.122242508081399 0 47.122242508081399 1915.5926235687803 0 0 0 0 19.722017788565282 -2.1788200520041698 0 -2.1788200520041698 0.059390333581369248 0 0 0 0 -529.7675884866992 150.58534659587167 0 150.58534659587167 1853.4993270503619 0 0 0 0 99.712175127393493 34.117654798748845 0 34.117654798748845 45.971489140909398 0 0 0 0 -474.48574688501822 392.00201486631704 0 392.00201486631704 2269.5442872610292 0 0 0 0 1214.5029987451826 -986.13695564097725 0 -986.13695564097725 1693.3314255890582 0 0 0 0 -44.67233752934294 40.833758525010126 0 40.833758525010126 216.71871345880209 0 0 0 0 -76.389153367565086 49.364419297511631 0 49.364419297511631 217.60991895766347 0 0 0 0 -82.050346946492027 10.772828757540992 0 10.772828757540992 231.28524882683996 0 0 0 0 -116.77490467807002 20.943207032687496 0 20.943207032687496 241.76101360947359 0 0 0 0 -110.79018871172389 -16.040273352156873 0 -16.040273352156873 240.70710788707947 0 0 0 0 -56.211683982455725 -3.5693768548371736 0 -3.5693768548371736 251.47202962863958 0 0 0 0 -111.78676977704163 19.756795958935982 0 19.756795958935982 294.36990979064285 0 0 0 0 -93.288105984430331 16.91491381101514 0 16.91491381101514 294.2700583616097 0 0 0 0 62.893379431336143 -8.0847591065976303 0 -8.0847591065976303 237.08559647056973 0 0 0 0 -98.78715546762578 -19.688911086243024 0 -19.688911086243024 314.08982004338759 0 0 0 0 6.411024930934218 -30.828153029913665 0 -30.828153029913665 107.36667187804414 0 0 0 0 128.293211699268 115.6705757167872 0 115.6705757167872 191.85544952345663 0 0 0 0 -104.63014960369401 16.156406437658006 0 16.156406437658006 333.12724574636377 0 0 0 0 -39.742431947504883 62.443568916802178 0 62.443568916802178 288.26886451983592 0 0 0 0 -39.04808798353406 52.013466881908244 0 52.013466881908244 384.43807375340839 0 0 0 0 1.8455337674139187 4.8831945346233709 0 4.8831945346233709 -4.4576196032190865 0 0 0 0 35.172631635863581 -114.42805508213496 0 -114.42805508213496 377.32956400537523 0 0 0 0 23.210328824417957 -52.415612651406263 0 -52.415612651406263 204.21493201723206 0 0 0 0 -8.6604573026852449 4.8485003992100246 0 4.8485003992100246 120.49738297931617 0 0 0 0 -85.482266651839382 -19.115357795977616 0 -19.115357795977616 55.664668970232015 0 0 0 0 -43.534171240309661 49.065407129921368 0 49.065407129921368 91.622937041669502 0 0 0 0 -2.2508722697947405 4.5461621249321809 0 4.5461621249321809 11.702812196991712 0 0 0 0 -17.966517028318776 13.125562044209801 0 13.125562044209801 264.05014939309331 0 0 0 0 -136.51604094761933 -34.095410557165451 0 -34.095410557165451 248.6077289278619 0 0 0 0 59.839340632439416 93.175697739075986 0 93.175697739075986 210.81684649887029 0 0 0 0 -129.41877610262964 25.794178682321217 0 25.794178682321217 276.35181260628451 0 0 0 0 -102.25092811018476 13.968650512237218 0 13.968650512237218 279.94566043440136 0 0 0 0 -88.88235363957574 32.099765814855346 0 32.099765814855346 205.51390445610741 0 0 0 0 40.187445316616504 208.64478204258194 0 208.64478204258194 331.95245831966167 0 0 0 0 -276.0811006161166 48.120215582835954 0 48.120215582835954 344.64902742626145 0 0 0 0 -266.0830661434411 21.326144006103277 0 21.326144006103277 204.86238029574452 0 0 0 0 224.86306650076222 105.68489498709096 0 105.68489498709096 -105.34316795485211 0 0 0 0 -133.83915804264507 -117.49607626949728 0 -117.49607626949728 -17.310897935414687 0 0 0 0 79.716495405041485 -50.197263816638952 0 -50.197263816638952 399.18951025178831 0 0 0 0 -12.36704305383887 98.355935391100502 0 98.355935391100502 274.22423161467304 0 0 0 0 -13.644466446315402 -2.40998750237992 0 -2.40998750237992 8.423570289602651 0 0 0 0 -3.3686488632502005 132.95463178578939 0 132.95463178578939 200.4308138214983 0 0 0 0 -29.388134673803506 -24.304751374569605 0 -24.304751374569605 405.47306596674025 0 0 0 0 326.11588779641579 -125.59634235073463 0 -125.59634235073463 319.16415269240679 0 0 0 0 -39.303857081743331 -281.09502743829216 0 -281.09502743829216 721.09763368648419 0 0 0 0 379.89415310827172 -789.47451280415407 0 -789.47451280415407 1059.4861127638578 0 0 0 0 663.1675701229799 -307.97965834578099 0 -307.97965834578099 166.07062467205105 0 0 0 0 121.31367233259516 -104.93957616041735 0 -104.93957616041735 284.39281531478628 0 0 0 0 101.02987599663629 -101.51526819223363 0 -101.51526819223363 450.97666440249304 0 0 0 0 339.41061940115679 -355.36873084185117 0 -355.36873084185117 4497.8508506911894 0 0 0 0 47.284448039673933 -1646.874293928382 0 -1646.874293928382 4848.4588885059111 0 0 0 0 -0.188209002820722 -0.33321631862591516 0 -0.33321631862591516 0.51019035790471889 0 0 0 0 0.078851949376123318 -13.292838105051487 0 -13.292838105051487 28.199405207386008 0 0 0 0 49.046434947714715 -234.05975585937267 0 -234.05975585937267 248.08577861262165 0 0 0 0 -118.87318152829369 8.938361968161189 0 8.938361968161189 90.482391089535668 0 0 0 0 -199.49916098849076 -68.726377254373801 0 -68.726377254373801 402.56701094534947 0 0 0 0 -2.7413173721957071 -269.74814925881822 0 -269.74814925881822 5635.2099717420642 0 0 0 0 7.4321899223115224 669.79868092276956 0 669.79868092276956 -51.649566117892391 0 0 0 0 1.0420684499824793 6.5982330229070101 0 6.5982330229070101 14.875078572983568 0 0 0 0 706.17224013016664 -1935.99186287669 0 -1935.99186287669 3251.8674862034968 0 0 0 0 -397.9822316810455 244.1943394603677 0 244.1943394603677 90.821708716874127 0 0 0 0 1.1769072574718793 19.754692947805353 0 19.754692947805353 36.674468009156385 0 0 0 0 -111.22452811570525 1.0776999385780073 0 1.0776999385780073 86.271905284156674 0 0 0 0 -134.93438183667661 4.9562603632512037 0 4.9562603632512037 98.825363136042142 0 0 0 0 1.5263800805389822 29.688422657956949 0 29.688422657956949 47.643915927512438 0 0 0 0 -102.69240307428873 42.875694024805853 0 42.875694024805853 67.849136980468757 0 0 0 0 -448.38502440999673 -384.50423109051553 0 -384.50423109051553 3968.8875027444592 0 0 0 0 -21.851557161490746 -454.94639180845115 0 -454.94639180845115 2198.3354290297648 0 0 0 0 -45.156743084615186 -701.33536392574752 0 -701.33536392574752 2523.4739549551596 0 0 0 0 89.896817072033187 121.81522517759186 0 121.81522517759186 885.86550246502156 0 0 0 0 -391.00642648650268 108.5008904239985 0 108.5008904239985 2932.6089004930091 0 0 0 0 -253.30018229787157 -50.79886392069966 0 -50.79886392069966 2846.9943654763483 0 0 0 0 -223.10706655520301 64.949695400129713 0 64.949695400129713 3076.0794741150748 0 0 0 0 123.93466960798833 249.72520810040442 0 249.72520810040442 2265.2678346970351 0 0 0 0 122.55636424808426 135.61032923506718 0 135.61032923506718 2546.1358547429554 0 0 0 0 -120.54431668163636 328.64373360520403 0 328.64373360520403 2703.8910245495863 0 0 0 0 112.06714370662178 55.250866260648763 0 55.250866260648763 806.22661004948895 0 0 0 0 1.6991488906894392 -2.3117208601333203 0 -2.3117208601333203 3.9369312510892769 0 0 0 0 -23.018783632017787 -622.64563255026223 0 -622.64563255026223 503.33655688406725 0 0 0 0 -211.47121675074158 -91.954728469951078 0 -91.954728469951078 2457.3357094918902 0 0 0 0 377.25488243031941 104.75377794732412 0 104.75377794732412 -12.280041281352169 0 0 0 0 25.72764594780341 250.82201941955282 0 250.82201941955282 201.93289087920857 0 0 0 0 -191.74338545255395 82.954551110597095 0 82.954551110597095 146.58970553745166 0 0 0 0 -67.240757430600638 -31.283494563467684 0 -31.283494563467684 50.803505574876908 0 0 0 0 -1.445589191193676 -62.842799478996312 0 -62.842799478996312 773.70174054270319 0 0 0 0 1.4550408193854527 4.0225803434039733 0 4.0225803434039733 22.428149758751317 0 0 0 0 5.1641953418602435 26.329997472622466 0 26.329997472622466 24.652723233105988 0 0 0 0 30.900480761486961 74.999090976692969 0 74.999090976692969 118.44713890398998 0 0 0 0 -0.1463100003575164 45.667623893998098 0 45.667623893998098 100.94440948200645 0 0 0 0 6.2818177274892264 20.36049285018089 0 20.36049285018089 67.604332722672552 0 0 0 0 -10.757629410488986 -1.5969322080590587 0 -1.5969322080590587 21.55578117647525 0 0 0 0 4.8544512663351966 19.036617876531864 0 19.036617876531864 7.6641397600650834 0 0 0 0 18.873268359451089 38.025173309295496 0 38.025173309295496 4.9087486448133859 0 0 0 0 1.450603472717424 2.3399688987200307 0 2.3399688987200307 13.962765815388963 0 0 0 0 2.1944570098696659 23.229807449009968 0 23.229807449009968 54.889765629544854 0 0 0 0 -11.988681130454211 54.924842465690745 0 54.924842465690745 117.15352405422891 0 0 0 0 -3.0474821214966643 5.3531076964229101 0 5.3531076964229101 11.560001481058862 0 0 0 0 -7.7924998928968687 3.7127815101139419 0 3.7127815101139419 36.884423455983097 0 0 0 0 1.5055597919354113 18.465097951993812 0 18.465097951993812 81.055596217571292 0 0 0 0 6.2900806621514675 49.643667680531507 0 49.643667680531507 21.670484138809115 0 0 0 0 -14.185867487466695 -4.1792613148297733 0 -4.1792613148297733 32.236337648843687 0 0 0 0 3.6028910570712469 12.44331639680604 0 12.44331639680604 55.071876057376357 0 0 0 0 32.854808089051176 62.819954507702278 0 62.819954507702278 67.654143595136702 0 0 0 0 10.350649097586711 18.801724566103076 0 18.801724566103076 59.814463216229342 0 0 0 0 8.3170377636817729 10.310753298803576 0 10.310753298803576 1.7854551928366789 0 0 0 0 12.243272189022264 24.500787350261817 0 24.500787350261817 62.698996138962684 0 0 0 0 10.214708445868609 14.130736228471505 0 14.130736228471505 53.51921323649367 0 0 0 0 15.901434036840556 21.156364511047286 0 21.156364511047286 51.12492240141728 0 0 0 0 7.9591578188542371 28.132598222538945 0 28.132598222538945 92.931774402124574 0 0 0 0 28.863975321744192 43.951748447729187 0 43.951748447729187 48.231097146373941 0 0 0 0 13.050550371849795 38.680065058753826 0 38.680065058753826 92.715990648983279 0 0 0 0 13.687059147593335 6.9165527850355772 0 6.9165527850355772 -0.98968539732052818 0 0 0 0 58.822429978764376 28.704338729032315 0 28.704338729032315 62.568896581884474 0 0 0 0 23.267538865925417 27.613146828123718 0 27.613146828123718 56.556292259694601 0 0 0 0 -29.485233196548791 12.055755733432306 0 12.055755733432306 56.622537143557565 0 0 0 0 -7.6541873629592505 -2.2931183188883608 0 -2.2931183188883608 26.434669828574158 0 0 0 0 24.976525682840318 45.246349956658378 0 45.246349956658378 71.087578075588681 0 0 0 0 -8.7729358597132432 -28.47174539565458 0 -28.47174539565458 152.60294610707206 0 0 0 0 2.1199242135889733 5.403442017184716 0 5.403442017184716 81.423511327069718 0 0 0 0 -0.50701345382620344 0.83977453320284212 0 0.83977453320284212 22.640534088880102 0 0 0 0 -5.7562588388197913 -3.5659516045041642 0 -3.5659516045041642 37.878805426962401 0 0 0 0 -23.860212904405444 -41.583133365522372 0 -41.583133365522372 160.1740603618382 0 0 0 0 -8.9131837345142095 -18.601874233707548 0 -18.601874233707548 97.825037607593629 0 0 0 0 3.3444484223462334 31.179399509605503 0 31.179399509605503 58.35353633860322 0 0 0 0 13.109152193784496 42.577312404180702 0 42.577312404180702 138.20769867239324 0 0 0 0 30.866707845799624 28.508828507827275 0 28.508828507827275 882.14686072542099 0 0 0 0 9.3426271328440933 -7.3392073143595553 0 -7.3392073143595553 90.009282931976486 0 0 0 0 -162.31131197004083 8.5300021909934003 0 8.5300021909934003 122.59800102463487 0 0 0 0 -95.761143844224137 -7.5303347879744251 0 -7.5303347879744251 105.08982119589928 0 0 0 0 -83.517470901549984 33.224253717904503 0 33.224253717904503 151.58365541832609 0 0 0 0 -35.332274700563261 6.9364982930819679 0 6.9364982930819679 63.42045072306064 0 0 0 0 0.28122942202722023 1.7963686546377176 0 1.7963686546377176 5.2284303358036368 0 0 0 0 -75.103235291321724 10.304927327946643 0 10.304927327946643 26.058810033697227 0 0 0 0 -96.939353371383632 -33.401781206935993 0 -33.401781206935993 39.820442985190311 0 0 0 0 -74.596976565081079 -28.235855178601923 0 -28.235855178601923 23.395185328859952 0 0 0 0 -66.897736465074487 18.545457855154382 0 18.545457855154382 56.036054256182979 0 0 0 0 -67.616437791750542 1.0159982937402674 0 1.0159982937402674 74.773477913156967 0 0 0 0 -91.412091183420841 -5.4346222737949574 0 -5.4346222737949574 105.672350260229 0 0 0 0 -65.159593647857022 -9.6348602849648159 0 -9.6348602849648159 118.83664266268897 0 0 0 0 -40.520803072472717 -2.897450849541201 0 -2.897450849541201 17.386805681453552 0 0 0 0 -41.206384159512567 -5.2966601905864081 0 -5.2966601905864081 49.622260987849586 0 0 0 0 0.0016683595063458727 -23.379688665867434 0 -23.379688665867434 56.343743298679328 0 0 0 0 -0.047186862831138918 -41.182729331289011 0 -41.182729331289011 103.17421503961668 0 0 0 0 16.919027425817788 -61.631227725862118 0 -61.631227725862118 127.34894685877225 0 0 0 0 -0.4005787305170917 -0.2122249346784173 0 -0.2122249346784173 0.43198575634187364 0 0 0 0 61.938974342783659 -81.709193133319786 0 -81.709193133319786 96.690167276698048 0 0 0 0 -172.85550460560293 54.060331701484756 0 54.060331701484756 74.3047523504938 0 0 0 0 39.695371375528026 -41.709348732129001 0 -41.709348732129001 32.892005542496918 0 0 0 0 -0.22996431688139107 30.562413647690846 0 30.562413647690846 629.90074337406259 0 0 0 0 -79.485921471109066 -47.825402260990813 0 -47.825402260990813 653.03787182320957 0 0 0 0 2.0271491401492767 -42.68953471777786 0 -42.68953471777786 447.28905379994831 0 0 0 0 -0.65741655765425344 0.85951502578217287 0 0.85951502578217287 3.5459909829630973 0 0 0 0 -63.575719341119367 30.478616229032923 0 30.478616229032923 991.21992475515435 0 0 0 0 -28.176051988695491 -81.522354084721883 0 -81.522354084721883 41.216711642424343 0 0 0 0 57.548777790309742 -45.804214362229686 0 -45.804214362229686 -32.53368168718589 0 0 0 0 60.904007559856282 -12.547515675403702 0 -12.547515675403702 92.211019782349467 0 0 0 0 -34.30373218727317 -89.995540976502525 0 -89.995540976502525 100.32219147568685 0 0 0 0 -51.299702531184636 -92.88739070900192 0 -92.88739070900192 450.75913096066961 0 0 0 0 0.068808352519701799 3.318809944044915 0 3.318809944044915 162.761189700861 0 0 0 0 -47.278799632291808 -16.040352559866733 0 -16.040352559866733 68.404433010073262 0 0 0 0 22.226548467337945 -47.707956275327888 0 -47.707956275327888 65.416363164913491 0 0 0 0 0.0022739903330088592 -4.4503479457351078 0 -4.4503479457351078 33.146499663169379 0 0 0 0 -93.889920515605084 -28.133260550093837 0 -28.133260550093837 33.567463153318386 0 0 0 0 -52.243350040469252 -33.735099443591025 0 -33.735099443591025 5.3577586871688254 0 0 0 0 -182.56232740223905 -33.655889513182046 0 -33.655889513182046 101.34777152756578 0 0 0 0 -89.81539617708728 -36.160101534667774 0 -36.160101534667774 139.75012556373986 0 0 0 0 -104.5026685195275 27.836915229912847 0 27.836915229912847 82.7447981687219 0 0 0 0 -173.57604198072707 -119.55045631413532 0 -119.55045631413532 10.522111573634902 0 0 0 0 -51.321688407808267 256.77288232723367 0 256.77288232723367 189.2461024732329 0 0 0 0 -0.43396068109348651 -0.81324607186570574 0 -0.81324607186570574 1.8516253805092333 0 0 0 0 -79.943545946687479 -15.403732706305163 0 -15.403732706305163 6.8292199682909995 0 0 0 0 -75.559232566961157 -48.687050474040007 0 -48.687050474040007 -33.755571937537752 0 0 0 0 1.5713249494720134 -0.82705510856979458 0 -0.82705510856979458 7.2209121475785878 0 0 0 0 55.215941567633877 92.068613863666542 0 92.068613863666542 78.910435812402284 0 0 0 0 7.6716276086428934 51.616602677706396 0 51.616602677706396 121.80460847733775 0 0 0 0 142.10756749951017 101.9832707420901 0 101.9832707420901 68.794824207798229 0 0 0 0 -8.5715882333500986 3.9764503853657516 0 3.9764503853657516 102.62343690584385 0 0 0 0 0.24031833294766547 4.5956249135439862 0 4.5956249135439862 6.4741608144257157 0 0 0 0 34.930847606474345 42.444938189379172 0 42.444938189379172 11.620812104258221 0 0 0 0 -11.680545976958546 2.078858696431837 0 2.078858696431837 16.593092393534221 0 0 0 0 -47.998639926729794 46.159364970153547 0 46.159364970153547 26.041078220889176 0 0 0 0 128.57277434166096 -94.604622008395381 0 -94.604622008395381 57.031470700632781 0 0 0 0 -44.303204070451045 -114.5740388717968 0 -114.5740388717968 328.98080981767271 0 0 0 0 -93.87322739096571 -11.911237817825167 0 -11.911237817825167 136.36475205098395 0 0 0 0 17.686902025090149 1.1021579205989838 0 1.1021579205989838 21.711005249111622 0 0 0 0 122.334319290753 -280.44342504689121 0 -280.44342504689121 706.19716485546996 0 0 0 0 23.089450612197879 269.49199551865604 0 269.49199551865604 1264.9066180318187 0 0 0 0 3.0048556939106676 0.97074597601940127 0 0.97074597601940127 2.4718509216170332 0 0 0 0 74.769318082492418 -124.04289257785422 0 -124.04289257785422 1145.8481320159117 0 0 0 0 -15.487838426990095 24.802019635695615 0 24.802019635695615 1026.0142323437758 0 0 0 0 30.789375408504398 93.606677412753925 0 93.606677412753925 743.21197824756382 0 0 0 0 19.715292210897683 4.74752076259756 0 4.74752076259756 2.7739985403763132 0 0 0 0 -50.353918147138472 -41.087048688015784 0 -41.087048688015784 980.69082265923498 0 0 0 0 -64.29588204643926 -21.880054839191871 0 -21.880054839191871 1098.497447973903 0 0 0 0 32.267631251219967 -49.306944132556964 0 -49.306944132556964 761.03244230924793 0 0 0 0 28.266630682781805 -143.37752944958356 0 -143.37752944958356 1063.158654451574 0 0 0 0 435.08873692542682 -226.75230642175302 0 -226.75230642175302 905.80666470984579 0 0 0 0 81.30659009316237 146.86184775093898 0 146.86184775093898 680.91941779316403 0 0 0 0 83.065108785433722 31.175281630836253 0 31.175281630836253 10.541211507632397 0 0 0 0 -74.696279029420339 -1.3570868223614525 0 -1.3570868223614525 6.6355230681365356 0 0 0 0 14.096680304426627 1.4751527792639649 0 1.4751527792639649 0.47144584307344495 0 0 0 0 12.846544623419504 -9.6703989659581566 0 -9.6703989659581566 31.843518273650261 0 0 0 0 29.886662808101391 58.88848576989767 0 58.88848576989767 -77.361067676494713 0 0 0 0 -19.679968064449177 0.99050651014061941 0 0.99050651014061941 23.107554082205809 0 0 0 0 7.3771186237703681 1.9910209819438762 0 1.9910209819438762 4.4058418172887883 0 0 0 0 0.2456015503169624 -19.298016338867455 0 -19.298016338867455 54.527271755854599 0 0 0 0 44.879923525199047 24.995999685008428 0 24.995999685008428 21.281198820273858 0 0 0 0 -28.609197409230092 72.744046795050963 0 72.744046795050963 109.99419062669767 0 0 0 0 32.429712326254503 37.041892011926393 0 37.041892011926393 21.484165409419802 0 0 0 0 -8.5682655797565985 54.100292324852489 0 54.100292324852489 64.11953566109878 0 0 0 0 -17.223329306014261 -2.4334136886208739 0 -2.4334136886208739 26.47228395837675 0 0 0 0 57.364988962290681 52.87986912332417 0 52.87986912332417 38.48513732891297 0 0 0 0 1.6394148236906858 4.7582556768902577 0 4.7582556768902577 60.126410173055774 0 0 0 0 -27.215802685266681 17.502849191470887 0 17.502849191470887 48.689648757950636 0 0 0 0 55.343517526945561 17.166816503959126 0 17.166816503959126 112.08434609546384 0 0 0 0 2.3353851089265865 -1.0463440977637788 0 -1.0463440977637788 -0.17477490421150321 0 0 0 0 51.498834378424704 151.03413122246275 0 151.03413122246275 231.95228882726951 0 0 0 0 37.566820371670005 -1.2620017837834894 0 -1.2620017837834894 -30.672504422283964 0 0 0 0 -28.143431493088684 -1.067436368073686 0 -1.067436368073686 15.921281072447528 0 0 0 0 6.1806956734619334 43.309736259441706 0 43.309736259441706 2.8048810370382853 0 0 0 0 117.42914811956859 122.10962410056527 0 122.10962410056527 117.61587375827366 0 0 0 0 -539.41710308880704 214.94975351729954 0 214.94975351729954 367.76460261325701 0 0 0 0 -197.86693963392986 132.69984308193671 0 132.69984308193671 119.54479561690823 0 0 0 0 188.26543154223521 257.09232638904359 0 257.09232638904359 111.72085999374394 0 0 0 0 248.31377855140181 142.62982855303562 0 142.62982855303562 -43.795045839666273 0 0 0 0 5.4490319921855122 0.35267500930231677 0 0.35267500930231677 0.39704625246359981 0 0 0 0 166.26967050714859 11.212783432427386 0 11.212783432427386 -203.19965521745326 0 0 0 0 245.42754968668396 268.4224975987745 0 268.4224975987745 497.06565758518991 0 0 0 0 -258.57113737070324 -1033.3425372852798 0 -1033.3425372852798 -81.110591456010297 0 0 0 0 512.79282319266827 -61.161730483167048 0 -61.161730483167048 -627.4384870014328 0 0 0 0 152.04163644983478 196.0415848014818 0 196.0415848014818 713.61139794664541 0 0 0 0 28.951672831410121 -290.55721967367572 0 -290.55721967367572 127.94608072920528 0 0 0 0 118.80556742482821 27.874489368623472 0 27.874489368623472 918.30780511838384 0 0 0 0 434.65220567330465 702.25568746211502 0 702.25568746211502 2088.9084387418698 0 0 0 0 -109.87625542627484 -88.989302967951517 0 -88.989302967951517 1843.1275334875754 0 0 0 0 -1.9375071928678032 -2.8454192199448016 0 -2.8454192199448016 8.544564477126869 0 0 0 0 60.298306937955203 1011.023841831935 0 1011.023841831935 2723.5975463969226 0 0 0 0 -820.61051854065749 -585.35536298416264 0 -585.35536298416264 1259.4513717128721 0 0 0 0 -753.0318114590624 305.34249243529302 0 305.34249243529302 2266.3141370089143 0 0 0 0 -438.14149155537348 260.65630018110096 0 260.65630018110096 2939.767672347989 0 0 0 0 162.38301836719569 -496.23033072117687 0 -496.23033072117687 781.81490505598777 0 0 0 0 353.94197420108469 129.11693628517696 0 129.11693628517696 -187.02522214967757 0 0 0 0 373.19235384538837 -528.95549586601737 0 -528.95549586601737 45.9950341245858 0 0 0 0 440.80461706242227 -331.67190037242835 0 -331.67190037242835 -158.3950359308219 0 0 0 0 -289.93980326666428 453.62261370260967 0 453.62261370260967 1173.9257946214202 0 0 0 0 0.19772980397028395 -1.2073954132312608 0 -1.2073954132312608 4.5865503311063662 0 0 0 0 -390.39195969015844 -91.327552560491313 0 -91.327552560491313 98.361651530081872 0 0 0 0 -149.9624115546344 -236.68994286781162 0 -236.68994286781162 -115.0060422992683 0 0 0 0 -582.74640864302683 -318.74480158904771 0 -318.74480158904771 147.98161128800712 0 0 0 0 -0.91909144741617832 -2.7601273555341592 0 -2.7601273555341592 7.8194667091460133 0 0 0 0 -370.17000992306225 -60.146834319024492 0 -60.146834319024492 109.24617171339924 0 0 0 0 -362.31507488248394 -267.04161806332377 0 -267.04161806332377 12.51229682326084 0 0 0 0 -359.37263102698444 -268.4843665927765 0 -268.4843665927765 -193.60266073117964 0 0 0 0 -368.29550272882761 -55.920919792843051 0 -55.920919792843051 -268.29042110971932 0 0 0 0 -628.81676580877104 -78.405751424823393 0 -78.405751424823393 191.46953844153904 0 0 0 0 -385.92818374282973 -60.128016988068339 0 -60.128016988068339 129.31751277414151 0 0 0 0 -430.80902125759303 115.86912222544197 0 115.86912222544197 -35.400529794045724 0 0 0 0 -0.5061518780471177 -1.4275871603478478 0 -1.4275871603478478 4.360369733820221 0 0 0 0 -147.86555105737716 164.73129160920507 0 164.73129160920507 199.68221802502012 0 0 0 0 -20.430200616294769 1.7108388966007624 0 1.7108388966007624 5.4153472513717134 0 0 0 0 -6.0294518793848511 -2.8613488228074857 0 -2.8613488228074857 -2.4368485257582506 0 0 0 0 -8.3041892877295265 1.4770497161965181 0 1.4770497161965181 3.9651600242276857 0 0 0 0 9.9355597698986458 -3.0268136428494472 0 -3.0268136428494472 -3.1361173291661544 0 0 0 0 -27.631856584394228 39.234199463753612 0 39.234199463753612 -65.675805889037292 0 0 0 0 157.18608030339851 -29.832698323036311 0 -29.832698323036311 -103.10658832210902 0 0 0 0 13.784661879108967 102.8496878429869 0 102.8496878429869 -189.04757059809344 0 0 0 0 -4.1578261790678521 -2.1779239690428618 0 -2.1779239690428618 24.787621267538725 0 0 0 0 -134.19188885114124 -50.498226613381121 0 -50.498226613381121 146.29346499519306 0 0 0 0 -119.97098969109737 95.988544136867858 0 95.988544136867858 -69.076210736253415 0 0 0 0 -16.053014237550997 -4.9474221685595694 0 -4.9474221685595694 -16.50982172491058 0 0 0 0 -15.68330773557066 -7.9095185294495991 0 -7.9095185294495991 13.714493374984784 0 0 0 0 51.927685700268597 -57.823530556750484 0 -57.823530556750484 -60.204198064864613 0 0 0 0 17.862117617231444 53.08872956597952 0 53.08872956597952 8.0613358355476521 0 0 0 0 -35.985115850603805 -88.828859292065317 0 -88.828859292065317 118.22492576130026 0 0 0 0 47.465510783563829 321.17631567828175 0 321.17631567828175 867.45194008614635 0 0 0 0 45.132534917199735 209.8256141137972 0 209.8256141137972 949.3263066337895 0 0 0 0 173.27359613666442 51.4084189279165 0 51.4084189279165 -84.29285835774499 0 0 0 0 -374.43423851596475 148.51585925948166 0 148.51585925948166 2070.4565566276433 0 0 0 0 382.71741697726247 707.09443650836329 0 707.09443650836329 1093.5225528690935 0 0 0 0 0.39642758884493134 0.1123995466685983 0 0.1123995466685983 10.914102963310825 0 0 0 0 -188.34357080613506 244.44729967544845 0 244.44729967544845 2117.2178804242867 0 0 0 0 -148.28005817682725 268.68220086323709 0 268.68220086323709 1597.7862573373714 0 0 0 0 46.828604942834829 -103.63365344340855 0 -103.63365344340855 1334.0171360363602 0 0 0 0 324.84102299961069 -625.34601458647376 0 -625.34601458647376 1846.1326093433599 0 0 0 0 566.79181279814236 -259.45907054319105 0 -259.45907054319105 945.64371426677098 0 0 0 0 124.52942273661252 -163.2356847513729 0 -163.2356847513729 1065.2289565133105 0 0 0 0 -121.64022580340259 227.09174569605966 0 227.09174569605966 1006.8593277267937 0 0 0 0 -36.525324057137411 113.26662406830292 0 113.26662406830292 1136.5579164688934 0 0 0 0 4.1657016313841666 60.064725833508419 0 60.064725833508419 943.22630121491966 0 0 0 0 -44.622760369757977 75.826396235057473 0 75.826396235057473 965.99633396966965 0 0 0 0 -11.691515344490668 19.624012717868027 0 19.624012717868027 941.90908748575021 0 0 0 0 100.95670231174969 42.220842244809319 0 42.220842244809319 795.96250366503955 0 0 0 0 15.946121264948857 45.487167458806653 0 45.487167458806653 940.44607089840702 0 0 0 0 -12.941522486419871 229.89508137286793 0 229.89508137286793 714.13527458568569 0 0 0 0 32.98221316965288 116.45192134929675 0 116.45192134929675 898.17160600861826 0 0 0 0 90.496421842269058 116.72804400892346 0 116.72804400892346 874.76877192492248 0 0 0 0 245.61619281487162 386.03832632119611 0 386.03832632119611 502.77341328861075 0 0 0 0 114.89115927757473 31.886853481963044 0 31.886853481963044 3.0650609777221689 0 0 0 0 0.33413063089205974 0.87788585124627616 0 0.87788585124627616 2.9260875472030534 0 0 0 0 -42.715768740396136 11.489030508608266 0 11.489030508608266 -13.890275499550626 0 0 0 0 -58.696852476789502 17.346279656834668 0 17.346279656834668 116.85225708578946 0 0 0 0 -5.1901153396965425 -0.91761167560441947 0 -0.91761167560441947 5.7899596283580195 0 0 0 0 126.04794997374289 192.47154759048999 0 192.47154759048999 144.44091917335754 0 0 0 0 -5.9139077592421074 167.48666375852918 0 167.48666375852918 462.17997673115315 0 0 0 0 34.473285148910506 150.28122377896216 0 150.28122377896216 246.49395883420948 0 0 0 0 -48.202787145478595 60.907773622253444 0 60.907773622253444 226.40838071571852 0 0 0 0 -0.2614005394319584 118.55819730880467 0 118.55819730880467 280.19651226502901 0 0 0 0 -20.400767526228538 193.12838920103604 0 193.12838920103604 475.59254568361212 0 0 0 0 0.067349223388620788 105.17335232269397 0 105.17335232269397 503.20589459538496 0 0 0 0 -52.276560131687575 143.40624633494735 0 143.40624633494735 697.56602848278999 0 0 0 0 68.038484579909436 136.34131728141801 0 136.34131728141801 466.85120565120997 0 0 0 0 -35.238017610560107 142.64819811385678 0 142.64819811385678 824.05406442274398 0 0 0 0 4.6096778367952185 145.82213906328252 0 145.82213906328252 693.93939545023022 0 0 0 0 190.38039998286669 43.889325167263451 0 43.889325167263451 812.73269179130148 0 0 0 0 -76.432972420774874 48.926858833103324 0 48.926858833103324 787.18092469955445 0 0 0 0 245.79864153330709 187.83463284977915 0 187.83463284977915 620.59455075461301 0 0 0 0 767.8184876416999 234.70912490747287 0 234.70912490747287 -130.3227542756531 0 0 0 0 487.27307440110599 45.590790979716985 0 45.590790979716985 -115.23310861631762 0 0 0 0 666.41432965163403 222.73973187612864 0 222.73973187612864 -8.7695251308541629 0 0 0 0 643.28936170243378 286.43727590168419 0 286.43727590168419 214.44805633471697 0 0 0 0 -410.67728871194777 -83.987236734537873 0 -83.987236734537873 -63.127067686007649 0 0 0 0 127.8542743477731 -259.59647358083305 0 -259.59647358083305 -307.42459880595561 0 0 0 0 117.97914995835526 -18.969273531642102 0 -18.969273531642102 337.99477731199295 0 0 0 0 545.82693829176606 163.53394296135593 0 163.53394296135593 -45.423578985210042 0 0 0 0 744.34575275052885 -303.38635711288589 0 -303.38635711288589 -382.9463112091471 0 0 0 0 569.1800208688328 50.090665169685963 0 50.090665169685963 -73.077037842129357 0 0 0 0 917.78283399066549 -318.25216671333328 0 -318.25216671333328 307.51030411710963 0 0 0 0 1274.1538863541027 241.06907029441209 0 241.06907029441209 -174.22487394649943 0 0 0 0 778.17183780416599 566.58236675395892 0 566.58236675395892 243.79253905802398 0 0 0 0 17.836875847866395 214.48509845857188 0 214.48509845857188 1036.8621544462148 0 0 0 0 0.803583432843471 -0.2644685270341256 0 -0.2644685270341256 0.21524910031786249 0 0 0 0 439.87490299698402 302.24198166489077 0 302.24198166489077 262.66945418917749 0 0 0 0 16.549350221614077 263.80645337713213 0 263.80645337713213 693.20124105582363 0 0 0 0 -40.196892024221597 -19.16376399044384 0 -19.16376399044384 631.36045856091368 0 0 0 0 59.797384903817147 93.8605152487944 0 93.8605152487944 324.24761446778575 0 0 0 0 -33.731295401990792 18.307468527593301 0 18.307468527593301 40.627415354538243 0 0 0 0 52.674037380213122 -86.830938194179907 0 -86.830938194179907 365.51072051370647 0 0 0 0 1.9729895316226447 3.536115947592549 0 3.536115947592549 5.9987968451256393 0 0 0 0 3257.2182987046581 1321.5899037393683 0 1321.5899037393683 185.54495797929121 0 0 0 0 9.0771737888729742 6.4710051260406942 0 6.4710051260406942 9.1416728014938968 0 0 0 0 -1651.8104368380773 -673.1949764516321 0 -673.1949764516321 -425.30231193269719 0 0 0 0 50.963291171853598 -94.048603232615278 0 -94.048603232615278 120.35256043451955 0 0 0 0 404.12072558519321 -6.8195627442037221 0 -6.8195627442037221 -71.559555227329838 0 0 0 0 174.72467249777947 146.20176206367614 0 146.20176206367614 174.78918487760529 0 0 0 0 11.093979478487295 7.1641649132238001 0 7.1641649132238001 4.9293680831349604 0 0 0 0 -1499.2800120918564 -776.03890219800087 0 -776.03890219800087 1395.6904360224798 0 0 0 0 -15.094435136405082 68.480451776420523 0 68.480451776420523 1581.0252085865941 0 0 0 0 249.33705945328501 21.038476604488096 0 21.038476604488096 -672.02564705825353 0 0 0 0 5.4402932446648826 2.8594833983420074 0 2.8594833983420074 1.6799795128397363 0 0 0 0 265.70243911296541 -146.56893957078864 0 -146.56893957078864 -600.11738003086793 0 0 0 0 13.352321297274342 27.784929259374337 0 27.784929259374337 43.368781914959413 0 0 0 0 210.912012812787 904.27312311348214 0 904.27312311348214 422.48355358539993 0 0 0 0 -351.06588077228872 594.69929761302001 0 594.69929761302001 -181.29231219096982 0 0 0 0 140.46738102531481 -7.0612994658295065 0 -7.0612994658295065 -491.02172247035196 0 0 0 0 -186.79394288554306 451.56185347264 0 451.56185347264 -456.02433683804702 0 0 0 0 -302.1060574139002 314.75959181942744 0 314.75959181942744 -364.09469916801027 0 0 0 0 144.46894373598707 -104.78321058652364 0 -104.78321058652364 -233.50541834910109 0 0 0 0 540.44464589728943 -427.97703485235979 0 -427.97703485235979 -163.61171967192786 0 0 0 0 567.56782037474363 128.81866657950741 0 128.81866657950741 -413.80788553348975 0 0 0 0 437.76972133289149 166.52595026429481 0 166.52595026429481 -98.948074593005003 0 0 0 0 108.76779256795089 464.6285072016035 0 464.6285072016035 -5.3357425634658284 0 0 0 0 203.57537019872166 721.87715813031537 0 721.87715813031537 -916.93785335887515 0 0 0 0 200.7031037656011 153.96370503724029 0 153.96370503724029 -773.02415008809476 0 0 0 0 -470.73845148588498 -304.06780866901681 0 -304.06780866901681 590.54471008633664 0 0 0 0 26.867155420588382 20.06173673157582 0 20.06173673157582 12.5615413229784 0 0 0 0 605.53369307228513 152.57700095857945 0 152.57700095857945 -14.065740965888835 0 0 0 0 21.076671920834997 -720.65205071671517 0 -720.65205071671517 25.627124028105754 0 0 0 0 -368.51595129742145 -742.50682277922169 0 -742.50682277922169 300.05841749052342 0 0 0 0 -160.0389264712212 -917.43360811704042 0 -917.43360811704042 434.03575616543822 0 0 0 0 951.03160665194628 2066.7040755943017 0 2066.7040755943017 214.28829173943086 0 0 0 0 31.786369763293269 22.855278990003001 0 22.855278990003001 8.4947054414450633 0 0 0 0 -262.30873972016889 581.57418002740087 0 581.57418002740087 -151.15589123587415 0 0 0 0 -593.65930849192546 369.16710508990946 0 369.16710508990946 76.518235970303067 0 0 0 0 -803.92359124180211 -98.845604297275713 0 -98.845604297275713 2788.5559355398291 0 0 0 0 -6.9897271306992135 14.746393089388725 0 14.746393089388725 103.4350081604959 0 0 0 0 10.342540496920336 12.841249212179562 0 12.841249212179562 -2.9173976880356634 0 0 0 0 -295.56493400267937 -275.67078494202724 0 -275.67078494202724 172.69540639595652 0 0 0 0 139.08451578139784 59.995717815218086 0 59.995717815218086 5.0406470917987463 0 0 0 0 -127.00489164715736 358.02395785197587 0 358.02395785197587 18.376230606983881 0 0 0 0 279.1902965230729 576.87604751798062 0 576.87604751798062 327.08123071157024 0 0 0 0 259.18573105229461 737.52771483671677 0 737.52771483671677 65.841968398686731 0 0 0 0 -2.9308560232312422 6.7993940085654145 0 6.7993940085654145 39.639595086541249 0 0 0 0 372.96514775003743 900.17840967619122 0 900.17840967619122 209.42096470936667 0 0 0 0 -0.74333162379256379 -1.3331967459357585 0 -1.3331967459357585 25.297152019293662 0 0 0 0 119.76174072827507 -798.94770405151939 0 -798.94770405151939 71.799611133174039 0 0 0 0 30.923104486797911 14.34450687764911 0 14.34450687764911 -123.97877505476936 0 0 0 0 -65.495447800853981 159.37243295743247 0 159.37243295743247 392.87235457774659 0 0 0 0 -0.12341401348604641 -1.2956020297557416 0 -1.2956020297557416 0.99662119073902034 0 0 0 0 -18.673663748981198 101.10482973347825 0 101.10482973347825 2.2199087279295782 0 0 0 0 -31.603341202688171 38.128919111479263 0 38.128919111479263 131.94484883465338 0 0 0 0 -27.508727109651772 57.83052696636878 0 57.83052696636878 91.812094070493913 0 0 0 0 -27.50673030247026 -45.727997009540559 0 -45.727997009540559 101.02155932123787 0 0 0 0 -13.146903271906705 6.409412732465853 0 6.409412732465853 26.228732075983828 0 0 0 0 -13.065562838190544 79.877656914657564 0 79.877656914657564 62.328994762603543 0 0 0 0 52.654452273368406 57.452226039342349 0 57.452226039342349 60.052760967882932 0 0 0 0 -99.036005954010761 -38.870591144805076 0 -38.870591144805076 267.36705589205667 0 0 0 0 -134.09392865519976 97.673630579491146 0 97.673630579491146 173.83452518228296 0 0 0 0 -337.80405075675856 -235.99281870623054 0 -235.99281870623054 -1.0498626476182835 0 0 0 0 -8.1498047302634546 -6.0358056368806103 0 -6.0358056368806103 14.089098182652435 0 0 0 0 -19.126100159300904 -0.8248745391756529 0 -0.8248745391756529 -28.905093254405074 0 0 0 0 62.365332599528983 193.89471605719882 0 193.89471605719882 919.59854890524002 0 0 0 0 165.00460993821753 130.69115900684847 0 130.69115900684847 50.635568939025688 0 0 0 0 -268.67826126797911 -220.28467610005464 0 -220.28467610005464 1116.1760838197079 0 0 0 0 0.12683290133303993 2.9854159924453683 0 2.9854159924453683 13.450452781279921 0 0 0 0 940.67866223588612 863.72893537693017 0 863.72893537693017 657.94012611744984 0 0 0 0 -19.732565253557595 675.66883764111844 0 675.66883764111844 1487.3063518705058 0 0 0 0 117.61751070932496 377.06445248225646 0 377.06445248225646 825.57313500175223 0 0 0 0 428.43152966413606 545.37076898469968 0 545.37076898469968 902.39989981887629 0 0 0 0 -1734.2873055334167 -52.710751109814737 0 -52.710751109814737 1386.813977990023 0 0 0 0 98.611675450215898 127.88716697666678 0 127.88716697666678 55.565191511082276 0 0 0 0 2077.687533570996 1312.6098061084376 0 1312.6098061084376 483.98043466417585 0 0 0 0 -787.59388694840209 949.37364934109064 0 949.37364934109064 1522.483759551018 0 0 0 0 326.76294586177221 -643.20630662768963 0 -643.20630662768963 -238.41833888204565 0 0 0 0 -1484.7803362717887 -1051.1528530335272 0 -1051.1528530335272 209.5869189571531 0 0 0 0 -2.5122336008752146 -8.552603221177506 0 -8.552603221177506 62.516295131166828 0 0 0 0 265.01579482681154 -1038.8669902963302 0 -1038.8669902963302 -370.74571775803633 0 0 0 0 -1841.7164986099372 -396.18694461161795 0 -396.18694461161795 1097.4762887413381 0 0 0 0 -663.36857782051175 807.31489128873 0 807.31489128873 620.2826045142283 0 0 0 0 -279.59504025247082 80.752745277663053 0 80.752745277663053 75.988525034365011 0 0 0 0 -2.79284217301183 -8.3269485454369345 0 -8.3269485454369345 64.526486365681592 0 0 0 0 -1414.1394640680687 -786.84934554573556 0 -786.84934554573556 358.73801702470519 0 0 0 0 287.2575182667415 938.83577364254597 0 938.83577364254597 -68.267122196470154 0 0 0 0 434.7395672292505 611.5264894077809 0 611.5264894077809 604.91156111830787 0 0 0 0 225.15147296912153 341.87358674339339 0 341.87358674339339 1187.9417509352352 0 0 0 0 56.863745632533437 -85.931136623199563 0 -85.931136623199563 133.35429660855152 0 0 0 0 235.76621222132769 -451.20828824834462 0 -451.20828824834462 -282.37876410925674 0 0 0 0 196.57762387784351 -431.05775827266189 0 -431.05775827266189 242.60625780903501 0 0 0 0 29.347463173626693 -593.29260435246397 0 -593.29260435246397 736.17349257030583 0 0 0 0 -50.148639008723478 -253.09959015853019 0 -253.09959015853019 182.99009247546201 0 0 0 0 62.34650583808957 -233.16899479809217 0 -233.16899479809217 30.672798463026993 0 0 0 0 -118.11049646006086 -101.49588854053582 0 -101.49588854053582 53.754910948511679 0 0 0 0 116.9090077055024 -359.56806115336803 0 -359.56806115336803 104.32356866908958 0 0 0 0 -10.060584984548541 -162.92838115428458 0 -162.92838115428458 84.400670426781289 0 0 0 0 -42.84232213395137 -336.11044406353903 0 -336.11044406353903 282.54749736095255 0 0 0 0 -102.89181514637879 -159.06357888519597 0 -159.06357888519597 1738.3069509674096 0 0 0 0 56.221567539681246 -371.64498365288455 0 -371.64498365288455 291.03938935010228 0 0 0 0 -10.265200102970994 -144.22461209405446 0 -144.22461209405446 644.31631534546614 0 0 0 0 973.34281936866205 1305.0750633061398 0 1305.0750633061398 986.95056471814314 0 0 0 0 374.15872877369776 367.58362629444309 0 367.58362629444309 -86.14010666750255 0 0 0 0 773.73172007810467 262.57007673759654 0 262.57007673759654 -73.014811321889283 0 0 0 0 349.0765135772358 412.0243481614707 0 412.0243481614707 502.53120745913475 0 0 0 0 143.30047853842427 128.83311453381611 0 128.83311453381611 112.98821236903314 0 0 0 0 -111.67848717351103 18.847925646536169 0 18.847925646536169 -0.39021411462454125 0 0 0 0 -101.90693552318908 83.807299256790429 0 83.807299256790429 426.95244116331742 0 0 0 0 -335.93039631344891 33.90695672910806 0 33.90695672910806 668.12946443760302 0 0 0 0 -500.25936752583493 -204.16664011576358 0 -204.16664011576358 329.45478862558957 0 0 0 0 -945.53740844476602 338.9953265764052 0 338.9953265764052 2860.0304307653714 0 0 0 0 -212.7668223978302 -819.80328391496005 0 -819.80328391496005 366.29317771045316 0 0 0 0 346.30751500575315 1215.1129818427689 0 1215.1129818427689 820.29176428174833 0 0 0 0 -1.133819267963873 -0.9854098820821946 0 -0.9854098820821946 27.367484745044578 0 0 0 0 1799.2718253806729 597.853201957696 0 597.853201957696 -1003.0698535322153 0 0 0 0 354.01323845975139 -583.05991041344532 0 -583.05991041344532 -873.06323470671214 0 0 0 0 -349.45203607419762 264.7104919005651 0 264.7104919005651 -148.74879971103655 0 0 0 0 -103.51286059199447 -98.370588891899388 0 -98.370588891899388 -44.471856134434347 0 0 0 0 -14.499630984203822 -7.509742891861606 0 -7.509742891861606 13.25392336649702 0 0 0 0 26.267048025445547 103.94721803354332 0 103.94721803354332 -5.0457939828338567 0 0 0 0 -10.027068151120343 2.5098032963564041 0 2.5098032963564041 82.962633644036771 0 0 0 0 -218.43130508259401 -5.9886825240282633 0 -5.9886825240282633 148.14580102684704 0 0 0 0 7.1551414748337265 70.350840712548234 0 70.350840712548234 204.17411409183114 0 0 0 0 -46.052431755124417 9.0264615905471146 0 9.0264615905471146 129.89652141711849 0 0 0 0 3.9855643643152678 17.832720636747496 0 17.832720636747496 -10.905017408705362 0 0 0 0 -9.1136039011198591 52.863819963284186 0 52.863819963284186 111.04147874651972 0 0 0 0 3.0769363239505765 52.173306855205738 0 52.173306855205738 108.46874864281563 0 0 0 0 -3.9692209775312222 28.860373163028271 0 28.860373163028271 89.041426070849411 0 0 0 0 24.783292916075879 36.815727564076951 0 36.815727564076951 52.352948298590491 0 0 0 0 -6.1362749418494786 13.92393634574546 0 13.92393634574546 37.586967226292472 0 0 0 0 6.9064848514535697 43.195083264319692 0 43.195083264319692 100.03377512764928 0 0 0 0 -11.087276489843134 39.737987983069615 0 39.737987983069615 100.23625204232485 0 0 0 0 115.98928845412956 10.421776319824858 0 10.421776319824858 75.311551271355711 0 0 0 0 249.08155344379338 -124.14113737114531 0 -124.14113737114531 157.84441988817707 0 0 0 0 83.35906147688911 -81.710321325736004 0 -81.710321325736004 263.47588161946624 0 0 0 0 -134.88152623662336 179.70266320934752 0 179.70266320934752 85.794434046358219 0 0 0 0 63.003111611354143 141.31156346218631 0 141.31156346218631 -93.871958754738444 0 0 0 0 327.30039480042433 -276.51911766250851 0 -276.51911766250851 -15.187323417378138 0 0 0 0 1407.9077181379571 1436.2484833110211 0 1436.2484833110211 482.8084791705769 0 0 0 0 120.26838670861616 -462.66673559945048 0 -462.66673559945048 778.60371500333713 0 0 0 0 1.8358729796620148 0.60236774185649011 0 0.60236774185649011 29.489909913656788 0 0 0 0 120.31675432761403 -325.0695877663602 0 -325.0695877663602 644.43289723436465 0 0 0 0 165.79987492601958 -314.17200872354442 0 -314.17200872354442 401.71245348613593 0 0 0 0 65.864048945942045 -296.17251002428111 0 -296.17251002428111 777.91008181206416 0 0 0 0 79.703806509016431 -191.86208988384169 0 -191.86208988384169 741.94718105343054 0 0 0 0 116.4638147895821 -376.00439913285663 0 -376.00439913285663 941.53961042982701 0 0 0 0 245.82395496457229 270.301517671498 0 270.301517671498 1049.6460893706389 0 0 0 0 -118.00652536073903 -148.30757316995732 0 -148.30757316995732 1385.2885332599108 0 0 0 0 -73.973147989569043 -37.208026650638203 0 -37.208026650638203 952.23127134419337 0 0 0 0 1174.2052706551294 1437.3493278365931 0 1437.3493278365931 2505.3404706669389 0 0 0 0 2755.3724734318093 383.70291926652135 0 383.70291926652135 491.0791261173581 0 0 0 0 -146.08879171640274 -290.0629356819918 0 -290.0629356819918 2938.6416240511171 0 0 0 0 -6.5856054849627981 -225.49624043530639 0 -225.49624043530639 1843.7946343167278 0 0 0 0 -9.309443877384183 63.308819628313358 0 63.308819628313358 688.49556817694975 0 0 0 0 -108.19332718463676 103.99589544191701 0 103.99589544191701 690.31958290137118 0 0 0 0 -109.02533079560747 75.017042106637746 0 75.017042106637746 906.54458135832101 0 0 0 0 -85.118177511214526 -82.747862634903868 0 -82.747862634903868 793.53468873006932 0 0 0 0 -40.012390740830597 -60.264583927390049 0 -60.264583927390049 735.06629173652618 0 0 0 0 -4.9470944327604229 -144.013084372913 0 -144.013084372913 648.6760948854353 0 0 0 0 19.443654719125334 -165.901706984263 0 -165.901706984263 499.90033641048649 0 0 0 0 -39.808642393566714 -63.216392125926632 0 -63.216392125926632 596.31571185227949 0 0 0 0 27.179021163894504 -34.021641983337759 0 -34.021641983337759 506.88850095233647 0 0 0 0 25.669760055965526 -98.236592330198619 0 -98.236592330198619 287.10108105934705 0 0 0 0 64.445467573124006 -101.53502480875613 0 -101.53502480875613 286.15047074439644 0 0 0 0 111.26885952967359 -125.63141738077684 0 -125.63141738077684 250.68022425746312 0 0 0 0 36.625936406617257 -108.75904215536866 0 -108.75904215536866 490.85851360876768 0 0 0 0 70.584934706765125 -96.252243749288027 0 -96.252243749288027 267.76098649501364 0 0 0 0 27.14560594627801 -44.619226249269559 0 -44.619226249269559 141.02439289924223 0 0 0 0 72.465908827552084 -27.274613553643576 0 -27.274613553643576 147.30568459430651 0 0 0 0 14.784912196068035 0.34374244326318149 0 0.34374244326318149 100.30231928126886 0 0 0 0 79.186351066311545 29.472781612879771 0 29.472781612879771 82.424863772466779 0 0 0 0 -3.0700466143935046 46.398433699796442 0 46.398433699796442 72.060509513132274 0 0 0 0 55.119348767989322 -101.36890619382029 0 -101.36890619382029 173.37313522491604 0 0 0 0 32.849173880351373 -32.258057217040914 0 -32.258057217040914 171.91826919016603 0 0 0 0 6.9272339765266224 -57.721954919819837 0 -57.721954919819837 158.66617225421214 0 0 0 0 20.985746903788822 31.844960274160258 0 31.844960274160258 -19.865543064428493 0 0 0 0 -1.7147207468143826 0.76779707945698306 0 0.76779707945698306 3.5287914269339637 0 0 0 0 21.55264107518633 -26.172402417098056 0 -26.172402417098056 75.189443883660715 0 0 0 0 -67.081081615990115 13.149187196613639 0 13.149187196613639 92.44680697152944 0 0 0 0 -0.31541932529944461 -11.961719097802415 0 -11.961719097802415 -80.312343814526685 0 0 0 0 -43.345022528923437 51.43006173503818 0 51.43006173503818 47.109948371071368 0 0 0 0 -15.250515093624927 32.08119329524925 0 32.08119329524925 60.357497131510172 0 0 0 0 23.891090871964479 -12.156479891207709 0 -12.156479891207709 45.59787767578382 0 0 0 0 -70.660037019166339 43.151753341138829 0 43.151753341138829 -25.155854570417432 0 0 0 0 -53.980081289202644 -28.451506788609549 0 -28.451506788609549 42.625985325692454 0 0 0 0 0.512771344234352 -25.166131975274766 0 -25.166131975274766 38.945652394486387 0 0 0 0 40.514936042077352 -30.892367493201164 0 -30.892367493201164 39.48937169110286 0 0 0 0 1.8713138529391262 2.0906251513727767 0 2.0906251513727767 -2.062887133417405 0 0 0 0 -0.38994129721234749 5.4572495926926194 0 5.4572495926926194 18.978577737497915 0 0 0 0 25.109930586549126 -25.654141271822482 0 -25.654141271822482 68.581049247703049 0 0 0 0 23.4858143567144 -16.689037190706586 0 -16.689037190706586 48.190357961604604 0 0 0 0 -44.149775041884823 -4.9081762401510787 0 -4.9081762401510787 28.188437875593081 0 0 0 0 -34.942251736853905 -8.763262362088426 0 -8.763262362088426 20.199623520635214 0 0 0 0 -84.393025256054443 27.507977570716321 0 27.507977570716321 24.963992612087168 0 0 0 0 0.79287851684784982 -40.383448134278296 0 -40.383448134278296 61.078460072407324 0 0 0 0 77.759689015535969 -94.666173556235663 0 -94.666173556235663 81.141546628481592 0 0 0 0 -28.853776021256635 -7.517548571122461 0 -7.517548571122461 105.05940965987247 0 0 0 0 -0.60930569937681156 1.4184875938690169 0 1.4184875938690169 12.848685853435313 0 0 0 0 -45.369245233472526 -39.514510601584334 0 -39.514510601584334 33.894100640107354 0 0 0 0 -18.418483691463194 -113.51945478012931 0 -113.51945478012931 124.25875382078812 0 0 0 0 37.270334688578401 -103.84249134799029 0 -103.84249134799029 103.20423126657261 0 0 0 0 -11.792849536886461 -7.7831424036115848 0 -7.7831424036115848 82.046401485442004 0 0 0 0 -275.30587859229058 62.728324974865245 0 62.728324974865245 167.68324327059236 0 0 0 0 -6.5359873753295687 -24.591846472367251 0 -24.591846472367251 83.048782750483952 0 0 0 0 -172.99103855520468 -71.470576675372286 0 -71.470576675372286 277.87382377119502 0 0 0 0 -145.76813616266901 128.98551202494491 0 128.98551202494491 73.109243119732128 0 0 0 0 173.31496485219191 166.04529694946541 0 166.04529694946541 26.252383110382652 0 0 0 0 -15.969480337570129 -3.1194731112182126 0 -3.1194731112182126 68.770976353048695 0 0 0 0 17.633581112244428 -4.3351261020216043 0 -4.3351261020216043 48.340295857749879 0 0 0 0 16.10040951195333 -7.7552394151280168 0 -7.7552394151280168 71.444843442535785 0 0 0 0 4.3335996561656103 10.798520374535684 0 10.798520374535684 18.854695363838928 0 0 0 0 13.948161229040124 38.818137662296067 0 38.818137662296067 32.869284987304127 0 0 0 0 26.071223429049496 -6.6973784184156102 0 -6.6973784184156102 34.429770253504103 0 0 0 0 -6.3840756720128411 31.43988473743957 0 31.43988473743957 31.333275989047252 0 0 0 0 5.9267366342401147 55.093046778354619 0 55.093046778354619 45.984484735643491 0 0 0 0 -7.1617690044659641 8.7174197246561143 0 8.7174197246561143 4.9516038136269458 0 0 0 0 15.42845388355903 50.235325950161496 0 50.235325950161496 -15.386113383363409 0 0 0 0 -28.799062205720183 26.474608436163294 0 26.474608436163294 60.61189389554346 0 0 0 0 -311.31975712406438 139.64389745626249 0 139.64389745626249 -2.3898583915870404 0 0 0 0 -614.23675852169958 14.957319725843263 0 14.957319725843263 72.092258749325993 0 0 0 0 -63.499410656832083 -90.632989850302693 0 -90.632989850302693 59.315963527600616 0 0 0 0 142.07851667280852 -433.06016129665659 0 -433.06016129665659 600.35306860592027 0 0 0 0 258.32299947013735 263.73355679917586 0 263.73355679917586 348.58976162425824 0 0 0 0 0.35024169132641259 -1.5504204658934277 0 -1.5504204658934277 1.0749447891015507 0 0 0 0 -432.18034908935755 -241.97227514263795 0 -241.97227514263795 332.77029362296162 0 0 0 0 -247.70161438892353 210.69684994366617 0 210.69684994366617 76.278851039503934 0 0 0 0 153.49456686962901 211.09071290124848 0 211.09071290124848 151.68561093723838 0 0 0 0 -106.54689162568229 243.66341397780343 0 243.66341397780343 274.84733576695726 0 0 0 0 24.751458171628315 27.185573117349122 0 27.185573117349122 153.78563665357069 0 0 0 0 563.6341860650665 -204.19404840404604 0 -204.19404840404604 53.97498858475592 0 0 0 0 68.069448745631973 82.209232373352279 0 82.209232373352279 192.81040454911272 0 0 0 0 465.74733381783301 35.77190963740577 0 35.77190963740577 152.18114249408245 0 0 0 0 479.49691896977458 79.729788102253224 0 79.729788102253224 -184.42179068180849 0 0 0 0 -10.313759607828672 111.59029307258606 0 111.59029307258606 758.31565830816908 0 0 0 0 280.26407334130704 -235.39675598830217 0 -235.39675598830217 657.47448159550549 0 0 0 0 -135.05996868960051 185.30062212849589 0 185.30062212849589 472.69292936706915 0 0 0 0 44.074280049896743 76.221869861576124 0 76.221869861576124 446.51070039789192 0 0 0 0 -2.4601519322219474 143.7804968974815 0 143.7804968974815 445.42836547584739 0 0 0 0 -183.7074346347631 -14.194376759201987 0 -14.194376759201987 250.10978752851952 0 0 0 0 -160.79849813820601 42.659728866463411 0 42.659728866463411 357.33743261991185 0 0 0 0 -189.26220143498426 138.67816170126753 0 138.67816170126753 507.68871667183703 0 0 0 0 -121.85583941190725 129.03927923264564 0 129.03927923264564 372.74931693292456 0 0 0 0 -115.53881185313969 157.32966250446771 0 157.32966250446771 461.28421506649465 0 0 0 0 43.311384412989696 213.65958827422583 0 213.65958827422583 260.91673061717302 0 0 0 0 64.443481480950368 -2.6962093631445896 0 -2.6962093631445896 -46.016163948748726 0 0 0 0 -36.420745303953481 48.733075139956782 0 48.733075139956782 187.58444773568772 0 0 0 0 -36.844408354623965 44.375733098539058 0 44.375733098539058 156.45911237793916 0 0 0 0 160.57984922400965 287.44516787210887 0 287.44516787210887 488.23944112478057 0 0 0 0 364.76925175603026 -166.86666264873202 0 -166.86666264873202 13.97529454875621 0 0 0 0 2.0488954807656778 -2.9038738616010846 0 -2.9038738616010846 5.8250274728212617 0 0 0 0 293.94650690759158 49.414080561909941 0 49.414080561909941 -81.0355337561341 0 0 0 0 105.94183600892148 138.45774901735422 0 138.45774901735422 91.182142449339153 0 0 0 0 165.30606043886564 -46.743339096006821 0 -46.743339096006821 5.6109490353555884 0 0 0 0 34.173166439452643 -33.700628351580235 0 -33.700628351580235 69.610682635102421 0 0 0 0 -28.656614032132325 1.8694908575744194 0 1.8694908575744194 5.8004523333220277 0 0 0 0 -244.93931108949528 58.948151237811544 0 58.948151237811544 180.6806983173301 0 0 0 0 -2.63149894071588 0.47463800323605199 0 0.47463800323605199 2.1082372728029668 0 0 0 0 100.78846932313854 -12.005767170048784 0 -12.005767170048784 40.246990704894415 0 0 0 0 -20.975023435140884 -64.44990125996992 0 -64.44990125996992 9.3296529788931366 0 0 0 0 -31.916863026227247 -41.856452790831099 0 -41.856452790831099 -2.1610076960641891 0 0 0 0 2.1017629342344231 -8.4520014036523037 0 -8.4520014036523037 14.792330899639296 0 0 0 0 -73.669419968982766 -126.03811578158638 0 -126.03811578158638 -235.90420855517732 0 0 0 0 -33.907066642108248 -67.336485787702259 0 -67.336485787702259 -150.06868907561875 0 0 0 0 -1.9287633536309885 -3.4481798262157781 0 -3.4481798262157781 3.6739128369073057 0 0 0 0 -240.9632697634288 -119.56332517343981 0 -119.56332517343981 158.70563303874223 0 0 0 0 -140.8354845459221 -69.636729005549569 0 -69.636729005549569 114.04154430286144 0 0 0 0 -117.27103617297405 -4.8362031161159393 0 -4.8362031161159393 213.03035203117179 0 0 0 0 62.502922438084511 -154.57847702229628 0 -154.57847702229628 260.27732461004598 0 0 0 0 -129.50390455653212 -103.35550488194713 0 -103.35550488194713 252.64207496809831 0 0 0 0 87.090724660354624 -72.97864280668 0 -72.97864280668 56.294297782733338 0 0 0 0 192.92198442935137 -132.25935185884009 0 -132.25935185884009 62.359219411271624 0 0 0 0 83.007425022296957 -91.05842682630464 0 -91.05842682630464 87.879291377656045 0 0 0 0 35.797930850739704 -76.914698368971585 0 -76.914698368971585 134.48562788197887 0 0 0 0 61.085975933091845 -129.43211555518792 0 -129.43211555518792 121.09689413866363 0 0 0 0 16.869220974914853 -90.2375055178818 0 -90.2375055178818 82.15001910905994 0 0 0 0 35.51006318545052 -98.551552608718339 0 -98.551552608718339 83.865845528329373 0 0 0 0 55.909530713253844 -58.180253369500861 0 -58.180253369500861 36.225702129930141 0 0 0 0 70.483016778032834 -83.571917846391443 0 -83.571917846391443 49.545994257932762 0 0 0 0 -2.9825758591876088 4.3109936801913449 0 4.3109936801913449 13.553752697540119 0 0 0 0 -39.053532782493221 -13.444981740663934 0 -13.444981740663934 32.967720908927731 0 0 0 0 -10.540999421427465 -3.7920902175943638 0 -3.7920902175943638 0.98761321895094056 0 0 0 0 -13.175089785930254 -26.762187442243885 0 -26.762187442243885 7.6843213306274265 0 0 0 0 -223.32070383124892 -130.55994267029746 0 -130.55994267029746 63.101567793077265 0 0 0 0 0.35908044828949848 -4.3210946207677949 0 -4.3210946207677949 6.3451470257318761 0 0 0 0 -382.71462364593845 207.27515583016793 0 207.27515583016793 -168.54988693640917 0 0 0 0 6.8827125388479544 11.175110576485167 0 11.175110576485167 -14.278197511572216 0 0 0 0 -11.108857144166151 -0.71842167363655562 0 -0.71842167363655562 7.620908318692301 0 0 0 0 32.112173410540208 -17.695870439616556 0 -17.695870439616556 4.415552603721153 0 0 0 0 -37.28459854476705 47.699442413406359 0 47.699442413406359 48.228876809691428 0 0 0 0 -9.0508000780801012 -9.5170867428969359 0 -9.5170867428969359 88.169041633795132 0 0 0 0 4.140817226702211 6.8830503811259405 0 6.8830503811259405 11.050145582601544 0 0 0 0 121.09204540694213 -48.992205964401364 0 -48.992205964401364 92.950723399510025 0 0 0 0 -50.822874243970318 -101.74225167334953 0 -101.74225167334953 162.76382140957867 0 0 0 0 -6.2072439790194949 -17.064192059246125 0 -17.064192059246125 255.18163540284149 0 0 0 0 10.944038132853848 -56.306726929615252 0 -56.306726929615252 45.373477211076533 0 0 0 0 0.14218387108247699 0.64562551097550624 0 0.64562551097550624 2.0412356845860131 0 0 0 0 27.622933154764951 -179.23466449280386 0 -179.23466449280386 214.46488051603046 0 0 0 0 -77.03714273088417 84.024110715276038 0 84.024110715276038 88.912992998644768 0 0 0 0 -44.280538327126351 27.316005826160108 0 27.316005826160108 3.6954606077051722 0 0 0 0 -4.7006978482056176 5.832793774080443 0 5.832793774080443 8.683507411784376 0 0 0 0 -4.3680675914735509 -31.384828785620698 0 -31.384828785620698 32.102786367526278 0 0 0 0 -1.7606248257093284 -77.046933572426497 0 -77.046933572426497 150.08786398929078 0 0 0 0 -97.473243245919548 4.7732860104297288 0 4.7732860104297288 33.525839403744612 0 0 0 0 0.65625944673766368 2.1148201261592448 0 2.1148201261592448 9.2835885247575334 0 0 0 0 18.708065271739542 -141.00921749832196 0 -141.00921749832196 93.950943209070829 0 0 0 0 0.27646679297222176 0.75234849203214083 0 0.75234849203214083 3.3143943903171476 0 0 0 0 -39.540390494351414 106.3341340694169 0 106.3341340694169 62.036971665576857 0 0 0 0 -3.8212485698616092 -11.56000121980469 0 -11.56000121980469 -11.326060598483309 0 0 0 0 8.0173001692633648 21.954693366755237 0 21.954693366755237 53.427870170678943 0 0 0 0 0.47964669597058673 10.093576406216016 0 10.093576406216016 73.2302560850585 0 0 0 0 -14.931143729364976 53.790779536182526 0 53.790779536182526 97.328109831818438 0 0 0 0 3.7300330252214735 -4.5738593924615998 0 -4.5738593924615998 71.424413694490795 0 0 0 0 4.0584251386334813 19.418192209668632 0 19.418192209668632 88.988336903625168 0 0 0 0 4.9257670433324847 -22.355376324776444 0 -22.355376324776444 40.5042254019354 0 0 0 0 11.77846328851183 -9.56092112204351 0 -9.56092112204351 21.375712271372322 0 0 0 0 13.561277665201715 -19.185210305717192 0 -19.185210305717192 38.198614932945929 0 0 0 0 13.74372075213023 -0.063618777363444678 0 -0.063618777363444678 63.091991242879885 0 0 0 0 6.6788091703258203 -16.142825092072599 0 -16.142825092072599 77.439762665278977 0 0 0 0 9.4886098731487749 -8.7617051615234232 0 -8.7617051615234232 94.000330558803398 0 0 0 0 8.9782182687228556 -0.19860256888205186 0 -0.19860256888205186 100.53432317700936 0 0 0 0 6.9317011113196259 -0.06764450907940045 0 -0.06764450907940045 104.05681929597631 0 0 0 0 6.7310364136531007 1.2634769181022421 0 1.2634769181022421 95.437894025206333 0 0 0 0 8.5305971839156882 5.6380362084018998 0 5.6380362084018998 89.366103578548064 0 0 0 0 -2.4611698318800563 9.1358292170916684 0 9.1358292170916684 117.57646172319073 0 0 0 0 0.22938119803700374 9.0389478749711998 0 9.0389478749711998 101.11931724305032 0 0 0 0 2.0437035246606499 4.2913166724902112 0 4.2913166724902112 113.53497316734865 0 0 0 0 8.4817140641291928 1.0834664438880282 0 1.0834664438880282 103.6930502867981 0 0 0 0 13.893478786696505 2.9749269179010298 0 2.9749269179010298 111.83818468442769 0 0 0 0 8.9778392760980132 2.6798611449557939 0 2.6798611449557939 108.66707950521959 0 0 0 0 8.5815456279455304 1.8822364632796962 0 1.8822364632796962 115.40286372794071 0 0 0 0 9.9722778280575994 -0.90409402127261274 0 -0.90409402127261274 108.97689463803545 0 0 0 0 17.597784110791054 4.9015044124535052 0 4.9015044124535052 112.44184153806418 0 0 0 0 18.704910061858868 8.4229804120841436 0 8.4229804120841436 123.34592204200453 0 0 0 0 9.8748996232239392 2.0714724033023231 0 2.0714724033023231 125.9535586515558 0 0 0 0 8.3739213966899797 -9.9331211393000558 0 -9.9331211393000558 141.1956818663748 0 0 0 0 8.3902515901850165 -11.076975305728411 0 -11.076975305728411 112.87664035928901 0 0 0 0 20.862760037017694 -25.596515363824437 0 -25.596515363824437 90.987102759361733 0 0 0 0 4.7531249676499101 -10.177513494825689 0 -10.177513494825689 162.49564569047652 0 0 0 0 6.2801546251753253 17.985381045609827 0 17.985381045609827 -11.544589762996054 0 0 0 0 15.735129071204028 -38.676355542731471 0 -38.676355542731471 117.28724294574931 0 0 0 0 13.425998880395127 -36.890487926721107 0 -36.890487926721107 139.37804502659128 0 0 0 0 15.735129071141841 -38.676355542760575 0 -38.676355542760575 117.2872429464478 0 0 0 0 15.735129071133997 -38.676355542760575 0 -38.676355542760575 117.28724294621497 0 0 0 0 13.414953539145245 -7.4009637801209465 0 -7.4009637801209465 103.54707432026044 0 0 0 0 11.943488745055305 -6.0717891826479899 0 -6.0717891826479899 107.85906973638339 0 0 0 0 11.951475540127404 -6.2709772427915595 0 -6.2709772427915595 93.887724167372653 0 0 0 0 9.8495228634710088 -3.6049103216500953 0 -3.6049103216500953 105.2333448723075 0 0 0 0 10.585037182881251 -1.7382330029358855 0 -1.7382330029358855 109.88963968999451 0 0 0 0 -88.273863007509135 96.202793956224923 0 96.202793956224923 75.09292051315424 0 0 0 0 14.332218051553355 2.5796996645040053 0 2.5796996645040053 113.63649135720334 0 0 0 0 19.657738162805117 4.2343299576896243 0 4.2343299576896243 110.71553306825808 0 0 0 0 -10.861638148703298 21.176854776519747 0 21.176854776519747 82.855262921102053 0 0 0 0 -127.50966138138756 71.356909476475266 0 71.356909476475266 121.63676243737427 0 0 0 0 2.6834306543711364 -11.344228870495897 0 -11.344228870495897 34.994896018092874 0 0 0 0 -131.68597805913305 178.19342221929401 0 178.19342221929401 -162.62208853011543 0 0 0 0 -5.3298901499092608 65.495521819640999 0 65.495521819640999 40.406439108293853 0 0 0 0 63.407204104167249 33.813217937778973 0 33.813217937778973 36.463879799717688 0 0 0 0 -124.35052297307783 70.913760222788824 0 70.913760222788824 73.138022927887505 0 0 0 0 -206.26516425468981 43.107059957132151 0 43.107059957132151 73.463710667740088 0 0 0 0 -154.5010563794076 134.04005393877742 0 134.04005393877742 219.86308145761723 0 0 0 0 13.930851069113885 -8.2566302362538408 0 -8.2566302362538408 92.082346233801218 0 0 0 0 4.946507261159673 -1.0004080943596136 0 -1.0004080943596136 14.741072622996342 0 0 0 0 -275.3312586066927 158.15317830211279 0 158.15317830211279 189.87472217965114 0 0 0 0 -12.615198642376482 -0.83283972851723576 0 -0.83283972851723576 85.738163735518242 0 0 0 0 -45.496444361486283 -23.803725193327409 0 -23.803725193327409 140.46298218004813 0 0 0 0 16.86771235056176 -65.248986669452279 0 -65.248986669452279 84.975249475581222 0 0 0 0 4.7718051684751295 -7.4380658122908869 0 -7.4380658122908869 15.230073898032231 0 0 0 0 -89.904309752761947 164.10435754571517 0 164.10435754571517 38.196980748689384 0 0 0 0 -43.392607092026992 72.483459948234668 0 72.483459948234668 486.14753576398653 0 0 0 0 -41.878987206348029 -4.280965393569204 0 -4.280965393569204 204.06709884022985 0 0 0 0 310.8833638823512 -357.87852815527003 0 -357.87852815527003 250.26553816444357 0 0 0 0 -0.45315806126366986 -0.026084468421259999 0 -0.026084468421259999 4.669791782017171 0 0 0 0 172.45675206744545 -54.869018012999732 0 -54.869018012999732 55.736247470398666 0 0 0 0 -11.850298775292696 -5.9718219305970734 0 -5.9718219305970734 88.013078682367507 0 0 0 0 -218.57978118090614 -37.352026359323645 0 -37.352026359323645 189.64176979698823 0 0 0 0 -36.870106234726336 -195.84314648153668 0 -195.84314648153668 150.57575878676653 0 0 0 0 -25.499363291404507 -105.36585736164852 0 -105.36585736164852 94.261579267520574 0 0 0 0 -101.61042180695216 88.344967062483192 0 88.344967062483192 132.72452633557259 0 0 0 0 -12.375409099610891 -73.667207658929328 0 -73.667207658929328 148.7172070654633 0 0 0 0 4.3116659397084049 -58.600491953038727 0 -58.600491953038727 122.12164100511291 0 0 0 0 -15.353730148338002 -85.656572912732372 0 -85.656572912732372 134.14236925690784 0 0 0 0 -3.3752417926522291 0.052170434889376338 0 0.052170434889376338 -1.590960607827725 0 0 0 0 22.963913808811867 -32.551005527529924 0 -32.551005527529924 157.62474320750334 0 0 0 0 -0.29367628020168013 17.393623337193276 0 17.393623337193276 75.391439383682155 0 0 0 0 57.058422311561458 -248.57438312236991 0 -248.57438312236991 187.85691727983067 0 0 0 0 0.19528605339051186 0.35285129072303789 0 0.35285129072303789 1.0317377250209461 0 0 0 0 -0.64543874069292428 10.163683007078362 0 10.163683007078362 17.621045934710992 0 0 0 0 1.5278315009458758 13.522930140774406 0 13.522930140774406 14.489654756587697 0 0 0 0 9.2309460542076298 9.7767145923325529 0 9.7767145923325529 7.5555644005042666 0 0 0 0 194.70606313496523 -56.652926927796216 0 -56.652926927796216 791.67011411022395 0 0 0 0 0.015030935781005426 17.350587768720288 0 17.350587768720288 2.6614070633077063 0 0 0 0 1.7720098510068967 3.1612141341711038 0 3.1612141341711038 4.2638467952583028 0 0 0 0 -704.16864087839451 -453.30862559725938 0 -453.30862559725938 1823.4317069733806 0 0 0 0 1.0003234297177324 273.7379680839731 0 273.7379680839731 539.07313537345908 0 0 0 0 -135.9701079961028 27.081214608417213 0 27.081214608417213 156.22819479036843 0 0 0 0 -1.9731953318030548 156.78039687260025 0 156.78039687260025 202.39701715001138 0 0 0 0 7.8492340501433802 86.635907242089161 0 86.635907242089161 80.620176432450535 0 0 0 0 122.26524382989464 -197.38690050861624 0 -197.38690050861624 794.12808722442423 0 0 0 0 -27.750296102881265 -56.208054661106871 0 -56.208054661106871 -62.079447172043729 0 0 0 0 -90.016259392591564 -38.913195569904929 0 -38.913195569904929 832.66458370978944 0 0 0 0 -4.0691350873211745 2.195660106293019 0 2.195660106293019 -1.3254801243224392 0 0 0 0 331.97647741518267 -250.61815475652111 0 -250.61815475652111 768.92941372378846 0 0 0 0 -1.1631126752881755 56.147728214113158 0 56.147728214113158 118.42994685790472 0 0 0 0 65.779765521251647 -402.3856564753587 0 -402.3856564753587 547.08732293674257 0 0 0 0 -24.71802815046712 -4.6399649861632497 0 -4.6399649861632497 122.05350831666328 0 0 0 0 -43.361934235466833 7.4127834182727383 0 7.4127834182727383 88.293860198245966 0 0 0 0 -16.420865194043568 6.6629067712729011 0 6.6629067712729011 2.2046402082471275 0 0 0 0 25.247917079150341 -6.2667265507407137 0 -6.2667265507407137 -33.012926472758409 0 0 0 0 -7.1719244948875325 -5.3571035138361225 0 -5.3571035138361225 28.634310290646226 0 0 0 0 -108.27378329513328 -35.672351633741528 0 -35.672351633741528 138.64554614204098 0 0 0 0 140.3876681486795 141.1021334659963 0 141.1021334659963 26.100447653516312 0 0 0 0 0.4253311101694135 -1.4841491802690001 0 -1.4841491802690001 10.758429678505138 0 0 0 0 248.33098332567079 472.96081086733466 0 472.96081086733466 641.59960734006017 0 0 0 0 215.51234835852642 -675.5485175355825 0 -675.5485175355825 1029.0841223687748 0 0 0 0 -79.398740544622342 -528.67931715562008 0 -528.67931715562008 843.03316854880541 0 0 0 0 -194.72409733253971 201.16830346510687 0 201.16830346510687 1333.5357730991527 0 0 0 0 973.55274851619652 569.96283944272727 0 569.96283944272727 -25.169683343279758 0 0 0 0 -261.28794932835353 -90.248177760542603 0 -90.248177760542603 932.62679534637573 0 0 0 0 102.01229794607934 -251.03921762912069 0 -251.03921762912069 779.87318840139778 0 0 0 0 -372.81755855599204 -239.68251667724689 0 -239.68251667724689 1194.3944460146595 0 0 0 0 -249.5173763528237 -255.06287100713234 0 -255.06287100713234 434.6343461543438 0 0 0 0 -73.528881241414638 206.92910106753698 0 206.92910106753698 1625.4254752722918 0 0 0 0 -1773.1364312147489 -115.52603265619837 0 -115.52603265619837 422.18916970232385 0 0 0 0 1.9508156638766767 2.689551598832324 0 2.689551598832324 -0.98455660950827451 0 0 0 0 6.8878937327506264 4.1039455216523493 0 4.1039455216523493 11.83362276895059 0 0 0 0 3.2604411988077948 4.8893461586238978 0 4.8893461586238978 13.743934504739627 0 0 0 0 7.6941673671595296 8.725014468174777 0 8.725014468174777 18.2221012890368 0 0 0 0 6.471658938076871 0.33476408991555218 0 0.33476408991555218 14.895909304512315 0 0 0 0 7.9161685815974643 6.318897578939783 0 6.318897578939783 6.2947096525952873 0 0 0 0 772.09808573804185 345.8129734294198 0 345.8129734294198 -261.66759731595084 0 0 0 0 40.006410138573301 -135.37835327924404 0 -135.37835327924404 -37.798746641536127 0 0 0 0 8.6475009135031193 2.0335772428396695 0 2.0335772428396695 3.5360022528431898 0 0 0 0 -28.035129586102357 -94.893620824404934 0 -94.893620824404934 440.19785536531708 0 0 0 0 -0.94086988062917953 -12.518168186878029 0 -12.518168186878029 12.708949944666529 0 0 0 0 -2.160665402734594 -74.70996065903455 0 -74.70996065903455 234.98783950522193 0 0 0 0 7.173775032401692 -3.5659041428769456 0 -3.5659041428769456 2.7122887666608051 0 0 0 0 -20.851695421656586 51.32526794129808 0 51.32526794129808 353.64433730785095 0 0 0 0 -96.271006352010772 24.758285362739116 0 24.758285362739116 519.92814157884277 0 0 0 0 -24.736723191831516 77.451337017024343 0 77.451337017024343 506.30059287985205 0 0 0 0 -36.3349957199285 -1.3827739888511132 0 -1.3827739888511132 523.5545736332424 0 0 0 0 -39.356353177723577 61.324308624200057 0 61.324308624200057 542.41713313687069 0 0 0 0 -114.02461080339799 -3.5051021620020038 0 -3.5051021620020038 500.12431517950608 0 0 0 0 -226.97477168681507 31.228499138131156 0 31.228499138131156 613.61792340427928 0 0 0 0 -109.64023653311142 108.89456466651245 0 108.89456466651245 510.22786121247918 0 0 0 0 -97.430414019929231 151.77297309316054 0 151.77297309316054 653.98239559127978 0 0 0 0 32.931229654603158 -61.735083929379471 0 -61.735083929379471 -18.275876760337269 0 0 0 0 9.112224869476222 39.574476373653852 0 39.574476373653852 32.279649131261976 0 0 0 0 -18.575024386141092 -6.5738135213988755 0 -6.5738135213988755 15.236404713599143 0 0 0 0 -3.721356266350933 -1.6704834490625871 0 -1.6704834490625871 1.6100306534243032 0 0 0 0 -30.492813087682521 -14.047676669841167 0 -14.047676669841167 41.874894506850978 0 0 0 0 -111.26267680580122 61.742331939652104 0 61.742331939652104 525.84847110082046 0 0 0 0 5.9556959962155815 -145.11628956249479 0 -145.11628956249479 234.05504421127262 0 0 0 0 -0.26112434855847555 1.1672096901529727 0 1.1672096901529727 1.2160867805678777 0 0 0 0 -0.40092376094427884 0.49651582316448639 0 0.49651582316448639 2.7921479228805879 0 0 0 0 73.727148602252782 55.786735625806614 0 55.786735625806614 525.19316922408962 0 0 0 0 38.079881108323207 -84.361900113697629 0 -84.361900113697629 80.878090705664363 0 0 0 0 69.331022198773326 -40.97712210813188 0 -40.97712210813188 17.183070087688975 0 0 0 0 -2.7015240393675413 13.382853961637011 0 13.382853961637011 5.8506147362932097 0 0 0 0 -88.966030774587807 174.18006315585808 0 174.18006315585808 78.492173246846505 0 0 0 0 -314.84891411433671 -146.35632282468941 0 -146.35632282468941 -51.122626346594188 0 0 0 0 -207.97667219749326 224.52901647300496 0 224.52901647300496 447.63328470580745 0 0 0 0 -132.08842807985775 88.6138779031171 0 88.6138779031171 531.301286242684 0 0 0 0 -175.85065322557421 171.11334192444338 0 171.11334192444338 505.21316358837066 0 0 0 0 -95.102941131892294 163.01444319952861 0 163.01444319952861 436.520516070741 0 0 0 0 -231.50421849249096 101.71357087006618 0 101.71357087006618 458.78177115586004 0 0 0 0 37.905253960654591 43.69153949363681 0 43.69153949363681 481.27097803034121 0 0 0 0 89.430187143915191 68.850220206928498 0 68.850220206928498 431.51207488050568 0 0 0 0 315.18123040474984 4.9267198270536028 0 4.9267198270536028 416.99491040117573 0 0 0 0 19.045652632535621 20.134814911900321 0 20.134814911900321 26.405600628742832 0 0 0 0 198.3834208262333 32.106634900410427 0 32.106634900410427 1.5346328646191978 0 0 0 0 37.548997014559518 -8.2854028677684255 0 -8.2854028677684255 595.73001220950391 0 0 0 0 2.2326535360324824 -1.8181468250858188 0 -1.8181468250858188 1.3320918347092174 0 0 0 0 295.13912830648997 -106.61592682084301 0 -106.61592682084301 -103.58884031279013 0 0 0 0 144.89378029337695 -244.00527030069497 0 -244.00527030069497 16.733336721910746 0 0 0 0 138.59618775073704 -342.70073447583127 0 -342.70073447583127 -339.55927837990066 0 0 0 0 -23.683519180684016 127.90027809579624 0 127.90027809579624 -344.5308680577516 0 0 0 0 -319.24358897583215 -251.63782692153472 0 -251.63782692153472 -58.781590093465638 0 0 0 0 -129.65059972092149 36.633260820934083 0 36.633260820934083 296.51430722774239 0 0 0 0 -509.84411313811984 33.325983712762536 0 33.325983712762536 325.61215317697497 0 0 0 0 140.184485082847 -192.18312603405502 0 -192.18312603405502 258.12164399161702 0 0 0 0 -50.308895174194276 233.1381174420676 0 233.1381174420676 542.97925618392765 0 0 0 0 -158.71658751608356 -307.32071550455294 0 -307.32071550455294 203.13516507605345 0 0 0 0 -479.36287964865733 50.001170614123112 0 50.001170614123112 277.88104017148726 0 0 0 0 -6.3745228731254429 -34.948908008744183 0 -34.948908008744183 82.561611217737664 0 0 0 0 54.977434186173923 -98.567711677329498 0 -98.567711677329498 140.15646567023941 0 0 0 0 63.097202687214576 -19.059348006965593 0 -19.059348006965593 59.998836078040767 0 0 0 0 0.2234938487990803 -2.7078322480811039 0 -2.7078322480811039 75.474537305926788 0 0 0 0 -8.8846256117544726 21.976022314956936 0 21.976022314956936 33.655195490980987 0 0 0 0 15.776402207241063 1.0982711779797683 0 1.0982711779797683 -22.161068993838853 0 0 0 0 15.024721186280658 9.4686988361499971 0 9.4686988361499971 24.617093386914348 0 0 0 0 10.393136327184948 30.747825819365971 0 30.747825819365971 0.92028543399646878 0 0 0 0 -84.634331710909237 -164.59819597596652 0 -164.59819597596652 -79.882348340732278 0 0 0 0 1.6195611406113737 -1.6486725890763125 0 -1.6486725890763125 1.4627414781688799 0 0 0 0 -16.256196787070166 29.457855211734568 0 29.457855211734568 197.49953495690715 0 0 0 0 1.0057455116688314 -2.1296318973674175 0 -2.1296318973674175 3.6293379647409552 0 0 0 0 19.005351560683721 25.774350902123842 0 25.774350902123842 -371.43228066386655 0 0 0 0 -142.21311028262448 -51.838337147957645 0 -51.838337147957645 230.07944495287666 0 0 0 0 -0.072118423749763183 0.095703993783011754 0 0.095703993783011754 -1.007697152991966 0 0 0 0 70.903471790075855 41.916000245058967 0 41.916000245058967 -54.708344380953349 0 0 0 0 0.25186234080388203 -14.560031820430595 0 -14.560031820430595 -6.2867227700407966 0 0 0 0 5.2909158987883984 -48.659543491747172 0 -48.659543491747172 -11.13919005948992 0 0 0 0 -264.03166454546232 -104.1043989598038 0 -104.1043989598038 437.01667540548078 0 0 0 0 1.4808272062579437 -4.2230770595302403 0 -4.2230770595302403 9.1360988760809505 0 0 0 0 3.8535086841072825 -4.3523069909933838 0 -4.3523069909933838 7.32787391297461 0 0 0 0 10.973498797898174 -1.88428404914157 0 -1.88428404914157 -1.6676528284879168 0 0 0 0 5.9956138671568624 -2.1847643699729815 0 -2.1847643699729815 9.198361201910302 0 0 0 0 5.504768717132265 -1.3104547318289406 0 -1.3104547318289406 8.8289104037103243 0 0 0 0 5.9371745097808741 -1.3587974709530499 0 -1.3587974709530499 8.5723410366044845 0 0 0 0 6.9231803893826509 -0.29765777749707922 0 -0.29765777749707922 6.3946992517448962 0 0 0 0 11.369581138910235 3.4357140046340646 0 3.4357140046340646 8.9331958047114313 0 0 0 0 7.5354348141324863 1.5480579215509351 0 1.5480579215509351 12.943587454094086 0 0 0 0 9.5959170913684009 9.2382480316370561 0 9.2382480316370561 21.883122507104417 0 0 0 0 14.03511014931064 9.6552094566286542 0 9.6552094566286542 10.175941816341947 0 0 0 0 9.6324181175923513 4.0702241848630365 0 4.0702241848630365 15.987986917243688 0 0 0 0 5.9759373986819355 19.032704562941944 0 19.032704562941944 38.108032648626249 0 0 0 0 0.88502030823976785 -1.1689098111765475 0 -1.1689098111765475 1.7523391636499923 0 0 0 0 2.4841495469790971 -4.3108455897890963 0 -4.3108455897890963 53.931325865727558 0 0 0 0 7.3007564909494249 -1.2256488548227935 0 -1.2256488548227935 26.226410625560675 0 0 0 0 5.5429018396075662 0.6963843616831582 0 0.6963843616831582 25.654620570130646 0 0 0 0 4.2997699874303716 -4.012497763513494 0 -4.012497763513494 3.5759379648366405 0 0 0 0 4.065654705648285 -0.54016255306487437 0 -0.54016255306487437 27.93329808083945 0 0 0 0 2.1344613750552526 1.3422247342969058 0 1.3422247342969058 27.38381308366661 0 0 0 0 7.34336400035113 3.0768132161865651 0 3.0768132161865651 13.745736021752236 0 0 0 0 3.258786737191258 3.2528697340312647 0 3.2528697340312647 25.625378087868739 0 0 0 0 3.0372791921554381 -0.67749097927116964 0 -0.67749097927116964 21.376006120088277 0 0 0 0 2.8387569649780566 -1.5348275036237737 0 -1.5348275036237737 8.9133837920032022 0 0 0 0 -0.057785393357455916 11.729257610662899 0 11.729257610662899 25.755927008241997 0 0 0 0 5.4556005508985939 12.872340911120773 0 12.872340911120773 21.755579526987276 0 0 0 0 0.67997957027538414 1.6786997904019927 0 1.6786997904019927 4.5048962974218796 0 0 0 0 -2.5474374195994902 2.1500969748676262 0 2.1500969748676262 24.353754193342013 0 0 0 0 -0.66669285585537086 0.14788989380626916 0 0.14788989380626916 13.013670677729579 0 0 0 0 -0.21229950945793785 2.302310301431902 0 2.302310301431902 11.19648748744703 0 0 0 0 -3.3988803676411443 9.7455762640965986 0 9.7455762640965986 23.446480351922219 0 0 0 0 -9.0492491634757926 2.2398511961873737 0 2.2398511961873737 12.388935715775006 0 0 0 0 -13.80850158337492 1.0404941162560135 0 1.0404941162560135 16.946578454313567 0 0 0 0 0.35107972176479052 -0.1390050974659971 0 -0.1390050974659971 22.315436628043244 0 0 0 0 7.7531355572324969 2.6071226785343242 0 2.6071226785343242 10.442913614708232 0 0 0 0 4.6598734229517049 2.4521094555602758 0 2.4521094555602758 10.604942572586879 0 0 0 0 0.35617141715734757 1.881207665844812 0 1.881207665844812 9.4617667901301274 0 0 0 0 7.4183290768141887 0.94467326583981048 0 0.94467326583981048 8.796349967669812 0 0 0 0 5.2859515517538966 -0.3674414944689488 0 -0.3674414944689488 9.714430012187222 0 0 0 0 1.8580499096318324 2.0020536729799687 0 2.0020536729799687 4.0602137144163066 0 0 0 0 -1.1800876268832283 -0.180240693123352 0 -0.180240693123352 5.1353541487646339 0 0 0 0 -1.1545291582093853 0.42202393354926926 0 0.42202393354926926 12.828764181675695 0 0 0 0 -8.2693309485639475 -9.2996623737053596 0 -9.2996623737053596 8.6284508257958805 0 0 0 0 -1.1192996649523277 -0.39318607960379381 0 -0.39318607960379381 12.143790167063514 0 0 0 0 0.82141363936534617 1.1943225809081923 0 1.1943225809081923 8.0640247626797645 0 0 0 0 -4.1509875398370468 0.82242122165553155 0 0.82242122165553155 12.938494198577246 0 0 0 0 -7.5311267511301381 -1.5778976672154386 0 -1.5778976672154386 16.074533011647873 0 0 0 0 -21.383779655123433 -3.1704818196885753 0 -3.1704818196885753 20.625970893044723 0 0 0 0 -10.156920716562119 14.373891706374707 0 14.373891706374707 12.294947352595045 0 0 0 0 -22.289360293247398 19.625013859171304 0 19.625013859171304 19.480501229452784 0 0 0 0 -29.782824813666277 -0.65973719293106114 0 -0.65973719293106114 31.22991334751714 0 0 0 0 -36.100005539618415 14.134657667324063 0 14.134657667324063 3.3151278050354449 0 0 0 0 -11.134836092063658 -7.6924699026203598 0 -7.6924699026203598 20.927578703383915 0 0 0 0 -2.4396749963184892 -0.19642380714529395 0 -0.19642380714529395 5.0318432309971968 0 0 0 0 -43.426159536997218 -3.8391314962209435 0 -3.8391314962209435 32.063291339145508 0 0 0 0 -26.856354727385813 9.1583531360738561 0 9.1583531360738561 7.903069655818399 0 0 0 0 -21.697797685512413 12.621449865080649 0 12.621449865080649 51.308812962923639 0 0 0 0 -3.4796273423658022 -27.382734034501482 0 -27.382734034501482 52.070143109875289 0 0 0 0 0.11102400338488193 21.156138895501499 0 21.156138895501499 21.803901991486782 0 0 0 0 -7.5570754331270606 22.696763703977922 0 22.696763703977922 35.882309633205296 0 0 0 0 -6.6464020823875103 20.290632769108925 0 20.290632769108925 23.419693273317534 0 0 0 0 -1.7014889753781191 18.309968997753458 0 18.309968997753458 17.805991302200709 0 0 0 0 -6.7610302620940104 4.5566793819452869 0 4.5566793819452869 16.882582911925283 0 0 0 0 -0.21266174634032353 13.215362085662491 0 13.215362085662491 17.559113556475268 0 0 0 0 -0.042902750838221301 17.796292655431898 0 17.796292655431898 24.358161931566428 0 0 0 0 -0.0064986164949524146 10.023514365682786 0 10.023514365682786 6.0181814390234649 0 0 0 0 -14.096031408291481 7.391130782008986 0 7.391130782008986 8.0884898506192258 0 0 0 0 -9.0700094509010807 2.5665460100863129 0 2.5665460100863129 0.92926622880622745 0 0 0 0 -13.842391806854764 4.4317254827474244 0 4.4317254827474244 -4.4798871318344027 0 0 0 0 0.035438790707746068 0.42606151187537478 0 0.42606151187537478 -0.065760533704064983 0 0 0 0 2.495838911116766 5.7432859734747552 0 5.7432859734747552 11.180192907231913 0 0 0 0 -2.4152685701807552 34.404711587703787 0 34.404711587703787 20.644665949163027 0 0 0 0 -6.9269631655315607 46.889230583314202 0 46.889230583314202 11.644513328037647 0 0 0 0 -0.96174293875901862 1.0063302368428424 0 1.0063302368428424 12.143719048683238 0 0 0 0 -9.6334879794126778 -1.1182703551094164 0 -1.1182703551094164 11.489235087137786 0 0 0 0 -15.86820099655074 57.101540501240379 0 57.101540501240379 91.267395058268448 0 0 0 0 -59.246625819996098 -16.306107447897375 0 -16.306107447897375 26.821318672980851 0 0 0 0 -4.3667546982809418 -4.1092318359318227 0 -4.1092318359318227 8.9866513988724819 0 0 0 0 -0.010864555564342166 6.0782872272538953 0 6.0782872272538953 -3.1510844288532098 0 0 0 0 -0.025085757704422201 0.049813675386815248 0 0.049813675386815248 1.3668571183121685 0 0 0 0 -0.0084154879964951738 -0.14357150203048263 0 -0.14357150203048263 0.30566993808002962 0 0 0 0 -4.2233328576682672 -7.1543791350268293 0 -7.1543791350268293 8.5726590509293601 0 0 0 0 3.2326494997702326 -13.339593877841253 0 -13.339593877841253 -0.38065020870999433 0 0 0 0 46.078472265060391 -30.516511408157385 0 -30.516511408157385 6.6577454999205656 0 0 0 0 0.0015952718804648342 8.1396660302052624 0 8.1396660302052624 -1.6876622788258828 0 0 0 0 -8.2440170102419472 0.69910039817477809 0 0.69910039817477809 17.53674289942137 0 0 0 0 -0.011437313689020191 -0.042724172198283838 0 -0.042724172198283838 0.46971277663232058 0 0 0 0 -44.763879364875379 -31.945660568650055 0 -31.945660568650055 4.8018800748686772 0 0 0 0 -28.289340454858987 -29.614569178549573 0 -29.614569178549573 18.816910698855281 0 0 0 0 -1.166192373613367 0.1090396105616378 0 0.1090396105616378 12.646378800523848 0 0 0 0 35.750786002545738 -42.776340470009018 0 -42.776340470009018 -8.0037761789717479 0 0 0 0 31.168608176897806 22.12311435941956 0 22.12311435941956 49.793835871882038 0 0 0 0 9.7093396293780643 -2.0830606056697434 0 -2.0830606056697434 -0.010381126718129963 0 0 0 0 0.62232356417509638 1.3044695532936004 0 1.3044695532936004 4.3381218837086521 0 0 0 0 6.942028771311243 2.3785213275477872 0 2.3785213275477872 -7.1660583182092523 0 0 0 0 0.73199285368190203 0.38045044025602692 0 0.38045044025602692 4.7588793244794942 0 0 0 0 20.600793345474813 -4.9213117247854825 0 -4.9213117247854825 -9.2923829267274414 0 0 0 0 9.7945016661286672 -12.992191585290129 0 -12.992191585290129 60.177260071446653 0 0 0 0 35.430290001681897 23.023865344650403 0 23.023865344650403 19.337416365044191 0 0 0 0 0.052338690516982256 0.29846442618826075 0 0.29846442618826075 1.5703344060403879 0 0 0 0 34.446633510659012 20.703583203081507 0 20.703583203081507 21.162776708137244 0 0 0 0 19.590288266032985 13.391552728426177 0 13.391552728426177 65.710943483572919 0 0 0 0 7.9375473159343528 76.075456217338797 0 76.075456217338797 104.12821111176163 0 0 0 0 62.81240642330522 -69.704103129624855 0 -69.704103129624855 214.44003383230302 0 0 0 0 -73.475364841144255 126.40858106280211 0 126.40858106280211 257.61508456245065 0 0 0 0 26.356848573758725 17.430784128373489 0 17.430784128373489 97.947784419957316 0 0 0 0 83.37276527015274 24.187902161444072 0 24.187902161444072 82.165498041780666 0 0 0 0 144.56765207467379 -47.622122402797686 0 -47.622122402797686 87.502350868540816 0 0 0 0 59.660423109049589 -11.412824839586392 0 -11.412824839586392 41.352365332830232 0 0 0 0 28.664849787813182 16.939627221145201 0 16.939627221145201 65.504511801766057 0 0 0 0 34.483813399596329 -6.935296684037894 0 -6.935296684037894 71.544994971714914 0 0 0 0 46.182696217753687 -39.677718515195011 0 -39.677718515195011 85.648746158694848 0 0 0 0 61.019782129604209 5.2923145205713809 0 5.2923145205713809 64.729098236188293 0 0 0 0 -38.368899345879981 -6.2048923056427157 0 -6.2048923056427157 90.71419820630399 0 0 0 0 -16.652333576076671 -20.639149698945403 0 -20.639149698945403 67.393149519106373 0 0 0 0 -1.5511061377119404 8.2072785956261214 0 8.2072785956261214 102.99808262981242 0 0 0 0 -8.7307957443276791 -14.376602818461834 0 -14.376602818461834 68.840121932909824 0 0 0 0 -7.7722193674380833 -9.4836850962310564 0 -9.4836850962310564 86.999203649349511 0 0 0 0 -0.084993664124495175 -0.11934248570828454 0 -0.11934248570828454 0.83218309101800969 0 0 0 0 -64.020986207072013 -19.654000814147821 0 -19.654000814147821 61.060300602199277 0 0 0 0 78.209006433326863 26.24620990519179 0 26.24620990519179 -17.144096269825241 0 0 0 0 -14.930914847876124 -1.0945247079798719 0 -1.0945247079798719 57.224448941764422 0 0 0 0 -35.638803270429435 8.4525492186367046 0 8.4525492186367046 73.703891349578043 0 0 0 0 2.0068699560049481 -7.4269788953170064 0 -7.4269788953170064 27.753247396700317 0 0 0 0 -0.082425202343074488 -11.47815236763563 0 -11.47815236763563 -19.345024843929536 0 0 0 0 -3.5263301415120623 32.220413278206252 0 32.220413278206252 -19.149224477824475 0 0 0 0 28.783426746300847 8.3327097173023503 0 8.3327097173023503 -5.249147679307498 0 0 0 0 19.367737521108211 -7.3917807988909772 0 -7.3917807988909772 17.92275087654707 0 0 0 0 27.832364308478645 -10.303217913431581 0 -10.303217913431581 14.590792644215981 0 0 0 0 48.838621609440224 -22.728531326414668 0 -22.728531326414668 24.330689577793237 0 0 0 0 35.371678136098126 3.0599084207424312 0 3.0599084207424312 33.948887065227609 0 0 0 0 24.068628147447043 4.3919582557064132 0 4.3919582557064132 32.477626174048055 0 0 0 0 8.3891288188267481 10.202433673483029 0 10.202433673483029 34.690999686077703 0 0 0 0 15.563594394304914 -4.295875462667027 0 -4.295875462667027 7.5049538497987669 0 0 0 0 5.5652791838833764 -10.024914339446696 0 -10.024914339446696 37.928571361058857 0 0 0 0 6.9489715574436559 -4.9285464121348923 0 -4.9285464121348923 31.048547618484008 0 0 0 0 24.802300155297871 -16.665599605214084 0 -16.665599605214084 21.238224423039355 0 0 0 0 7.1004625757880149 -8.3247033933876082 0 -8.3247033933876082 25.770290933785873 0 0 0 0 -3.580355491598425 3.8554164604793186 0 3.8554164604793186 23.921577000975958 0 0 0 0 4.7184289396425356 -2.9461421815212816 0 -2.9461421815212816 13.714286351882038 0 0 0 0 -0.22226563529238774 -1.3101143313397188 0 -1.3101143313397188 25.036614417074816 0 0 0 0 -3.5264949944325963 5.6207369023177307 0 5.6207369023177307 27.783613841762417 0 0 0 0 -4.4424572776119078 2.5468960551725104 0 2.5468960551725104 37.845472047047224 0 0 0 0 -2.0575737214914094 0.91720879257727006 0 0.91720879257727006 4.6356992466934202 0 0 0 0 -4.6984570349081878 5.8898665279848501 0 5.8898665279848501 28.140241192522808 0 0 0 0 -1.6176464045888679 -0.36962390169355785 0 -0.36962390169355785 32.505468231567647 0 0 0 0 -0.79306680087202164 -0.13420245043414525 0 -0.13420245043414525 -0.28409940011029278 0 0 0 0 0.29205991163280487 -4.3214699758100323 0 -4.3214699758100323 47.372803442383884 0 0 0 0 -25.697448809879461 21.990861607540864 0 21.990861607540864 64.100329487904673 0 0 0 0 -5.5880239735424766 32.090648123761639 0 32.090648123761639 65.971648230246501 0 0 0 0 19.785574778888986 11.160567446670029 0 11.160567446670029 31.715163201224641 0 0 0 0 20.137920000053327 -14.816492930403911 0 -14.816492930403911 38.46064695174573 0 0 0 0 20.310953667893955 -12.948429628217127 0 -12.948429628217127 58.221358385169879 0 0 0 0 22.777936934211084 35.152938097089645 0 35.152938097089645 48.79399971512612 0 0 0 0 0.674004527481884 32.356041086779442 0 32.356041086779442 59.08121664437931 0 0 0 0 -15.734215667330773 1.2691839563194662 0 1.2691839563194662 18.754630471783457 0 0 0 0 27.643349268965721 12.112256862397771 0 12.112256862397771 4.2615222784806974 0 0 0 0 12.281264355489839 21.153611279340112 0 21.153611279340112 33.309584180475213 0 0 0 0 -0.00051678782349817709 2.7240683696073233 0 2.7240683696073233 2.5039828519777529 0 0 0 0 -0.077020334120334155 8.1188867753080558 0 8.1188867753080558 28.369562584390223 0 0 0 0 -9.3369275578497763 18.73064405254263 0 18.73064405254263 43.964854632766219 0 0 0 0 4.3684243980098927 0.62255929577804636 0 0.62255929577804636 -0.090111251367488876 0 0 0 0 7.7916020578225016 7.4851587459997972 0 7.4851587459997972 4.8034468597616069 0 0 0 0 5.2962693765048243 -1.1564455282496056 0 -1.1564455282496056 8.7154041086760117 0 0 0 0 3.3276323567935724 2.5150042073545364 0 2.5150042073545364 5.0982039366628555 0 0 0 0 1.8043865180092122 -3.1789037586156326 0 -3.1789037586156326 12.173359472708739 0 0 0 0 -41.642797948611985 7.1102618557888491 0 7.1102618557888491 19.869831383359269 0 0 0 0 5.09060524484903 -1.7294793988403399 0 -1.7294793988403399 8.9930841062450781 0 0 0 0 5.7963704490329064 6.1161297356447903 0 6.1161297356447903 49.10810168673197 0 0 0 0 5.9556832975067611 15.558945202489895 0 15.558945202489895 25.066074579270207 0 0 0 0 1.5742349017287043 8.6539261834439287 0 8.6539261834439287 11.93323015665888 0 0 0 0 5.0209248034702796 18.127584698668215 0 18.127584698668215 21.874238762877212 0 0 0 0 22.697282012817141 31.087776718966779 0 31.087776718966779 4.2002479701768607 0 0 0 0 3.8012954017383436 -2.6328060165542411 0 -2.6328060165542411 1.273428829619661 0 0 0 0 -14.662859361047708 44.190893374077859 0 44.190893374077859 21.906450989481527 0 0 0 0 -137.7416373776299 17.520429642841918 0 17.520429642841918 25.864029222808313 0 0 0 0 -64.25182558391748 28.292593685269821 0 28.292593685269821 22.799034243435017 0 0 0 0 -17.41755640534825 29.041533371339028 0 29.041533371339028 -31.501925204574945 0 0 0 0 -35.493532060009102 44.746362376812613 0 44.746362376812613 -45.115842913393863 0 0 0 0 -0.35300765527620426 2.2711651457283182 0 2.2711651457283182 -1.6465155740783075 0 0 0 0 -1.1275156054728086 0.6139886658539524 0 0.6139886658539524 1.4783090875132459 0 0 0 0 -22.900002618386338 -19.910591860229033 0 -19.910591860229033 -15.53848174362065 0 0 0 0 1.1532429050257633 4.7273434933158569 0 4.7273434933158569 9.6814693493652157 0 0 0 0 -1.7852525456880217 -0.19108942977041465 0 -0.19108942977041465 4.1039991138210326 0 0 0 0 -23.263778059536207 -11.689493557474634 0 -11.689493557474634 12.369858923579159 0 0 0 0 -4.7074316848046465 2.3954749633194297 0 2.3954749633194297 25.801907587032474 0 0 0 0 -3.3058950400665714 6.7121484584747932 0 6.7121484584747932 9.2976373243489547 0 0 0 0 -3.2812895463966925 4.1367346906336024 0 4.1367346906336024 7.2124828301602975 0 0 0 0 -1.5388665945436575 7.9614078921260898 0 7.9614078921260898 14.004277827724621 0 0 0 0 -1.3515147943242325 6.4474401723437325 0 6.4474401723437325 10.997180513751886 0 0 0 0 4.3119241528138446 9.0699873326229863 0 9.0699873326229863 17.746753039245959 0 0 0 0 -1.411583049388164 1.3094963747819008 0 1.3094963747819008 17.18319193882121 0 0 0 0 -14.674350086100844 0.27616373561613727 0 0.27616373561613727 22.579316151532112 0 0 0 0 -23.671795912795233 -13.795717049986706 0 -13.795717049986706 18.632668918944546 0 0 0 0 -4.5589984707303302 11.098261216138781 0 11.098261216138781 21.111186164603168 0 0 0 0 -16.776007401427819 21.730946474446682 0 21.730946474446682 46.474686114408541 0 0 0 0 -1.3669297804032223 1.0367515158908844 0 1.0367515158908844 14.858133143921975 0 0 0 0 -28.472056441933546 -2.6617338864671183 0 -2.6617338864671183 30.270781741186511 0 0 0 0 10.425342947465651 19.385013058585173 0 19.385013058585173 14.776619410662533 0 0 0 0 18.020176377435689 4.6813282920647907 0 4.6813282920647907 1.6079360060539329 0 0 0 0 1.1803357382397675 -0.27628320298217091 0 -0.27628320298217091 -0.13991423160271665 0 0 0 0 106.32961463003795 126.67018434017791 0 126.67018434017791 65.2559652858763 0 0 0 0 123.36969728400732 208.93635335069848 0 208.93635335069848 195.78164840750833 0 0 0 0 118.78468716492 67.565409427874329 0 67.565409427874329 39.705302634742111 0 0 0 0 3.6180051518326932 0.30736616702350261 0 0.30736616702350261 4.0953991396124252 0 0 0 0 -3.7008822456125472 11.956376573802117 0 11.956376573802117 17.881945568253286 0 0 0 0 5.0257111303500892 7.1653474478662247 0 7.1653474478662247 8.53597882539907 0 0 0 0 -1.2889814360098908 2.5545058119274486 0 2.5545058119274486 13.023566710512569 0 0 0 0 -0.74470530311918992 8.4704338260926306 0 8.4704338260926306 13.437771058554063 0 0 0 0 -2.8797447992931779 12.883925888083468 0 12.883925888083468 6.9675517267605755 0 0 0 0 -2.4284482894141535 8.5447270286845196 0 8.5447270286845196 0.65663406146518355 0 0 0 0 1.9767088309236271 6.6550471015034418 0 6.6550471015034418 6.1361274639639305 0 0 0 0 8.3705190845287234 -0.30802858667448163 0 -0.30802858667448163 8.6765242437868437 0 0 0 0 1.8667672584058437 6.656615539235645 0 6.656615539235645 10.816045446583303 0 0 0 0 3.6288484066593583 -2.6705056595474161 0 -2.6705056595474161 13.644856285871356 0 0 0 0 7.0343581158588222 0.73491485186605132 0 0.73491485186605132 8.8629424103564816 0 0 0 0 11.031984449268066 5.114173594982276 0 5.114173594982276 1.2545457813830581 0 0 0 0 -0.039240346041879093 18.880057892180048 0 18.880057892180048 -5.389870721999614 0 0 0 0 -12.145313787454597 7.7680822531910962 0 7.7680822531910962 5.7324231803941075 0 0 0 0 7.5649621318816571 6.2189398844348034 0 6.2189398844348034 2.935894547830685 0 0 0 0 2.148624586355337 4.9652245816719329 0 4.9652245816719329 10.859597923671402 0 0 0 0 0.80132450257599719 1.9781251886659204 0 1.9781251886659204 2.1920751554126241 0 0 0 0 -36.880184804911096 23.795040950739349 0 23.795040950739349 6.2160969422984635 0 0 0 0 18.387851642074978 18.737525456537469 0 18.737525456537469 -13.949521378119243 0 0 0 0 1.8692758642514216 4.0715764423931375 0 4.0715764423931375 9.4771410272866206 0 0 0 0 -6.1711639507914242 11.945437115791719 0 11.945437115791719 5.0381024593352777 0 0 0 0 -5.9943565774285616 10.810963912226725 0 10.810963912226725 6.4136285275562841 0 0 0 0 -8.7498981202733574 -15.925640483241295 0 -15.925640483241295 20.228360907611204 0 0 0 0 -5.7975559486875454 21.310472946439404 0 21.310472946439404 6.9082902424852364 0 0 0 0 1.780844868352994 6.5644473655227102 0 6.5644473655227102 8.9750806028251873 0 0 0 0 -19.051385568542287 24.643308167826035 0 24.643308167826035 19.917438484029844 0 0 0 0 26.406347297341199 20.504381129867397 0 20.504381129867397 3.1651167683012318 0 0 0 0 -110.64022048967415 34.483347294562236 0 34.483347294562236 20.571356840344379 0 0 0 0 -0.062199863526561087 0.50001900190987003 0 0.50001900190987003 1.2060462650640034 0 0 0 0 48.2374309877776 -11.124401621113066 0 -11.124401621113066 -2.4992024223029148 0 0 0 0 110.46875779925318 97.161961604826502 0 97.161961604826502 0.55241139286954422 0 0 0 0 43.590341492236917 -10.919379925260728 0 -10.919379925260728 9.6688958413142245 0 0 0 0 -47.913996673618158 -1.2478331914608134 0 -1.2478331914608134 -7.4532222862071649 0 0 0 0 0.81612259861686032 2.5574603630166557 0 2.5574603630166557 3.5523455726621478 0 0 0 0 -19.306220956373664 17.035797886142973 0 17.035797886142973 -13.420746419025818 0 0 0 0 8.9756992204407879 19.825901905591309 0 19.825901905591309 -0.92457645613467321 0 0 0 0 -30.096939100209429 20.175289919031229 0 20.175289919031229 5.5628275474300608 0 0 0 0 -19.379415870220399 17.276489532901905 0 17.276489532901905 4.7181386287120404 0 0 0 0 7.6456359097481226 18.13906698662322 0 18.13906698662322 -15.080082690343261 0 0 0 0 -27.43215646387209 35.796814100554911 0 35.796814100554911 4.6455686391273048 0 0 0 0 -10.143325539049215 0.82671311660669744 0 0.82671311660669744 6.5330707457906101 0 0 0 0 0.074766857887552232 16.243649006049964 0 16.243649006049964 32.949538103741361 0 0 0 0 -0.011381664569233162 17.550219181663124 0 17.550219181663124 -0.037711706463596784 0 0 0 0 2.1360834924373853 2.9371773661732732 0 2.9371773661732732 15.559595219208859 0 0 0 0 -5.040907278626003 15.336557891288976 0 15.336557891288976 2.3170371676824288 0 0 0 0 -6.71522167450631 21.655966757170972 0 21.655966757170972 0.87810377785353921 0 0 0 0 -19.314576836068984 12.686230518869706 0 12.686230518869706 8.0062309719942277 0 0 0 0 -15.397837511508804 10.902754833048675 0 10.902754833048675 7.320817612526298 0 0 0 0 1.7078834760203603 1.5342302415856466 0 1.5342302415856466 -7.0787953173858114 0 0 0 0 -6.056541990407271 15.110644900632906 0 15.110644900632906 15.10407687354018 0 0 0 0 -0.11426911466387836 19.643193337517005 0 19.643193337517005 2.5118902209942462 0 0 0 0 36.543863744192834 15.302061219423194 0 15.302061219423194 107.70030893561488 0 0 0 0 41.148331354706897 13.798882773960941 0 13.798882773960941 15.204624662692368 0 0 0 0 94.521020973436748 118.49289887244231 0 118.49289887244231 99.427955342092901 0 0 0 0 -14.330992627800669 94.853854966926519 0 94.853854966926519 243.32143574132351 0 0 0 0 -33.908044747940551 32.9421242132521 0 32.9421242132521 134.90996814227492 0 0 0 0 -49.554699156847022 2.0625496223910886 0 2.0625496223910886 88.113442216839758 0 0 0 0 -0.78114769353537605 -3.9210427384359434 0 -3.9210427384359434 22.942517202940451 0 0 0 0 1.032276309024212 5.701681387053668 0 5.701681387053668 139.78762218420161 0 0 0 0 3.4101298048265107 -14.728239250023762 0 -14.728239250023762 186.07564063035534 0 0 0 0 14.70012511095895 27.177135676342004 0 27.177135676342004 135.56906255620015 0 0 0 0 0.36064062000156127 12.983490656682989 0 12.983490656682989 124.73531622751034 0 0 0 0 15.517547117372203 1.1222307303396519 0 1.1222307303396519 118.74685715479427 0 0 0 0 11.688904726439887 2.6997182765771868 0 2.6997182765771868 128.72696493000694 0 0 0 0 10.326111638122228 -1.2683687636599643 0 -1.2683687636599643 117.30847105247085 0 0 0 0 18.828891797783058 -7.1551906167223933 0 -7.1551906167223933 116.0736780466832 0 0 0 0 12.794461764403877 -7.6069320499082096 0 -7.6069320499082096 132.89233396874624 0 0 0 0 18.545143739060109 0.137730137546896 0 0.137730137546896 107.67480183861335 0 0 0 0 7.7184277104956891 -0.46440962427004706 0 -0.46440962427004706 118.70710234434227 0 0 0 0 17.170047785474367 -0.12551557300321292 0 -0.12551557300321292 117.4485732500616 0 0 0 0 14.089663551808144 4.4630507139954716 0 4.4630507139954716 112.1856318298087 0 0 0 0 3.3770255738148762 4.9818143546872307 0 4.9818143546872307 113.48804719001782 0 0 0 0 -3.7203601770337968 -2.8115799992592656 0 -2.8115799992592656 128.06883463761187 0 0 0 0 11.91777829684321 -6.7778884534563986 0 -6.7778884534563986 103.23350337415468 0 0 0 0 11.887122971759482 -14.353413027623901 0 -14.353413027623901 124.51061665543239 0 0 0 0 5.2162285819470071 -36.833670238018385 0 -36.833670238018385 101.7498818753229 0 0 0 0 67.815982682328922 -33.137372870311083 0 -33.137372870311083 96.21345317538362 0 0 0 0 -34.518973489810605 -49.891246918487013 0 -49.891246918487013 148.62781424635614 0 0 0 0 -16.976664533025087 9.4141464321874082 0 9.4141464321874082 118.06342592848159 0 0 0 0 -20.589225813499866 8.4118565470889735 0 8.4118565470889735 194.36045153689338 0 0 0 0 -43.273198220254244 61.269409801538131 0 61.269409801538131 242.89234497705183 0 0 0 0 -24.20182411144043 -95.685462836285296 0 -95.685462836285296 325.66483770252671 0 0 0 0 223.06326805165901 -220.59271289625394 0 -220.59271289625394 104.8738376434776 0 0 0 0 -235.85179058143365 63.916882056393661 0 63.916882056393661 322.25599794031586 0 0 0 0 0.90600825717920008 2.2229933533857178 0 2.2229933533857178 4.343458096778761 0 0 0 0 -54.207623111131852 108.43124800125952 0 108.43124800125952 -51.392411598377294 0 0 0 0 316.12909408237783 -113.19235029332776 0 -113.19235029332776 -14.796113006188534 0 0 0 0 -44.36095743961846 29.244620266726997 0 29.244620266726997 2.8238242336192343 0 0 0 0 -29.518593766133563 -8.8453281378970132 0 -8.8453281378970132 -28.176040930120507 0 0 0 0 -30.718643198659493 22.047105644422118 0 22.047105644422118 -69.351407220805413 0 0 0 0 -27.845228988504687 35.709646533374325 0 35.709646533374325 -5.6207800524498452 0 0 0 0 -107.35611496372167 -0.97190185968065634 0 -0.97190185968065634 -7.1198593480949057 0 0 0 0 -90.663663517789473 55.967387233125919 0 55.967387233125919 -5.7937774880847428 0 0 0 0 -94.006639014076555 56.066210334195148 0 56.066210334195148 19.063844569245703 0 0 0 0 -85.746331401952148 -20.562264868320199 0 -20.562264868320199 16.566761638765456 0 0 0 0 -22.53322306107475 33.384247742083971 0 33.384247742083971 26.233746167534264 0 0 0 0 -39.104857829684875 57.602942130237352 0 57.602942130237352 68.429367548611481 0 0 0 0 -55.116158487126427 19.00602917159631 0 19.00602917159631 53.104864594424726 0 0 0 0 71.728992708567034 -44.221070406412764 0 -44.221070406412764 -17.73904152752948 0 0 0 0 -28.237608775704985 51.282098523064633 0 51.282098523064633 19.942768009259453 0 0 0 0 -21.349189736532026 24.463536733357614 0 24.463536733357614 13.324482350159087 0 0 0 0 1.614236784867316 2.6688587060398845 0 2.6688587060398845 3.8262897898900405 0 0 0 0 -42.983133402751037 28.745074756086979 0 28.745074756086979 57.667468714724237 0 0 0 0 1.0206680202797145 1.2352417505854021 0 1.2352417505854021 1.2718706287510031 0 0 0 0 -51.579049531079932 9.7702731221506838 0 9.7702731221506838 268.60597309733566 0 0 0 0 101.469679982363 100.21087479631387 0 100.21087479631387 -65.235072994530128 0 0 0 0 33.784626572867296 154.88066708376573 0 154.88066708376573 165.18280907699955 0 0 0 0 -52.322436962083771 30.107049759229994 0 30.107049759229994 105.38334317762929 0 0 0 0 -41.387224180502244 134.22796753700823 0 134.22796753700823 141.22198963092524 0 0 0 0 -40.749036690089945 100.18614989656862 0 100.18614989656862 126.58830263794516 0 0 0 0 23.94024545903244 55.171429698304564 0 55.171429698304564 57.952391353072016 0 0 0 0 -23.828602156746911 116.30240042857622 0 116.30240042857622 158.27247622844152 0 0 0 0 -34.511849304267798 79.645168666043901 0 79.645168666043901 71.285193034666008 0 0 0 0 69.558110299983809 150.49975425682351 0 150.49975425682351 117.22426380267279 0 0 0 0 91.65189234064087 52.09443593724427 0 52.09443593724427 19.965784514282859 0 0 0 0 -21.549643048806047 142.27018102459988 0 142.27018102459988 170.88518383003247 0 0 0 0 -49.853342934386632 181.74033698236281 0 181.74033698236281 118.05711472879921 0 0 0 0 141.07045823274984 130.14644559851149 0 130.14644559851149 110.83145101705304 0 0 0 0 -120.64714055965209 78.524487058726663 0 78.524487058726663 136.64094044287049 0 0 0 0 -72.733866869688995 131.25291391648352 0 131.25291391648352 141.57646116521937 0 0 0 0 -23.788761163702887 121.64926567231032 0 121.64926567231032 124.34152200302924 0 0 0 0 -67.372187401591503 81.781406874219101 0 81.781406874219101 111.61695813210099 0 0 0 0 -146.1526432758094 -11.729202034766786 0 -11.729202034766786 76.11370813655958 0 0 0 0 -190.79607290652777 -85.918118606072312 0 -85.918118606072312 59.34662152659439 0 0 0 0 -4.1268913899612381 -15.15499611333172 0 -15.15499611333172 60.597438641849521 0 0 0 0 -97.866322181573565 -54.197601286072313 0 -54.197601286072313 32.439949266277836 0 0 0 0 -46.860321564437072 18.318932033718738 0 18.318932033718738 47.519246143696364 0 0 0 0 -47.186628413139843 18.775834572137683 0 18.775834572137683 91.772403741524613 0 0 0 0 23.770233482539311 -40.311270617654372 0 -40.311270617654372 140.81549635689589 0 0 0 0 -40.023503981586913 38.167874136968749 0 38.167874136968749 132.96574110667279 0 0 0 0 -89.289605704576346 -77.81050274775771 0 -77.81050274775771 62.162298810118955 0 0 0 0 -14.818399077419599 -11.072594283577928 0 -11.072594283577928 58.796425881799223 0 0 0 0 -6.3634958473009 -11.225462591200028 0 -11.225462591200028 61.57750122891855 0 0 0 0 -4.2268852413950864 -14.901451215085359 0 -14.901451215085359 59.360910520579978 0 0 0 0 15.569431867618789 -14.680827827904068 0 -14.680827827904068 36.243188509950414 0 0 0 0 -1.9445696112816222 -24.079313207079394 0 -24.079313207079394 32.400363689681399 0 0 0 0 6.4195884896094526 -10.574097387914662 0 -10.574097387914662 39.322285289046704 0 0 0 0 -6.9811028745242538 5.3385902324444032 0 5.3385902324444032 20.907223427959252 0 0 0 0 -16.054684463024842 -16.872164526193956 0 -16.872164526193956 13.364132097674883 0 0 0 0 -15.932059605719763 6.8886359569114575 0 6.8886359569114575 60.831961863237666 0 0 0 0 16.459282047582178 60.365199059306178 0 60.365199059306178 93.662506270975427 0 0 0 0 -0.2035898121401889 -1.0476132576753514 0 -1.0476132576753514 0.79277763104093424 0 0 0 0 -17.736397427538122 1.4395047172802151 0 1.4395047172802151 52.501080116213416 0 0 0 0 -9.3070239875638663 11.197260326071046 0 11.197260326071046 37.530029507222935 0 0 0 0 -4.4959839760416411 26.291389746256755 0 26.291389746256755 65.830374462413602 0 0 0 0 -8.676627132605482 -6.8651503338114708 0 -6.8651503338114708 40.472222098731436 0 0 0 0 -1.0972019974552512 0.94007197528245001 0 0.94007197528245001 9.1572345551740284 0 0 0 0 -7.7984948333757984 11.16057492575419 0 11.16057492575419 57.224200564509374 0 0 0 0 5.4900309333803285 3.2674326365886373 0 3.2674326365886373 39.412087717893883 0 0 0 0 -12.96123635218488 15.46389367379912 0 15.46389367379912 25.13374129558116 0 0 0 0 -14.458121340013349 45.465353069812409 0 45.465353069812409 138.46841386276355 0 0 0 0 -18.621229552611233 20.648087574829987 0 20.648087574829987 23.464260224281929 0 0 0 0 -12.984156568518415 -6.9962402407036279 0 -6.9962402407036279 72.1887812823079 0 0 0 0 -1.1708412599679754 6.132583015817346 0 6.132583015817346 -7.9917275803296377 0 0 0 0 -21.082932483852346 5.7034743956901366 0 5.7034743956901366 211.99715211494367 0 0 0 0 -5.563469928255472 -48.427013059226738 0 -48.427013059226738 208.73637038981542 0 0 0 0 -5.0430821375534833 -40.58617363311896 0 -40.58617363311896 131.57760345753923 0 0 0 0 -10.991342248678848 0.08454329997766763 0 0.08454329997766763 52.003268502958235 0 0 0 0 -5.5243289151436556 -2.8238471104996279 0 -2.8238471104996279 47.481631438709883 0 0 0 0 -12.782361297285547 0.89984623370764893 0 0.89984623370764893 66.00674235529732 0 0 0 0 -16.298147465881129 -10.373124494995864 0 -10.373124494995864 74.303318705926358 0 0 0 0 -23.018781772608289 15.174758799777521 0 15.174758799777521 36.999903657798455 0 0 0 0 6.4460947775666 -14.560871783523908 0 -14.560871783523908 138.93042270455044 0 0 0 0 3.2945078878345964 -33.765691685343072 0 -33.765691685343072 104.16459979056799 0 0 0 0 -3.3445127769136889 -45.548700216102588 0 -45.548700216102588 154.27842697800952 0 0 0 0 -56.746355269655396 13.91365193643469 0 13.91365193643469 56.027605459952611 0 0 0 0 -2.8372871629504157 -8.8924097278595013 0 -8.8924097278595013 16.725631288283779 0 0 0 0 -18.27577263277999 -38.310646258858469 0 -38.310646258858469 150.77041525722598 0 0 0 0 -17.862432400127034 -33.69875430429056 0 -33.69875430429056 144.89985623459506 0 0 0 0 -9.055922716904206 -34.47421757425036 0 -34.47421757425036 135.48909899856335 0 0 0 0 -20.930452188163144 2.9045001401082118 0 2.9045001401082118 190.89110361819621 0 0 0 0 14.031008486639166 -0.24480992522512679 0 -0.24480992522512679 159.12062867869099 0 0 0 0 -17.947140975288676 -29.100834886514349 0 -29.100834886514349 145.49492620605815 0 0 0 0 -7.7677983150251748 -12.53654811616434 0 -12.53654811616434 146.23931635805639 0 0 0 0 -3.84970789562135 -24.97110127032829 0 -24.97110127032829 83.426055216317764 0 0 0 0 -16.156334033018538 -48.606083202663285 0 -48.606083202663285 120.6250723276753 0 0 0 0 -8.948647926112244 -30.412713633391832 0 -30.412713633391832 106.3170542644948 0 0 0 0 -26.452534295028272 -37.185256832766754 0 -37.185256832766754 144.22262105961272 0 0 0 0 -18.539836238113821 -15.892812992125982 0 -15.892812992125982 117.67176192151965 0 0 0 0 -50.276747804702609 -7.249124911846593 0 -7.249124911846593 124.75082105242473 0 0 0 0 -34.589278396892951 -3.3389817854185821 0 -3.3389817854185821 48.759409679387318 0 0 0 0 -10.361020315955102 -16.62421410666866 0 -16.62421410666866 55.025987550092395 0 0 0 0 5.1900489189747532 -51.405128512000374 0 -51.405128512000374 57.129821185990295 0 0 0 0 2.439512952959376 -45.436912641489471 0 -45.436912641489471 53.514052874787012 0 0 0 0 20.810356269927979 -40.87690697695507 0 -40.87690697695507 44.760406593151856 0 0 0 0 8.3378177026152116 -53.378609487815993 0 -53.378609487815993 18.053408288324135 0 0 0 0 16.939813320869803 -23.104322122263511 0 -23.104322122263511 1.3448029655701248 0 0 0 0 1.933038692068143 -1.5581141189821324 0 -1.5581141189821324 -1.4944299338387736 0 0 0 0 88.528193769376685 110.75868257759612 0 110.75868257759612 176.81575534722651 0 0 0 0 -5.3758355537029274 52.243192957343126 0 52.243192957343126 53.364867373704328 0 0 0 0 75.995804071775638 64.36025677753787 0 64.36025677753787 43.330018712200399 0 0 0 0 3.1303062999995745 94.730870186038374 0 94.730870186038374 26.413188194264876 0 0 0 0 -39.202482873897679 23.049719382128387 0 23.049719382128387 58.046272945070086 0 0 0 0 19.766038232253379 -11.819719758666906 0 -11.819719758666906 138.92442858481081 0 0 0 0 -8.7893967227339207 23.825713279382114 0 23.825713279382114 87.936853210116595 0 0 0 0 -0.94405190870102906 7.3747435115968187 0 7.3747435115968187 12.142582939015597 0 0 0 0 -41.786244176734272 -17.236389665025854 0 -17.236389665025854 56.444853504086495 0 0 0 0 -90.853520211923978 0.23943876709199685 0 0.23943876709199685 10.10706219849817 0 0 0 0 1.3486790168516833 11.009417736144897 0 11.009417736144897 31.22846222360414 0 0 0 0 -139.5166326415183 170.22374228318495 0 170.22374228318495 -72.189763226590003 0 0 0 0 375.78230891971964 -267.42259295519034 0 -267.42259295519034 -115.78996569242736 0 0 0 0 7.6133795486779832 -272.56421856745146 0 -272.56421856745146 243.58945890299219 0 0 0 0 -1.9533493778532778 -1.224339911353681 0 -1.224339911353681 22.228724988235641 0 0 0 0 131.73503459383937 180.44033872080763 0 180.44033872080763 -111.99430984101491 0 0 0 0 -170.6737026986134 -101.63474432946532 0 -101.63474432946532 156.04291329183616 0 0 0 0 47.163665178828069 -91.602854437786846 0 -91.602854437786846 -14.288214517844608 0 0 0 0 -109.92294598659805 -101.40975050771158 0 -101.40975050771158 381.00879156962037 0 0 0 0 -54.829021467923383 -89.833433565028827 0 -89.833433565028827 75.545839891492506 0 0 0 0 -315.78370948017857 92.281608431636414 0 92.281608431636414 218.93341491941101 0 0 0 0 -241.19184083627283 111.92725251204683 0 111.92725251204683 43.196343705174513 0 0 0 0 -3.459944254170527 -1.4353392238670253 0 -1.4353392238670253 65.932950042688788 0 0 0 0 247.02235282458741 96.615596541516425 0 96.615596541516425 214.73488105570141 0 0 0 0 -61.46476718156282 45.368403873610077 0 45.368403873610077 -40.673104057110322 0 0 0 0 -12.071553766180386 -19.695291496005666 0 -19.695291496005666 33.647888905878062 0 0 0 0 -43.404547802274465 -37.032227021016297 0 -37.032227021016297 31.08558445698327 0 0 0 0 12.620166135595355 -44.803789853998751 0 -44.803789853998751 28.263925634804764 0 0 0 0 -22.012733576988694 -67.148712254635029 0 -67.148712254635029 86.515830177231692 0 0 0 0 -33.131981001978147 -40.085202822490828 0 -40.085202822490828 97.230519506003475 0 0 0 0 26.839785494039461 -21.863899811294687 0 -21.863899811294687 -42.249310094390239 0 0 0 0 -4.4978284672588416 -33.179376038060582 0 -33.179376038060582 98.748037065379322 0 0 0 0 30.303369136219771 -114.72543432454404 0 -114.72543432454404 175.84886539753643 0 0 0 0 8.6573374335803237 -63.527222389282542 0 -63.527222389282542 86.861761637605014 0 0 0 0 -18.147526472190293 -42.513455860127578 0 -42.513455860127578 170.16917316346371 0 0 0 0 -28.19569053973737 -15.951723727652279 0 -15.951723727652279 184.38763612804178 0 0 0 0 -33.54060445028972 -25.735095594034647 0 -25.735095594034647 166.80908129672389 0 0 0 0 23.030266207064869 51.927493460665573 0 51.927493460665573 209.51354931084279 0 0 0 0 -46.067381018040351 -26.349830523226046 0 -26.349830523226046 278.86045200686203 0 0 0 0 5.6209069949103849 -2.5620160236292691 0 -2.5620160236292691 0.72298051392243678 0 0 0 0 45.20794519608171 -228.41618406947237 0 -228.41618406947237 446.1341440768847 0 0 0 0 19.209970677568435 157.76648812251369 0 157.76648812251369 553.41906597754132 0 0 0 0 314.45791441543179 10.607269990301575 0 10.607269990301575 116.90275454428047 0 0 0 0 20.604453075867468 -24.951814509444375 0 -24.951814509444375 140.86149678660149 0 0 0 0 106.83059104803488 35.476437101540796 0 35.476437101540796 -237.30411403226026 0 0 0 0 -11.754563883862374 -66.230532943336584 0 -66.230532943336584 116.71545491843426 0 0 0 0 -329.43259802506702 132.13518364469928 0 132.13518364469928 397.96052354481071 0 0 0 0 -135.07383780675218 67.689836589408515 0 67.689836589408515 308.50890861053631 0 0 0 0 -47.940485376027027 -192.3192167981324 0 -192.3192167981324 3.4580347789305961 0 0 0 0 1.2149356839671461 8.5657925398676866 0 8.5657925398676866 59.486936436659789 0 0 0 0 -274.68501618065704 251.98425829244297 0 251.98425829244297 328.61539310275111 0 0 0 0 -19.586999404891117 370.21642030839212 0 370.21642030839212 564.56060667871498 0 0 0 0 -52.392748651207057 -158.60055456586997 0 -158.60055456586997 581.66971580850031 0 0 0 0 151.53674644987268 -195.16600512288278 0 -195.16600512288278 77.878808561974438 0 0 0 0 -83.55563696147621 14.998655069834058 0 14.998655069834058 -98.211803321304615 0 0 0 0 -12.223255024378627 -45.984153363193585 0 -45.984153363193585 126.14002517307256 0 0 0 0 -67.891122670851288 -255.36011698259105 0 -255.36011698259105 -4.7126173221040517 0 0 0 0 -34.64449785018769 -244.72533376160209 0 -244.72533376160209 232.32990262511703 0 0 0 0 -68.138597147931705 -84.276338957351982 0 -84.276338957351982 24.01349188380118 0 0 0 0 0.65728017807077777 -4.7154650522934389 0 -4.7154650522934389 -14.41614398737147 0 0 0 0 98.937471190890165 -48.848029190095986 0 -48.848029190095986 -16.150160694582155 0 0 0 0 26.114774563664014 -37.893529596891312 0 -37.893529596891312 22.414572316178237 0 0 0 0 -25.953284049669492 -32.863090949715115 0 -32.863090949715115 87.798919864821073 0 0 0 0 -19.641824233806098 -23.239022521146737 0 -23.239022521146737 126.86914414365295 0 0 0 0 -27.944050132122356 -44.509910777240293 0 -44.509910777240293 25.008750018330829 0 0 0 0 -83.210386945618211 47.743990181306117 0 47.743990181306117 219.54788154118432 0 0 0 0 33.704899021357051 143.86958085951483 0 143.86958085951483 213.99930248880628 0 0 0 0 -75.223720811077328 103.77004879808055 0 103.77004879808055 306.62830562979798 0 0 0 0 -11.437633750047098 -0.3089374284427322 0 -0.3089374284427322 89.036413967916815 0 0 0 0 8.2132386757593849 26.099920804481371 0 26.099920804481371 158.05991093596094 0 0 0 0 -10.545733097791071 3.6312815257160764 0 3.6312815257160764 163.87384925756487 0 0 0 0 9.4614815412487587 26.454888798405591 0 26.454888798405591 57.59750133358466 0 0 0 0 -12.768141073518564 9.1283402237750124 0 9.1283402237750124 177.97393690788886 0 0 0 0 8.5762292231101362 -8.5802697515670019 0 -8.5802697515670019 11.291078076338522 0 0 0 0 -20.731211100915061 0.70753494582822896 0 0.70753494582822896 36.116752681831713 0 0 0 0 -7.1494398278641711 -39.148967631445885 0 -39.148967631445885 36.754503279807977 0 0 0 0 -17.948319333324008 7.6755018573065286 0 7.6755018573065286 15.120936515474057 0 0 0 0 -23.31980544623076 -5.9536437806964386 0 -5.9536437806964386 54.39551243740425 0 0 0 0 -17.230307325371584 7.4976290631764613 0 7.4976290631764613 40.125784092099309 0 0 0 0 -13.263417868747638 7.3110359396378044 0 7.3110359396378044 24.749333521249355 0 0 0 0 -5.1156396870835028 3.7415341915433089 0 3.7415341915433089 18.015424520195268 0 0 0 0 -2.6258934779593375 19.760211763474217 0 19.760211763474217 44.307596556478529 0 0 0 0 -0.95843644022655949 11.013476278695208 0 11.013476278695208 31.574296196165847 0 0 0 0 -38.672089863426663 30.45831525221729 0 30.45831525221729 60.703858099549507 0 0 0 0 -20.153002573948243 -3.6930548164382344 0 -3.6930548164382344 88.010543571057497 0 0 0 0 -18.786666091151346 13.741366774418566 0 13.741366774418566 140.79949797256268 0 0 0 0 7.3787843420664103 26.696876435655213 0 26.696876435655213 61.3040260746493 0 0 0 0 6.7748538391199702 19.463169024576928 0 19.463169024576928 4.5008216984278988 0 0 0 0 -1.7122859821523675 5.7926090855160624 0 5.7926090855160624 25.430652105133333 0 0 0 0 0.48432303988249714 39.316353131456708 0 39.316353131456708 -9.8633896085375454 0 0 0 0 1.7061231183022301 -12.265369896726042 0 -12.265369896726042 36.682980757526821 0 0 0 0 26.820529726596874 48.197814118168026 0 48.197814118168026 -8.307189384882804 0 0 0 0 -6.4825635320860897 -0.39496333503484493 0 -0.39496333503484493 41.838090841119993 0 0 0 0 -7.3741360479916427 2.0726909576769685 0 2.0726909576769685 50.100953301001937 0 0 0 0 42.416422537189057 90.332074516457453 0 90.332074516457453 75.494867896855453 0 0 0 0 -22.790814755915562 94.330425255816408 0 94.330425255816408 190.89346196589759 0 0 0 0 68.396898864008108 7.7079754081496503 0 7.7079754081496503 -221.87804250750924 0 0 0 0 51.556939273054013 -64.430065576219931 0 -64.430065576219931 -191.60578502302815 0 0 0 0 -12.480357386783453 114.15346253295502 0 114.15346253295502 199.02907609048998 0 0 0 0 50.430336801869998 110.47604594184668 0 110.47604594184668 -195.62834399935673 0 0 0 0 -29.550324534509855 144.61093199969037 0 144.61093199969037 55.152786332299002 0 0 0 0 12.425947591395015 66.506250268139411 0 66.506250268139411 152.78895649885817 0 0 0 0 45.79595149765737 42.448079818132101 0 42.448079818132101 136.41893071797676 0 0 0 0 -9.8151867709557052 15.005442749311115 0 15.005442749311115 46.607700572256306 0 0 0 0 -14.756614106095299 16.98005345263887 0 16.98005345263887 35.853709563055475 0 0 0 0 73.806584216939882 55.308753167118994 0 55.308753167118994 -9.8979655609291513 0 0 0 0 87.74766850456399 95.170224254150526 0 95.170224254150526 2.1470688742119819 0 0 0 0 57.59067344502364 31.051663492733496 0 31.051663492733496 -48.870156603516079 0 0 0 0 40.315644440044707 41.226815750851529 0 41.226815750851529 -5.2993134039497818 0 0 0 0 57.948559333057347 50.619505953269254 0 50.619505953269254 -47.971538518439047 0 0 0 0 27.719530563226726 29.874864748388063 0 29.874864748388063 -39.159624453081051 0 0 0 0 32.273218120535603 11.189326550491387 0 11.189326550491387 -37.946196335426066 0 0 0 0 18.655343307382282 50.155863296589814 0 50.155863296589814 -83.90547175554093 0 0 0 0 30.805923770873051 -0.95830454980023205 0 -0.95830454980023205 -99.512532585678855 0 0 0 0 5.1392375401901518 -2.3154957070364617 0 -2.3154957070364617 -17.021924576292804 0 0 0 0 -11.74359534141513 7.8359833960748801 0 7.8359833960748801 22.878384295952856 0 0 0 0 13.931080123905303 -11.81623536463303 0 -11.81623536463303 -20.755543168983422 0 0 0 0 11.12824188077866 -22.418172474586754 0 -22.418172474586754 -58.556179658742622 0 0 0 0 -0.38638919351458156 -1.0914711380520714 0 -1.0914711380520714 5.8244450972630659 0 0 0 0 16.235627547774584 22.187667105277797 0 22.187667105277797 -17.904204713617219 0 0 0 0 35.214129343861714 33.052906941302354 0 33.052906941302354 -13.365278265893721 0 0 0 0 36.115906583534525 2.594186787318904 0 2.594186787318904 -45.817743181425612 0 0 0 0 18.393533706010203 14.855078871943988 0 14.855078871943988 -12.160281835007481 0 0 0 0 -9.1501800037985959 15.479170476599393 0 15.479170476599393 -5.7949358750483952 0 0 0 0 -22.624588096185107 -16.53466943987587 0 -16.53466943987587 33.65205000480637 0 0 0 0 -28.87373405487233 -60.899288649852679 0 -60.899288649852679 28.636128257858218 0 0 0 0 14.334912749513023 -23.941362186858896 0 -23.941362186858896 -58.84284820681205 0 0 0 0 23.54367330122659 -127.06609988178388 0 -127.06609988178388 -70.773422348313034 0 0 0 0 42.146027317235863 89.146129533948738 0 89.146129533948738 67.057572599452428 0 0 0 0 227.07281845347393 470.76064168330504 0 470.76064168330504 -163.94661895379249 0 0 0 0 51.305929998412466 136.61254081393417 0 136.61254081393417 -34.796003755167476 0 0 0 0 -150.16359122047652 221.04041801689164 0 221.04041801689164 270.28618297653156 0 0 0 0 91.981191294363271 178.20760717050507 0 178.20760717050507 41.298922270201729 0 0 0 0 20.220789321355369 85.064849546675759 0 85.064849546675759 166.23145673596446 0 0 0 0 14.845825453863341 36.116346559872909 0 36.116346559872909 97.448772707713943 0 0 0 0 78.321985372049312 126.82841528012432 0 126.82841528012432 182.5646717859745 0 0 0 0 96.342524677430617 26.956911242150227 0 26.956911242150227 93.20025661685213 0 0 0 0 107.74649232809702 110.81603810655724 0 110.81603810655724 -17.423731645674707 0 0 0 0 36.240784883786759 82.456825824374846 0 82.456825824374846 83.341585889095967 0 0 0 0 -145.25080122097825 182.09186738157587 0 182.09186738157587 125.41871385222476 0 0 0 0 -7.992813968561677 102.95076808963495 0 102.95076808963495 141.00765012105694 0 0 0 0 -29.370516885807572 -16.130040133781087 0 -16.130040133781087 199.44958254371593 0 0 0 0 6.9012102209607811 16.151435178722082 0 16.151435178722082 48.114130041190322 0 0 0 0 52.598598640355249 79.252465956056767 0 79.252465956056767 80.397055962021113 0 0 0 0 -704.56571128013957 -116.97579587183645 0 -116.97579587183645 539.98209498044253 0 0 0 0 -320.56299797965085 300.37649270733982 0 300.37649270733982 409.17740464663075 0 0 0 0 -1.7637045237928781 -1.4088005398698726 0 -1.4088005398698726 4.9690761317209962 0 0 0 0 -24.073726893590901 51.303360448077001 0 51.303360448077001 -248.49302639325833 0 0 0 0 -516.00190363880006 -253.26531565608548 0 -253.26531565608548 333.21125956518154 0 0 0 0 471.30562482792539 556.92826913128556 0 556.92826913128556 271.1698898416289 0 0 0 0 92.981408781840969 113.94324927437629 0 113.94324927437629 207.44890956160089 0 0 0 0 132.73978363497599 183.61860364672975 0 183.61860364672975 304.2105713277233 0 0 0 0 -0.52845619515875608 -6.1761582814660656 0 -6.1761582814660656 21.952980823436974 0 0 0 0 -1.2758486351796972 -0.95685881931760441 0 -0.95685881931760441 10.507885207896862 0 0 0 0 404.7105561055414 680.2221624572303 0 680.2221624572303 983.37018656753935 0 0 0 0 112.32020226740906 169.43909836781313 0 169.43909836781313 303.36971946631502 0 0 0 0 273.27747424501513 270.86881869936769 0 270.86881869936769 358.74701589825418 0 0 0 0 -75.793158421913915 110.65913025489135 0 110.65913025489135 435.41569552601868 0 0 0 0 -8.8384384293745057 113.38400962908963 0 113.38400962908963 212.60192934454244 0 0 0 0 45.629941793955709 231.11972349121061 0 231.11972349121061 378.21523139729834 0 0 0 0 -97.885250839373384 -11.907177433800825 0 -11.907177433800825 122.91187979591268 0 0 0 0 -227.26846539042378 31.094208887875084 0 31.094208887875084 126.04898170701927 0 0 0 0 -15.22625484560653 -14.375171723001468 0 -14.375171723001468 67.177508649453955 0 0 0 0 -78.682177842229066 -24.45431685321455 0 -24.45431685321455 6.4273832961262087 0 0 0 0 -12.622481895982855 -52.293263722920791 0 -52.293263722920791 5.8183718787879855 0 0 0 0 -20.967063324843366 296.28385476035692 0 296.28385476035692 288.82762116220329 0 0 0 0 173.9253874572446 -297.33942068227043 0 -297.33942068227043 300.40651104469725 0 0 0 0 3.859698388349055 -4.4774899665389833 0 -4.4774899665389833 3.8681446125380035 0 0 0 0 198.19224027774715 -46.213885949145606 0 -46.213885949145606 373.8010525715581 0 0 0 0 147.15490628153793 212.25798195838433 0 212.25798195838433 287.99909651749476 0 0 0 0 -13.014451252282015 -61.624927667518932 0 -61.624927667518932 713.24345078902843 0 0 0 0 49.473857613609653 105.50279351330391 0 105.50279351330391 171.3773380278144 0 0 0 0 115.485377396697 81.331928602881817 0 81.331928602881817 195.03570441813099 0 0 0 0 48.040420293023089 106.52579158938534 0 106.52579158938534 447.18007977086381 0 0 0 0 -78.602127321115631 187.04358969294481 0 187.04358969294481 409.43694973466336 0 0 0 0 -50.662337455943543 98.626978719996259 0 98.626978719996259 578.55721466774412 0 0 0 0 -32.966260574670741 -95.131889476288052 0 -95.131889476288052 398.89744706649435 0 0 0 0 220.09708743207193 -183.21565627042401 0 -183.21565627042401 83.073780016584351 0 0 0 0 -117.4500950601805 -205.14730174530814 0 -205.14730174530814 140.41001354594118 0 0 0 0 51.985472464856684 -82.640532720210103 0 -82.640532720210103 2.0173138800200832 0 0 0 0 16.369089288531086 -61.513252151609777 0 -61.513252151609777 141.61823657158675 0 0 0 0 -3.7444799895590046 -6.4475306954688136 0 -6.4475306954688136 17.957285157729572 0 0 0 0 119.12374872599435 -279.26411938358342 0 -279.26411938358342 571.43816246720598 0 0 0 0 19.677999089785772 -67.066231225384399 0 -67.066231225384399 144.29049108562504 0 0 0 0 207.88631106706248 89.931693531469136 0 89.931693531469136 26.465512791342917 0 0 0 0 -8.6096580219823409 199.98906516753777 0 199.98906516753777 464.74899001751692 0 0 0 0 2.0540829783333701 3.2634790688183131 0 3.2634790688183131 2.5015588854139139 0 0 0 0 27.778196414642935 -4.5844629959647136 0 -4.5844629959647136 48.819944952476362 0 0 0 0 60.782006510633437 37.042630837102479 0 37.042630837102479 22.581479045980814 0 0 0 0 -180.13486379193637 -230.35174243928122 0 -230.35174243928122 -189.21865535435836 0 0 0 0 -171.73845028412688 -71.307361262795894 0 -71.307361262795894 66.999471571898539 0 0 0 0 -87.224742894342853 50.853931831527007 0 50.853931831527007 57.122858305474438 0 0 0 0 12.678846019185585 99.553101282337593 0 99.553101282337593 24.727581347273372 0 0 0 0 -84.556234237552417 -9.752079094920191 0 -9.752079094920191 -75.675262592125364 0 0 0 0 75.164927420269123 65.722279894978783 0 65.722279894978783 558.63780178852721 0 0 0 0 114.73599777242953 55.393452864933352 0 55.393452864933352 49.621101923137758 0 0 0 0 26.880579086154285 -234.48186936116053 0 -234.48186936116053 352.10520014282156 0 0 0 0 -142.41128252129784 -536.31870405016525 0 -536.31870405016525 -80.774824170327065 0 0 0 0 257.56399600648001 -172.1720085300185 0 -172.1720085300185 191.44982423626425 0 0 0 0 252.97555991448212 224.36107342110429 0 224.36107342110429 363.20365789388961 0 0 0 0 77.388295995465342 -58.056083137484165 0 -58.056083137484165 -64.911759649334272 0 0 0 0 -0.33653609239729221 0.74896043756253761 0 0.74896043756253761 0.041765159102457261 0 0 0 0 -25.106487072055643 101.92429697440821 0 101.92429697440821 465.18312286404944 0 0 0 0 52.761313654920741 77.813167734073431 0 77.813167734073431 186.45624808081629 0 0 0 0 -1.6662371067569772 -0.81429793806779571 0 -0.81429793806779571 7.9722666743230999 0 0 0 0 -5.3977073039686729 88.114576479040807 0 88.114576479040807 322.47706187894073 0 0 0 0 10.142184249286856 -16.202634107306039 0 -16.202634107306039 35.785776267828624 0 0 0 0 -3.1377836887333981 1.9238313556928013 0 1.9238313556928013 6.056695689808933 0 0 0 0 -45.355558921539341 22.602017042161606 0 22.602017042161606 484.9818492410559 0 0 0 0 -48.608510178375582 120.94537415551531 0 120.94537415551531 373.15377207817073 0 0 0 0 58.283725065768976 185.57526801169161 0 185.57526801169161 279.98158171849718 0 0 0 0 -15.426566184027251 159.81421691925243 0 159.81421691925243 300.60341318713745 0 0 0 0 -0.92194374234964016 115.50502789959637 0 115.50502789959637 326.76784926097389 0 0 0 0 -7.7791730365352123 34.402771274304541 0 34.402771274304541 46.453649883524122 0 0 0 0 11.845612869881734 187.80632299142781 0 187.80632299142781 260.11517567894043 0 0 0 0 66.405946608020713 122.90595776132068 0 122.90595776132068 -145.61177833646798 0 0 0 0 -62.300847920293677 22.983651672303495 0 22.983651672303495 664.4101007161662 0 0 0 0 6.9471372827242703 134.73566379234398 0 134.73566379234398 344.5947542801332 0 0 0 0 -10.962340832540121 336.70338254370836 0 336.70338254370836 395.69086880579562 0 0 0 0 301.58897606773803 -237.72662688884429 0 -237.72662688884429 -54.989436991832918 0 0 0 0 -0.41905133212909895 -2.4067068088087922 0 -2.4067068088087922 -3.1698570311124143 0 0 0 0 -118.7588712437805 -35.409608599745297 0 -35.409608599745297 12.085990446623327 0 0 0 0 2.9098351331695085 -4.3676386712504609 0 -4.3676386712504609 -2.0195338774537959 0 0 0 0 49.169243890892176 -64.967617844653432 0 -64.967617844653432 145.22873596931458 0 0 0 0 5.7006719479359163 30.25029241973607 0 30.25029241973607 24.962253052322922 0 0 0 0 -54.244015038126236 -58.901262008905178 0 -58.901262008905178 -53.985553327331218 0 0 0 0 -4.6881295249144621 -0.71954750414560209 0 -0.71954750414560209 -0.21182383028174101 0 0 0 0 -55.506902563967742 -86.396792150319925 0 -86.396792150319925 -35.851482603047771 0 0 0 0 -19.901866996004173 -81.069138054468567 0 -81.069138054468567 -41.005865595312571 0 0 0 0 -49.32354869817118 -1.4637230926437041 0 -1.4637230926437041 80.097578887829513 0 0 0 0 63.874461637809873 -104.60074923486445 0 -104.60074923486445 -222.07640808342694 0 0 0 0 -1.2937556378138488 -0.4177246280169129 0 -0.4177246280169129 0.35333680235749831 0 0 0 0 -8.7452933900635799 -159.48656780388774 0 -159.48656780388774 162.05260963459477 0 0 0 0 -193.35464309448696 -47.843739314877894 0 -47.843739314877894 20.725239256120403 0 0 0 0 -243.7711030183541 -121.4300164508677 0 -121.4300164508677 158.77887888386613 0 0 0 0 -124.16457758878596 -153.51583072635549 0 -153.51583072635549 181.86993349216209 0 0 0 0 -89.408803843045007 -44.076267273878329 0 -44.076267273878329 -68.724223227029142 0 0 0 0 -8.7229019234504506 -16.913709681201908 0 -16.913709681201908 76.240268885274418 0 0 0 0 -4.2520505029368989 -4.2587173409811658 0 -4.2587173409811658 71.762293757882532 0 0 0 0 -2.8176753461262933 -17.400669588627352 0 -17.400669588627352 67.678377126951091 0 0 0 0 -14.009499396789806 -11.364849305624375 0 -11.364849305624375 65.360566391032989 0 0 0 0 62.817829085959602 -149.29844261703693 0 -149.29844261703693 92.055233464136109 0 0 0 0 -1.2784216339082586 -18.142124195793755 0 -18.142124195793755 63.298854193183757 0 0 0 0 -143.41388184898142 -151.09357357577392 0 -151.09357357577392 56.910530062692487 0 0 0 0 64.168756737809417 -17.430757446651114 0 -17.430757446651114 100.82476868241793 0 0 0 0 -73.92437636933289 -12.49983099707606 0 -12.49983099707606 60.196344851399772 0 0 0 0 -5.2472326566517493 16.939999180209355 0 16.939999180209355 91.254884671049211 0 0 0 0 -122.52883011433551 -69.03597992027062 0 -69.03597992027062 29.761223938774492 0 0 0 0 -206.6878377560879 -182.31284607795533 0 -182.31284607795533 129.619780574998 0 0 0 0 -6.028050018148182 -17.112011874982464 0 -17.112011874982464 72.092922669017184 0 0 0 0 -111.64254338916635 -32.850963957516797 0 -32.850963957516797 141.88038803506061 0 0 0 0 -163.4019103107421 -150.26676355601739 0 -150.26676355601739 152.11624127960067 0 0 0 0 -143.03154772332846 -100.74753107201832 0 -100.74753107201832 198.55922754469793 0 0 0 0 -92.991348011976697 -81.500551299088329 0 -81.500551299088329 197.96369408568717 0 0 0 0 -167.17504887462604 -96.272042571616566 0 -96.272042571616566 237.45042800215015 0 0 0 0 -159.62026313180354 -146.25170101461117 0 -146.25170101461117 159.41171567125275 0 0 0 0 -129.75675721152615 -114.33841252295315 0 -114.33841252295315 211.91337448168633 0 0 0 0 -148.69018677726842 -40.821454847415225 0 -40.821454847415225 285.23865283740452 0 0 0 0 -35.117276835106622 88.315080476812 0 88.315080476812 308.8577710802565 0 0 0 0 -51.390564810456056 168.35578191375521 0 168.35578191375521 818.0919995667864 0 0 0 0 16.18159343858315 -199.38788971590475 0 -199.38788971590475 436.97751632373911 0 0 0 0 33.071507408286834 -155.17736861818594 0 -155.17736861818594 120.7181800776234 0 0 0 0 -110.30167020035321 -55.040383462073805 0 -55.040383462073805 492.53505768639297 0 0 0 0 33.686297466024826 -239.30496232038786 0 -239.30496232038786 915.31250162640674 0 0 0 0 91.471667188910715 -154.4837096837573 0 -154.4837096837573 103.59888346845401 0 0 0 0 106.66501556317098 185.46231901770079 0 185.46231901770079 -403.25393320114927 0 0 0 0 99.384508235230442 -149.16401107931597 0 -149.16401107931597 -88.391096398991067 0 0 0 0 19.373924487393651 -77.739678687386913 0 -77.739678687386913 82.447894189394901 0 0 0 0 -17.890877481781445 -156.92246986936152 0 -156.92246986936152 -106.97474470382258 0 0 0 0 -41.866473996074774 -100.27613771663164 0 -100.27613771663164 94.989763888401285 0 0 0 0 -34.897693188944459 -113.09463063202202 0 -113.09463063202202 -2.3356517004140187 0 0 0 0 -60.483734606457347 -125.34798429831426 0 -125.34798429831426 -42.868502507542871 0 0 0 0 42.227381430277688 -161.06291749709726 0 -161.06291749709726 -30.548675270882086 0 0 0 0 -43.075116291413224 -10.254903209402073 0 -10.254903209402073 -191.4178389744593 0 0 0 0 -11.176509035505539 -8.8598234607237742 0 -8.8598234607237742 46.431500347198352 0 0 0 0 -89.939767226805998 -133.05135924998467 0 -133.05135924998467 -103.63410741780535 0 0 0 0 57.42133241582178 -48.021720195380112 0 -48.021720195380112 -204.36196718188876 0 0 0 0 -8.5425572640125562 -5.9149549236538235 0 -5.9149549236538235 4.7475140310066024 0 0 0 0 -9.4130470821245389 -1.1121948840671649 0 -1.1121948840671649 5.41720635877844 0 0 0 0 -18.601429919715883 -7.1662293892295565 0 -7.1662293892295565 32.779947276133498 0 0 0 0 -56.86839621521176 7.0223026478815882 0 7.0223026478815882 36.562418214561148 0 0 0 0 -30.980030044972409 -172.24569932753002 0 -172.24569932753002 -161.1967347162572 0 0 0 0 -40.205074431696318 75.782477941086654 0 75.782477941086654 -13.030191641904821 0 0 0 0 0.68598365935881134 -4.2531563793302354 0 -4.2531563793302354 7.9289027554690108 0 0 0 0 -3.306814743632458 -8.5312216436941526 0 -8.5312216436941526 71.216338277110481 0 0 0 0 -11.353128730810308 9.1189652704848143 0 9.1189652704848143 39.1365748392722 0 0 0 0 -8.8080554023276694 2.225112640231508 0 2.225112640231508 56.726877573684277 0 0 0 0 25.749293882730854 137.64728917353568 0 137.64728917353568 0.0753206236367987 0 0 0 0 -3.7447510233355299 -5.9675726125375945 0 -5.9675726125375945 35.294567457317704 0 0 0 0 -11.014744561729401 -10.209521894479622 0 -10.209521894479622 55.033977426217461 0 0 0 0 -1.0922737916037448 -12.251531275569505 0 -12.251531275569505 72.138621942969621 0 0 0 0 -2.7483829722088067 -7.6518157428249296 0 -7.6518157428249296 49.56154328853836 0 0 0 0 0.67192703646333729 -6.6697242319493597 0 -6.6697242319493597 32.157412401746299 0 0 0 0 -3.3891119297187515 -4.9386650792657747 0 -4.9386650792657747 74.717483815391461 0 0 0 0 -7.0152130426048984 -11.914533295406727 0 -11.914533295406727 81.554946159099927 0 0 0 0 -3.6925713596162133 -7.8034270737288054 0 -7.8034270737288054 65.641239218682017 0 0 0 0 -19.906920064863669 6.0881495870562503 0 6.0881495870562503 75.514631344311056 0 0 0 0 -12.171410042730713 -19.134216352518706 0 -19.134216352518706 88.086647867421561 0 0 0 0 4.1001506879546241 6.1315763223101385 0 6.1315763223101385 66.806322227581404 0 0 0 0 15.822900821085568 -6.2031166888045846 0 -6.2031166888045846 65.704183794543496 0 0 0 0 -16.040412913640921 -19.291640184505013 0 -19.291640184505013 99.659097212483175 0 0 0 0 -3.3913885718929127 -3.1702450385894565 0 -3.1702450385894565 47.436628263894846 0 0 0 0 -10.631342424922979 4.7428647906139503 0 4.7428647906139503 79.403594469246769 0 0 0 0 12.031933776586811 -12.509577466116752 0 -12.509577466116752 88.172102874304983 0 0 0 0 -8.2673478947465853 -17.286361433543291 0 -17.286361433543291 100.55018254421148 0 0 0 0 -33.044686523311384 1.7944871822328423 0 1.7944871822328423 86.65819232245849 0 0 0 0 0.27372133372860463 -18.034393003033458 0 -18.034393003033458 88.73218895341364 0 0 0 0 -120.95253710636325 -57.516963082442089 0 -57.516963082442089 158.88447651358001 0 0 0 0 -57.694157575970166 -99.114640846410111 0 -99.114640846410111 172.79008813339169 0 0 0 0 -37.276003507027781 -65.417912038770737 0 -65.417912038770737 147.66334212434049 0 0 0 0 -28.984561155928532 -93.06971506854461 0 -93.06971506854461 132.69395222180538 0 0 0 0 -27.498448159781219 -96.544057546569093 0 -96.544057546569093 134.68231463718985 0 0 0 0 -79.689649475743863 53.908488968983875 0 53.908488968983875 144.76139366781354 0 0 0 0 -174.98373198536228 4.8256987258519075 0 4.8256987258519075 119.8664195665915 0 0 0 0 217.66089423205631 305.37630359011018 0 305.37630359011018 121.62303155458721 0 0 0 0 -79.995073132826576 49.154095285596668 0 49.154095285596668 408.51591135872877 0 0 0 0 728.87361461557521 608.85098685068078 0 608.85098685068078 212.27512759637466 0 0 0 0 207.78262039331094 -19.960151098635833 0 -19.960151098635833 -237.01329199709107 0 0 0 0 169.04207901028894 -382.22287852041336 0 -382.22287852041336 434.73959077909967 0 0 0 0 -118.71603261211635 -109.69039838340154 0 -109.69039838340154 959.12296281593444 0 0 0 0 -107.08747941478214 -42.00866001562099 0 -42.00866001562099 297.25626060885406 0 0 0 0 2.303612810024088 -2.6109455643589001 0 -2.6109455643589001 3.0358948293704202 0 0 0 0 -287.936965243136 -6.6129942861434756 0 -6.6129942861434756 904.1683068371276 0 0 0 0 -339.01705462069731 49.220805578977888 0 49.220805578977888 1250.7429534537659 0 0 0 0 -117.16904588659236 227.91074927294176 0 227.91074927294176 736.86908317976486 0 0 0 0 225.1124983580703 -238.83410049880331 0 -238.83410049880331 18.207384005938366 0 0 0 0 2.5213460724435937 -3.4861592150231928 0 -3.4861592150231928 5.3877600500935756 0 0 0 0 -138.34808326471102 286.28124779353675 0 286.28124779353675 932.55631367224123 0 0 0 0 112.69357422633766 -26.248980499982281 0 -26.248980499982281 -62.129102138927919 0 0 0 0 71.747515846075657 -164.69615343960322 0 -164.69615343960322 80.967301815588144 0 0 0 0 5.8842322574000718 -180.18564994238113 0 -180.18564994238113 343.59474496463736 0 0 0 0 113.47922667165494 -153.66750771174702 0 -153.66750771174702 83.019951562135248 0 0 0 0 83.578308374273476 -16.799861771040526 0 -16.799861771040526 72.967388564931753 0 0 0 0 70.35426120761349 -74.150282496178988 0 -74.150282496178988 -4.6093867349409265 0 0 0 0 -213.63770783152995 -108.26712671921996 0 -108.26712671921996 166.14042058151972 0 0 0 0 83.810171718684614 -24.531062698526512 0 -24.531062698526512 -44.950156750083806 0 0 0 0 -126.42680427885216 -28.504176756107938 0 -28.504176756107938 28.314810853909876 0 0 0 0 -125.43858639842438 -87.080453017479158 0 -87.080453017479158 -9.2592697902437067 0 0 0 0 6.3166434371504465 -14.574526563319296 0 -14.574526563319296 117.80335169954924 0 0 0 0 -27.707306404624433 -1.9759596693183994 0 -1.9759596693183994 117.74742527953822 0 0 0 0 3.4400352594084183 1.9723295520769994 0 1.9723295520769994 -2.0938831434285134 0 0 0 0 8.6716460531210942 -34.006721664627548 0 -34.006721664627548 171.23022222614782 0 0 0 0 24.364986317328658 -52.75237909909265 0 -52.75237909909265 122.51154292382489 0 0 0 0 11.673738380994566 -2.709215083790447 0 -2.709215083790447 33.847857460591108 0 0 0 0 17.574378909571298 -40.460414044534915 0 -40.460414044534915 87.814750305061779 0 0 0 0 17.812691271239601 -70.027568050601985 0 -70.027568050601985 77.69668464451388 0 0 0 0 6.7351551344731888 -40.080756845403812 0 -40.080756845403812 112.72131003543473 0 0 0 0 13.256451976773405 -31.977486660514842 0 -31.977486660514842 73.558408702840097 0 0 0 0 -42.793981762276417 -56.120802049066697 0 -56.120802049066697 140.79426430649619 0 0 0 0 1.7235140643848208 -18.869352211613531 0 -18.869352211613531 94.309551974962119 0 0 0 0 -26.29166057627117 -19.189963459948558 0 -19.189963459948558 90.093793404048483 0 0 0 0 -9.071392187662342 -16.603566615028363 0 -16.603566615028363 87.57296001065933 0 0 0 0 63.957074037810571 -91.514110806429017 0 -91.514110806429017 99.958544208646344 0 0 0 0 5.8611550972709665 -44.351800375472521 0 -44.351800375472521 73.414514435256024 0 0 0 0 23.11920284996404 -20.425675373500781 0 -20.425675373500781 103.9272202801767 0 0 0 0 3.5358442051394832 -54.038882558380465 0 -54.038882558380465 265.6211065648713 0 0 0 0 -51.760547110507105 -19.130998445323712 0 -19.130998445323712 364.25087425674383 0 0 0 0 -46.701457900404421 -42.892601486006242 0 -42.892601486006242 198.52467425589566 0 0 0 0 -53.11334545896716 22.065132875450217 0 22.065132875450217 181.8023074947123 0 0 0 0 -82.799870775295858 -12.646915417977652 0 -12.646915417977652 283.86083304643398 0 0 0 0 20.484249879398703 127.17932600510176 0 127.17932600510176 229.96220733194423 0 0 0 0 -25.900145243362203 -4.7842905498255277 0 -4.7842905498255277 97.807694418519532 0 0 0 0 -78.30425658384047 -25.251365774831356 0 -25.251365774831356 319.19752671218157 0 0 0 0 -3.0382344245535933 -57.826928650074478 0 -57.826928650074478 162.20895247994849 0 0 0 0 -31.8352770367635 -47.855522961620409 0 -47.855522961620409 290.47044177731732 0 0 0 0 85.601377938351106 -166.69608913144293 0 -166.69608913144293 57.749507572723815 0 0 0 0 26.539145170042502 -213.34102226306459 0 -213.34102226306459 427.09250090483329 0 0 0 0 424.48420150831771 -60.434509650840482 0 -60.434509650840482 -141.21167090162999 0 0 0 0 -81.182717316747585 53.661425280708499 0 53.661425280708499 622.49318769984529 0 0 0 0 184.52390845268383 272.75702584032115 0 272.75702584032115 335.93620034666674 0 0 0 0 54.596835285983616 38.963719033895359 0 38.963719033895359 72.327745787035383 0 0 0 0 -65.747605495458629 -237.14162596765527 0 -237.14162596765527 -20.158858892786157 0 0 0 0 62.386840330254927 77.952784566747141 0 77.952784566747141 -37.591413780850417 0 0 0 0 5.4242831338301514 -9.4139096178016963 0 -9.4139096178016963 12.677706536680901 0 0 0 0 -2.1291490805499897 -1.868805741462765 0 -1.868805741462765 5.8624190867985888 0 0 0 0 -28.31762170910406 75.321708047908032 0 75.321708047908032 57.364144559040142 0 0 0 0 -133.82595292797851 51.657412845994259 0 51.657412845994259 450.62022699772933 0 0 0 0 410.10153246633308 191.61169139456615 0 191.61169139456615 -637.19629368987808 0 0 0 0 -48.141800609807433 -50.60540128352477 0 -50.60540128352477 5.0784885598477558 0 0 0 0 4.9387846873695871 -7.6448874131703022 0 -7.6448874131703022 10.64771712656173 0 0 0 0 -117.66640031022769 -120.63512774242213 0 -120.63512774242213 62.697200012844405 0 0 0 0 -24.390280486980373 21.298733749630628 0 21.298733749630628 4.0091284762211217 0 0 0 0 -18.901681707659009 0.43054748557369749 0 0.43054748557369749 27.604980056796194 0 0 0 0 6.9055182521178722 9.0066683750246739 0 9.0066683750246739 26.515937083226163 0 0 0 0 46.574380379380273 -35.842016639137 0 -35.842016639137 -102.29349481473582 0 0 0 0 1.7587303625760988 -2.4883401643911256 0 -2.4883401643911256 4.0590565276358319 0 0 0 0 -55.575585487511489 -37.947660439891479 0 -37.947660439891479 78.806755753200378 0 0 0 0 -15.559342412956426 34.586659474910448 0 34.586659474910448 93.900281180747697 0 0 0 0 1.759954037883972 -22.296198938002817 0 -22.296198938002817 -94.620808887593739 0 0 0 0 24.872143408706506 -16.042921302519972 0 -16.042921302519972 61.395815955766011 0 0 0 0 3.8216340227904517 -1.6182837631457545 0 -1.6182837631457545 0.1656749730502689 0 0 0 0 -40.897358239185451 -79.925925309771628 0 -79.925925309771628 62.367559248472389 0 0 0 0 -67.131804662481954 -31.806776780113069 0 -31.806776780113069 298.60413094831165 0 0 0 0 11.849218241611197 -134.02092403761344 0 -134.02092403761344 567.58337796953128 0 0 0 0 11.334494506096689 -121.49259572668052 0 -121.49259572668052 267.34471038274569 0 0 0 0 73.257162235850046 -11.794279162333623 0 -11.794279162333623 52.668995362288115 0 0 0 0 21.708575350066894 -4.5330782583096152 0 -4.5330782583096152 85.067429146300128 0 0 0 0 241.07343440610521 -251.8670140704362 0 -251.8670140704362 107.55243368234369 0 0 0 0 1.2548727506838429 -1.7742737654114755 0 -1.7742737654114755 3.1597203737228341 0 0 0 0 46.916016332154868 181.01648259730609 0 181.01648259730609 643.98137596587912 0 0 0 0 21.86215623237058 67.490382054806105 0 67.490382054806105 153.51469971580445 0 0 0 0 -47.321478965729057 23.360796866629244 0 23.360796866629244 151.38323702277194 0 0 0 0 -22.389013163244272 -45.66717608194449 0 -45.66717608194449 46.766130389739374 0 0 0 0 2.744436015580888 -4.8700795582886123 0 -4.8700795582886123 8.4553177148184773 0 0 0 0 -48.434344735004288 24.793059424604508 0 24.793059424604508 180.20675963272151 0 0 0 0 -37.934130795215651 39.211549282240412 0 39.211549282240412 150.51344900245022 0 0 0 0 -69.747723837329886 51.355132378079361 0 51.355132378079361 369.9722443417777 0 0 0 0 -71.193000302371274 26.710954248544112 0 26.710954248544112 185.56021198007511 0 0 0 0 2.5229242759287445 -111.77768570629269 0 -111.77768570629269 318.09560714263353 0 0 0 0 -71.463304157812217 -43.080444346305285 0 -43.080444346305285 254.91466405965184 0 0 0 0 -94.960481893034284 -34.215169124214299 0 -34.215169124214299 201.93020326227634 0 0 0 0 65.612241168861146 -102.66041786881397 0 -102.66041786881397 185.22385411434152 0 0 0 0 59.379775413613061 -147.13639097792475 0 -147.13639097792475 262.70047839367544 0 0 0 0 91.081864318898624 -181.27781728325681 0 -181.27781728325681 186.8021171095188 0 0 0 0 29.107196637578454 -112.31645933527034 0 -112.31645933527034 251.09255980097078 0 0 0 0 324.2912724434866 -86.899404495590716 0 -86.899404495590716 226.13795233131168 0 0 0 0 65.894656938065964 -218.13055650163733 0 -218.13055650163733 545.86153582690986 0 0 0 0 37.707619984792927 3.2975612330465083 0 3.2975612330465083 130.48852617065131 0 0 0 0 -2.6817752993229078 -14.760492185150724 0 -14.760492185150724 210.51293059397722 0 0 0 0 53.210353159673105 -31.076289648881357 0 -31.076289648881357 17.584380185451664 0 0 0 0 91.767446084004405 -44.502564386875747 0 -44.502564386875747 -33.919871015303215 0 0 0 0 26.968263424238557 -61.348388705699108 0 -61.348388705699108 155.07274550268266 0 0 0 0 65.756074448901018 87.546019353932934 0 87.546019353932934 403.94211027132405 0 0 0 0 64.0604127964707 62.952158869215054 0 62.952158869215054 215.89784516374039 0 0 0 0 13.961255052612159 -118.39097194967326 0 -118.39097194967326 129.37713632294617 0 0 0 0 -9.5303652887732824 -81.993366496473755 0 -81.993366496473755 73.279586375268991 0 0 0 0 8.7277515269567516 -139.55585523887021 0 -139.55585523887021 73.198135105834808 0 0 0 0 70.686940282190335 -88.681437969666149 0 -88.681437969666149 154.48291569284629 0 0 0 0 91.261063668400311 -104.44556965501397 0 -104.44556965501397 111.58644820714835 0 0 0 0 66.038771133947193 -111.25526228714443 0 -111.25526228714443 93.909445813798811 0 0 0 0 73.514337433493438 -80.667602465502569 0 -80.667602465502569 115.7921207776817 0 0 0 0 49.587712824932623 -91.367374081637536 0 -91.367374081637536 109.83108609859482 0 0 0 0 60.66066790516561 -110.01824671562645 0 -110.01824671562645 101.69940462480008 0 0 0 0 13.408873912802132 -14.413318982004114 0 -14.413318982004114 -7.9765815387937948 0 0 0 0 72.560180434715221 -92.739408268986153 0 -92.739408268986153 105.49388664035359 0 0 0 0 2.0903159498693329 -49.079015328943377 0 -49.079015328943377 156.30481781483132 0 0 0 0 -0.12902479749899953 -32.573157885335192 0 -32.573157885335192 26.499772903886964 0 0 0 0 -69.320782400658572 -158.85772487081704 0 -158.85772487081704 119.47321832068701 0 0 0 0 -9.2462491721162223 -105.88317723247746 0 -105.88317723247746 136.3162664208794 0 0 0 0 -1.03622512919992 -118.89140360915917 0 -118.89140360915917 117.77974105929025 0 0 0 0 -17.446523410854752 -18.276137893173654 0 -18.276137893173654 187.82177982809662 0 0 0 0 12.144634069965832 -13.206411952884082 0 -13.206411952884082 155.86203733390175 0 0 0 0 -51.131667762221696 16.359346338831529 0 16.359346338831529 156.85505091238338 0 0 0 0 -81.787461979130057 6.3533711173968186 0 6.3533711173968186 239.36334999382962 0 0 0 0 -212.66107194804044 -185.05143088887053 0 -185.05143088887053 155.78512309557846 0 0 0 0 0.98701527072313322 -46.093414059446268 0 -46.093414059446268 165.30862666929394 0 0 0 0 -104.99528553434493 -35.025659096443633 0 -35.025659096443633 186.67244712664126 0 0 0 0 -11.477230826218147 -204.77442200604128 0 -204.77442200604128 126.81086226489424 0 0 0 0 -83.45412417236895 -90.854278131993397 0 -90.854278131993397 164.07422492592377 0 0 0 0 -219.69692874053726 -149.88616265130258 0 -149.88616265130258 223.90659973956099 0 0 0 0 3.1944759606950974 -49.249452492561275 0 -49.249452492561275 163.617012192153 0 0 0 0 -160.48901811384633 -166.15303190899067 0 -166.15303190899067 193.1710403781326 0 0 0 0 -82.600421910801742 -9.7812323920134077 0 -9.7812323920134077 215.7406288030179 0 0 0 0 34.040877218087644 -177.34273025906441 0 -177.34273025906441 449.94858304897343 0 0 0 0 71.897118805697573 -44.770557855954394 0 -44.770557855954394 107.12233056699733 0 0 0 0 99.496657529008644 -15.30473323154547 0 -15.30473323154547 205.69759726326447 0 0 0 0 67.012739941705149 -76.616145459924155 0 -76.616145459924155 201.53096884125262 0 0 0 0 60.742087603965047 84.960883847612422 0 84.960883847612422 480.50794482873243 0 0 0 0 218.29412280892348 33.948815457648379 0 33.948815457648379 225.03508733205672 0 0 0 0 -14.668599359180007 -65.443071546716965 0 -65.443071546716965 407.58647803985514 0 0 0 0 5.035998731300424 -31.331431449067168 0 -31.331431449067168 371.3583599072299 0 0 0 0 9.2609153693865665 -54.534350019268459 0 -54.534350019268459 321.71288761348114 0 0 0 0 2.5794417848856028 -14.860690362147579 0 -14.860690362147579 309.2973801940534 0 0 0 0 1.1610369857953629 -71.622180729111278 0 -71.622180729111278 371.43567932437873 0 0 0 0 1.5541002201089213 -69.489313224403304 0 -69.489313224403304 360.32463642992661 0 0 0 0 -14.318993792943729 -70.500889779534191 0 -70.500889779534191 363.57580276814406 0 0 0 0 12.891554662570343 -70.690065751885413 0 -70.690065751885413 319.76645481362539 0 0 0 0 13.107866031723461 -72.825020496675279 0 -72.825020496675279 337.32561265872573 0 0 0 0 9.5980428013376695 -57.178984540878446 0 -57.178984540878446 341.4058144132141 0 0 0 0 24.708038079603284 -87.357020099479996 0 -87.357020099479996 292.0298375140701 0 0 0 0 34.935219060074928 -80.852606306656526 0 -80.852606306656526 289.39445144179626 0 0 0 0 34.290994044949912 -134.36516859313269 0 -134.36516859313269 228.84786766774778 0 0 0 0 38.766792343062662 -36.299193912826013 0 -36.299193912826013 305.51097016906169 0 0 0 0 33.647143454599245 -50.49699746438273 0 -50.49699746438273 274.44467951575643 0 0 0 0 76.172476418076258 -57.252195020861109 0 -57.252195020861109 216.09598182560148 0 0 0 0 36.956822089416107 -89.774809206068312 0 -89.774809206068312 235.05678112537134 0 0 0 0 81.120845658608232 -80.060796147561632 0 -80.060796147561632 148.20916411525104 0 0 0 0 100.23700004274588 -95.767285296249611 0 -95.767285296249611 96.423974007397192 0 0 0 0 1.7574179699252106 -1.693040317997955 0 -1.693040317997955 1.0486699120839376 0 0 0 0 115.93278171774273 -136.03749028414313 0 -136.03749028414313 162.31572424487968 0 0 0 0 87.463185447799788 -61.585744501076988 0 -61.585744501076988 200.836629301426 0 0 0 0 78.053002622212261 -90.762500848686614 0 -90.762500848686614 147.28180233039893 0 0 0 0 1.0260124830960802 0.89642218381212047 0 0.89642218381212047 5.5318676498286834 0 0 0 0 -5.5818269887964753 -3.5529263632632819 0 -3.5529263632632819 9.8271081248562808 0 0 0 0 -6.1632181677214248 -6.6952045882935636 0 -6.6952045882935636 68.168563764629653 0 0 0 0 10.290527450503305 -33.010946927077384 0 -33.010946927077384 58.910483737301547 0 0 0 0 9.4556125440240066 -16.175486754980739 0 -16.175486754980739 161.27181131209363 0 0 0 0 -116.37809072956225 59.239836121363624 0 59.239836121363624 -70.626894816661661 0 0 0 0 -35.187149267298537 151.89093863984453 0 151.89093863984453 -135.90162231066279 0 0 0 0 12.931421371418764 -37.17689941540084 0 -37.17689941540084 92.036917789857398 0 0 0 0 6.3223486695149429 -6.5292589060231023 0 -6.5292589060231023 0.8035587698231268 0 0 0 0 10.177501468337141 -19.967472052754601 0 -19.967472052754601 30.246830657764804 0 0 0 0 84.475353593898035 -88.404530564526794 0 -88.404530564526794 98.194379138731165 0 0 0 0 3.3245937816857793 -11.796560841533591 0 -11.796560841533591 23.144272797526469 0 0 0 0 41.641057314633144 122.85754060395993 0 122.85754060395993 -24.391624972457066 0 0 0 0 164.94642242375812 -15.382227363319544 0 -15.382227363319544 -94.162441074275193 0 0 0 0 -12.451104961473902 4.8362655830569565 0 4.8362655830569565 -171.12868568193517 0 0 0 0 -35.59329139349029 23.81160038147209 0 23.81160038147209 75.254169463209109 0 0 0 0 66.409584911894854 80.718419041193556 0 80.718419041193556 -55.816077494144338 0 0 0 0 -114.49350424213299 100.38479828573327 0 100.38479828573327 -50.27250846660354 0 0 0 0 -3.8198164515640869 1.4596198079868259 0 1.4596198079868259 0.16719790248848199 0 0 0 0 24.320104840268414 -5.3712503892238601 0 -5.3712503892238601 7.2678009784067399 0 0 0 0 45.087476510192573 145.18759127867816 0 145.18759127867816 -274.2833260672196 0 0 0 0 -30.809489708918591 -20.405819184372376 0 -20.405819184372376 85.664027953156619 0 0 0 0 -73.101613677213209 77.326343998865923 0 77.326343998865923 -108.65554592302215 0 0 0 0 -0.23183047967625647 0.72603795288722495 0 0.72603795288722495 1.5224544547129426 0 0 0 0 66.634254857799192 -210.78784963811449 0 -210.78784963811449 524.15471898445685 0 0 0 0 25.10247780354257 35.560839834295621 0 35.560839834295621 -17.440914212122152 0 0 0 0 -0.15951217718566113 1.9481873825881166 0 1.9481873825881166 2.7844268432784247 0 0 0 0 49.929920996803958 -103.68716759035306 0 -103.68716759035306 277.70553316202131 0 0 0 0 79.404669128033674 -154.99711771768489 0 -154.99711771768489 356.96130999637535 0 0 0 0 27.110904358365588 -105.68762932702521 0 -105.68762932702521 360.82667188465712 0 0 0 0 57.220630219782834 -109.20696635036438 0 -109.20696635036438 278.77058022532947 0 0 0 0 17.839291723160386 -84.125352112387191 0 -84.125352112387191 349.17406994514022 0 0 0 0 17.266519496819456 -84.569828189196414 0 -84.569828189196414 419.71456324443716 0 0 0 0 51.467405167272773 -67.476379237421497 0 -67.476379237421497 371.96019667906512 0 0 0 0 59.611872836926011 -47.478999228248085 0 -47.478999228248085 384.74865995469736 0 0 0 0 28.092208094445596 -84.432366002656636 0 -84.432366002656636 495.3919743870083 0 0 0 0 39.722314073805137 -108.08478631646722 0 -108.08478631646722 261.59647575886629 0 0 0 0 -23.456718932324293 -51.031841400632402 0 -51.031841400632402 312.94521920728585 0 0 0 0 -11.114573422428975 8.7541017659450517 0 8.7541017659450517 106.46192325552693 0 0 0 0 1.9966685099070673 -61.346895984570438 0 -61.346895984570438 236.94519705789571 0 0 0 0 22.416615803326749 -21.226866403063468 0 -21.226866403063468 66.610872581994045 0 0 0 0 -0.99911538092550956 0.45148886215454809 0 0.45148886215454809 0.62375770201501268 0 0 0 0 3.5684635582163082 27.276802212785697 0 27.276802212785697 227.92868255067151 0 0 0 0 30.012557462970562 -38.357846682298259 0 -38.357846682298259 71.891252506778983 0 0 0 0 -16.702627977333577 -84.592591496048044 0 -84.592591496048044 28.568584220149205 0 0 0 0 31.487684795581117 -52.300340670408332 0 -52.300340670408332 76.603817938172142 0 0 0 0 2.8135870154410441 -63.626664820527367 0 -63.626664820527367 177.23342714807404 0 0 0 0 27.647958466250202 2.7949372847069753 0 2.7949372847069753 67.811545470596684 0 0 0 0 24.520713756784971 -15.043900221495278 0 -15.043900221495278 15.181412079691654 0 0 0 0 -35.118358419962533 12.472040750071756 0 12.472040750071756 37.292369755018626 0 0 0 0 -62.628344118896848 -12.723631692757408 0 -12.723631692757408 31.678150407387875 0 0 0 0 14.419967521531362 -10.238338178683989 0 -10.238338178683989 12.600721244263696 0 0 0 0 21.752557171961257 -26.55864801489588 0 -26.55864801489588 19.74137217614043 0 0 0 0 0.11849825717490603 -41.027848674362758 0 -41.027848674362758 35.027034319427912 0 0 0 0 21.162534430618962 -54.110272844762221 0 -54.110272844762221 -95.445084417282487 0 0 0 0 27.299460435584479 56.971149837394478 0 56.971149837394478 -214.60946346149285 0 0 0 0 45.442004606564296 -52.614242258510785 0 -52.614242258510785 -57.693121878186503 0 0 0 0 -15.429882546318822 29.3153942726276 0 29.3153942726276 -0.73162412288365886 0 0 0 0 23.118982955235879 -37.848052289653424 0 -37.848052289653424 84.14837838094536 0 0 0 0 18.074993178872319 -1.1499307521880837 0 -1.1499307521880837 -30.956662312302797 0 0 0 0 24.060983797584413 -86.114960506642092 0 -86.114960506642092 80.837134053916088 0 0 0 0 28.931606377918797 -28.599177732088719 0 -28.599177732088719 94.057406710058785 0 0 0 0 -8.2681072150089676 -76.311271071401279 0 -76.311271071401279 303.99240346698207 0 0 0 0 -8.7028459520138313 -11.188560318438249 0 -11.188560318438249 80.689773314476042 0 0 0 0 -50.464780161462841 47.813920670254447 0 47.813920670254447 240.6179729668911 0 0 0 0 -52.383818068594167 35.796643590081658 0 35.796643590081658 431.10147686560231 0 0 0 0 -68.952155118743576 93.098756731629692 0 93.098756731629692 46.12191029420319 0 0 0 0 -46.16365202904035 -10.222584285782432 0 -10.222584285782432 286.28310544283886 0 0 0 0 44.509581316425283 -99.27044403772743 0 -99.27044403772743 284.80545283693573 0 0 0 0 233.89753152687035 -6.3362397253367817 0 -6.3362397253367817 129.76514042094641 0 0 0 0 13.332886845049416 -3.1626465099361667 0 -3.1626465099361667 139.01900686816953 0 0 0 0 76.947403309515721 9.8541514202952385 0 9.8541514202952385 78.13658329739701 0 0 0 0 59.579124496752229 -57.745625453688262 0 -57.745625453688262 168.7538521821989 0 0 0 0 7.5937694985741473 -29.383068390168773 0 -29.383068390168773 203.25602208871715 0 0 0 0 24.190750149927226 21.958937912117108 0 21.958937912117108 158.95144265634008 0 0 0 0 31.616390582794793 -3.7901307037809602 0 -3.7901307037809602 207.39535272063222 0 0 0 0 37.122880347657883 -1.6430573105972144 0 -1.6430573105972144 117.01641447578731 0 0 0 0 25.801836754387494 55.351306809580365 0 55.351306809580365 60.818053882889217 0 0 0 0 -25.385865439304325 28.59454384802666 0 28.59454384802666 112.696950127116 0 0 0 0 -6.5179095164048704 28.503186551674389 0 28.503186551674389 166.13945612018142 0 0 0 0 69.906674965135608 9.7304220864680246 0 9.7304220864680246 166.82556024185988 0 0 0 0 7.764356182244228 25.139049071012778 0 25.139049071012778 191.79612579553213 0 0 0 0 16.37336222972317 12.243672742497438 0 12.243672742497438 32.247151449526427 0 0 0 0 -23.515448276089728 -22.960413116252312 0 -22.960413116252312 37.383574153209338 0 0 0 0 -54.982895751539672 192.12996533677506 0 192.12996533677506 88.507955156723256 0 0 0 0 -0.33798897421384577 0.95601018177927699 0 0.95601018177927699 6.2316591570582887 0 0 0 0 -124.67149996681746 22.263885049891542 0 22.263885049891542 34.093149914769128 0 0 0 0 -148.02349423643727 88.23308139492292 0 88.23308139492292 3.3596640579999075 0 0 0 0 139.91274095389326 -318.97113040849217 0 -318.97113040849217 256.64191511043464 0 0 0 0 539.87968590369314 -356.22432118045981 0 -356.22432118045981 -0.56730748258996755 0 0 0 0 -0.55472347237732933 3.8988806128266447 0 3.8988806128266447 18.557749560983723 0 0 0 0 167.38296772543544 -90.156027449681005 0 -90.156027449681005 -116.28126338848961 0 0 0 0 12.831980186314468 70.153417331544915 0 70.153417331544915 22.763360853365157 0 0 0 0 -8.0442150373187964 8.2158219929114864 0 8.2158219929114864 11.155098130319658 0 0 0 0 -382.21802900520555 138.42032786703203 0 138.42032786703203 5.5168695443717297 0 0 0 0 -6.0286502109572506 -4.9656550875753709 0 -4.9656550875753709 65.302409721149672 0 0 0 0 -494.98332623746808 -4.9780640110257082 0 -4.9780640110257082 71.979202569935296 0 0 0 0 -75.153547319723771 -138.320898594764 0 -138.320898594764 83.884009196553961 0 0 0 0 -241.60649672184081 72.495964165005716 0 72.495964165005716 82.483271636738209 0 0 0 0 -462.66528853142859 -142.20842938848136 0 -142.20842938848136 149.84029489278328 0 0 0 0 -4.3300925462583741 -1.0052491057651451 0 -1.0052491057651451 13.334878768496395 0 0 0 0 -7.979293597159085 -54.680334836884867 0 -54.680334836884867 -46.79339484142838 0 0 0 0 -12.098780481493122 -9.0059973593743052 0 -9.0059973593743052 16.457119685946964 0 0 0 0 0.95523879983226756 -7.7842575469399762 0 -7.7842575469399762 30.920628362205747 0 0 0 0 -460.11615120436221 -241.84570859333621 0 -241.84570859333621 14.077914906403748 0 0 0 0 -2.1419111444543422 -18.168283334551546 0 -18.168283334551546 5.880388732060851 0 0 0 0 -277.56581938688169 -118.7774820716586 0 -118.7774820716586 96.413473357621115 0 0 0 0 -1.5518366059046835 -15.864560737084012 0 -15.864560737084012 63.191602734637513 0 0 0 0 -110.206755702404 -129.33462255506311 0 -129.33462255506311 72.979636023694184 0 0 0 0 -187.19609690265736 -63.220087431931461 0 -63.220087431931461 159.85337520210669 0 0 0 0 -481.09346332796076 -160.87677221209742 0 -160.87677221209742 131.89445044039167 0 0 0 0 -213.06413271398014 -37.905803872065007 0 -37.905803872065007 197.5447762144322 0 0 0 0 -218.94562825829559 -107.06193690007058 0 -107.06193690007058 147.5212642763654 0 0 0 0 17.38493890616428 -91.082693520991597 0 -91.082693520991597 302.64213442420623 0 0 0 0 35.55888819412894 8.5014031445098226 0 8.5014031445098226 205.65967284752696 0 0 0 0 13.511527354137797 -58.803489368197916 0 -58.803489368197916 162.93285139393265 0 0 0 0 26.781992461410482 -20.849178395801573 0 -20.849178395801573 91.848244637614698 0 0 0 0 -212.28796658623239 -60.145402015510626 0 -60.145402015510626 272.64274301765545 0 0 0 0 -256.14798144432626 12.957303454051726 0 12.957303454051726 191.74813364126021 0 0 0 0 -95.821541609363749 125.97674327492859 0 125.97674327492859 68.011782235582359 0 0 0 0 -11.394602281807853 -11.725849680357463 0 -11.725849680357463 61.594294569833039 0 0 0 0 -219.63692545993842 114.37146045115514 0 114.37146045115514 90.909213270060718 0 0 0 0 -23.052865525404286 22.932921131181502 0 22.932921131181502 112.77389588857477 0 0 0 0 -57.320152663767658 158.68472913220467 0 158.68472913220467 87.549569021241041 0 0 0 0 246.14623177997601 160.29309465207189 0 160.29309465207189 126.24686375734382 0 0 0 0 169.62487990992577 -221.1439175831656 0 -221.1439175831656 330.90847426011169 0 0 0 0 402.37808474306621 -360.8894998807209 0 -360.8894998807209 413.4856084083367 0 0 0 0 -70.134305027424261 37.720797120309726 0 37.720797120309726 467.93853219172888 0 0 0 0 
</DataArray>
<DataArray type="Float64" Name="cross_section_updated" format="ascii">
1 1 1 1 1 0.008934242816649389 1 0.017879697135147768 1 1 1 0.013334327379792531 1 1 1 1 1 1 1 1 1 1 1 1 0.010609725947866038 1 1 0.011125782334585003 1 1 1 1 1 1 0.0087762149113400894 1 1 1 1 1 1 1 1 1 1 1 1 1 1 1 1 0.010832173569674503 1 0.012699874304798263 1 1 1 1 1 1 1 1 1 1 1 1 1 1 0.011165431290725426 1 1 1 1 1 1 1 1 1 0.010573923925727084 1 1 1 1 1 0.0098148883672903812 1 1 1 1 1 1 0.014678940847762258 1 0.013141770683350283 1 1 1 1 1 0.011783260290930705 1 1 1 1 1 0.012484815141410976 1 1 1 1 1 1 1 1 1 1 1 0.0093964282201263651 0.0085829365834488667 1 1 0.012063565269332555 1 0.010048375344310807 0.010046256832426975 1 1 1 1 1 0.0083229239762210132 0.0093360465025779712 0.015341041414153052 1 1 1 1 1 1 1 1 1 1 0.013539637670865181 1 1 1 0.013829274518972839 1 1 1 1 1 1 1 1 1 1 1 1 0.011726212581108455 1 1 1 1 0.0097377000056353968 1 1 1 0.0086093832210559287 1 1 0.0096551655369127611 1 1 1 1 1 1 1 1 1 0.012393304770749257 1 0.016183659167449529 1 1 1 0.010938993232886194 1 1 0.0099882753435380431 0.027972243388134393 1 1 1 1 1 1 1 1 0.016024473404466881 1 0.018440683035229284 1 0.017396604422036575 1 1 1 1 1 1 0.010801806965617659 1 1 1 1 1 1 1 0.014625202511226681 0.010077074885773009 1 0.010400008498573234 0.012555874421239578 1 0.016361219266579154 1 1 1 0.0099665136244557733 1 1 1 1 1 1 1 1 0.012517705099054761 1 1 1 1 1 0.010929850904523093 1 1 1 1 1 1 1 1 1 1 1 1 1 1 1 1 1 1 1 1 1 1 1 1 1 1 1 1 1 1 1 1 1 1 1 1 1 1 1 1 1 1 1 0.010070012212386795 1 0.010222379907543792 1 1 0.010565053719892595 1 0.010104479449207778 1 1 1 0.012228809922137688 1 1 0.01037423255068102 0.010974292146335633 1 1 1 0.010159239467348327 0.01029800101796563 1 1 1 1 1 1 0.0090212781058942419 1 1 1 0.0098926473022474225 1 1 1 1 1 1 0.010332974698393038 1 1 0.009959097965803276 1 1 0.01003468782198734 0.0105741008002913 0.01330948142966485 0.013952390425145364 1 0.0095104307984882515 0.014182118603558377 1 1 1 1 1 0.0078824373173348675 1 1 1 1 1 1 1 0.017814456562469917 1 0.015326718648547488 1 1 1 1 1 1 1 0.0081411770549505331 1 1 1 1 1 1 1 1 0.013857959060474233 0.014199121049343857 1 1 0.010008614831164666 1 0.0080398561506810629 1 0.010701985260924078 0.014638973712874787 1 1 1 0.010075198123759874 1 0.012450134602641855 0.013286650390696032 0.0080793909551874106 0.011756086919134974 1 1 1 1 1 1 1 0.0091735772725882563 0.011679024627730242 1 1 1 0.010313729701158627 1 1 0.010283467406674832 1 1 1 1 1 1 1 0.015281568232728589 1 1 1 1 1 1 1 1 1 0.010506999148170163 1 1 1 0.010055004994195677 1 0.010061140302966055 1 1 0.013045503636276158 1 1 1 1 1 0.011498256886548135 1 1 1 0.010499067186329402 1 1 1 1 1 1 1 0.0099811694278711272 1 1 1 0.010429430117456463 1 1 1 1 1 1 1 1 1 1 1 1 1 1 1 1 1 1 1 0.010198787484522666 1 1 1 1 1 1 1 1 1 1 1 1 1 1 1 1 1 1 0.013446914068533482 1 1 1 1 0.010016626570518468 1 1 1 1 1 1 1 1 0.013022263604384951 1 1 1 0.013388164462690602 1 1 0.010031589606500906 1 0.012495847626200547 1 1 1 1 0.010522828359750288 1 1 1 0.01000659053512213 1 0.0096869903824672674 0.0099961988954564932 0.011478704482861084 1 1 1 1 1 1 1 1 1 1 1 1 1 0.010436328106524824 1 1 0.0098167628455642017 1 1 0.0098912168953649016 1 1 1 1 1 1 1 0.0086318558915351139 1 0.010070419019095774 1 1 0.010049216524738764 1 0.014752763652681279 1 1 1 1 1 0.0099956698502134504 1 0.0079950153655878667 1 1 0.0096251692401767876 1 0.0088220842306708895 1 1 1 0.012207149311449724 0.010248041948952007 1 1 0.01068614321361526 0.013517741581828412 0.0090513069427999963 0.012861983230105317 1 1 1 1 1 0.012816431002440447 0.013309014850024101 1 1 1 1 1 0.010010401755841558 1 1 0.013712601073269728 1 1 1 0.013020656033536172 1 1 0.0097611416960125003 1 1 1 1 1 1 1 1 1 1 1 1 1 0.010301453662326349 1 1 1 1 1 0.018376599490969966 1 1 1 1 1 0.017351586473376958 1 1 0.011226801831425444 0.0095604453660113262 1 1 0.010383584777479284 1 1 1 1 1 1 1 1 1 1 0.010072578688055616 1 1 1 1 1 0.0083086687733306096 1 1 1 1 1 1 0.0096176624465995446 1 1 1 1 1 1 1 1 0.0099736943043871717 1 1 1 1 1 0.016970681034387196 1 1 1 1 1 1 1 0.010380149331464507 1 1 1 1 1 0.010085692741977622 1 1 1 1 1 0.011068274755229632 1 1 1 1 1 1 1 0.015971159695746071 1 1 1 1 1 1 0.016836375239996676 1 1 0.017558370124736718 1 1 0.0099984833254498102 1 1 0.013686001767127545 0.0099909806457842282 1 1 1 1 1 1 1 1 1 1 0.015579934991681362 1 1 0.014199660874564321 1 1 1 1 1 0.019191655047727928 1 0.0099994196415558317 1 1 1 0.0085165535867551337 1 0.015095453716277858 0.010031654531366011 1 1 1 1 1 1 1 0.014959934938471586 1 1 0.019094860834224327 1 1 1 1 1 1 1 1 1 1 1 0.010159503452825923 1 1 1 1 1 0.010447514298936478 0.013850319397653306 1 1 1 1 0.0100258423074998 1 1 1 1 1 0.01038571795985558 1 0.015552825711353288 1 0.010475762968904455 0.017213696158394232 1 1 1 1 1 1 1 1 0.014377505603419613 0.014285485191152976 1 1 0.011881796213221364 1 1 1 0.0099833651249536595 1 0.0099999273098159841 1 1 0.011506661321333919 0.011686890660832609 0.010605853606787482 1 1 0.01440722791017917 1 1 1 1 0.0099710280944239546 1 1 1 1 0.0098869534680712592 1 1 0.016526578846358414 1 1 1 1 1 1 1 1 1 1 1 0.008943791919641288 1 1 0.010025254540027572 1 0.0097234790143829013 1 0.010304088356248828 1 1 1 1 1 0.01011182114388434 1 1 1 0.0082415302614211421 1 1 0.0089903925771123681 1 1 1 1 1 1 1 1 1 1 1 1 1 1 1 1 1 1 1 1 1 1 1 1 1 1 1 1 1 1 1 1 1 1 1 1 1 1 1 1 1 0.0096860817292781023 1 1 1 1 1 1 1 1 1 1 1 1 1 1 1 1 1 1 1 1 0.010463422096333009 1 1 1 1 1 1 1 1 1 1 0.010044762594337257 1 1 1 1 0.0099902817189901974 1 1 1 1 1 1 1 1 0.0097309134916808808 1 1 0.013872791120564384 1 1 1 1 1 1 1 1 1 0.010066674101977004 1 1 1 1 1 0.007521638375159621 1 1 1 1 1 1 1 1 1 0.010039733031362215 0.0092015081136948926 1 1 1 1 1 1 1 1 1 1 1 1 1 1 1 1 1 1 1 1 1 1 0.012627114718338934 1 1 1 1 0.010067402717921402 1 1 1 1 1 0.010160412579401923 1 1 1 1 0.010350619220328375 1 1 1 0.010533453178018142 1 1 1 1 1 0.01159307176149575 1 1 1 1 1 1 1 1 1 1 0.010181583019604257 1 0.010148232034353354 0.010009328311604249 1 1 1 1 1 1 0.012894673768386327 1 1 1 1 1 1 1 1 1 1 1 1 1 1 1 1 1 1 1 1 1 0.011842318478851178 1 1 1 1 0.009282078956803344 1 1 1 1 1 1 1 1 1 1 1 1 1 1 1 1 1 1 1 1 1 1 1 1 1 1 1 1 1 1 1 1 1 1 1 1 1 1 1 0.014326043433093016 1 1 1 1 1 1 1 1 1 1 1 1 1 1 0.010249149613852454 1 1 1 1 1 1 1 1 1 0.0098821060531694947 1 1 1 0.0096506368909801098 1 0.010700677300348141 1 0.0098838327565893887 1 1 1 1 0.010117264936222739 1 1 1 1 1 1 1 1 1 1 1 1 0.015605176586454772 1 1 1 1 1 1 1 1 1 1 1 1 1 1 1 0.01524049851371409 1 1 1 1 1 1 1 1 1 1 1 1 1 1 1 1 1 1 1 1 1 1 1 1 1 1 1 1 1 1 1 1 1 1 1 1 1 0.010894710778680219 1 1 1 1 0.012054826116459701 1 1 1 0.01245245805533203 1 1 1 1 0.010123187780026334 1 1 1 0.0097128498715243431 1 1 1 1 1 1 1 1 0.01000220877887173 1 1 1 1 1 1 1 1 1 1 1 1 1 1 1 1 1 1 1 1 1 1 1 1 1 1 1 1 1 1 1 1 1 1 1 1 1 0.0087260015803790475 1 0.010289965100420516 1 1 0.0099791799811909752 1 1 1 1 1 1 1 1 0.01391016726022918 1 1 1 1 1 1 1 1 1 1 1 1 1 1 0.0099619318564024353 1 1 1 1 1 1 1 1 1 1 1 1 1 0.013626774483181375 1 1 1 0.016701453828053235 0.013504902632153429 1 0.0086001681115721561 1 0.010071964721817359 1 1 1 1 0.0099657860948563493 1 0.010012442585057988 0.012776855411280607 1 1 1 1 1 0.010008621635667729 0.01395940025571641 1 1 1 0.01174796054469902 1 1 1 1 1 0.01177973645920994 1 1 1 1 0.013805875455334486 1 1 1 0.011483046196046905 1 1 1 1 1 1 1 1 1 1 1 1 1 1 0.014505305912966547 1 1 1 1 1 1 1 1 1 1 1 1 1 1 0.010542997958045981 1 1 0.011669259720780336 1 1 1 1 0.009255224214124412 0.010078466340085584 0.0098727869974810974 1 0.014692658673204864 1 0.008918368558067458 1 1 1 0.017821781766217893 1 1 0.017528987196110304 1 1 1 1 1 0.0099985216914803866 1 1 1 1 1 1 0.0099279774900151163 1 1 1 1 1 1 1 1 1 0.01004262169148059 1 1 0.0095552561143706846 1 0.02178340550289207 1 1 1 1 1 1 1 1 0.014110665450177029 1 1 0.0099799377609748711 1 1 1 1 0.021448988980363522 1 1 1 1 1 1 1 1 0.0099734780212048877 0.019607527288583844 1 1 1 1 1 1 1 1 1 1 0.0094686976407049699 1 0.0094405195404403796 1 0.0082374366660511612 1 1 1 1 1 0.020324647232052788 1 1 0.0095718730075330261 1 1 1 1 1 1 1 1 0.010538259662605434 1 1 1 1 1 1 1 0.015392615882487823 1 1 0.020002616017558383 1 1 0.013765269770453833 1 0.0097145393442742544 0.012810365464048684 1 0.0097268675831492981 1 1 0.010212811180561499 1 1 1 1 0.01066137174112727 0.016310192670892957 1 0.0094744138313784601 1 0.015815725764183795 1 1 1 1 0.014894008099803426 0.010449114850544365 1 1 1 1 0.015588413759630857 1 1 1 0.010453897093873387 1 1 1 1 0.015519567191014648 1 1 1 0.015161851069172522 0.014807671329247641 1 1 1 1 0.012561726886765269 0.017581476717942034 1 0.01364923991765311 1 1 1 0.013400263190226469 0.010250835674041992 1 1 1 1 1 1 1 1 1 1 1 1 0.013091019470743571 1 1 1 1 1 1 1 1 1 1 1 1 1 1 1 0.010923894411433597 1 1 1 1 1 1 1 1 0.010732546368844791 1 1 1 1 1 1 1 1 1 1 1 1 1 0.0056899420711761448 1 1 1 0.010723594891853521 0.0099639418723258301 1 1 1 1 1 1 1 1 1 1 1 0.014448338430799871 1 1 1 1 1 0.0099747059991588324 1 0.015336746472444436 1 0.011945578854540836 1 1 1 1 1 1 1 1 1 1 1 0.013659810039434213 1 0.018042546912361894 1 1 0.016942013551335282 1 1 1 1 0.011469141219307881 1 1 0.02531847316372466 1 1 1 1 1 1 1 1 1 1 1 0.010825750409230075 1 1 1 1 1 1 0.0099837976474239469 0.01204967221270563 1 1 1 1 1 1 1 1 1 1 1 1 0.013724214008962766 1 1 1 1 1 1 0.013391295556647335 1 1 0.012387544404252961 1 1 0.010040920900941622 1 1 1 1 1 0.011084002794475968 1 1 1 1 1 1 1 1 1 0.010334613696554173 1 1 1 1 1 1 1 1 1 1 1 1 1 1 1 1 1 1 1 1 1 1 1 1 0.013000903302824503 0.015166995779011755 1 1 1 1 1 0.01762968568141203 1 1 1 1 1 1 1 1 1 0.010403999318824006 1 1 1 0.011034512133895202 1 1 0.01327021495103262 1 1 1 1 1 1 1 1 1 0.014765817305557594 0.013007674774908383 1 1 1 1 1 1 1 1 1 1 1 1 1 1 0.010884075262756546 1 1 1 1 1 1 0.020983849012843763 1 1 0.020556970532920368 1 1 0.012113744412019909 1 1 1 0.0099957426293804889 1 1 1 1 0.012583676415786898 1 1 1 0.0086156739683509072 1 1 1 0.0098813615547171663 1 0.010990204955792733 1 1 1 1 1 0.010032619572537272 1 1 1 1 1 1 1 0.0096027552734995279 1 1 1 1 1 1 1 0.020504010480965909 1 1 1 1 1 1 1 1 0.0099714013361961451 1 1 0.019447920709523628 1 1 1 1 1 1 1 1 0.010941398380109622 1 1 1 1 1 1 1 1 0.0094541470068127374 1 1 1 1 0.0099011289737810301 1 1 1 1 1 1 0.017543841268752552 1 1 1 1 0.017984375938528099 1 1 0.010015804458768551 1 1 0.010741696092539853 1 1 1 1 1 1 1 1 1 1 1 1 1 1 1 0.010013403574898865 1 0.010010171187329754 1 1 1 1 1 0.0096230653044136506 1 1 1 1 1 1 0.017030547878085313 1 0.0096551836349326979 1 1 1 0.013895307894185156 0.008745296227082925 1 0.015466916032186995 1 1 1 1 1 1 0.009588970848198446 1 1 0.010783978524824656 1 1 1 1 1 1 1 0.016200225892868323 1 1 1 1 0.014717670263030886 1 1 0.010599879854516794 1 0.011856415057730465 0.012311285660837074 0.015607014339988541 1 1 0.010247943272985671 1 0.0088321390930675252 1 1 0.0096853562776587146 0.010000178069592058 0.013842923907766473 1 1 0.0096307077392214138 1 1 1 1 1 1 1 1 1 1 1 1 1 0.0099868117361006127 1 0.010019333023089813 1 1 1 1 1 0.010007083375408482 0.017232117987405544 1 1 1 0.010121798185929981 1 1 0.010570196488628262 0.012877370343508637 1 1 1 1 1 1 1 1 0.010307271710756009 1 1 1 1 1 1 1 1 0.010825423296907851 1 1 1 1 1 1 1 1 1 1 1 0.0092831488464587778 1 1 1 0.010275510675291198 1 1 0.010079574785915767 1 1 1 1 0.0082728357538296785 1 1 1 1 1 1 1 1 1 1 1 1 1 1 0.018253400606157068 1 1 1 0.019147406848581249 1 1 1 1 1 1 1 1 1 1 1 1 1 0.020264040564683984 1 1 1 0.019213743774981456 1 1 0.017318332026168729 1 0.018144734227126116 1 1 1 1 1 1 1 1 1 0.010056270742347936 1 1 1 1 0.010767507917179559 1 1 1 0.018903438762585285 1 1 1 1 0.0097103056519605817 1 1 0.010974758002461001 1 1 1 1 0.010344128194656207 1 1 1 1 1 1 1 0.019027764883525169 1 1 0.0098702071098596862 1 1 0.018962433624035328 1 1 1 1 1 0.018887051335910548 1 0.010001795704335594 1 1 1 1 1 1 1 1 1 1 1 1 1 1 0.025022475949227511 1 1 1 1 1 1 1 1 1 1 1 1 1 1 1 1 1 1 1 1 1 1 1 1 0.010104502083095369 1 1 1 1 1 1 1 1 1 1 1 1 1 1 1 0.010284127986731291 1 1 1 1 1 1 1 1 1 1 1 1 1 1 1 1 1 1 1 1 1 1 1 1 1 1 1 1 1 1 1 1 1 1 1 1 1 1 1 1 1 1 1 1 1 1 1 1 1 1 1 1 1 1 1 1 1 1 1 1 1 1 1 1 1 1 1 1 1 1 1 1 1 1 1 1 1 1 1 1 1 1 1 1 1 1 1 1 1 1 1 1 1 1 1 1 1 1 1 1 1 1 1 1 1 1 1 1 1 1 1 1 1 1 1 1 1 1 1 1 1 1 1 1 1 1 1 1 1 1 1 1 1 1 1 1 1 1 1 1 1 1 1 1 1 1 1 1 1 1 1 1 1 1 1 1 1 1 0.009854942539233533 1 1 1 1 1 1 1 1 1 1 0.010758183441270146 1 1 1 1 0.019522256097706522 1 1 1 1 0.010008664443312269 0.014221443528177573 1 0.015255316000576358 1 1 1 1 1 0.0079382577075304724 0.016884994742941931 0.014510286657649406 0.0073510238746226746 1 1 1 1 1 1 1 0.012156568600475984 1 1 0.016629041253388082 1 1 0.015830561481159508 1 1 1 0.010027199142190007 1 0.0096149859166260281 1 1 1 1 1 1 0.010270388429938033 0.010123641799044562 1 1 1 1 1 1 1 1 1 1 1 1 1 1 1 1 1 1 1 1 1 1 1 1 1 1 1 1 1 1 1 1 1 1 1 1 1 1 1 1 1 1 1 1 1 1 0.012243714510391046 1 0.016266115030220463 1 1 1 1 1 1 1 1 0.010243262054076 1 1 1 1 1 1 1 1 1 1 1 1 1 1 1 1 1 0.014847758287622526 1 0.010133071522238675 1 1 0.013273278785359098 1 1 0.011495483819866443 1 0.010034474336693329 1 1 1 1 1 1 1 1 1 1 1 1 1 1 1 1 1 1 1 1 1 1 1 1 1 1 1 1 1 1 1 1 1 1 1 1 1 0.016919019997936623 1 1 1 1 1 1 1 1 1 1 1 1 1 1 1 1 0.017118067014327124 1 1 1 1 1 0.015788089699931635 1 1 1 1 1 1 1 1 1 1 1 1 1 1 1 0.010551339390656601 1 0.012475309574933651 1 1 1 1 1 0.0091044411008876416 0.011739826717373916 1 1 1 1 1 1 0.0099759453172562768 0.012756172312495368 1 1 1 1 1 1 1 1 0.012377780948119916 1 1 1 1 1 1 0.010887292379985106 1 1 0.0099946243233626775 1 1 1 1 1 1 1 1 1 0.011774612518401954 0.011339964933059473 1 1 1 1 1 1 0.010885988065266798 1 1 1 1 1 1 1 1 1 1 1 1 1 1 1 0.016048291552066399 0.010042911533270582 1 1 1 0.010052546556341633 1 1 1 1 1 1 0.010719705623701337 1 0.0096332800458779448 0.015865692354368077 1 0.0079165098420672254 1 1 1 1 1 1 0.014422834694072153 1 1 1 1 1 1 1 1 0.010279895293359081 1 1 1 1 1 1 1 1 1 1 1 1 1 1 1 0.014529403218786891 1 0.013066294291067962 1 1 1 1 1 1 1 1 0.011219612623130353 1 1 1 0.0098764838146082699 0.016186454120967184 1 1 1 1 0.010509786088243385 1 0.014209589279965155 0.010753558474711218 1 1 1 1 1 1 1 1 1 0.010001218893285547 0.015030529626844046 0.011278043331220742 1 1 1 0.015451571464264974 1 1 1 0.010977869229928629 1 1 1 1 1 1 1 1 1 1 0.010342897547288912 1 1 1 1 0.011266580728477639 1 1 1 1 0.012208665671308015 1 0.012826676100721749 1 0.01233589774840548 1 1 1 1 0.0099102917648621319 0.018463737868371126 1 1 0.028443959246759243 1 1 1 0.01069280601751236 1 1 0.010029651185644112 1 1 0.010105416907932119 1 1 1 1 1 1 1 0.010949195538124873 1 1 1 1 0.010978722871183812 1 1 1 1 0.0092661524662578723 1 0.010620299975277173 1 1 0.011163581040542492 1 0.01266294428651743 1 0.0099468820829320802 1 1 1 1 0.015712249334783816 1 1 1 1 1 0.011025961614199269 1 0.011058245682358622 1 0.01069614839395349 1 1 1 1 1 1 1 1 1 0.017216090347865101 1 1 0.01643876903871664 1 1 1 1 1 1 1 1 1 1 1 0.014438941708547159 0.0099992594373725773 1 1 0.0099308178004872023 1 1 1 1 1 0.0099804713750985957 1 1 1 1 1 1 1 1 1 1 1 1 0.027598322806379368 1 1 0.012803268158414809 0.0098669742871191068 1 1 1 1 1 1 1 1 0.012807346195635051 1 1 0.010387539332455448 1 1 1 1 1 1 0.01187328796250546 1 1 1 1 1 1 1 1 1 1 1 1 0.013992423244768567 1 1 1 0.011052037932110183 0.010902549704064346 1 0.0090362052453132335 1 0.012952835698396984 1 1 1 1 1 1 0.010324164541872224 1 1 1 1 1 1 1 1 1 1 1 1 1 1 1 1 1 1 1 1 1 0.012131067750278968 1 1 1 0.012993525313180267 1 0.0098279164600532151 1 1 1 1 1 1 1 1 1 1 1 0.012082252780194589 1 0.01420932568737718 1 1 0.0097051338466161569 1 1 1 0.0095369616956123907 1 1 1 1 1 1 1 1 1 1 1 1 1 1 1 1 1 1 1 0.01103975434723335 1 1 1 1 0.010439791930036869 1 1 1 1 1 1 0.01758984746156712 1 1 1 0.019955548316552642 1 1 1 1 1 1 1 1 1 1 0.010373722343816812 1 1 1 0.021200308131492828 1 1 1 1 0.010421484612089927 1 1 1 1 1 1 1 1 1 1 1 1 0.011345473670539936 0.0099551397898058596 1 1 1 1 1 1 1 1 0.022056973486271107 0.015221844769827169 1 0.009801655462955132 1 1 1 0.011196592555776272 1 1 1 1 1 0.0099668433725600292 1 1 1 1 1 1 1 1 1 1 1 0.0165276234558898 1 1 1 1 0.011509275123050307 1 1 1 0.0097996596290038443 1 1 0.010401063188984828 1 1 1 1 1 1 1 1 1 1 1 1 1 0.015253659524512351 1 1 1 1 1 1 1 1 1 1 1 1 1 1 1 1 1 1 1 1 1 1 1 1 1 0.012422578257180482 1 0.0099943117401867423 1 1 1 1 0.011537322832706627 1 1 1 1 1 1 1 1 1 1 1 1 1 1 1 1 1 1 0.010002578506298116 1 0.010021634558863256 1 1 1 1 1 1 1 1 0.010072237043041003 1 1 0.015687223311251334 1 0.010007358031688712 1 1 1 0.015458782613620716 1 1 1 1 1 1 1 0.015408794114330939 1 1 1 1 0.010028428129473627 0.01000347372285865 1 1 1 0.0099218428663585215 1 1 1 1 1 1 1 1 1 1 1 0.010187525918334269 1 1 1 1 1 1 0.009798038310155719 1 1 1 1 1 1 1 1 0.010253067017904119 1 1 0.01114690574984863 1 1 1 1 0.012237781874009833 1 1 1 0.010021211677883266 1 0.010104846237078385 1 1 1 0.013338295872771494 1 1 1 1 1 1 0.010114391756590093 1 1 1 1 1 1 1 1 1 1 0.025979343034375178 1 0.026857774546598615 1 1 1 1 1 1 1 1 1 1 1 1 1 1 0.010947316936991512 1 1 0.010761261676272258 1 1 1 1 1 1 1 1 1 1 1 1 1 1 1 1 1 1 0.018551749032230412 1 1 1 1 1 1 1 1 1 0.018538582019111141 1 1 0.017965086425566705 1 0.0097926565585420722 1 1 1 0.010503825031904057 1 1 1 1 1 1 1 1 1 0.011419120249090149 1 1 1 1 1 0.010921227726898623 1 1 0.012295010966202426 1 1 0.010827331138073326 1 1 1 1 0.015842023700324739 1 1 1 0.010821568242901536 1 1 1 1 1 1 1 1 1 1 1 1 1 1 1 1 1 1 1 1 1 1 1 0.013419167427730349 0.0097287574578774592 1 1 0.011638135254361115 1 1 1 0.0098833204002498343 1 1 1 1 1 1 1 1 0.0098826480697823821 1 1 1 1 1 0.010532148931223175 1 1 0.010734527126567632 1 1 1 0.01061993364079708 1 1 1 1 1 1 1 1 0.017367906716247907 1 1 1 1 0.014827212426198472 1 1 1 1 1 1 0.015206163594171734 1 1 1 1 1 1 1 1 1 1 0.014442958224412003 1 1 1 1 1 1 1 1 0.0092832112674773766 0.01000992896252473 1 0.013476879300444725 1 1 1 1 1 1 0.017673859341625461 1 0.010011930242168078 1 0.017191852556112636 1 1 1 1 1 1 0.016862544412824705 1 0.0099882209866945532 1 0.010796048965580498 1 0.0085512173825759361 1 1 1 0.020887008107761985 1 0.017084807435068773 1 0.014259959949277798 1 1 0.017147650871613369 1 1 1 1 0.011736237849950266 1 0.012222942237405625 1 1 1 0.015556080694092179 1 1 1 1 0.0095047839063431803 1 1 1 1 0.0093443000861837856 1 1 0.0099728130867826701 1 1 1 1 0.010141203353578779 1 1 1 1 1 1 1 1 1 1 1 1 1 1 1 0.0098318278489962392 1 1 1 1 1 1 1 1 1 1 1 1 1 1 1 1 1 0.0097447795728591059 1 1 1 1 1 1 1 1 1 1 1 1 1 1 1 1 1 1 1 1 1 1 1 1 1 1 1 1 1 1 1 1 1 1 1 1 1 1 1 1 1 1 1 1 1 1 1 1 1 1 1 1 1 1 1 1 1 1 1 1 1 1 1 1 1 1 1 1 1 1 1 1 1 1 1 1 1 1 1 1 1 1 1 1 1 1 1 1 1 1 1 1 1 1 1 1 1 1 1 1 1 0.010214057904146976 1 1 1 1 1 1 1 1 1 1 1 1 1 1 1 1 1 1 1 0.010040477070753458 1 1 1 1 1 1 1 1 1 1 1 1 1 1 1 1 1 1 0.015574785922862031 1 1 1 1 1 1 1 0.017850750513113002 0.015541279183966507 1 1 0.017053499455282006 1 1 1 1 1 1 1 1 1 0.0096169309079896532 1 1 1 1 1 1 1 1 1 1 0.017589958872695596 1 1 1 1 0.010016151347176504 1 1 0.010445806869488811 0.015575858958341201 1 0.0098607376896357492 1 1 0.018306813673981071 1 1 1 1 0.010374142687525914 0.017848772109744032 1 1 1 1 1 1 0.018499535736873206 1 1 0.013481384547938645 1 1 1 1 1 0.012200274736806484 1 0.012205602278392624 1 0.015007123342209071 1 0.010399048082245307 1 0.01836620153579345 0.009444282961457405 1 1 1 1 0.0099773523621333807 0.012749990149993638 1 0.010941248619531167 1 1 0.010137371059823222 1 1 1 1 1 0.014410503611956421 1 0.010742197563374731 1 0.012030688712201261 1 1 0.012406911251141042 0.010996866297408169 1 1 1 0.010758545747378149 1 1 1 1 1 0.013197708245410734 1 0.010039157376185652 1 1 1 1 1 1 1 1 1 1 1 1 1 1 1 0.016549989519417281 1 1 1 1 0.0095982920503903651 0.01043100745922023 1 1 1 0.009991299365041742 1 1 0.012003859258107825 0.011258357947062279 1 1 1 0.010247588569661584 1 1 1 1 1 0.010068853172038351 0.0098804659910843775 1 1 1 1 1 1 1 1 1 1 1 1 0.01006501752256294 1 1 1 0.0099873511834347329 1 1 1 1 0.011562964992204654 1 0.0099774960261013717 1 1 1 1 1 1 1 0.017335244863085013 0.010002243834096952 1 0.015841956000810592 1 1 1 0.0093450334409085137 0.0097330934147699354 1 1 0.017996961055693657 1 1 0.010359528977319905 1 1 0.0099807522483350061 1 0.011042249773037374 1 1 1 1 1 1 1 1 0.010044895158890668 1 1 1 1 0.010021594169218355 1 1 1 1 1 1 1 1 1 1 0.010205340391384848 1 1 1 1 1 0.010174511438558347 1 1 1 1 1 1 1 1 1 1 1 0.01042024108041191 1 1 1 1 0.010214900689027084 1 1 1 1 1 1 1 1 1 1 1 1 0.010429135088595935 1 1 1 1 1 1 0.011235443926952058 1 1 1 0.014739928297979097 1 1 0.017374975220672571 1 0.018920050886382454 1 0.013028108841066057 1 0.010391368617289412 1 1 1 0.018398204501681927 1 1 1 0.012968818899573908 0.016836356946083039 1 1 1 0.011562838743423839 1 1 1 1 1 0.020641668910449808 1 1 1 1 1 1 0.0099689195855645479 1 1 0.022221392136531411 1 1 1 1 0.009965746853559174 1 1 1 1 1 1 1 1 1 0.011977974338547512 1 1 1 0.023308489172710719 1 1 0.010727738641709547 1 1 1 1 1 1 1 1 0.018449587029413454 0.01002093271695558 1 1 1 0.019339401684607932 1 1 1 1 1 1 1 0.019513352794819805 1 1 1 1 1 1 1 0.010443182954510223 1 1 1 1 1 1 1 0.018470055700885474 1 1 1 1 1 1 1 1 1 1 0.013455213931373283 1 1 1 1 1 0.012163853505236799 1 1 1 1 0.010844899716047962 1 1 1 1 1 1 1 1 1 1 0.010441432937033871 1 1 1 1 1 1 1 1 0.010015674698838533 1 1 1 0.010888651868003392 1 1 1 1 1 0.0105735694588572 1 1 1 1 1 1 1 0.0093789446506120835 1 1 1 1 1 1 1 1 1 0.010338634475757807 1 1 1 1 1 1 1 1 1 1 1 1 1 1 1 1 1 1 1 1 1 1 1 1 1 1 1 1 1 0.011092197392441683 1 1 1 0.01290515497075463 1 1 1 1 1 1 1 1 1 1 1 1 1 1 1 0.015799049578737338 0.015778402107112552 1 1 1 1 1 1 1 0.015205181687268282 1 1 1 0.0087509838242189747 0.010055654268000739 1 1 1 1 1 1 1 1 1 1 1 1 1 1 1 1 1 1 1 1 1 0.0096251784445338055 1 1 1 0.0099843276830906963 1 1 1 1 1 1 1 1 1 1 1 1 1 1 1 1 1 1 1 1 1 1 1 1 1 1 1 1 1 0.011510012113871948 1 1 1 1 1 1 1 1 1 1 1 1 1 1 1 1 1 1 1 1 1 0.010852605730887489 1 1 1 1 1 1 1 1 0.012249643717628642 1 1 1 1 1 0.012122545077532349 1 1 1 1 1 1 1 1 1 1 1 0.0096768401089184827 0.012643858750094635 1 1 0.011563258071298094 1 0.0099707807720650285 1 1 1 1 1 1 1 1 1 1 1 1 1 1 1 1 1 0.0098973611847574337 1 1 1 1 1 1 1 1 1 1 1 1 0.010758322005005771 1 1 0.010757822431765211 1 1 1 1 1 1 0.011209882696934874 1 1 1 0.012534851310276899 1 1 1 1 1 0.010564270859766411 1 0.012216028539620193 1 1 1 1 1 1 1 1 0.011027275712413305 1 1 1 1 0.011058006688006387 1 1 1 1 1 1 1 1 1 0.010891059926278179 1 0.013144672470300505 1 1 1 1 1 1 1 1 1 0.01466991814096121 1 1 1 1 1 1 1 1 0.010463004852646896 1 1 1 1 1 1 1 0.012546803446151234 1 1 1 0.024671086442466246 1 1 1 1 0.026867935063388262 1 1 1 1 1 0.010848011921808676 1 1 0.012144579671121931 1 1 1 1 1 1 1 1 1 1 1 1 1 1 1 1 1 1 1 1 1 1 1 1 0.034275847911671424 0.032509491150384789 1 1 1 1 1 1 1 0.029888097053069641 1 1 1 1 1 1 1 1 1 1 1 1 1 1 1 1 1 1 1 0.0099948560583174566 1 1 1 0.0099861701010226442 0.0099913152904257101 1 1 1 1 1 1 1 1 1 1 1 1 1 1 1 1 1 1 1 1 1 1 1 1 1 1 1 0.010225082124920588 1 1 1 0.010180461919563758 1 1 1 1 0.010262760220403566 1 0.010097528017025136 1 1 1 1 1 0.010961573066744595 1 1 0.012745283310048521 1 1 1 1 1 1 1 1 1 1 1 1 1 1 0.014312145628805593 1 1 1 1 1 1 1 0.0084525216844810232 0.015719787184616654 1 1 0.0093910326294101149 1 1 1 1 1 1 1 1 1 0.0097544251571240713 0.010198786043451067 1 1 1 1 1 1 1 1 0.010011686677856754 1 1 1 0.010492797600351871 1 1 1 1 1 1 0.011486522648519754 1 1 1 0.0095909446558994516 1 1 1 1 1 1 1 0.012485315408545078 1 1 1 1 0.0093016627140893992 1 1 0.012868347648575973 1 1 1 0.010026830689051025 0.011479209848784547 1 1 1 1 0.014884578357097153 1 1 0.017000035640754599 1 1 1 0.017126482886533675 1 1 1 1 0.010043263229382099 1 0.010135213673344391 1 1 1 1 1 1 1 1 1 1 1 1 1 0.0099643731029347322 1 0.010272488062731389 1 1 1 1 0.010159397669348352 1 1 1 1 1 0.010058841715189467 1 1 1 0.0099923573400765922 1 1 1 1 1 1 1 1 1 1 1 1 1 1 1 1 1 1 1 1 1 1 1 1 1 1 1 1 1 1 1 1 1 1 0.01023784708629899 1 1 0.010779590645644382 1 1 1 1 1 1 0.013591905327049158 1 0.011660606603304396 1 1 1 1 1 1 0.011108984654636462 1 1 1 0.0099066895153463348 1 1 1 1 1 1 1 1 0.010091044053080155 1 0.010823751492780916 0.010026249985733959 1 1 1 1 1 1 1 0.011229523215251266 1 1 1 1 1 0.01443041773085629 1 1 1 1 1 1 1 1 1 1 1 1 1 0.01397292685607103 1 1 1 1 1 1 1 1 1 1 1 1 1 1 1 1 1 1 1 1 1 1 1 1 1 1 1 1 1 1 1 1 1 1 1 1 1 1 1 1 1 1 1 1 1 0.0099722315801463561 1 1 1 1 1 1 1 1 1 1 1 1 1 1 0.0099890438691725009 0.010083000288743591 1 0.010132341870322161 1 1 0.0096847894690264228 1 1 0.010512579290542431 0.010291046267555509 1 1 1 1 1 1 0.010306293429212795 1 1 1 0.010446808535349562 1 1 1 1 1 1 1 1 1 1 1 1 1 1 1 1 1 1 1 1 1 1 1 1 1 1 1 1 1 1 1 1 0.0099935580126862128 1 1 1 0.010215657396129875 1 1 1 1 1 1 1 0.010304679230483576 1 1 1 0.010230982761593168 1 1 1 1 1 1 1 1 1 1 1 1 0.0099924250399388882 1 1 1 1 1 1 1 1 1 1 1 1 1 1 1 1 1 0.0099639956271816085 1 1 1 1 1 1 0.0099564206671204983 1 1 1 1 1 1 1 1 1 1 1 1 1 1 1 1 1 1 1 1 1 1 1 1 1 1 1 1 1 1 1 1 1 1 1 1 1 1 1 1 1 1 1 1 1 1 1 1 1 1 0.010730378941960628 1 1 1 1 1 1 1 1 1 1 1 1 1 1 1 1 1 1 1 1 0.010333245133677241 1 1 1 1 1 1 1 1 1 1 1 1 1 1 1 1 1 1 1 1 1 0.0096027800297630063 1 1 1 1 1 1 1 1 1 1 1 1 1 1 1 1 1 1 1 1 1 1 1 1 1 0.0099724167312480651 1 1 1 1 0.010473087055404909 1 1 1 1 1 1 1 1 1 1 1 1 1 1 0.01024064518471236 1 1 1 0.010117117017368966 1 1 1 1 1 1 1 1 1 1 1 1 1 0.01053327032055352 0.010080082458998194 1 1 1 1 1 1 1 1 0.010189165811291145 1 1 1 0.0099825490446241623 1 1 1 1 0.01089613148650914 1 1 1 1 0.010194085269771115 1 0.011282940719741804 1 1 1 1 1 1 1 0.0089547772467272468 1 1 0.01427369968260991 1 1 1 1 0.013449107006303597 1 1 1 1 1 1 1 1 1 1 1 0.022739009683293322 1 0.010967810214523688 1 1 1 0.010375527345200725 1 1 1 1 0.011080248401418044 1 1 1 1 1 0.013370408032460276 1 0.0056502013551599489 1 1 1 0.011236043456400436 1 1 1 1 0.0088507476572334074 0.022284747866866822 1 1 1 1 1 0.0097675789592074035 1 1 1 0.014225182058071962 1 1 1 1 0.011413293127330889 1 1 0.013052179171171751 1 1 1 1 1 1 1 0.01065180155428248 1 1 1 1 1 1 1 1 1 1 1 1 1 1 1 1 1 1 1 1 1 0.013185328894683924 1 1 1 1 1 1 1 1 1 1 1 1 1 1 1 1 1 0.010227640010629792 1 1 1 1 0.023696680508680141 1 0.010110292066164997 1 1 1 1 1 1 1 1 1 0.016935473852891566 1 1 0.016527026693663242 0.010928639581086818 1 1 0.015743801918961346 1 1 1 1 1 1 1 0.0096326314621399244 0.017876818879819942 1 1 0.0049923013040119486 0.0153891714535585 1 1 1 1 1 1 1 0.011326600312494271 1 1 0.011289334152332924 1 1 1 1 1 0.010469867206711626 1 1 1 1 1 1 1 1 1 1 1 1 1 1 1 1 1 1 1 1 1 0.0098288694585356873 0.0098094788900882912 1 1 1 1 0.0099688487761257875 1 1 0.0095981271631826737 1 1 1 1 0.010546059958798464 1 1 1 1 1 1 1 1 1 1 1 1 1 1 1 0.0099685956413201032 1 1 1 1 0.0091464852494018006 1 1 1 1 1 1 1 1 1 1 1 1 1 1 1 1 1 1 1 1 0.009965080328069852 0.010343783928900781 1 1 1 1 1 1 1 1 1 0.010874195737009869 1 1 0.009658050071027215 1 1 0.01000130025235893 1 1 1 1 1 1 1 1 1 1 0.0099485385981601948 1 1 0.0099599963269463507 1 1 1 1 1 1 1 1 1 1 1 1 1 1 1 1 1 1 1 1 1 1 1 1 1 1 1 1 1 0.011600439817976793 1 1 1 0.010279866462121505 1 1 1 1 1 1 1 1 1 0.0098218788339339419 1 1 1 1 1 1 1 0.0099729452140178716 1 1 1 1 0.010015576984361032 1 1 1 1 1 1 1 1 1 0.011306869338389963 1 1 0.009493706518129516 1 1 0.0088777998145443838 1 1 1 1 0.023456646159566927 1 1 1 1 0.024321677143170094 1 1 1 1 1 1 1 1 1 1 0.011032210746988465 1 1 1 1 0.01221043531447194 1 1 1 1 0.010962693308823776 1 1 1 1 1 1 1 0.020667892549633846 1 1 1 0.013359654732715233 1 1 1 1 1 0.020726252714188521 0.01600645299750296 1 1 1 1 0.0098595922899048487 1 0.012318781430320558 1 1 1 1 1 1 1 1 1 1 1 1 1 1 1 1 1 1 1 1 1 1 1 1 0.0097895502397155887 1 1 1 1 1 1 1 1 1 1 0.009992065930240537 1 0.024111702811256863 1 1 1 1 1 1 1 1 1 0.010094218225847537 1 1 1 1 1 1 1 1 1 1 1 1 1 1 1 1 1 1 1 1 1 1 1 1 1 1 0.01026554673753941 0.010536309059400121 0.012268590989575072 1 1 1 0.010939962660764239 1 1 1 1 1 1 1 1 1 1 0.011236585061668039 1 1 0.010195897433152122 1 1 1 1 1 1 1 1 1 1 1 1 1 1 1 1 1 1 1 1 1 1 1 1 1 1 1 1 1 1 1 1 1 1 1 1 1 1 1 1 1 1 1 1 1 1 0.0100221081443408 1 1 0.0099189606074394643 1 1 0.012839919701843474 0.011525050076624337 1 0.0094625903182059944 1 0.010152465635479785 1 1 1 1 1 0.0087452508241313721 1 1 1 1 0.022063670462756015 1 1 1 1 1 0.010299789681591421 1 1 1 0.010833182063603628 1 1 1 1 1 1 1 1 1 1 1 0.013389040248051851 1 1 1 0.011138932393067607 0.0080813903647990876 0.015329783642864712 0.016400072246037439 0.010309374097221564 1 1 1 1 1 0.0099863324189449643 0.015621776215138326 1 1 1 1 0.014163452895472092 1 1 0.011719449143896717 0.010795618614194232 1 1 0.018069299352215372 1 1 1 1 1 0.016287245461923137 1 1 0.010908432239041099 1 1 1 0.010825258444943111 1 1 1 1 0.010290412513251634 1 1 1 1 1 0.0094584944853918652 0.01004753422662763 0.017506547610064691 1 1 1 1 1 1 1 1 1 1 0.011055420427534459 1 1 1 1 1 1 0.010001776152749428 1 0.0098213776400651077 1 1 1 1 1 1 1 1 1 1 1 0.0090220883740488259 1 0.01731359319491883 1 1 1 1 1 1 1 1 0.011341235834890179 1 1 0.010699290013499929 1 1 1 1 0.011562531245579731 1 1 1 1 1 1 0.010399952387357627 0.010588051153527447 1 1 1 1 1 1 1 1 1 1 1 1 1 1 1 1 1 1 1 1 1 1 1 0.01078443515167065 1 1 1 1 1 1 1 1 1 1 0.0090432268809819815 1 1 1 0.012955166124859153 1 1 1 1 1 1 1 0.010235200858827693 1 1 1 1 1 1 0.010503234567169006 1 1 1 1 1 1 0.011155036121451491 1 1 1 0.010727192757841232 1 1 1 1 0.011369193179912604 1 1 1 1 1 0.011318865565142416 0.012991312497937646 1 1 1 1 1 1 1 1 1 0.013387588166485647 1 1 1 1 1 1 0.01002473338052667 1 1 1 1 1 1 0.011991490057517063 1 1 1 1 1 1 1 1 1 0.011341015780349677 1 1 0.010982284912486054 1 1 1 1 1 1 0.01057408107453655 1 1 1 1 1 0.01017673311886224 1 1 1 1 1 1 1 1 1 1 1 1 1 1 1 1 0.036287367644547097 1 1 1 1 1 0.035513648151564166 1 1 1 1 1 1 1 1 1 1 1 1 1 0.0098797923224267226 0.023389876674161085 1 1 0.015656599020118761 1 1 0.022858975901562856 1 1 1 1 1 1 0.016623548405028648 1 0.016205288496988483 1 1 1 1 1 1 0.01037456872294517 1 1 1 1 1 1 1 1 1 1 1 1 1 1 0.010217236431532356 1 1 1 0.010116792938654426 1 1 1 1 1 1 1 1 1 1 1 1 1 1 0.011510091034488081 1 1 1 1 1 1 1 1 1 1 1 0.010100443492877939 1 1 1 1 0.010715793534494863 1 1 1 0.01129605277014786 1 1 1 1 1 1 1 1 0.01135285744294628 1 1 1 1 1 1 1 1 1 1 0.01097509805330503 1 0.010562219870067818 1 1 1 1 1 1 1 1 1 1 1 1 1 1 1 1 1 1 1 1 1 1 1 1 1 1 1 1 1 1 1 1 1 1 1 1 1 1 1 0.0099835845634049653 0.010055026671038938 1 1 1 1 1 0.01015189448420149 1 1 0.010422656806062205 1 1 1 1 0.010443403296074951 1 1 0.011030873849243688 1 1 1 1 0.014473468467588428 0.010015222337143507 1 1 1 1 1 0.0099600109668594675 1 1 1 1 1 1 1 1 0.010320975161686594 1 1 1 1 1 1 1 1 0.011671395371381448 1 1 1 1 1 1 1 1 1 1 1 1 1 1 1 1 0.01012197899938445 1 1 1 0.011010656689123172 1 1 1 0.021443631802982824 0.010496473618493631 1 1 1 1 1 1 0.01026396288980673 0.010084724210608569 1 1 1 1 1 1 1 1 1 1 1 1 1 1 1 1 1 0.010058097855383329 1 1 0.010200081745805591 1 1 1 1 0.0095896456870662467 1 1 0.0084869384864359326 1 1 1 1 1 1 0.012403539534987488 0.010907198752862482 1 1 1 1 1 0.010516347999753643 1 1 1 1 1 1 1 1 0.021925088545595391 1 1 1 0.013220436223318963 1 1 1 1 1 0.011130700200856694 0.015883187476580907 1 1 0.0068473836498229232 1 0.0122473731403919 1 1 1 0.009770085977514345 0.011120052089301101 1 1 1 1 1 0.01664013041337269 1 1 1 1 1 1 1 1 1 1 1 1 1 1 1 1 1 1 0.024539314393247164 1 0.010032169422704872 1 1 1 1 1 1 1 1 1 1 1 1 1 0.010185922790752325 1 1 1 1 1 1 1 1 1 1 0.010533148905301286 1 1 1 1 0.017701482634416892 1 1 0.0099987329539136874 1 1 1 0.010416856514470959 1 1 1 1 1 1 0.010030647109809162 1 0.019077549823308858 1 1 1 0.015772111079506185 1 0.01437922814560421 1 1 0.0087066721413646634 1 1 1 0.0099050528330608748 1 0.014831658205906914 0.010992189030991917 1 1 1 0.018999240555327333 1 1 0.010589781812460796 1 1 0.011918607990688319 1 1 1 1 1 1 0.010507733236504413 1 0.023540844489924745 0.010514130750209618 1 0.0099932746165358848 1 1 1 1 0.010674668691952834 1 0.022606823600980215 1 0.009851900701663285 1 1 0.019294739989939323 1 1 1 1 0.010279680203932939 1 1 1 1 1 1 1 1 1 1 1 0.010855541465210464 0.018973888718229942 1 1 1 1 1 1 1 1 1 1 1 1 1 1 1 1 1 1 1 0.011700377981195824 1 1 1 1 1 1 1 1 1 1 1 1 1 1 1 1 1 0.010999894543148037 1 1 1 1 1 0.024183709466782992 1 1 1 1 1 0.010325835171077234 1 1 1 1 1 0.010850328190320675 1 1 1 0.010110442451141656 0.01054739826476124 1 1 1 1 1 1 0.017239494103438412 1 0.011550168724887712 1 1 1 1 1 1 0.012608213928048088 1 1 1 1 1 1 1 0.0099993684715194361 0.01600457279037993 0.015471343171662799 1 0.0099988802837586259 1 1 1 1 0.012773170472450399 1 0.013807725277799582 1 0.014408593372501208 1 1 0.014601509421815213 1 1 0.01485976586484123 1 1 1 0.010472316064142929 1 0.010088399381285584 0.010370423768437435 1 1 1 1 1 1 0.0099919542078544324 1 1 1 1 1 1 0.01015327450621592 1 1 1 1 1 1 1 1 1 1 1 1 1 1 0.013031864075696856 0.015619361809121851 1 0.0137071940750964 1 1 1 1 1 1 1 1 0.015580055750644785 1 0.014597552949570658 0.012725983907061589 1 1 1 1 0.015259328592457384 1 1 0.014682483429284167 1 1 1 1 0.015051357549874481 1 0.016517026412885272 1 1 1 1 1 1 0.015924413029420034 0.014388873336830397 1 1 1 1 1 0.017538572530450013 1 1 1 1 1 0.012365393604384741 1 1 1 1 1 1 0.011479585770844559 1 1 0.010524586114691573 1 1 1 1 1 1 1 1 1 1 1 1 1 1 1 0.0099188060494576971 1 1 1 0.015387941801174365 1 0.012271141311629905 1 1 1 1 0.011582868454265816 1 1 0.016016234774649189 1 1 1 1 0.010586260953878102 1 1 1 0.011788122204591384 0.013168106927264589 0.013369251328673972 1 0.012055617263807501 1 1 1 1 1 1 1 0.0105350151531175 1 1 1 0.0090333836161261977 1 1 1 1 1 1 1 0.010003156065683701 1 1 1 1 1 1 1 0.0092937730076528627 1 1 0.012737220281230609 1 1 1 0.010165412166358401 1 1 1 1 1 1 1 1 1 1 1 1 1 1 1 1 1 1 1 1 1 1 1 1 1 1 1 1 1 1 1 1 1 1 1 1 1 1 1 1 1 1 1 1 1 1 1 1 1 1 1 1 1 1 1 1 1 1 1 1 1 1 1 1 1 1 1 1 0.021919592168429897 1 1 0.021761972508172606 1 1 1 1 0.021510221248369731 1 1 1 1 1 1 1 1 1 1 1 1 0.020411318408057596 0.0099246244920004941 1 1 1 1 1 1 1 1 1 0.011817533473432184 1 1 1 1 1 1 1 1 1 1 1 0.010127121065672531 0.015922239044251024 1 0.015996095472393335 0.014026538267043469 1 1 0.016263180698224029 1 1 1 1 1 1 1 0.014097562091179438 1 1 1 1 1 0.010112747763656659 1 1 1 0.010992833803827155 1 1 1 1 0.012794229776191818 1 1 1 0.01459576622966972 1 1 1 1 1 1 1 0.011077665765795953 1 1 1 1 1 1 1 1 1 1 1 1 1 1 1 1 1 1 1 1 1 0.0099929802450314398 1 1 1 1 0.012158451740540919 1 1 1 1 0.01544476169379269 1 1 1 0.014901853513891485 0.010425864459564387 0.009936324446472463 1 1 1 1 1 1 0.015294290084260628 1 1 1 1 0.0094016889192315867 0.012434119650041041 1 1 1 0.0080423283999655377 0.011134619520428161 1 0.012785232281965049 1 1 1 1 0.015738964118111987 1 1 1 0.0099044447715370566 1 1 1 0.012364645069087864 1 1 1 1 1 1 1 1 1 1 0.010357975338518101 1 1 1 1 1 1 1 1 1 1 1 1 0.014127588147691685 1 1 1 1 0.0084271419124436614 0.016840938042486667 1 1 0.0098823498895922127 1 1 1 1 1 1 1 1 1 0.0088199512045023555 0.014101798936209281 0.011888862931337547 1 0.010031762680042536 1 1 1 1 1 1 1 0.0099693243924794846 1 1 1 1 0.0099643644239900738 0.013106914415921015 1 1 1 1 1 0.0099867091618504097 1 1 1 1 1 0.0086276148283571247 1 1 1 1 0.013687003772773466 1 1 1 1 0.012738835935651805 0.010049041118910012 1 0.010022887981807845 1 1 0.01259355760882544 0.014505079975270001 1 1 0.014707595342251356 1 1 1 1 1 1 1 1 0.018016167952562168 1 0.0083877365868091532 0.010574936620247513 0.010216733884037772 1 1 1 1 1 1 1 1 1 1 1 1 0.01768683187361687 1 1 1 1 1 1 1 1 1 1 1 1 1 1 1 1 1 1 1 1 1 1 1 1 0.010093514077523227 1 0.0099692572675659751 1 0.0092244824333411156 1 1 1 1 1 1 1 1 1 1 0.01285445995620272 1 1 0.016729420892507139 0.0098781608642870763 1 1 1 1 0.01826723038530894 1 1 1 1 1 1 1 0.018152756464402703 1 1 1 1 1 1 1 0.01782944222092777 1 1 0.010196028081956285 1 1 1 1 1 1 1 1 0.017967193085034208 1 0.017162791637075323 1 1 1 1 1 1 1 1 1 1 0.0096288442040205202 1 1 1 0.018380547671944289 1 1 1 1 0.021172463636700469 0.0093661647897035471 1 1 1 1 0.0096359175976848902 1 1 1 0.012288448564580385 1 1 1 1 0.011442082396460804 1 1 1 1 1 1 1 1 1 1 1 1 1 0.010514681318670911 1 1 1 1 1 1 0.010995398135391124 1 1 1 1 0.010958065177157496 1 0.011266018260149916 1 1 1 1 1 1 1 1 1 0.010527216549997 1 0.016140480615200851 1 1 1 1 1 1 1 1 1 1 1 1 1 1 1 1 1 0.0099952939631136779 0.010286929577642641 1 1 1 1 1 0.01560660852798465 1 0.012535445893069661 0.012237350505896943 0.010387262636271865 1 1 1 1 1 1 1 1 1 1 1 1 1 1 1 1 1 1 1 1 1 1 1 1 1 1 0.010527222637452998 1 0.011375007329507756 0.013624848089612071 1 1 1 1 1 1 1 1 0.0099419096094190678 1 1 1 1 1 1 0.010048608219975629 1 1 1 1 1 1 0.012026401136380153 1 1 1 1 1 1 1 1 1 1 0.015139765403706333 1 1 1 1 0.022096306065064963 1 1 1 1 0.010134977256067343 1 1 1 1 1 1 0.010519509314733552 1 1 1 1 1 1 1 1 1 1 1 1 1 1 1 1 1 1 1 1 1 1 1 1 1 1 1 1 1 1 1 1 1 1 1 1 0.012423277971825457 1 1 1 1 1 1 1 1 0.012463140494610444 1 1 1 0.012151299732091544 1 1 1 1 1 1 1 1 1 1 1 1 1 1 1 1 1 1 1 1 1 1 0.011316551322405201 1 1 1 1 1 1 0.018459881984507473 1 1 0.015458471871367563 0.016788069031214378 1 1 1 1 1 0.01019773619645108 1 1 1 1 1 1 1 1 1 1 0.013998224023114987 0.006058164863582175 1 1 1 1 0.0077599140543498819 1 1 1 1 1 0.0090266731512189773 1 0.010181750157778238 0.016491317147275315 1 1 1 1 1 1 1 0.0085178496513090857 1 1 1 0.0071985197618696338 0.012324333028004623 1 1 1 1 1 1 1 1 1 1 0.012070514822939691 1 1 1 1 1 1 1 1 1 1 1 1 1 0.013913615447412368 0.011846796099918597 1 1 1 0.0094363452289373904 1 1 1 1 1 1 1 1 1 1 1 1 1 1 0.010812711906715403 1 1 1 1 0.010954385677926178 1 1 1 1 1 1 1 1 1 1 1 0.02020341710434511 1 1 1 1 1 1 1 1 1 1 1 0.011473096672050157 1 1 1 1 1 1 1 1 1 1 1 1 1 0.010660384765334745 1 1 1 1 1 1 1 1 1 1 1 1 1 0.011406718368559306 1 1 1 0.013427995878837229 1 1 1 1 1 1 1 1 1 1 1 1 1 1 1 0.011155140041516473 1 1 1 1 1 1 1 1 1 1 1 1 1 1 1 1 1 1 1 1 1 1 0.012288734028193284 1 1 1 1 1 1 0.016887338675178176 0.010686115360656386 1 0.014050980118212621 1 1 1 1 1 1 1 1 1 0.013441134477673766 1 1 1 1 1 1 1 1 0.013194038913496986 1 1 1 1 1 0.010810892569257102 1 1 1 1 1 0.017449862964900222 1 1 1 0.01055691352306096 1 1 1 1 1 1 1 1 1 1 1 1 1 1 1 1 1 1 1 1 1 1 1 1 1 0.010255265021669045 1 1 1 1 1 1 1 1 1 1 1 1 1 1 1 1 1 0.020087067476039555 1 1 1 0.010389919973033665 1 1 1 1 1 1 1 1 1 1 1 1 1 1 1 1 1 1 1 1 1 1 1 1 1 1 1 1 1 1 0.0023831396639975369 1 1 0.01009620369068041 1 1 1 1 0.01333755701391668 1 0.018958866411741659 1 0.010099552061334045 1 0.020642927072201708 1 1 1 1 1 1 1 0.018311329901256133 1 1 0.020907046891825577 1 1 0.023164965980416691 1 1 1 1 1 1 0.016145709234361528 1 1 0.010218410528734172 1 1 1 0.010417966200448525 1 1 0.010610555644422596 1 0.018374223921826999 1 1 1 1 1 1 1 1 1 1 1 1 1 1 1 1 1 1 1 1 1 1 1 1 1 1 1 1 0.0099126265120376283 0.0097892005133016734 1 1 1 1 0.01089749418978465 1 1 1 1 1 1 1 1 0.012537425694758794 1 1 1 1 1 1 1 1 1 1 1 1 1 0.019888036665318784 0.018225675526152906 1 1 1 1 1 1 1 1 1 1 1 1 1 1 1 1 1 1 1 1 1 0.010433111858156258 1 1 1 0.0080798685748422229 1 1 1 1 0.0073429834251044525 0.009046897912602497 0.010559652745857595 1 0.0099599377995218692 1 0.010141082046673744 1 1 0.020650829555830648 0.015326712418119807 1 1 1 0.007413519013300205 1 1 1 0.0054819149755347928 0.009635527786538511 1 0.015104291078571289 1 1 0.01406729045185647 1 1 1 0.012238286935589905 1 1 1 1 1 1 0.0087429257227061106 1 1 1 1 1 1 1 1 1 1 0.0076355938525733266 0.010468079904265813 1 1 0.011009128298141647 1 1 1 0.0095072646542929806 1 1 1 1 1 1 1 1 0.026603348412968485 0.010141254477306866 1 1 1 0.015545701627740936 1 0.0091897643643879603 0.01974535623249412 0.013533988228620546 1 1 0.0097513378648863905 0.0099327006967781517 1 1 1 0.01048492515470047 1 1 1 1 1 1 1 1 1 1 1 1 1 1 0.013975791981800562 1 1 1 0.018213321175015139 1 1 0.0099690417803211129 1 1 0.01537768502907373 1 1 1 1 1 1 1 1 1 1 1 1 1 1 1 1 0.00987671254782088 1 0.0097947594016223397 1 1 1 1 1 1 1 1 1 1 1 1 1 1 1 1 1 1 1 1 1 1 1 1 1 1 1 1 1 1 1 1 1 1 1 1 1 1 1 1 1 1 1 1 1 1 1 1 1 1 1 1 1 1 1 1 1 1 1 1 1 1 1 1 1 1 1 1 1 1 1 1 1 1 1 1 1 1 1 1 1 1 1 1 1 1 1 1 0.0099182682150734391 1 0.0081525029567458031 1 1 0.013262040592910111 0.0081135156864200753 0.0088127552719905848 1 1 1 0.010061053448540372 1 1 1 1 1 0.011810559868697175 0.0093512485987998304 1 1 1 1 1 1 1 1 1 1 1 1 0.0092234464928084379 1 1 1 1 1 1 1 1 1 1 1 1 1 1 1 1 1 1 1 0.01061145014314302 0.011588267933715467 1 1 1 1 1 1 1 1 1 0.010852637156078213 1 1 1 1 1 1 1 1 1 1 1 1 1 1 1 1 1 1 1 1 1 1 1 1 1 1 0.010015318443515293 1 1 1 1 1 1 1 1 1 1 1 1 1 1 1 1 1 1 1 1 1 1 1 1 1 1 1 1 1 1 1 1 1 1 1 1 1 1 1 1 1 1 1 1 1 1 1 1 1 1 1 1 1 1 1 1 1 1 1 1 1 1 1 1 1 1 1 1 1 1 1 1 1 1 0.01403863997719409 1 1 1 1 1 1 1 1 1 1 1 1 1 1 1 1 1 0.010591206893799488 1 1 1 0.015380676626641662 1 1 1 0.0092038136734907353 1 0.012576612498467065 1 0.014856695672770323 0.0092095882398830729 1 1 1 1 1 1 1 1 1 1 1 1 1 1 1 1 0.012135071851400977 0.016812995010221383 1 1 1 1 1 1 1 1 0.011918460581001657 1 1 1 1 1 1 1 1 1 1 1 1 1 1 1 0.0099022456641115145 1 1 1 1 1 1 1 1 1 1 1 1 0.011584156421973664 1 1 0.012470788504010642 0.020578787949807466 1 1 0.01002771827793026 1 1 1 1 1 1 1 1 1 1 1 1 1 1 1 1 1 1 1 1 1 1 1 1 1 1 1 1 1 1 1 1 1 1 1 1 1 1 1 1 1 1 0.010280423514293077 1 1 1 1 1 1 1 1 1 1 1 1 1 1 1 1 1 1 1 0.0097769775926667968 1 1 1 1 1 1 1 1 1 1 1 1 1 1 1 1 1 0.0088525890930661582 0.016503101222320904 1 0.0096204796754897313 1 1 1 1 1 1 0.012039586755680426 1 1 1 1 1 1 1 1 0.011204678163095153 1 0.013446133058739023 1 1 1 1 0.013475942484920176 1 1 1 1 1 1 0.005290467666375637 1 0.0078391517856277234 0.0090643849515495648 1 1 1 1 0.021442321008974741 1 1 1 1 1 1 1 1 1 1 1 0.0075023432899771906 1 1 1 1 1 1 1 1 1 1 0.0085273345552784405 0.014317585310695007 1 0.006058377074174932 1 1 0.017432507063899212 1 1 1 0.010106831163618482 0.0075033575913195129 0.018398536553502987 1 1 1 1 1 1 1 1 0.013047767464761188 1 1 0.0097711486656873875 1 1 1 1 1 1 1 1 1 1 1 1 0.011700823456290678 1 1 1 0.011692154979158214 1 1 1 1 1 1 1 1 1 1 0.013414366239669412 1 1 1 1 1 1 1 1 0.0099082495125207767 1 1 1 1 0.01134260383749533 1 1 1 0.013624760758856783 1 1 1 1 1 1 1 1 1 1 0.010352310281500014 1 1 1 1 1 1 1 0.0098593329603902866 1 1 1 1 0.011927263252730219 1 1 1 1 1 1 0.0087455915956433494 1 1 1 1 0.01961147938010345 1 1 1 0.010342048466267083 1 1 1 1 1 1 1 1 0.010016563357966508 1 1 1 1 1 1 1 1 1 0.010954278654589818 1 1 1 1 1 1 1 0.012308346014164501 1 1 1 1 1 0.01187592379547393 1 1 1 1 1 1 1 1 1 1 1 1 1 1 1 1 1 1 1 0.010179367088220181 1 1 1 1 1 0.0097560043622344182 1 1 1 1 1 1 1 1 1 1 1 1 1 0.0091439922559285874 1 1 1 1 1 1 1 1 1 1 0.01000106635359934 1 1 1 1 1 1 0.011277089397497907 1 1 0.013402035013384756 1 1 0.0148109453216166 1 1 1 1 1 1 1 1 1 1 1 1 0.010533141971247315 1 1 1 1 1 1 1 0.011056787114494204 0.011514995174618084 1 1 1 0.010009502586483384 0.011170651263312879 1 0.010603427585175221 1 1 0.0095203310630782648 0.011319133117116312 1 1 0.011561063493844434 1 1 1 0.010182979955969758 1 1 1 1 1 1 0.010840938068061074 1 1 1 0.011572782557237003 1 1 1 0.010054563390605868 0.012478566854524802 1 0.017538433450381211 0.015479146413084788 1 1 1 1 1 1 1 0.009969831333742395 1 1 1 1 1 1 1 1 1 1 1 1 0.010000346294499134 1 1 1 1 1 1 0.0099309381798027598 1 1 1 1 1 1 1 1 1 1 1 1 1 1 1 1 1 0.010177376949324662 1 1 0.010588026286736898 1 1 1 1 0.0098586795457146024 1 0.010186827547448929 1 1 1 1 1 1 1 0.01017450477914527 1 1 1 0.011951530716153735 1 1 1 1 1 1 1 1 0.011403108542494062 1 1 0.010296762437208645 0.010639361178757675 1 1 1 1 1 0.010933094458307285 1 1 1 1 0.010266049031958654 1 1 1 1 1 1 1 1 1 0.010543260816434415 1 1 1 1 1 1 1 1 1 0.010535420194409097 1 1 1 1 1 1 1 1 1 0.010488399816956651 1 1 1 0.010855101121686077 1 1 1 1 1 1 1 0.010472492015774583 1 1 1 0.0092470167701371817 1 1 1 1 0.012494557889692504 1 1 1 0.0094321017770980699 1 1 1 1 1 1 1 1 0.011081370243564127 1 1 1 1 1 1 1 1 1 1 1 1 1 1 1 1 1 1 0.010269876072364778 1 1 0.010585664712286398 1 1 1 1 1 1 1 1 1 1 1 1 1 1 1 1 1 1 1 1 1 1 1 1 1 1 1 1 0.010089056457756687 1 1 1 1 1 1 0.0099922111264482607 1 0.011188705397294527 1 1 1 1 0.011564349498660809 1 1 1 0.010649448805633337 1 0.015957736448306066 1 1 1 1 1 1 1 1 1 1 1 1 1 0.01402340698773012 1 1 1 1 1 0.014553173356718607 1 1 1 0.019886798933889352 0.0091975488770930976 1 1 1 1 1 0.013763499021322276 1 0.012462416193443356 1 1 1 0.010047826618866768 1 1 1 1 0.0097328856014381772 1 1 1 1 1 0.010731932031356469 1 1 1 1 0.011263538092507706 1 1 1 1 1 1 1 1 1 1 0.016306127811828948 1 1 1 1 0.016486614589726806 1 1 1 1 1 1 1 1 1 1 1 1 1 1 1 1 1 1 1 1 1 1 1 1 1 1 1 1 1 0.01264290297134122 1 1 1 1 0.0083697459918999368 1 0.018132105909699735 1 1 1 0.01003473268817618 1 1 1 1 1 1 1 1 1 1 1 1 1 1 1 0.012903285401081446 1 1 1 1 1 1 1 1 1 1 1 1 1 1 1 1 1 1 1 1 1 1 1 1 1 1 1 1 1 1 1 1 1 1 1 0.0099193742513592198 1 1 1 1 1 1 1 1 1 1 0.0099934996259981174 0.012005780693146235 1 1 1 1 1 1 1 1 0.01119537150008032 1 1 1 0.016965960388685988 1 1 1 1 1 0.015977239953048637 1 1 0.011180338271899513 1 1 1 1 0.010292419369566576 1 0.0094336355726448509 1 1 1 1 1 0.010140149651246121 1 1 1 1 1 1 1 1 1 1 1 1 1 1 1 1 1 1 1 1 1 1 1 1 1 0.01073564312213058 1 1 1 1 1 1 0.010192192416169386 1 1 1 0.011874358102022371 1 1 0.0096430096310724678 1 1 1 1 1 1 1 1 1 1 1 1 1 1 0.0114490868059774 1 0.0088625673409524122 1 1 0.010851467988774698 1 1 0.0091728157704580645 1 1 1 1 1 1 1 1 0.010207823458047056 1 1 1 1 1 1 1 0.010969221173093339 1 0.010346286139592029 1 1 1 1 1 1 1 1 1 1 1 1 1 1 1 1 1 1 1 1 1 1 1 1 1 1 1 1 1 1 1 1 0.010004431428482431 1 1 1 1 1 1 1 1 1 1 1 1 0.016717906901135452 1 0.0099796443560478624 1 1 1 1 1 1 1 0.01059490370546607 1 0.017685384670059923 1 1 0.010334028376357763 1 1 1 1 0.010393681865076321 1 0.017612413594263895 1 1 1 1 1 1 1 0.0096987900964689427 1 1 1 0.010103981394001781 1 1 0.011590254438860642 1 1 0.010437410653113825 1 1 1 1 1 1 1 1 0.009477628577070742 1 1 1 1 1 0.0081608079263353391 1 0.012937695084685105 1 1 0.011095901364727788 1 1 1 1 1 1 1 1 1 1 1 0.0099892512719757867 1 0.011497197182479324 1 1 0.011214917040669603 1 1 0.010933667457905426 1 1 1 0.010888973445324116 1 1 1 1 1 1 1 1 1 1 1 0.0091135320610972181 0.010186074699531221 1 1 1 0.010100095041720832 0.010247068993718252 1 1 1 1 1 1 1 1 1 1 1 1 1 1 1 1 1 0.010325132143066703 1 1 1 1 1 1 1 1 1 1 1 1 1 1 1 1 1 1 1 1 0.010301714929706877 1 0.010479826828391658 1 1 0.0098997357360162755 1 1 1 1 0.011099906888378745 1 1 1 1 1 1 1 1 1 1 1 1 0.010018518207118242 1 1 1 0.010668006899260877 1 1 1 1 1 0.010441365826213809 1 1 0.010005257290872252 0.012437751635790917 0.011274131753536788 0.010894979592484401 1 1 1 1 1 1 0.010981679269193301 1 1 0.010450892701309935 0.010080575968781428 0.011162624352214559 1 0.011140955340431954 1 1 1 1 1 1 1 1 1 0.0099925636671568188 1 1 1 1 1 1 1 1 1 1 1 1 1 1 1 0.01001656834396826 0.011390358330472014 1 1 0.011070389047260105 1 1 1 0.010154375680135518 1 0.010128919176322436 0.010008843653049375 1 1 1 1 1 0.01004113663665674 1 1 0.011161618453013673 1 1 1 0.010464448004050053 1 1 1 1 1 0.01016249627147052 1 1 1 1 1 1 1 1 1 1 1 1 1 1 1 1 1 1 0.010082850238841819 1 1 1 1 1 1 1 1 1 1 1 1 1 1 1 1 1 1 1 1 1 1 1 1 0.0097821613695495378 1 1 0.0099259228317660694 1 1 1 1 1 1 1 1 1 1 1 0.0099921528271544532 1 1 1 1 1 0.01063176151161279 0.011272108711073141 1 1 1 1 0.011331961572535756 1 1 1 1 1 1 1 1 0.0097428301897938066 0.0098748004793170058 1 1 0.010004475681002505 1 1 0.010574230149938052 1 0.0096422641164265865 0.01089806666356071 1 0.011568301319768132 1 1 1 1 0.011359527484518704 1 1 1 0.010119584117671693 1 1 1 0.01034737037089698 1 1 0.011119482503544269 1 1 0.0092254558741740305 1 1 1 1 1 1 1 1 1 0.011287620929279908 0.010224954513022348 1 1 0.011100031162674599 1 1 1 1 0.011285493472433621 1 1 1 0.010122037771037665 1 1 1 1 0.010362644676904009 1 1 1 1 1 1 1 1 1 1 1 1 1 1 1 1 1 1 1 1 1 1 1 0.01000797515941431 1 1 1 1 1 1 1 1 1 1 1 1 1 1 1 1 1 1 1 1 1 1 1 1 1 1 0.010536592157681234 1 1 1 1 1 1 1 1 1 1 1 1 1 1 1 1 0.01056064758010266 1 0.010231878880468469 1 1 1 1 1 1 1 1 1 1 1 1 1 1 1 1 1 1 1 1 0.015669948837679394 1 1 1 1 1 1 1 0.015334007323446811 0.015554253627852052 1 1 1 1 1 1 1 0.010120928591016078 1 1 1 1 0.010200073119316351 1 1 0.01262012662470615 1 0.010295629973491174 1 0.010037369934098844 1 1 1 1 1 1 1 0.0097386849413072137 1 0.020707354126564017 1 1 0.010008589082870067 1 1 1 1 1 1 1 1 1 1 1 1 1 1 1 1 1 1 1 1 0.010080194421567384 1 1 1 1 1 1 0.017220637470738848 0.010211251137222127 1 1 0.013348906639459195 1 1 1 0.0099169097197360015 1 1 1 1 1 1 1 0.016370895115518438 1 1 1 1 1 1 1 1 1 1 1 1 1 1 1 1 0.010620395661763531 1 1 1 1 1 1 1 1 1 0.01528994429374439 1 1 1 1 1 0.021818044636988311 1 1 1 1 1 1 1 0.019372944978996595 1 1 1 1 1 1 1 1 1 0.011801556709686837 1 1 0.0092796893128553066 1 0.0097911082721548592 1 0.010121836965486432 1 0.013037835016317143 1 1 1 1 1 0.012116817214999423 1 1 1 1 1 0.02132011569242849 1 1 1 1 1 1 1 1 0.010990529153766517 0.010012693940570255 1 1 1 1 1 1 1 1 1 1 1 1 1 0.010178652064457288 1 1 1 1 1 1 1 1 1 0.021079252569861789 1 1 1 1 1 1 1 1 1 0.020373847707422725 1 1 0.026497961856934059 0.012644057471875237 1 1 1 0.010267185772579811 1 1 1 1 1 0.012229241009451372 0.010883517113831325 1 1 1 1 1 1 1 1 0.016043133015446139 1 0.0056865367024499566 1 1 0.010247142143943564 1 1 1 1 1 1 1 1 1 1 1 1 1 0.011210509474061334 1 1 1 1 0.010437490876005073 1 1 1 1 1 1 1 1 1 1 1 1 1 1 0.0099808610679697866 1 1 0.0098266744242357183 1 1 0.010234133152240235 1 1 1 1 1 1 1 1 1 1 1 1 0.0096838493223991191 1 1 1 1 1 0.0095685984517543017 1 1 1 1 0.0098895521481423866 1 1 1 1 1 1 0.016847871363134863 1 1 1 0.015592800925696352 1 1 1 0.01381195083004506 1 1 0.015900575671365647 1 1 1 1 1 1 1 1 1 1 1 1 1 1 1 1 1 1 1 1 1 1 1 1 0.013313134401483018 1 1 0.0089623739091351309 0.0091221574808989063 1 1 1 1 0.010930447752469256 1 0.010884238351049935 0.015264011131294331 1 0.010038678697110694 1 1 0.014115861177402411 0.010384620561514761 1 1 0.016141008399150066 1 1 1 1 1 0.010632041359397855 0.017470829948808119 1 0.018232368571562744 1 0.018350745163386646 1 1 1 1 1 1 1 1 1 1 1 1 1 1 0.010529236747176771 1 1 1 1 0.010772143156920794 1 1 1 1 1 1 1 1 1 1 1 1 1 0.010403728584858728 1 1 0.011285998860923159 0.02056971576062586 1 1 1 1 0.018883550595897296 1 0.017070327572194566 1 1 1 1 1 1 1 1 1 1 1 1 1 1 1 1 1 1 1 1 1 0.011913844987921939 0.0099201191267422502 1 1 1 1 0.011595362553108664 1 1 1 1 1 0.010305011347739635 1 1 1 1 0.010436499475392423 1 1 1 1 1 1 1 0.010420183472128869 1 1 1 1 0.01111582552981915 1 1 1 1 1 1 1 1 1 1 1 1 1 1 1 1 1 1 1 1 1 1 1 1 1 1 1 1 1 0.010194277403478603 1 0.026206220271148446 0.0079966255372359435 1 1 1 1 1 1 1 1 0.02662160974083547 1 1 1 1 0.026808466672896967 1 1 1 1 1 1 1 1 1 1 1 1 1 1 1 1 1 1 1 1 1 1 1 1 1 1 1 0.010018280225955922 1 1 1 0.010311873836919429 0.0094091406037708162 1 1 1 1 1 1 0.0098856351814553406 1 1 0.011510890181723014 1 1 1 1 1 1 0.0097735113812989945 1 1 1 1 0.010092328252929416 1 1 0.010243771082416746 1 1 1 1 1 1 1 1 1 1 1 1 1 1 0.0099535504006406667 1 1 1 1 1 1 1 1 1 1 1 1 1 1 1 1 1 1 1 1 1 1 1 1 1 1 1 1 1 1 1 1 1 1 1 1 1 1 1 1 1 1 1 0.010548070724533835 1 1 1 1 0.011732541001260213 1 1 0.0099797825548576993 1 0.010715652839610956 1 1 1 1 0.0099128201765834 1 1 0.013056251762583036 1 0.0099944859127763797 1 0.015653492062516872 1 1 1 1 1 1 1 1 1 1 1 1 0.014929746460882838 1 1 1 1 1 1 1 
</DataArray>
</CellData>
</Piece>
</UnstructuredGrid>
</VTKFile>
