<?xml version="1.0"?>
<VTKFile type="UnstructuredGrid" version="0.1" byte_order="LittleEndian">
<UnstructuredGrid>
<Piece NumberOfPoints="30655" NumberOfCells="10720">
<Points>
<DataArray type="Float64" NumberOfComponents="3" format="ascii">
-0.5 -0.5 0 -0.48113944850806339 -0.48056471521631988 0 -0.50000000000000711 -0.4658100594871909 0 -0.5 -0.5 0 -0.48113944850806339 -0.48056471521631988 0 -0.46046510288576492 -0.5 0 -0.48113944850806339 -0.48056471521631988 0 -0.47181697923608568 -0.46164593814545868 0 -0.50000000000000711 -0.4658100594871909 0 -0.48113944850806339 -0.48056471521631988 0 -0.46193144004422199 -0.47897598145297599 0 -0.47181697923608568 -0.46164593814545868 0 -0.46046510288576492 -0.5 0 -0.46193144004422199 -0.47897598145297599 0 -0.44521843675491368 -0.48987230226349959 0 -0.48113944850806339 -0.48056471521631988 0 -0.46046510288576492 -0.5 0 -0.46193144004422199 -0.47897598145297599 0 -0.46193144004422199 -0.47897598145297599 0 -0.44516659812140491 -0.46815958827145532 0 -0.47181697923608568 -0.46164593814545868 0 -0.46193144004422199 -0.47897598145297599 0 -0.44521843675491368 -0.48987230226349959 0 -0.44516659812140491 -0.46815958827145532 0 -0.44521843675491368 -0.48987230226349959 0 -0.42995391773136421 -0.4715387390879226 0 -0.44521843675491368 -0.48987230226349959 0 -0.44516659812140491 -0.46815958827145532 0 -0.42995391773136421 -0.4715387390879226 0 -0.44092902709703569 -0.43863678752773161 0 -0.44363395847216408 -0.45748181680372862 0 -0.44092902709703569 -0.43863678752773161 0 -0.44363395847216408 -0.45748181680372862 0 -0.45525817794649359 -0.44509323693356118 0 -0.44363395847216408 -0.45748181680372862 0 -0.44516659812140491 -0.46815958827145532 0 -0.43336096825818737 -0.46259633001886208 0 -0.44363395847216408 -0.45748181680372862 0 -0.44516659812140491 -0.46815958827145532 0 -0.44363395847216408 -0.45748181680372862 0 -0.45525817794649359 -0.44509323693356118 0 -0.47181697923608568 -0.46164593814545868 0 -0.44363395847216408 -0.45748181680372862 0 -0.47181697923608568 -0.46164593814545868 0 -0.44363395847216408 -0.45748181680372862 0 -0.44516659812140491 -0.46815958827145532 0 -0.47181697923608568 -0.46164593814545868 0 -0.45525817794649359 -0.44509323693356118 0 -0.47181697923608568 -0.46164593814545868 0 -0.46828043329488001 -0.43492097771962662 0 -0.47181697923608568 -0.46164593814545868 0 -0.5 -0.43631786962744401 0 -0.46828043329488001 -0.43492097771962662 0 -0.47181697923608568 -0.46164593814545868 0 -0.50000000000000711 -0.4658100594871909 0 -0.47181697923608568 -0.46164593814545868 0 -0.50000000000000711 -0.4658100594871909 0 -0.5 -0.43631786962744401 0 -0.5 -0.43631786962744401 0 -0.48152043501152852 -0.41732484028286793 0 -0.46828043329488001 -0.43492097771962662 0 -0.5 -0.43631786962744401 0 -0.5 -0.40682567976769718 0 -0.48152043501152852 -0.41732484028286793 0 -0.48152043501152852 -0.41732484028286793 0 -0.46828043329488001 -0.43492097771962662 0 -0.4611206688355981 -0.41015630141068349 0 -0.5 -0.37733348990795051 0 -0.47851630218636992 -0.39068943291841979 0 -0.48425098247528608 -0.36462304094731629 0 -0.5 -0.40682567976769718 0 -0.48152043501152852 -0.41732484028286793 0 -0.47851630218636992 -0.39068943291841979 0 -0.5 -0.40682567976769718 0 -0.5 -0.37733348990795051 0 -0.47851630218636992 -0.39068943291841979 0 -0.48152043501152852 -0.41732484028286793 0 -0.47851630218636992 -0.39068943291841979 0 -0.4611206688355981 -0.41015630141068349 0 -0.45876884863916229 -0.38830632695912648 0 -0.46388025252233389 -0.36946134457768071 0 -0.44310955625738607 -0.37225968980706758 0 -0.47851630218636992 -0.39068943291841979 0 -0.45876884863916229 -0.38830632695912648 0 -0.46388025252233389 -0.36946134457768071 0 -0.45876884863916229 -0.38830632695912648 0 -0.44612144827359818 -0.39360503905926209 0 -0.4611206688355981 -0.41015630141068349 0 -0.47851630218636992 -0.39068943291841979 0 -0.45876884863916229 -0.38830632695912648 0 -0.4611206688355981 -0.41015630141068349 0 -0.44612144827359818 -0.39360503905926209 0 -0.4611206688355981 -0.41015630141068349 0 -0.43602883345340809 -0.40449755075399219 0 -0.44612144827359818 -0.39360503905926209 0 -0.43383357118490867 -0.38920334325624978 0 -0.43602883345340809 -0.40449755075399219 0 -0.44612144827359818 -0.39360503905926209 0 -0.43383357118490867 -0.38920334325624978 0 -0.44310955625738607 -0.37225968980706758 0 -0.45876884863916229 -0.38830632695912648 0 -0.44612144827359818 -0.39360503905926209 0 -0.44310955625738607 -0.37225968980706758 0 -0.45525817794649359 -0.44509323693356118 0 -0.46828043329488001 -0.43492097771962662 0 -0.45291759324069047 -0.4272993607371337 0 -0.46828043329488001 -0.43492097771962662 0 -0.4611206688355981 -0.41015630141068349 0 -0.45291759324069047 -0.4272993607371337 0 -0.4611206688355981 -0.41015630141068349 0 -0.43822409572191662 -0.41979175825173332 0 -0.45291759324069047 -0.4272993607371337 0 -0.4611206688355981 -0.41015630141068349 0 -0.43822409572191662 -0.41979175825173332 0 -0.4611206688355981 -0.41015630141068349 0 -0.43822409572191662 -0.41979175825173332 0 -0.43602883345340809 -0.40449755075399219 0 -0.44092902709703569 -0.43863678752773161 0 -0.45525817794649359 -0.44509323693356118 0 -0.45291759324069047 -0.4272993607371337 0 -0.44092902709703569 -0.43863678752773161 0 -0.43822409572191662 -0.41979175825173332 0 -0.44092902709703569 -0.43863678752773161 0 -0.43822409572191662 -0.41979175825173332 0 -0.45291759324069047 -0.4272993607371337 0 -0.44092902709703569 -0.43863678752773161 0 -0.43822409572191662 -0.41979175825173332 0 -0.41920917538217067 -0.42779371746895117 0 -0.43822409572191662 -0.41979175825173332 0 -0.41920917538217067 -0.42779371746895117 0 -0.44092902709703569 -0.43863678752773161 0 -0.41920917538217067 -0.42779371746895117 0 -0.42565926478824739 -0.4420486357828749 0 -0.43822409572191662 -0.41979175825173332 0 -0.42167488180506751 -0.41208363647319612 0 -0.41920917538217067 -0.42779371746895117 0 -0.43822409572191662 -0.41979175825173332 0 -0.42167488180506751 -0.41208363647319612 0 -0.43602883345340809 -0.40449755075399219 0 -0.43822409572191662 -0.41979175825173332 0 -0.43602883345340809 -0.40449755075399219 0 -0.42167488180506751 -0.41208363647319612 0 -0.41920917538217067 -0.42779371746895117 0 -0.40510528355032621 -0.41947021251847311 0 -0.42167488180506751 -0.41208363647319612 0 -0.40802671179822703 -0.40221021883265001 0 -0.40510528355032621 -0.41947021251847311 0 -0.41920917538217067 -0.42779371746895117 0 -0.4001942550424239 -0.43579567668616659 0 -0.40510528355032621 -0.41947021251847311 0 -0.41920917538217067 -0.42779371746895117 0 -0.4001942550424239 -0.43579567668616659 0 -0.41920917538217067 -0.42779371746895117 0 -0.4001942550424239 -0.43579567668616659 0 -0.42565926478824739 -0.4420486357828749 0 -0.43383357118490867 -0.38920334325624978 0 -0.4239160825033208 -0.39843150813027411 0 -0.41829380196532889 -0.38054949952976358 0 -0.43383357118490867 -0.38920334325624978 0 -0.41829380196532889 -0.38054949952976358 0 -0.44310955625738607 -0.37225968980706758 0 -0.43383357118490867 -0.38920334325624978 0 -0.4239160825033208 -0.39843150813027411 0 -0.43602883345340809 -0.40449755075399219 0 -0.43383357118490867 -0.38920334325624978 0 -0.43602883345340809 -0.40449755075399219 0 -0.42167488180506751 -0.41208363647319612 0 -0.4239160825033208 -0.39843150813027411 0 -0.43602883345340809 -0.40449755075399219 0 -0.4239160825033208 -0.39843150813027411 0 -0.40802671179822703 -0.40221021883265001 0 -0.41829380196532889 -0.38054949952976358 0 -0.42167488180506751 -0.41208363647319612 0 -0.4239160825033208 -0.39843150813027411 0 -0.40802671179822703 -0.40221021883265001 0 -0.40802671179822703 -0.40221021883265001 0 -0.41829380196532889 -0.38054949952976358 0 -0.39435237826397251 -0.38714214129015262 0 -0.41829380196532889 -0.38054949952976358 0 -0.39435237826397251 -0.38714214129015262 0 -0.39984811069874948 -0.3670637527489099 0 -0.40802671179822703 -0.40221021883265001 0 -0.39435237826397251 -0.38714214129015262 0 -0.38296974127767941 -0.41510804736830992 0 -0.39435237826397251 -0.38714214129015262 0 -0.38296974127767941 -0.41510804736830992 0 -0.36574522751293398 -0.39442041805045369 0 -0.39435237826397251 -0.38714214129015262 0 -0.39984811069874948 -0.3670637527489099 0 -0.37227104331404492 -0.37147264876230612 0 -0.39435237826397251 -0.38714214129015262 0 -0.37227104331404492 -0.37147264876230612 0 -0.36574522751293398 -0.39442041805045369 0 -0.4001942550424239 -0.43579567668616659 0 -0.38296974127767941 -0.41510804736830992 0 -0.4001942550424239 -0.43579567668616659 0 -0.40510528355032621 -0.41947021251847311 0 -0.38296974127767941 -0.41510804736830992 0 -0.40802671179822703 -0.40221021883265001 0 -0.40510528355032621 -0.41947021251847311 0 -0.38296974127767941 -0.41510804736830992 0 -0.4001942550424239 -0.43579567668616659 0 -0.38296974127767941 -0.41510804736830992 0 -0.37360776445756222 -0.43190754127687497 0 -0.39401552711814081 -0.45015055268284898 0 -0.37252491038279989 -0.44743963645972262 0 -0.4001942550424239 -0.43579567668616659 0 -0.37252491038279989 -0.44743963645972262 0 -0.4001942550424239 -0.43579567668616659 0 -0.37252491038279989 -0.44743963645972262 0 -0.37360776445756222 -0.43190754127687497 0 -0.4001942550424239 -0.43579567668616659 0 -0.39401552711814081 -0.45015055268284898 0 -0.37252491038279989 -0.44743963645972262 0 -0.39401552711814081 -0.45015055268284898 0 -0.3880561298873122 -0.46085771673827319 0 -0.37252491038279989 -0.44743963645972262 0 -0.4001942550424239 -0.43579567668616659 0 -0.39401552711814081 -0.45015055268284898 0 -0.41468939870781601 -0.45320517591234483 0 -0.39401552711814081 -0.45015055268284898 0 -0.41468939870781601 -0.45320517591234483 0 -0.39401552711814081 -0.45015055268284898 0 -0.40331080077142362 -0.46119068581389261 0 -0.41468939870781601 -0.45320517591234483 0 -0.39401552711814081 -0.45015055268284898 0 -0.40331080077142362 -0.46119068581389261 0 -0.3880561298873122 -0.46085771673827319 0 -0.40331080077142362 -0.46119068581389261 0 -0.3880561298873122 -0.46085771673827319 0 -0.403587349391823 -0.47427579701682537 0 -0.3880561298873122 -0.46085771673827319 0 -0.403587349391823 -0.47427579701682537 0 -0.3839341638395215 -0.46551530580635819 0 -0.37252491038279989 -0.44743963645972262 0 -0.3839341638395215 -0.46551530580635819 0 -0.3880561298873122 -0.46085771673827319 0 -0.37252491038279989 -0.44743963645972262 0 -0.3839341638395215 -0.46551530580635819 0 -0.3880561298873122 -0.46085771673827319 0 -0.39286279692513831 -0.47191002388722803 0 -0.3839341638395215 -0.46551530580635819 0 -0.37511715983641908 -0.46290678162757798 0 -0.37252491038279989 -0.44743963645972262 0 -0.3880561298873122 -0.46085771673827319 0 -0.37252491038279989 -0.44743963645972262 0 -0.3839341638395215 -0.46551530580635819 0 -0.37511715983641908 -0.46290678162757798 0 -0.3743489153731806 -0.47178286793089008 0 -0.3839341638395215 -0.46551530580635819 0 -0.38222717740021622 -0.47618910188472302 0 -0.39457797996018312 -0.4827576529031774 0 -0.3839341638395215 -0.46551530580635819 0 -0.39457797996018312 -0.4827576529031774 0 -0.38222717740021622 -0.47618910188472302 0 -0.3755019779787277 -0.48463461395560598 0 -0.39457797996018312 -0.4827576529031774 0 -0.3839341638395215 -0.46551530580635819 0 -0.38222717740021622 -0.47618910188472302 0 -0.3743489153731806 -0.47178286793089008 0 -0.3839341638395215 -0.46551530580635819 0 -0.39286279692513831 -0.47191002388722803 0 -0.39457797996018312 -0.4827576529031774 0 -0.38222717740021622 -0.47618910188472302 0 -0.3755019779787277 -0.48463461395560598 0 -0.3743489153731806 -0.47178286793089008 0 -0.3851306713307463 -0.5 0 -0.3755019779787277 -0.48463461395560598 0 -0.39457797996018312 -0.4827576529031774 0 -0.3851306713307463 -0.5 0 -0.3755019779787277 -0.48463461395560598 0 -0.36503954658064902 -0.50000000000000044 0 -0.40522179608084352 -0.49999999999999722 0 -0.39457797996018312 -0.4827576529031774 0 -0.40659311895851658 -0.48649427823811098 0 -0.40522179608084352 -0.49999999999999722 0 -0.39457797996018312 -0.4827576529031774 0 -0.3851306713307463 -0.5 0 -0.40522179608084352 -0.49999999999999722 0 -0.39457797996018312 -0.4827576529031774 0 -0.3880561298873122 -0.46085771673827319 0 -0.39286279692513831 -0.47191002388722803 0 -0.403587349391823 -0.47427579701682537 0 -0.39286279692513831 -0.47191002388722803 0 -0.39457797996018312 -0.4827576529031774 0 -0.403587349391823 -0.47427579701682537 0 -0.39457797996018312 -0.4827576529031774 0 -0.403587349391823 -0.47427579701682537 0 -0.40659311895851658 -0.48649427823811098 0 -0.44521843675491368 -0.48987230226349959 0 -0.40522179608084352 -0.49999999999999722 0 -0.41911856889633392 -0.48769387729537772 0 -0.403587349391823 -0.47427579701682537 0 -0.41911856889633392 -0.48769387729537772 0 -0.41514764382739627 -0.46854411952840702 0 -0.41911856889633392 -0.48769387729537772 0 -0.42995391773136421 -0.4715387390879226 0 -0.41514764382739627 -0.46854411952840702 0 -0.46046510288576492 -0.5 0 -0.44521843675491368 -0.48987230226349959 0 -0.40522179608084352 -0.49999999999999722 0 -0.403587349391823 -0.47427579701682537 0 -0.41911856889633392 -0.48769387729537772 0 -0.403587349391823 -0.47427579701682537 0 -0.40659311895851658 -0.48649427823811098 0 -0.41911856889633392 -0.48769387729537772 0 -0.40522179608084352 -0.49999999999999722 0 -0.40659311895851658 -0.48649427823811098 0 -0.41911856889633392 -0.48769387729537772 0 -0.44521843675491368 -0.48987230226349959 0 -0.41911856889633392 -0.48769387729537772 0 -0.42995391773136421 -0.4715387390879226 0 -0.44516659812140491 -0.46815958827145532 0 -0.42995391773136421 -0.4715387390879226 0 -0.43336096825818737 -0.46259633001886208 0 -0.42995391773136421 -0.4715387390879226 0 -0.43336096825818737 -0.46259633001886208 0 -0.41468939870781601 -0.45320517591234483 0 -0.44363395847216408 -0.45748181680372862 0 -0.41468939870781601 -0.45320517591234483 0 -0.44363395847216408 -0.45748181680372862 0 -0.43336096825818737 -0.46259633001886208 0 -0.41468939870781601 -0.45320517591234483 0 -0.42995391773136421 -0.4715387390879226 0 -0.41468939870781601 -0.45320517591234483 0 -0.44092902709703569 -0.43863678752773161 0 -0.44363395847216408 -0.45748181680372862 0 -0.42565926478824739 -0.4420486357828749 0 -0.44363395847216408 -0.45748181680372862 0 -0.42565926478824739 -0.4420486357828749 0 -0.41468939870781601 -0.45320517591234483 0 -0.4001942550424239 -0.43579567668616659 0 -0.41468939870781601 -0.45320517591234483 0 -0.4001942550424239 -0.43579567668616659 0 -0.42565926478824739 -0.4420486357828749 0 -0.41468939870781601 -0.45320517591234483 0 -0.42995391773136421 -0.4715387390879226 0 -0.41514764382739627 -0.46854411952840702 0 -0.41468939870781601 -0.45320517591234483 0 -0.40331080077142362 -0.46119068581389261 0 -0.403587349391823 -0.47427579701682537 0 -0.41514764382739627 -0.46854411952840702 0 -0.40331080077142362 -0.46119068581389261 0 -0.41514764382739627 -0.46854411952840702 0 -0.41468939870781601 -0.45320517591234483 0 -0.44766192199693761 -0.26421378793348299 0 -0.4503986285135258 -0.25491720351246738 0 -0.4565471191731037 -0.2606276085287263 0 -0.44766192199693761 -0.26421378793348299 0 -0.4503986285135258 -0.25491720351246738 0 -0.43983828166826378 -0.25471054225934309 0 -0.4503986285135258 -0.25491720351246738 0 -0.43983828166826378 -0.25471054225934309 0 -0.45044198355091802 -0.2452825499058687 0 -0.44766192199693761 -0.26421378793348299 0 -0.45721997782539231 -0.27358579037206238 0 -0.43658148284962389 -0.27871780104549387 0 -0.45721997782539231 -0.27358579037206238 0 -0.45679692128151028 -0.28811485226535699 0 -0.43658148284962389 -0.27871780104549387 0 -0.43983828166826378 -0.25471054225934309 0 -0.43658148284962389 -0.27871780104549387 0 -0.44766192199693761 -0.26421378793348299 0 -0.43983828166826378 -0.25471054225934309 0 -0.43658148284962389 -0.27871780104549387 0 -0.45721997782539231 -0.27358579037206238 0 -0.47360792604824331 -0.27292707170424307 0 -0.4685847765228543 -0.28301401163143958 0 -0.44766192199693761 -0.26421378793348299 0 -0.45721997782539231 -0.27358579037206238 0 -0.4565471191731037 -0.2606276085287263 0 -0.45721997782539231 -0.27358579037206238 0 -0.46641414312134538 -0.26416715541568497 0 -0.4565471191731037 -0.2606276085287263 0 -0.45721997782539231 -0.27358579037206238 0 -0.46641414312134538 -0.26416715541568497 0 -0.47360792604824331 -0.27292707170424307 0 -0.46641414312134538 -0.26416715541568497 0 -0.46540837827810377 -0.25432746959745162 0 -0.47337737327892382 -0.2570802191659558 0 -0.46641414312134538 -0.26416715541568497 0 -0.4565471191731037 -0.2606276085287263 0 -0.46540837827810377 -0.25432746959745162 0 -0.4565471191731037 -0.2606276085287263 0 -0.46540837827810377 -0.25432746959745162 0 -0.45750383617840618 -0.24975152893491601 0 -0.4503986285135258 -0.25491720351246738 0 -0.4565471191731037 -0.2606276085287263 0 -0.45750383617840618 -0.24975152893491601 0 -0.46540837827810377 -0.25432746959745162 0 -0.47337737327892382 -0.2570802191659558 0 -0.47301928786745168 -0.2492694817793254 0 -0.47337737327892382 -0.2570802191659558 0 -0.47882278311194942 -0.25456118493898022 0 -0.47301928786745168 -0.2492694817793254 0 -0.46641414312134538 -0.26416715541568497 0 -0.47337737327892382 -0.2570802191659558 0 -0.47786299493944862 -0.26360349625898372 0 -0.47786299493944862 -0.26360349625898372 0 -0.48871484101539608 -0.258286998456912 0 -0.4816643853624098 -0.27280906109048247 0 -0.47786299493944862 -0.26360349625898372 0 -0.47882278311194942 -0.25456118493898022 0 -0.48871484101539608 -0.258286998456912 0 -0.47337737327892382 -0.2570802191659558 0 -0.47786299493944862 -0.26360349625898372 0 -0.47882278311194942 -0.25456118493898022 0 -0.47882278311194942 -0.25456118493898022 0 -0.48871484101539608 -0.258286998456912 0 -0.48113941845852648 -0.24456572903372439 0 -0.48871484101539608 -0.258286998456912 0 -0.5 -0.25936473046896319 0 -0.4940737639957391 -0.2444502419367392 0 -0.5 -0.25936473046896319 0 -0.4898494670632319 -0.28629729870195858 0 -0.5 -0.28885692032871002 0 -0.48871484101539608 -0.258286998456912 0 -0.5 -0.25936473046896319 0 -0.4898494670632319 -0.28629729870195858 0 -0.48871484101539608 -0.258286998456912 0 -0.4816643853624098 -0.27280906109048247 0 -0.4898494670632319 -0.28629729870195858 0 -0.48871484101539608 -0.258286998456912 0 -0.4898494670632319 -0.28629729870195858 0 -0.4816643853624098 -0.27280906109048247 0 -0.47360792604824331 -0.27292707170424307 0 -0.47828669774572891 -0.28293044033031478 0 -0.4816643853624098 -0.27280906109048247 0 -0.47828669774572891 -0.28293044033031478 0 -0.4898494670632319 -0.28629729870195858 0 -0.47786299493944862 -0.26360349625898372 0 -0.4816643853624098 -0.27280906109048247 0 -0.47360792604824331 -0.27292707170424307 0 -0.46641414312134538 -0.26416715541568497 0 -0.47786299493944862 -0.26360349625898372 0 -0.47360792604824331 -0.27292707170424307 0 -0.47360792604824331 -0.27292707170424307 0 -0.47828669774572891 -0.28293044033031478 0 -0.4685847765228543 -0.28301401163143958 0 -0.47828669774572891 -0.28293044033031478 0 -0.47701235971339639 -0.29751190348522061 0 -0.4685847765228543 -0.28301401163143958 0 -0.47828669774572891 -0.28293044033031478 0 -0.4898494670632319 -0.28629729870195858 0 -0.47701235971339639 -0.29751190348522061 0 -0.4898494670632319 -0.28629729870195858 0 -0.49146182486710321 -0.29548221057071172 0 -0.47701235971339639 -0.29751190348522061 0 -0.4898494670632319 -0.28629729870195858 0 -0.49146182486710321 -0.29548221057071172 0 -0.5 -0.28885692032871002 0 -0.5 -0.28885692032871002 0 -0.49722779814528251 -0.30690895470508411 0 -0.5 -0.31834911018845691 0 -0.49146182486710321 -0.29548221057071172 0 -0.49722779814528251 -0.30690895470508411 0 -0.47701235971339639 -0.29751190348522061 0 -0.49722779814528251 -0.30690895470508411 0 -0.47701235971339639 -0.29751190348522061 0 -0.49146182486710321 -0.29548221057071172 0 -0.5 -0.28885692032871002 0 -0.49722779814528251 -0.30690895470508411 0 -0.49722779814528251 -0.30690895470508411 0 -0.47701235971339639 -0.29751190348522061 0 -0.48326859993941662 -0.31633201206014838 0 -0.47701235971339639 -0.29751190348522061 0 -0.46530597321687928 -0.31014558823499788 0 -0.48326859993941662 -0.31633201206014838 0 -0.47701235971339639 -0.29751190348522061 0 -0.46530597321687928 -0.31014558823499788 0 -0.45679692128151028 -0.28811485226535699 0 -0.46530597321687928 -0.31014558823499788 0 -0.45679692128151028 -0.28811485226535699 0 -0.44989393826593238 -0.30402800442274103 0 -0.46530597321687928 -0.31014558823499788 0 -0.44989393826593238 -0.30402800442274103 0 -0.4515075990726008 -0.31954298611097159 0 -0.47701235971339639 -0.29751190348522061 0 -0.45679692128151028 -0.28811485226535699 0 -0.47701235971339639 -0.29751190348522061 0 -0.4685847765228543 -0.28301401163143958 0 -0.45679692128151028 -0.28811485226535699 0 -0.45721997782539231 -0.27358579037206238 0 -0.4685847765228543 -0.28301401163143958 0 -0.45679692128151028 -0.28811485226535699 0 -0.45679692128151028 -0.28811485226535699 0 -0.44313355722594161 -0.29519572951029438 0 -0.43658148284962389 -0.27871780104549387 0 -0.45679692128151028 -0.28811485226535699 0 -0.43658148284962389 -0.27871780104549387 0 -0.45679692128151028 -0.28811485226535699 0 -0.44313355722594161 -0.29519572951029438 0 -0.44989393826593238 -0.30402800442274103 0 -0.44989393826593238 -0.30402800442274103 0 -0.4515075990726008 -0.31954298611097159 0 -0.43272564053272922 -0.30714086599208362 0 -0.44313355722594161 -0.29519572951029438 0 -0.44989393826593238 -0.30402800442274103 0 -0.43272564053272922 -0.30714086599208362 0 -0.4515075990726008 -0.31954298611097159 0 -0.43924356901318751 -0.32381588120895971 0 -0.43272564053272922 -0.30714086599208362 0 -0.4515075990726008 -0.31954298611097159 0 -0.43272564053272922 -0.30714086599208362 0 -0.4515075990726008 -0.31954298611097159 0 -0.43924356901318751 -0.32381588120895971 0 -0.44662130139250689 -0.33430442247743258 0 -0.43924356901318751 -0.32381588120895971 0 -0.44662130139250689 -0.33430442247743258 0 -0.42905225220717369 -0.33421898443430581 0 -0.44662130139250689 -0.33430442247743258 0 -0.43791385999853899 -0.34847515715084421 0 -0.42905225220717369 -0.33421898443430581 0 -0.44662130139250689 -0.33430442247743258 0 -0.47028955761247282 -0.3319451062298594 0 -0.45338245576608333 -0.34981074435354231 0 -0.47028955761247282 -0.3319451062298594 0 -0.47688912058425281 -0.34932744617056122 0 -0.45338245576608333 -0.34981074435354231 0 -0.4515075990726008 -0.31954298611097159 0 -0.44662130139250689 -0.33430442247743258 0 -0.47028955761247282 -0.3319451062298594 0 -0.46530597321687928 -0.31014558823499788 0 -0.4515075990726008 -0.31954298611097159 0 -0.47028955761247282 -0.3319451062298594 0 -0.4515075990726008 -0.31954298611097159 0 -0.47028955761247282 -0.3319451062298594 0 -0.46530597321687928 -0.31014558823499788 0 -0.48326859993941662 -0.31633201206014838 0 -0.47028955761247282 -0.3319451062298594 0 -0.48326859993941662 -0.31633201206014838 0 -0.48608945562722838 -0.33275899493944588 0 -0.47028955761247282 -0.3319451062298594 0 -0.49722779814528251 -0.30690895470508411 0 -0.48326859993941662 -0.31633201206014838 0 -0.5 -0.31834911018845691 0 -0.48326859993941662 -0.31633201206014838 0 -0.5 -0.31834911018845691 0 -0.48608945562722838 -0.33275899493944588 0 -0.5 -0.31834911018845691 0 -0.48608945562722838 -0.33275899493944588 0 -0.5 -0.34784130004820368 0 -0.48608945562722838 -0.33275899493944588 0 -0.47688912058425281 -0.34932744617056122 0 -0.5 -0.34784130004820368 0 -0.48608945562722838 -0.33275899493944588 0 -0.47028955761247282 -0.3319451062298594 0 -0.47688912058425281 -0.34932744617056122 0 -0.47688912058425281 -0.34932744617056122 0 -0.5 -0.34784130004820368 0 -0.48425098247528608 -0.36462304094731629 0 -0.5 -0.37733348990795051 0 -0.5 -0.34784130004820368 0 -0.48425098247528608 -0.36462304094731629 0 -0.47851630218636992 -0.39068943291841979 0 -0.48425098247528608 -0.36462304094731629 0 -0.46388025252233389 -0.36946134457768071 0 -0.47688912058425281 -0.34932744617056122 0 -0.48425098247528608 -0.36462304094731629 0 -0.46388025252233389 -0.36946134457768071 0 -0.46388025252233389 -0.36946134457768071 0 -0.45338245576608333 -0.34981074435354231 0 -0.44310955625738607 -0.37225968980706758 0 -0.47688912058425281 -0.34932744617056122 0 -0.46388025252233389 -0.36946134457768071 0 -0.45338245576608333 -0.34981074435354231 0 -0.45338245576608333 -0.34981074435354231 0 -0.43791385999853899 -0.34847515715084421 0 -0.44310955625738607 -0.37225968980706758 0 -0.44662130139250689 -0.33430442247743258 0 -0.45338245576608333 -0.34981074435354231 0 -0.43791385999853899 -0.34847515715084421 0 -0.41829380196532889 -0.38054949952976358 0 -0.44310955625738607 -0.37225968980706758 0 -0.42537886388161722 -0.36129710287652778 0 -0.43791385999853899 -0.34847515715084421 0 -0.44310955625738607 -0.37225968980706758 0 -0.42537886388161722 -0.36129710287652778 0 -0.43791385999853899 -0.34847515715084421 0 -0.42537886388161722 -0.36129710287652778 0 -0.42905225220717369 -0.33421898443430581 0 -0.42537886388161722 -0.36129710287652778 0 -0.42905225220717369 -0.33421898443430581 0 -0.42537886388161722 -0.36129710287652778 0 -0.41559837247179382 -0.33576035583117719 0 -0.42905225220717369 -0.33421898443430581 0 -0.42537886388161722 -0.36129710287652778 0 -0.39984811069874948 -0.3670637527489099 0 -0.40353661009532221 -0.34698272877721031 0 -0.42537886388161722 -0.36129710287652778 0 -0.40353661009532221 -0.34698272877721031 0 -0.41559837247179382 -0.33576035583117719 0 -0.41829380196532889 -0.38054949952976358 0 -0.42537886388161722 -0.36129710287652778 0 -0.39984811069874948 -0.3670637527489099 0 -0.39984811069874948 -0.3670637527489099 0 -0.38525596667221162 -0.3549383952574991 0 -0.37227104331404492 -0.37147264876230612 0 -0.38525596667221162 -0.3549383952574991 0 -0.38681934865239809 -0.33758709015137611 0 -0.36518157695906128 -0.34869270464530661 0 -0.39984811069874948 -0.3670637527489099 0 -0.38525596667221162 -0.3549383952574991 0 -0.40353661009532221 -0.34698272877721031 0 -0.38525596667221162 -0.3549383952574991 0 -0.40353661009532221 -0.34698272877721031 0 -0.38681934865239809 -0.33758709015137611 0 -0.40353661009532221 -0.34698272877721031 0 -0.38681934865239809 -0.33758709015137611 0 -0.40471881200240672 -0.32658117786506319 0 -0.38681934865239809 -0.33758709015137611 0 -0.38922263371081739 -0.32033205688482658 0 -0.40471881200240672 -0.32658117786506319 0 -0.38681934865239809 -0.33758709015137611 0 -0.38922263371081739 -0.32033205688482658 0 -0.3732550924486846 -0.32665443696279622 0 -0.38681934865239809 -0.33758709015137611 0 -0.3732550924486846 -0.32665443696279622 0 -0.36518157695906128 -0.34869270464530661 0 -0.38922263371081739 -0.32033205688482658 0 -0.38132860793830781 -0.30461616928028579 0 -0.3732550924486846 -0.32665443696279622 0 -0.38132860793830781 -0.30461616928028579 0 -0.3732550924486846 -0.32665443696279622 0 -0.40471881200240672 -0.32658117786506319 0 -0.41193398397620029 -0.31234961972640862 0 -0.40040887222097571 -0.31037013718934442 0 -0.38922263371081739 -0.32033205688482658 0 -0.40471881200240672 -0.32658117786506319 0 -0.40040887222097571 -0.31037013718934442 0 -0.40471881200240672 -0.32658117786506319 0 -0.42119911027274848 -0.32343094214673468 0 -0.41193398397620029 -0.31234961972640862 0 -0.40471881200240672 -0.32658117786506319 0 -0.42119911027274848 -0.32343094214673468 0 -0.41559837247179382 -0.33576035583117719 0 -0.40353661009532221 -0.34698272877721031 0 -0.40471881200240672 -0.32658117786506319 0 -0.41559837247179382 -0.33576035583117719 0 -0.42119911027274848 -0.32343094214673468 0 -0.41559837247179382 -0.33576035583117719 0 -0.42905225220717369 -0.33421898443430581 0 -0.42119911027274848 -0.32343094214673468 0 -0.42905225220717369 -0.33421898443430581 0 -0.43272564053272922 -0.30714086599208362 0 -0.43924356901318751 -0.32381588120895971 0 -0.42905225220717369 -0.33421898443430581 0 -0.43272564053272922 -0.30714086599208362 0 -0.42905225220717369 -0.33421898443430581 0 -0.43272564053272922 -0.30714086599208362 0 -0.42119911027274848 -0.32343094214673468 0 -0.42277632465923742 -0.30057112459361252 0 -0.43272564053272922 -0.30714086599208362 0 -0.42119911027274848 -0.32343094214673468 0 -0.42277632465923742 -0.30057112459361252 0 -0.42277632465923742 -0.30057112459361252 0 -0.43272564053272922 -0.30714086599208362 0 -0.43272564053272922 -0.30714086599208362 0 -0.43658148284962389 -0.27871780104549387 0 -0.42277632465923742 -0.30057112459361252 0 -0.42466624185803598 -0.27317905746235299 0 -0.43658148284962389 -0.27871780104549387 0 -0.42277632465923742 -0.30057112459361252 0 -0.43272564053272922 -0.30714086599208362 0 -0.43658148284962389 -0.27871780104549387 0 -0.42277632465923742 -0.30057112459361252 0 -0.42466624185803598 -0.27317905746235299 0 -0.44313355722594161 -0.29519572951029438 0 -0.43272564053272922 -0.30714086599208362 0 -0.43658148284962389 -0.27871780104549387 0 -0.42277632465923742 -0.30057112459361252 0 -0.41481340783313608 -0.28507971459730769 0 -0.42466624185803598 -0.27317905746235299 0 -0.42277632465923742 -0.30057112459361252 0 -0.41481340783313608 -0.28507971459730769 0 -0.4052039835394739 -0.28896774016089999 0 -0.42277632465923742 -0.30057112459361252 0 -0.4052039835394739 -0.28896774016089999 0 -0.41481340783313608 -0.28507971459730769 0 -0.4052039835394739 -0.28896774016089999 0 -0.40660708127579759 -0.27760093617236498 0 -0.42277632465923742 -0.30057112459361252 0 -0.40666605697218933 -0.30173102865596768 0 -0.4052039835394739 -0.28896774016089999 0 -0.42119911027274848 -0.32343094214673468 0 -0.42277632465923742 -0.30057112459361252 0 -0.41193398397620029 -0.31234961972640862 0 -0.42277632465923742 -0.30057112459361252 0 -0.40666605697218933 -0.30173102865596768 0 -0.41193398397620029 -0.31234961972640862 0 -0.40666605697218933 -0.30173102865596768 0 -0.41193398397620029 -0.31234961972640862 0 -0.40040887222097571 -0.31037013718934442 0 -0.40040887222097571 -0.31037013718934442 0 -0.39557484071842808 -0.29729371715763142 0 -0.38132860793830781 -0.30461616928028579 0 -0.40666605697218933 -0.30173102865596768 0 -0.40040887222097571 -0.31037013718934442 0 -0.39557484071842808 -0.29729371715763142 0 -0.38922263371081739 -0.32033205688482658 0 -0.40040887222097571 -0.31037013718934442 0 -0.38132860793830781 -0.30461616928028579 0 -0.38132860793830781 -0.30461616928028579 0 -0.38940212342793101 -0.28257790159777552 0 -0.37401574871235271 -0.28834805771826127 0 -0.39557484071842808 -0.29729371715763142 0 -0.38132860793830781 -0.30461616928028579 0 -0.38940212342793101 -0.28257790159777552 0 -0.38132860793830781 -0.30461616928028579 0 -0.38940212342793101 -0.28257790159777552 0 -0.39557484071842808 -0.29729371715763142 0 -0.38940212342793101 -0.28257790159777552 0 -0.4052039835394739 -0.28896774016089999 0 -0.38940212342793101 -0.28257790159777552 0 -0.4052039835394739 -0.28896774016089999 0 -0.40660708127579759 -0.27760093617236498 0 -0.40666605697218933 -0.30173102865596768 0 -0.39557484071842808 -0.29729371715763142 0 -0.4052039835394739 -0.28896774016089999 0 -0.38940212342793101 -0.28257790159777552 0 -0.39747563891754978 -0.26053963391526352 0 -0.39581707574843578 -0.25976865864782089 0 -0.38940212342793101 -0.28257790159777552 0 -0.39747563891754978 -0.26053963391526352 0 -0.38940212342793101 -0.28257790159777552 0 -0.39747563891754978 -0.26053963391526352 0 -0.40660708127579759 -0.27760093617236498 0 -0.38940212342793101 -0.28257790159777552 0 -0.37695906739185081 -0.27266966965418771 0 -0.39581707574843578 -0.25976865864782089 0 -0.38940212342793101 -0.28257790159777552 0 -0.37695906739185081 -0.27266966965418771 0 -0.37401574871235271 -0.28834805771826127 0 -0.37695906739185081 -0.27266966965418771 0 -0.39581707574843578 -0.25976865864782089 0 -0.37695906739185081 -0.27266966965418771 0 -0.38256549809977458 -0.26390786324494758 0 -0.36721816254111139 -0.26565153778644668 0 -0.39061090947268728 -0.25132276844921941 0 -0.39581707574843578 -0.25976865864782089 0 -0.37176924001865042 -0.2485901356174591 0 -0.37654531875989311 -0.25846707425924059 0 -0.38256549809977458 -0.26390786324494758 0 -0.39581707574843578 -0.25976865864782089 0 -0.37695906739185081 -0.27266966965418771 0 -0.38256549809977458 -0.26390786324494758 0 -0.39581707574843578 -0.25976865864782089 0 -0.37654531875989311 -0.25846707425924059 0 -0.39581707574843578 -0.25976865864782089 0 -0.37176924001865042 -0.2485901356174591 0 -0.39581707574843578 -0.25976865864782089 0 -0.37176924001865042 -0.2485901356174591 0 -0.37654531875989311 -0.25846707425924059 0 -0.38256549809977458 -0.26390786324494758 0 -0.36721816254111139 -0.26565153778644668 0 -0.39061090947268728 -0.25132276844921941 0 -0.39840721556750652 -0.2579967100050008 0 -0.39581707574843578 -0.25976865864782089 0 -0.39061090947268728 -0.25132276844921941 0 -0.39840721556750652 -0.2579967100050008 0 -0.39503541333675052 -0.24574898680682239 0 -0.39840721556750652 -0.2579967100050008 0 -0.39747563891754978 -0.26053963391526352 0 -0.39581707574843578 -0.25976865864782089 0 -0.39840721556750652 -0.2579967100050008 0 -0.39747563891754978 -0.26053963391526352 0 -0.39840721556750652 -0.2579967100050008 0 -0.39581707574843578 -0.25976865864782089 0 -0.39747563891754978 -0.26053963391526352 0 -0.39581707574843578 -0.25976865864782089 0 -0.39840721556750652 -0.2579967100050008 0 -0.41273684682590889 -0.24819362120123339 0 -0.39840721556750652 -0.2579967100050008 0 -0.42466624185803598 -0.27317905746235299 0 -0.425866359971175 -0.25578479492991019 0 -0.39840721556750652 -0.2579967100050008 0 -0.39747563891754978 -0.26053963391526352 0 -0.42466624185803598 -0.27317905746235299 0 -0.39840721556750652 -0.2579967100050008 0 -0.425866359971175 -0.25578479492991019 0 -0.41273684682590889 -0.24819362120123339 0 -0.39747563891754978 -0.26053963391526352 0 -0.42466624185803598 -0.27317905746235299 0 -0.39747563891754978 -0.26053963391526352 0 -0.40660708127579759 -0.27760093617236498 0 -0.42466624185803598 -0.27317905746235299 0 -0.41481340783313608 -0.28507971459730769 0 -0.40660708127579759 -0.27760093617236498 0 -0.42466624185803598 -0.27317905746235299 0 -0.43983828166826378 -0.25471054225934309 0 -0.42466624185803598 -0.27317905746235299 0 -0.43658148284962389 -0.27871780104549387 0 -0.42466624185803598 -0.27317905746235299 0 -0.43658148284962389 -0.27871780104549387 0 -0.43983828166826378 -0.25471054225934309 0 -0.42466624185803598 -0.27317905746235299 0 -0.425866359971175 -0.25578479492991019 0 -0.42466624185803598 -0.27317905746235299 0 -0.425866359971175 -0.25578479492991019 0 -0.43983828166826378 -0.25471054225934309 0 -0.425866359971175 -0.25578479492991019 0 -0.43225563689115237 -0.24748709107291739 0 -0.32599282125923862 -0.26177388466510071 0 -0.31293921215208581 -0.25985783795421658 0 -0.3224546209801864 -0.24875777641678209 0 -0.32599282125923862 -0.26177388466510071 0 -0.31293921215208581 -0.25985783795421658 0 -0.31966420038002008 -0.27105434095386061 0 -0.31966420038002008 -0.27105434095386061 0 -0.33490247014542762 -0.26932305783016258 0 -0.32431794819887338 -0.28892424435325448 0 -0.31966420038002008 -0.27105434095386061 0 -0.32431794819887338 -0.28892424435325448 0 -0.31252461293282757 -0.28193746500804001 0 -0.31966420038002008 -0.27105434095386061 0 -0.33490247014542762 -0.26932305783016258 0 -0.32599282125923862 -0.26177388466510071 0 -0.31966420038002008 -0.27105434095386061 0 -0.33490247014542762 -0.26932305783016258 0 -0.33490247014542762 -0.26932305783016258 0 -0.32431794819887338 -0.28892424435325448 0 -0.33490247014542762 -0.26932305783016258 0 -0.34470983109531711 -0.28000541758827813 0 -0.32431794819887338 -0.28892424435325448 0 -0.33490247014542762 -0.26932305783016258 0 -0.35187082698244831 -0.26739521232794611 0 -0.34000360263847368 -0.25987641017048141 0 -0.3224546209801864 -0.24875777641678209 0 -0.33490247014542762 -0.26932305783016258 0 -0.34000360263847368 -0.25987641017048141 0 -0.35187082698244831 -0.26739521232794611 0 -0.33490247014542762 -0.26932305783016258 0 -0.34000360263847368 -0.25987641017048141 0 -0.32599282125923862 -0.26177388466510071 0 -0.34000360263847368 -0.25987641017048141 0 -0.3224546209801864 -0.24875777641678209 0 -0.34000360263847368 -0.25987641017048141 0 -0.33307358606610599 -0.2451527455302164 0 -0.3224546209801864 -0.24875777641678209 0 -0.32599282125923862 -0.26177388466510071 0 -0.33490247014542762 -0.26932305783016258 0 -0.34000360263847368 -0.25987641017048141 0 -0.34000360263847368 -0.25987641017048141 0 -0.34357164371513588 -0.24513225368432909 0 -0.33965117610215151 -0.24666884555447841 0 -0.34000360263847368 -0.25987641017048141 0 -0.33965117610215151 -0.24666884555447841 0 -0.33307358606610599 -0.2451527455302164 0 -0.34000360263847368 -0.25987641017048141 0 -0.35063868068570658 -0.24018160018812901 0 -0.34000360263847368 -0.25987641017048141 0 -0.34797017227484539 -0.25650650960666249 0 -0.35063868068570658 -0.24018160018812901 0 -0.34797017227484539 -0.25650650960666249 0 -0.35252858650502811 -0.2593338849185855 0 -0.3532267391408368 -0.25320540233443228 0 -0.34000360263847368 -0.25987641017048141 0 -0.35187082698244831 -0.26739521232794611 0 -0.34000360263847368 -0.25987641017048141 0 -0.34797017227484539 -0.25650650960666249 0 -0.35187082698244831 -0.26739521232794611 0 -0.34797017227484539 -0.25650650960666249 0 -0.35252858650502811 -0.2593338849185855 0 -0.35187082698244831 -0.26739521232794611 0 -0.35252858650502811 -0.2593338849185855 0 -0.35880026899245387 -0.259699240802439 0 -0.35187082698244831 -0.26739521232794611 0 -0.35880026899245387 -0.259699240802439 0 -0.36721816254111139 -0.26565153778644668 0 -0.35187082698244831 -0.26739521232794611 0 -0.35880026899245387 -0.259699240802439 0 -0.3532267391408368 -0.25320540233443228 0 -0.36110471771453989 -0.25315397870953632 0 -0.3532267391408368 -0.25320540233443228 0 -0.36110471771453989 -0.25315397870953632 0 -0.35918484438993342 -0.2487827792123892 0 -0.35252858650502811 -0.2593338849185855 0 -0.35880026899245387 -0.259699240802439 0 -0.3532267391408368 -0.25320540233443228 0 -0.36110471771453989 -0.25315397870953632 0 -0.37176924001865042 -0.2485901356174591 0 -0.35918484438993342 -0.2487827792123892 0 -0.36693018485861728 -0.25686737366816131 0 -0.36110471771453989 -0.25315397870953632 0 -0.37176924001865042 -0.2485901356174591 0 -0.35880026899245387 -0.259699240802439 0 -0.36693018485861728 -0.25686737366816131 0 -0.36110471771453989 -0.25315397870953632 0 -0.35880026899245387 -0.259699240802439 0 -0.36693018485861728 -0.25686737366816131 0 -0.36721816254111139 -0.26565153778644668 0 -0.38256549809977458 -0.26390786324494758 0 -0.36721816254111139 -0.26565153778644668 0 -0.37654531875989311 -0.25846707425924059 0 -0.36693018485861728 -0.25686737366816131 0 -0.36721816254111139 -0.26565153778644668 0 -0.37654531875989311 -0.25846707425924059 0 -0.36693018485861728 -0.25686737366816131 0 -0.37176924001865042 -0.2485901356174591 0 -0.37695906739185081 -0.27266966965418771 0 -0.36721816254111139 -0.26565153778644668 0 -0.35871980602890441 -0.27173456894060449 0 -0.37695906739185081 -0.27266966965418771 0 -0.35871980602890441 -0.27173456894060449 0 -0.35810105903526379 -0.28557068066055141 0 -0.37695906739185081 -0.27266966965418771 0 -0.35810105903526379 -0.28557068066055141 0 -0.36721816254111139 -0.26565153778644668 0 -0.35187082698244831 -0.26739521232794611 0 -0.3524514177917748 -0.27586057488647381 0 -0.35871980602890441 -0.27173456894060449 0 -0.35810105903526379 -0.28557068066055141 0 -0.3524514177917748 -0.27586057488647381 0 -0.34470983109531711 -0.28000541758827813 0 -0.35810105903526379 -0.28557068066055141 0 -0.33490247014542762 -0.26932305783016258 0 -0.35187082698244831 -0.26739521232794611 0 -0.34470983109531711 -0.28000541758827813 0 -0.3524514177917748 -0.27586057488647381 0 -0.35871980602890441 -0.27173456894060449 0 -0.35187082698244831 -0.26739521232794611 0 -0.36721816254111139 -0.26565153778644668 0 -0.35871980602890441 -0.27173456894060449 0 -0.35187082698244831 -0.26739521232794611 0 -0.35871980602890441 -0.27173456894060449 0 -0.35187082698244831 -0.26739521232794611 0 -0.3524514177917748 -0.27586057488647381 0 -0.35187082698244831 -0.26739521232794611 0 -0.34470983109531711 -0.28000541758827813 0 -0.35810105903526379 -0.28557068066055141 0 -0.33924305067867672 -0.29847169166691517 0 -0.34470983109531711 -0.28000541758827813 0 -0.35810105903526379 -0.28557068066055141 0 -0.33924305067867672 -0.29847169166691517 0 -0.35810105903526379 -0.28557068066055141 0 -0.36201148601644761 -0.29781951718551458 0 -0.33924305067867672 -0.29847169166691517 0 -0.35810105903526379 -0.28557068066055141 0 -0.37401574871235271 -0.28834805771826127 0 -0.36201148601644761 -0.29781951718551458 0 -0.37695906739185081 -0.27266966965418771 0 -0.35810105903526379 -0.28557068066055141 0 -0.37401574871235271 -0.28834805771826127 0 -0.38132860793830781 -0.30461616928028579 0 -0.36201148601644761 -0.29781951718551458 0 -0.3573689637176371 -0.31209098660155909 0 -0.38132860793830781 -0.30461616928028579 0 -0.37401574871235271 -0.28834805771826127 0 -0.36201148601644761 -0.29781951718551458 0 -0.36201148601644761 -0.29781951718551458 0 -0.3573689637176371 -0.31209098660155909 0 -0.33924305067867672 -0.29847169166691517 0 -0.3573689637176371 -0.31209098660155909 0 -0.33924305067867672 -0.29847169166691517 0 -0.33835805171969269 -0.31280157486618942 0 -0.32860495907965898 -0.3057660729038888 0 -0.33924305067867672 -0.29847169166691517 0 -0.32431794819887338 -0.28892424435325448 0 -0.32860495907965898 -0.3057660729038888 0 -0.33924305067867672 -0.29847169166691517 0 -0.33835805171969269 -0.31280157486618942 0 -0.34470983109531711 -0.28000541758827813 0 -0.33924305067867672 -0.29847169166691517 0 -0.32431794819887338 -0.28892424435325448 0 -0.32431794819887338 -0.28892424435325448 0 -0.31373342625231959 -0.30852543087634682 0 -0.32860495907965898 -0.3057660729038888 0 -0.32431794819887338 -0.28892424435325448 0 -0.31373342625231959 -0.30852543087634682 0 -0.32431794819887338 -0.28892424435325448 0 -0.31373342625231959 -0.30852543087634682 0 -0.30057562364289903 -0.29444856687460291 0 -0.32860495907965898 -0.3057660729038888 0 -0.31373342625231959 -0.30852543087634682 0 -0.32737231854873278 -0.32010742275673792 0 -0.31373342625231959 -0.30852543087634682 0 -0.32737231854873278 -0.32010742275673792 0 -0.31407168621869808 -0.33235753009688562 0 -0.31407168621869808 -0.33235753009688562 0 -0.33129619998344351 -0.35304515941474168 0 -0.31407168621869808 -0.33235753009688562 0 -0.33192867605172682 -0.33492198509768428 0 -0.33129619998344351 -0.35304515941474168 0 -0.32737231854873278 -0.32010742275673792 0 -0.31407168621869808 -0.33235753009688562 0 -0.33192867605172682 -0.33492198509768428 0 -0.33192867605172682 -0.33492198509768428 0 -0.34187765093246703 -0.32672066955814683 0 -0.34502552457529267 -0.34237914366190969 0 -0.33192867605172682 -0.33492198509768428 0 -0.34502552457529267 -0.34237914366190969 0 -0.33129619998344351 -0.35304515941474168 0 -0.32737231854873278 -0.32010742275673792 0 -0.33192867605172682 -0.33492198509768428 0 -0.34187765093246703 -0.32672066955814683 0 -0.32860495907965898 -0.3057660729038888 0 -0.32737231854873278 -0.32010742275673792 0 -0.33835805171969269 -0.31280157486618942 0 -0.32737231854873278 -0.32010742275673792 0 -0.34187765093246703 -0.32672066955814683 0 -0.33835805171969269 -0.31280157486618942 0 -0.3573689637176371 -0.31209098660155909 0 -0.34187765093246703 -0.32672066955814683 0 -0.33835805171969269 -0.31280157486618942 0 -0.3573689637176371 -0.31209098660155909 0 -0.34187765093246703 -0.32672066955814683 0 -0.35704848222886482 -0.33135220104749818 0 -0.38132860793830781 -0.30461616928028579 0 -0.3573689637176371 -0.31209098660155909 0 -0.3732550924486846 -0.32665443696279622 0 -0.3573689637176371 -0.31209098660155909 0 -0.3732550924486846 -0.32665443696279622 0 -0.35704848222886482 -0.33135220104749818 0 -0.3732550924486846 -0.32665443696279622 0 -0.35704848222886482 -0.33135220104749818 0 -0.36518157695906128 -0.34869270464530661 0 -0.3732550924486846 -0.32665443696279622 0 -0.36518157695906128 -0.34869270464530661 0 -0.34187765093246703 -0.32672066955814683 0 -0.34502552457529267 -0.34237914366190969 0 -0.35704848222886482 -0.33135220104749818 0 -0.34502552457529267 -0.34237914366190969 0 -0.35704848222886482 -0.33135220104749818 0 -0.36518157695906128 -0.34869270464530661 0 -0.34502552457529267 -0.34237914366190969 0 -0.34990911436503891 -0.35625296773263709 0 -0.36518157695906128 -0.34869270464530661 0 -0.34990911436503891 -0.35625296773263709 0 -0.36518157695906128 -0.34869270464530661 0 -0.35912802480019052 -0.36278842453690269 0 -0.38525596667221162 -0.3549383952574991 0 -0.36518157695906128 -0.34869270464530661 0 -0.37227104331404492 -0.37147264876230612 0 -0.37227104331404492 -0.37147264876230612 0 -0.34852071374818872 -0.37373278873259769 0 -0.35912802480019052 -0.36278842453690269 0 -0.36518157695906128 -0.34869270464530661 0 -0.37227104331404492 -0.37147264876230612 0 -0.35912802480019052 -0.36278842453690269 0 -0.34990911436503891 -0.35625296773263709 0 -0.34852071374818872 -0.37373278873259769 0 -0.35912802480019052 -0.36278842453690269 0 -0.34852071374818872 -0.37373278873259769 0 -0.33129619998344351 -0.35304515941474168 0 -0.34852071374818872 -0.37373278873259769 0 -0.33224517117171731 -0.37413434359557801 0 -0.33129619998344351 -0.35304515941474168 0 -0.34990911436503891 -0.35625296773263709 0 -0.34852071374818872 -0.37373278873259769 0 -0.33129619998344351 -0.35304515941474168 0 -0.34502552457529267 -0.34237914366190969 0 -0.34990911436503891 -0.35625296773263709 0 -0.33129619998344351 -0.35304515941474168 0 -0.31407168621869808 -0.33235753009688562 0 -0.33129619998344351 -0.35304515941474168 0 -0.3176970377387407 -0.35113048049750828 0 -0.33224517117171731 -0.37413434359557801 0 -0.3176970377387407 -0.35113048049750828 0 -0.3176970377387407 -0.35113048049750828 0 -0.31438354006152741 -0.36875611493129867 0 -0.30839327396031713 -0.3592875180675108 0 -0.33224517117171731 -0.37413434359557801 0 -0.33129619998344351 -0.35304515941474168 0 -0.3176970377387407 -0.35113048049750828 0 -0.33224517117171731 -0.37413434359557801 0 -0.3176970377387407 -0.35113048049750828 0 -0.31438354006152741 -0.36875611493129867 0 -0.29693760352854182 -0.37484173207312549 0 -0.30839327396031713 -0.3592875180675108 0 -0.29780721385131131 -0.35562503613984842 0 -0.31438354006152741 -0.36875611493129867 0 -0.29693760352854182 -0.37484173207312549 0 -0.30839327396031713 -0.3592875180675108 0 -0.29693760352854182 -0.37484173207312549 0 -0.29780721385131131 -0.35562503613984842 0 -0.3176970377387407 -0.35113048049750828 0 -0.30839327396031713 -0.3592875180675108 0 -0.30528341154751198 -0.3461151629851294 0 -0.30528341154751198 -0.3461151629851294 0 -0.29780721385131131 -0.35562503613984842 0 -0.29867682417408098 -0.33640834020657118 0 -0.29780721385131131 -0.35562503613984842 0 -0.29867682417408098 -0.33640834020657118 0 -0.30839327396031713 -0.3592875180675108 0 -0.30528341154751198 -0.3461151629851294 0 -0.29780721385131131 -0.35562503613984842 0 -0.29780721385131131 -0.35562503613984842 0 -0.28170837126961767 -0.349022701895776 0 -0.2891776539730338 -0.34298677779757952 0 -0.29780721385131131 -0.35562503613984842 0 -0.28170837126961767 -0.349022701895776 0 -0.28345484098997009 -0.36383254328977871 0 -0.29780721385131131 -0.35562503613984842 0 -0.2891776539730338 -0.34298677779757952 0 -0.29741733803681403 -0.33874074811544808 0 -0.29693760352854182 -0.37484173207312549 0 -0.29780721385131131 -0.35562503613984842 0 -0.28345484098997009 -0.36383254328977871 0 -0.29693760352854182 -0.37484173207312549 0 -0.28345484098997009 -0.36383254328977871 0 -0.28472066561877413 -0.37709208588744181 0 -0.28345484098997009 -0.36383254328977871 0 -0.26817684981115292 -0.3701520975388598 0 -0.28472066561877413 -0.37709208588744181 0 -0.28345484098997009 -0.36383254328977871 0 -0.26817684981115292 -0.3701520975388598 0 -0.27072544020581729 -0.35376375143606009 0 -0.26817684981115292 -0.3701520975388598 0 -0.25397810905812729 -0.3492982722687934 0 -0.26817684981115292 -0.3701520975388598 0 -0.25397810905812729 -0.3492982722687934 0 -0.24791879325482541 -0.36392303137098908 0 -0.26817684981115292 -0.3701520975388598 0 -0.25446869112979348 -0.38410889406697007 0 -0.24791879325482541 -0.36392303137098908 0 -0.25397810905812729 -0.3492982722687934 0 -0.27072544020581729 -0.35376375143606009 0 -0.2663090299002186 -0.33651314218709288 0 -0.26817684981115292 -0.3701520975388598 0 -0.25397810905812729 -0.3492982722687934 0 -0.27072544020581729 -0.35376375143606009 0 -0.28170837126961767 -0.349022701895776 0 -0.27072544020581729 -0.35376375143606009 0 -0.2663090299002186 -0.33651314218709288 0 -0.28170837126961767 -0.349022701895776 0 -0.28345484098997009 -0.36383254328977871 0 -0.27072544020581729 -0.35376375143606009 0 -0.2663090299002186 -0.33651314218709288 0 -0.27860927596273272 -0.32783058079064881 0 -0.28262809052162741 -0.3374734232208344 0 -0.28170837126961767 -0.349022701895776 0 -0.2663090299002186 -0.33651314218709288 0 -0.28262809052162741 -0.3374734232208344 0 -0.25397810905812729 -0.3492982722687934 0 -0.2663090299002186 -0.33651314218709288 0 -0.23977936830510191 -0.32844444699872688 0 -0.2663090299002186 -0.33651314218709288 0 -0.25238151110775198 -0.31523893993999358 0 -0.23977936830510191 -0.32844444699872688 0 -0.2663090299002186 -0.33651314218709288 0 -0.25238151110775198 -0.31523893993999358 0 -0.26732940286055779 -0.31374319900315017 0 -0.2663090299002186 -0.33651314218709288 0 -0.26732940286055779 -0.31374319900315017 0 -0.27860927596273272 -0.32783058079064881 0 -0.26732940286055779 -0.31374319900315017 0 -0.27860927596273272 -0.32783058079064881 0 -0.28616527985729368 -0.31900707519011767 0 -0.26732940286055779 -0.31374319900315017 0 -0.28616527985729368 -0.31900707519011767 0 -0.28883061712391922 -0.30548619279463002 0 -0.29932520055631862 -0.32208048385350618 0 -0.28883061712391922 -0.30548619279463002 0 -0.28616527985729368 -0.31900707519011767 0 -0.29932520055631862 -0.32208048385350618 0 -0.28883061712391922 -0.30548619279463002 0 -0.28616527985729368 -0.31900707519011767 0 -0.28965604822504809 -0.33142402451237801 0 -0.29932520055631862 -0.32208048385350618 0 -0.27860927596273272 -0.32783058079064881 0 -0.28616527985729368 -0.31900707519011767 0 -0.28965604822504809 -0.33142402451237801 0 -0.28262809052162741 -0.3374734232208344 0 -0.29170149742564022 -0.33774372758027787 0 -0.28965604822504809 -0.33142402451237801 0 -0.27860927596273272 -0.32783058079064881 0 -0.28262809052162741 -0.3374734232208344 0 -0.28965604822504809 -0.33142402451237801 0 -0.28170837126961767 -0.349022701895776 0 -0.28262809052162741 -0.3374734232208344 0 -0.2891776539730338 -0.34298677779757952 0 -0.28262809052162741 -0.3374734232208344 0 -0.2891776539730338 -0.34298677779757952 0 -0.29170149742564022 -0.33774372758027787 0 -0.2891776539730338 -0.34298677779757952 0 -0.29170149742564022 -0.33774372758027787 0 -0.29741733803681403 -0.33874074811544808 0 -0.29170149742564022 -0.33774372758027787 0 -0.29741733803681403 -0.33874074811544808 0 -0.29867682417408098 -0.33640834020657118 0 -0.28965604822504809 -0.33142402451237801 0 -0.29867682417408098 -0.33640834020657118 0 -0.29932520055631862 -0.32208048385350618 0 -0.29170149742564022 -0.33774372758027787 0 -0.28965604822504809 -0.33142402451237801 0 -0.29867682417408098 -0.33640834020657118 0 -0.3176970377387407 -0.35113048049750828 0 -0.30314890430576458 -0.32812661739943849 0 -0.31407168621869808 -0.33235753009688562 0 -0.3176970377387407 -0.35113048049750828 0 -0.30314890430576458 -0.32812661739943849 0 -0.29867682417408098 -0.33640834020657118 0 -0.29932520055631862 -0.32208048385350618 0 -0.30314890430576458 -0.32812661739943849 0 -0.29867682417408098 -0.33640834020657118 0 -0.30528341154751198 -0.3461151629851294 0 -0.30314890430576458 -0.32812661739943849 0 -0.29867682417408098 -0.33640834020657118 0 -0.3176970377387407 -0.35113048049750828 0 -0.30528341154751198 -0.3461151629851294 0 -0.30314890430576458 -0.32812661739943849 0 -0.30314890430576458 -0.32812661739943849 0 -0.29867682417408098 -0.33640834020657118 0 -0.29932520055631862 -0.32208048385350618 0 -0.29780721385131131 -0.35562503613984842 0 -0.29741733803681403 -0.33874074811544808 0 -0.29867682417408098 -0.33640834020657118 0 -0.29741733803681403 -0.33874074811544808 0 -0.29867682417408098 -0.33640834020657118 0 -0.31373342625231959 -0.30852543087634682 0 -0.30314890430576458 -0.32812661739943849 0 -0.29932520055631862 -0.32208048385350618 0 -0.31373342625231959 -0.30852543087634682 0 -0.30314890430576458 -0.32812661739943849 0 -0.31373342625231959 -0.30852543087634682 0 -0.31407168621869808 -0.33235753009688562 0 -0.30314890430576458 -0.32812661739943849 0 -0.30314890430576458 -0.32812661739943849 0 -0.29932520055631862 -0.32208048385350618 0 -0.31373342625231959 -0.30852543087634682 0 -0.29932520055631862 -0.32208048385350618 0 -0.30057562364289903 -0.29444856687460291 0 -0.29932520055631862 -0.32208048385350618 0 -0.30057562364289903 -0.29444856687460291 0 -0.30057562364289903 -0.29444856687460291 0 -0.2918125296198778 -0.28259568434653037 0 -0.30182604672947938 -0.26681664989569948 0 -0.32431794819887338 -0.28892424435325448 0 -0.31252461293282757 -0.28193746500804001 0 -0.30057562364289903 -0.29444856687460291 0 -0.31252461293282757 -0.28193746500804001 0 -0.30057562364289903 -0.29444856687460291 0 -0.30442593061461259 -0.27278562407755819 0 -0.28908265192888999 -0.29316380957599991 0 -0.28883061712391922 -0.30548619279463002 0 -0.27833603369151999 -0.28889190173575391 0 -0.30057562364289903 -0.29444856687460291 0 -0.28908265192888999 -0.29316380957599991 0 -0.2918125296198778 -0.28259568434653037 0 -0.28908265192888999 -0.29316380957599991 0 -0.2918125296198778 -0.28259568434653037 0 -0.28514265855668108 -0.28648614265343381 0 -0.2918125296198778 -0.28259568434653037 0 -0.28514265855668108 -0.28648614265343381 0 -0.28501470707062709 -0.27994458709009579 0 -0.28514265855668108 -0.28648614265343381 0 -0.27833603369151999 -0.28889190173575391 0 -0.28103571002294031 -0.28437654134894153 0 -0.28103571002294031 -0.28437654134894153 0 -0.28096407796849698 -0.27980202785639152 0 -0.28501470707062709 -0.27994458709009579 0 -0.28514265855668108 -0.28648614265343381 0 -0.28103571002294031 -0.28437654134894153 0 -0.28501470707062709 -0.27994458709009579 0 -0.28908265192888999 -0.29316380957599991 0 -0.28514265855668108 -0.28648614265343381 0 -0.27833603369151999 -0.28889190173575391 0 -0.28883061712391922 -0.30548619279463002 0 -0.27833603369151999 -0.28889190173575391 0 -0.29932520055631862 -0.32208048385350618 0 -0.30057562364289903 -0.29444856687460291 0 -0.28883061712391922 -0.30548619279463002 0 -0.30057562364289903 -0.29444856687460291 0 -0.28908265192888999 -0.29316380957599991 0 -0.28883061712391922 -0.30548619279463002 0 -0.26732940286055779 -0.31374319900315017 0 -0.26382919682589762 -0.29349737194608261 0 -0.27234430264984189 -0.28754878953411622 0 -0.26732940286055779 -0.31374319900315017 0 -0.28883061712391922 -0.30548619279463002 0 -0.27833603369151999 -0.28889190173575391 0 -0.26732940286055779 -0.31374319900315017 0 -0.27234430264984189 -0.28754878953411622 0 -0.25238151110775198 -0.31523893993999358 0 -0.26732940286055779 -0.31374319900315017 0 -0.2562442207622766 -0.29823393437229567 0 -0.26732940286055779 -0.31374319900315017 0 -0.2562442207622766 -0.29823393437229567 0 -0.26382919682589762 -0.29349737194608261 0 -0.25238151110775198 -0.31523893993999358 0 -0.2562442207622766 -0.29823393437229567 0 -0.2454187055718281 -0.30245142025387772 0 -0.25703893688407731 -0.28824645744223992 0 -0.25651398738294962 -0.28354580761452358 0 -0.25225643245827201 -0.28572961195679092 0 -0.25703893688407731 -0.28824645744223992 0 -0.25651398738294962 -0.28354580761452358 0 -0.25896178320263019 -0.28409397728017632 0 -0.25651398738294962 -0.28354580761452358 0 -0.25225643245827201 -0.28572961195679092 0 -0.25576596663445739 -0.27916060851642033 0 -0.25703893688407731 -0.28824645744223992 0 -0.25225643245827201 -0.28572961195679092 0 -0.25041842839399159 -0.29232496755575482 0 -0.2562442207622766 -0.29823393437229567 0 -0.25041842839399159 -0.29232496755575482 0 -0.24793091216964791 -0.29576781264707991 0 -0.2562442207622766 -0.29823393437229567 0 -0.25703893688407731 -0.28824645744223992 0 -0.25041842839399159 -0.29232496755575482 0 -0.2562442207622766 -0.29823393437229567 0 -0.25703893688407731 -0.28824645744223992 0 -0.26382919682589762 -0.29349737194608261 0 -0.25703893688407731 -0.28824645744223992 0 -0.26382919682589762 -0.29349737194608261 0 -0.26236981086850453 -0.28603539758725732 0 -0.26382919682589762 -0.29349737194608261 0 -0.26236981086850453 -0.28603539758725732 0 -0.26689531803079131 -0.28616043333650082 0 -0.25703893688407731 -0.28824645744223992 0 -0.26236981086850453 -0.28603539758725732 0 -0.25896178320263019 -0.28409397728017632 0 -0.26236981086850453 -0.28603539758725732 0 -0.25896178320263019 -0.28409397728017632 0 -0.26259696263117371 -0.28164521152716698 0 -0.25651398738294962 -0.28354580761452358 0 -0.25896178320263019 -0.28409397728017632 0 -0.25897053865353709 -0.28077424916423871 0 -0.25896178320263019 -0.28409397728017632 0 -0.26259696263117371 -0.28164521152716698 0 -0.25897053865353709 -0.28077424916423871 0 -0.26236981086850453 -0.28603539758725732 0 -0.26489811413794978 -0.28304345618749738 0 -0.26689531803079131 -0.28616043333650082 0 -0.26236981086850453 -0.28603539758725732 0 -0.26259696263117371 -0.28164521152716698 0 -0.26489811413794978 -0.28304345618749738 0 -0.26259696263117371 -0.28164521152716698 0 -0.26489811413794978 -0.28304345618749738 0 -0.26607884606229038 -0.27932258841214502 0 -0.26489811413794978 -0.28304345618749738 0 -0.26852840059840832 -0.2819225928798102 0 -0.26607884606229038 -0.27932258841214502 0 -0.26852840059840832 -0.2819225928798102 0 -0.27234430264984189 -0.28754878953411622 0 -0.27102118002902298 -0.2750689529052896 0 -0.26732940286055779 -0.31374319900315017 0 -0.27234430264984189 -0.28754878953411622 0 -0.27833603369151999 -0.28889190173575391 0 -0.26489811413794978 -0.28304345618749738 0 -0.26852840059840832 -0.2819225928798102 0 -0.26689531803079131 -0.28616043333650082 0 -0.26852840059840832 -0.2819225928798102 0 -0.26689531803079131 -0.28616043333650082 0 -0.27234430264984189 -0.28754878953411622 0 -0.26382919682589762 -0.29349737194608261 0 -0.26689531803079131 -0.28616043333650082 0 -0.27234430264984189 -0.28754878953411622 0 -0.27234430264984189 -0.28754878953411622 0 -0.27793988544899673 -0.28347991495495939 0 -0.27804507437949938 -0.27718130833884752 0 -0.27234430264984189 -0.28754878953411622 0 -0.27833603369151999 -0.28889190173575391 0 -0.27793988544899673 -0.28347991495495939 0 -0.27833603369151999 -0.28889190173575391 0 -0.27793988544899673 -0.28347991495495939 0 -0.28103571002294031 -0.28437654134894153 0 -0.27793988544899673 -0.28347991495495939 0 -0.28103571002294031 -0.28437654134894153 0 -0.28096407796849698 -0.27980202785639152 0 -0.27234430264984189 -0.28754878953411622 0 -0.27735920243912621 -0.26135438006508199 0 -0.27234430264984189 -0.28754878953411622 0 -0.27102118002902298 -0.2750689529052896 0 -0.27735920243912621 -0.26135438006508199 0 -0.27234430264984189 -0.28754878953411622 0 -0.27869232295678109 -0.2697563809873203 0 -0.27735920243912621 -0.26135438006508199 0 -0.27793988544899673 -0.28347991495495939 0 -0.28096407796849698 -0.27980202785639152 0 -0.27804507437949938 -0.27718130833884752 0 -0.27234430264984189 -0.28754878953411622 0 -0.27804507437949938 -0.27718130833884752 0 -0.27869232295678109 -0.2697563809873203 0 -0.27804507437949938 -0.27718130833884752 0 -0.27869232295678109 -0.2697563809873203 0 -0.28278501292042141 -0.27402778754911322 0 -0.28096407796849698 -0.27980202785639152 0 -0.27804507437949938 -0.27718130833884752 0 -0.28278501292042141 -0.27402778754911322 0 -0.27102118002902298 -0.2750689529052896 0 -0.27291029357323071 -0.26467419567247308 0 -0.27735920243912621 -0.26135438006508199 0 -0.27102118002902298 -0.2750689529052896 0 -0.2643026828621306 -0.27660160053168781 0 -0.27291029357323071 -0.26467419567247308 0 -0.27102118002902298 -0.2750689529052896 0 -0.26607884606229038 -0.27932258841214502 0 -0.2643026828621306 -0.27660160053168781 0 -0.26852840059840832 -0.2819225928798102 0 -0.27102118002902298 -0.2750689529052896 0 -0.26607884606229038 -0.27932258841214502 0 -0.25897053865353709 -0.28077424916423871 0 -0.2643026828621306 -0.27660160053168781 0 -0.25576596663445739 -0.27916060851642033 0 -0.2643026828621306 -0.27660160053168781 0 -0.25576596663445739 -0.27916060851642033 0 -0.27291029357323071 -0.26467419567247308 0 -0.25270290136231571 -0.27975313256882828 0 -0.25576596663445739 -0.27916060851642033 0 -0.27291029357323071 -0.26467419567247308 0 -0.25576596663445739 -0.27916060851642033 0 -0.27291029357323071 -0.26467419567247308 0 -0.26259696263117371 -0.28164521152716698 0 -0.25897053865353709 -0.28077424916423871 0 -0.2643026828621306 -0.27660160053168781 0 -0.25270290136231571 -0.27975313256882828 0 -0.27291029357323071 -0.26467419567247308 0 -0.25829421593134749 -0.2692709340905533 0 -0.25270290136231571 -0.27975313256882828 0 -0.27291029357323071 -0.26467419567247308 0 -0.26259696263117371 -0.28164521152716698 0 -0.26607884606229038 -0.27932258841214502 0 -0.2643026828621306 -0.27660160053168781 0 -0.25829421593134749 -0.2692709340905533 0 -0.26367100140397198 -0.26398244320987962 0 -0.27291029357323071 -0.26467419567247308 0 -0.25829421593134749 -0.2692709340905533 0 -0.25677269410848302 -0.26424319159343851 0 -0.26367100140397198 -0.26398244320987962 0 -0.25829421593134749 -0.2692709340905533 0 -0.25269197138231098 -0.26908379047068148 0 -0.25101643375777322 -0.27388885102801908 0 -0.25829421593134749 -0.2692709340905533 0 -0.25269197138231098 -0.26908379047068148 0 -0.25677269410848302 -0.26424319159343851 0 -0.25269197138231098 -0.26908379047068148 0 -0.25004532574454003 -0.26465311550714898 0 -0.25677269410848302 -0.26424319159343851 0 -0.25101643375777322 -0.27388885102801908 0 -0.25270290136231571 -0.27975313256882828 0 -0.24881615645343511 -0.2780623679240658 0 -0.25829421593134749 -0.2692709340905533 0 -0.25101643375777322 -0.27388885102801908 0 -0.25270290136231571 -0.27975313256882828 0 -0.25651398738294962 -0.28354580761452358 0 -0.25897053865353709 -0.28077424916423871 0 -0.25576596663445739 -0.27916060851642033 0 -0.26151375126983539 -0.25727258277534493 0 -0.26935117868715769 -0.25292376973431518 0 -0.2604980440622664 -0.23994881258203651 0 -0.25172158828799518 -0.25688399676078139 0 -0.26151375126983539 -0.25727258277534493 0 -0.2604980440622664 -0.23994881258203651 0 -0.25172158828799518 -0.25688399676078139 0 -0.25677269410848302 -0.26424319159343851 0 -0.26151375126983539 -0.25727258277534493 0 -0.25172158828799518 -0.25688399676078139 0 -0.25004532574454003 -0.26465311550714898 0 -0.25677269410848302 -0.26424319159343851 0 -0.25677269410848302 -0.26424319159343851 0 -0.26367100140397198 -0.26398244320987962 0 -0.26151375126983539 -0.25727258277534493 0 -0.26367100140397198 -0.26398244320987962 0 -0.26151375126983539 -0.25727258277534493 0 -0.26844953291841128 -0.26022234110265008 0 -0.27985294219018397 -0.25916237071341042 0 -0.27735920243912621 -0.26135438006508199 0 -0.28053827580960827 -0.2447490732598582 0 -0.26151375126983539 -0.25727258277534493 0 -0.26935117868715769 -0.25292376973431518 0 -0.26844953291841128 -0.26022234110265008 0 -0.26935117868715769 -0.25292376973431518 0 -0.27735920243912621 -0.26135438006508199 0 -0.28053827580960827 -0.2447490732598582 0 -0.27735920243912621 -0.26135438006508199 0 -0.28053827580960827 -0.2447490732598582 0 -0.26935117868715769 -0.25292376973431518 0 -0.26844953291841128 -0.26022234110265008 0 -0.27735920243912621 -0.26135438006508199 0 -0.26844953291841128 -0.26022234110265008 0 -0.27291029357323071 -0.26467419567247308 0 -0.27735920243912621 -0.26135438006508199 0 -0.26367100140397198 -0.26398244320987962 0 -0.26844953291841128 -0.26022234110265008 0 -0.27291029357323071 -0.26467419567247308 0 -0.27869232295678109 -0.2697563809873203 0 -0.27735920243912621 -0.26135438006508199 0 -0.28138151798262701 -0.26395997548091998 0 -0.27291029357323071 -0.26467419567247308 0 -0.27735920243912621 -0.26135438006508199 0 -0.27985294219018397 -0.25916237071341042 0 -0.27735920243912621 -0.26135438006508199 0 -0.28138151798262701 -0.26395997548091998 0 -0.27985294219018397 -0.25916237071341042 0 -0.27735920243912621 -0.26135438006508199 0 -0.27985294219018397 -0.25916237071341042 0 -0.29026801159737442 -0.25000747412518948 0 -0.27985294219018397 -0.25916237071341042 0 -0.29026801159737442 -0.25000747412518948 0 -0.28635413791328213 -0.25999901814475668 0 -0.27985294219018397 -0.25916237071341042 0 -0.29026801159737442 -0.25000747412518948 0 -0.28053827580960827 -0.2447490732598582 0 -0.29026801159737442 -0.25000747412518948 0 -0.29268791555190632 -0.26029070854663089 0 -0.28635413791328213 -0.25999901814475668 0 -0.29268791555190632 -0.26029070854663089 0 -0.28635413791328213 -0.25999901814475668 0 -0.2851487713342008 -0.26666434154842228 0 -0.27985294219018397 -0.25916237071341042 0 -0.28635413791328213 -0.25999901814475668 0 -0.28138151798262701 -0.26395997548091998 0 -0.28635413791328213 -0.25999901814475668 0 -0.28138151798262701 -0.26395997548091998 0 -0.2851487713342008 -0.26666434154842228 0 -0.27869232295678109 -0.2697563809873203 0 -0.28138151798262701 -0.26395997548091998 0 -0.2851487713342008 -0.26666434154842228 0 -0.2918125296198778 -0.28259568434653037 0 -0.28978056811834318 -0.27149762639696551 0 -0.30182604672947938 -0.26681664989569948 0 -0.27869232295678109 -0.2697563809873203 0 -0.2851487713342008 -0.26666434154842228 0 -0.28278501292042141 -0.27402778754911322 0 -0.2851487713342008 -0.26666434154842228 0 -0.28278501292042141 -0.27402778754911322 0 -0.28978056811834318 -0.27149762639696551 0 -0.2918125296198778 -0.28259568434653037 0 -0.28501470707062709 -0.27994458709009579 0 -0.28978056811834318 -0.27149762639696551 0 -0.28501470707062709 -0.27994458709009579 0 -0.28278501292042141 -0.27402778754911322 0 -0.28978056811834318 -0.27149762639696551 0 -0.28096407796849698 -0.27980202785639152 0 -0.28501470707062709 -0.27994458709009579 0 -0.28278501292042141 -0.27402778754911322 0 -0.29268791555190632 -0.26029070854663089 0 -0.2851487713342008 -0.26666434154842228 0 -0.28978056811834318 -0.27149762639696551 0 -0.29268791555190632 -0.26029070854663089 0 -0.28978056811834318 -0.27149762639696551 0 -0.30182604672947938 -0.26681664989569948 0 -0.30057562364289903 -0.29444856687460291 0 -0.30182604672947938 -0.26681664989569948 0 -0.30442593061461259 -0.27278562407755819 0 -0.30057562364289903 -0.29444856687460291 0 -0.30182604672947938 -0.26681664989569948 0 -0.31966420038002008 -0.27105434095386061 0 -0.31252461293282757 -0.28193746500804001 0 -0.30442593061461259 -0.27278562407755819 0 -0.31966420038002008 -0.27105434095386061 0 -0.30442593061461259 -0.27278562407755819 0 -0.31293921215208581 -0.25985783795421658 0 -0.31966420038002008 -0.27105434095386061 0 -0.30442593061461259 -0.27278562407755819 0 -0.31293921215208581 -0.25985783795421658 0 -0.30182604672947938 -0.26681664989569948 0 -0.30442593061461259 -0.27278562407755819 0 -0.30182604672947938 -0.26681664989569948 0 -0.30307646981606179 -0.23918473291679651 0 -0.31293921215208581 -0.25985783795421658 0 -0.30182604672947938 -0.26681664989569948 0 -0.30307646981606179 -0.23918473291679651 0 -0.29268791555190632 -0.26029070854663089 0 -0.30182604672947938 -0.26681664989569948 0 -0.30307646981606179 -0.23918473291679651 0 -0.33231953870453812 -0.46435907334055893 0 -0.35242222454366912 -0.45589935490014122 0 -0.33231953870453812 -0.46435907334055893 0 -0.34326946483396581 -0.44265267789020563 0 -0.35242222454366912 -0.45589935490014122 0 -0.33481475960456331 -0.4680238279525672 0 -0.33231953870453812 -0.46435907334055893 0 -0.35242222454366912 -0.45589935490014122 0 -0.33481475960456331 -0.4680238279525672 0 -0.33231953870453812 -0.46435907334055893 0 -0.32813189286290673 -0.47189503237043479 0 -0.33481475960456331 -0.4680238279525672 0 -0.33231953870453812 -0.46435907334055893 0 -0.34326946483396581 -0.44265267789020563 0 -0.31466242774451808 -0.43842590693240929 0 -0.33231953870453812 -0.46435907334055893 0 -0.34326946483396581 -0.44265267789020563 0 -0.32349098322452829 -0.45139249013648391 0 -0.34326946483396581 -0.44265267789020563 0 -0.32349098322452829 -0.45139249013648391 0 -0.31466242774451808 -0.43842590693240929 0 -0.32349098322452829 -0.45139249013648391 0 -0.31466242774451808 -0.43842590693240929 0 -0.30622810054540861 -0.45178475433591292 0 -0.32349098322452829 -0.45139249013648391 0 -0.31466242774451808 -0.43842590693240929 0 -0.32349098322452829 -0.45139249013648391 0 -0.32000891476178789 -0.45948066553859651 0 -0.30622810054540861 -0.45178475433591292 0 -0.32000891476178789 -0.45948066553859651 0 -0.31799703657267708 -0.47038634434143162 0 -0.30622810054540861 -0.45178475433591292 0 -0.33231953870453812 -0.46435907334055893 0 -0.32349098322452829 -0.45139249013648391 0 -0.33231953870453812 -0.46435907334055893 0 -0.32349098322452829 -0.45139249013648391 0 -0.32000891476178789 -0.45948066553859651 0 -0.33231953870453812 -0.46435907334055893 0 -0.31799703657267708 -0.47038634434143162 0 -0.33231953870453812 -0.46435907334055893 0 -0.32000891476178789 -0.45948066553859651 0 -0.31799703657267708 -0.47038634434143162 0 -0.31799703657267708 -0.47038634434143162 0 -0.30991516649993173 -0.47378739959517591 0 -0.31799703657267708 -0.47038634434143162 0 -0.32455251223958859 -0.48074771178915382 0 -0.30991516649993173 -0.47378739959517591 0 -0.32455251223958859 -0.48074771178915382 0 -0.30991516649993173 -0.47378739959517591 0 -0.32455251223958859 -0.48074771178915382 0 -0.3134768172442467 -0.48741200888955472 0 -0.30991516649993173 -0.47378739959517591 0 -0.31799703657267708 -0.47038634434143162 0 -0.32455251223958859 -0.48074771178915382 0 -0.32813189286290673 -0.47189503237043479 0 -0.31799703657267708 -0.47038634434143162 0 -0.32455251223958859 -0.48074771178915382 0 -0.33231953870453812 -0.46435907334055893 0 -0.31799703657267708 -0.47038634434143162 0 -0.32813189286290673 -0.47189503237043479 0 -0.3134768172442467 -0.48741200888955472 0 -0.3367331348780061 -0.49999999999999928 0 -0.30703095909454642 -0.5 0 -0.32455251223958859 -0.48074771178915382 0 -0.3134768172442467 -0.48741200888955472 0 -0.3367331348780061 -0.49999999999999928 0 -0.32455251223958859 -0.48074771178915382 0 -0.344796029410119 -0.49037385589457688 0 -0.32455251223958859 -0.48074771178915382 0 -0.3367331348780061 -0.49999999999999928 0 -0.32455251223958859 -0.48074771178915382 0 -0.3367331348780061 -0.49999999999999928 0 -0.344796029410119 -0.49037385589457688 0 -0.33481475960456331 -0.4680238279525672 0 -0.34059659290865191 -0.47884550166226669 0 -0.3517995805531331 -0.47384237403316459 0 -0.32455251223958859 -0.48074771178915382 0 -0.34059659290865191 -0.47884550166226669 0 -0.344796029410119 -0.49037385589457688 0 -0.32455251223958859 -0.48074771178915382 0 -0.33202393940392771 -0.47487801844360539 0 -0.34059659290865191 -0.47884550166226669 0 -0.33481475960456331 -0.4680238279525672 0 -0.33202393940392771 -0.47487801844360539 0 -0.34059659290865191 -0.47884550166226669 0 -0.32455251223958859 -0.48074771178915382 0 -0.32813189286290673 -0.47189503237043479 0 -0.33202393940392771 -0.47487801844360539 0 -0.33481475960456331 -0.4680238279525672 0 -0.32813189286290673 -0.47189503237043479 0 -0.33202393940392771 -0.47487801844360539 0 -0.3517995805531331 -0.47384237403316459 0 -0.344796029410119 -0.49037385589457688 0 -0.36031277430010211 -0.48550152457844747 0 -0.34059659290865191 -0.47884550166226669 0 -0.3517995805531331 -0.47384237403316459 0 -0.344796029410119 -0.49037385589457688 0 -0.3517995805531331 -0.47384237403316459 0 -0.36031277430010211 -0.48550152457844747 0 -0.36537812722007418 -0.47636176512398598 0 -0.3367331348780061 -0.49999999999999928 0 -0.344796029410119 -0.49037385589457688 0 -0.36503954658064902 -0.50000000000000044 0 -0.344796029410119 -0.49037385589457688 0 -0.36503954658064902 -0.50000000000000044 0 -0.36031277430010211 -0.48550152457844747 0 -0.344796029410119 -0.49037385589457688 0 -0.36503954658064902 -0.50000000000000044 0 -0.3755019779787277 -0.48463461395560598 0 -0.36503954658064902 -0.50000000000000044 0 -0.36031277430010211 -0.48550152457844747 0 -0.3517995805531331 -0.47384237403316459 0 -0.36537812722007418 -0.47636176512398598 0 -0.3649273878952275 -0.466047445121822 0 -0.3755019779787277 -0.48463461395560598 0 -0.36031277430010211 -0.48550152457844747 0 -0.36537812722007418 -0.47636176512398598 0 -0.3755019779787277 -0.48463461395560598 0 -0.36537812722007418 -0.47636176512398598 0 -0.3743489153731806 -0.47178286793089008 0 -0.36537812722007418 -0.47636176512398598 0 -0.3743489153731806 -0.47178286793089008 0 -0.3649273878952275 -0.466047445121822 0 -0.37511715983641908 -0.46290678162757798 0 -0.36859604700435061 -0.45619041557612738 0 -0.3649273878952275 -0.466047445121822 0 -0.36859604700435061 -0.45619041557612738 0 -0.35242222454366912 -0.45589935490014122 0 -0.37252491038279989 -0.44743963645972262 0 -0.37511715983641908 -0.46290678162757798 0 -0.3743489153731806 -0.47178286793089008 0 -0.3649273878952275 -0.466047445121822 0 -0.36859604700435061 -0.45619041557612738 0 -0.3649273878952275 -0.466047445121822 0 -0.35242222454366912 -0.45589935490014122 0 -0.37511715983641908 -0.46290678162757798 0 -0.36859604700435061 -0.45619041557612738 0 -0.37252491038279989 -0.44743963645972262 0 -0.33481475960456331 -0.4680238279525672 0 -0.3517995805531331 -0.47384237403316459 0 -0.35242222454366912 -0.45589935490014122 0 -0.3517995805531331 -0.47384237403316459 0 -0.3649273878952275 -0.466047445121822 0 -0.35242222454366912 -0.45589935490014122 0 -0.34326946483396581 -0.44265267789020563 0 -0.35242222454366912 -0.45589935490014122 0 -0.37252491038279989 -0.44743963645972262 0 -0.34326946483396581 -0.44265267789020563 0 -0.37252491038279989 -0.44743963645972262 0 -0.34326946483396581 -0.44265267789020563 0 -0.37252491038279989 -0.44743963645972262 0 -0.35281285475310892 -0.43040955425544319 0 -0.35242222454366912 -0.45589935490014122 0 -0.37252491038279989 -0.44743963645972262 0 -0.37252491038279989 -0.44743963645972262 0 -0.35281285475310892 -0.43040955425544319 0 -0.37360776445756222 -0.43190754127687497 0 -0.3604515782202824 -0.41615659104997449 0 -0.35281285475310892 -0.43040955425544319 0 -0.37252491038279989 -0.44743963645972262 0 -0.37360776445756222 -0.43190754127687497 0 -0.35281285475310892 -0.43040955425544319 0 -0.38296974127767941 -0.41510804736830992 0 -0.3604515782202824 -0.41615659104997449 0 -0.36574522751293398 -0.39442041805045369 0 -0.38296974127767941 -0.41510804736830992 0 -0.37360776445756222 -0.43190754127687497 0 -0.3604515782202824 -0.41615659104997449 0 -0.3604515782202824 -0.41615659104997449 0 -0.3476779029651248 -0.40714288613616262 0 -0.34620496227569297 -0.42066404010689901 0 -0.34326946483396581 -0.44265267789020563 0 -0.35281285475310892 -0.43040955425544319 0 -0.33592221678600859 -0.42946155283282011 0 -0.34620496227569297 -0.42066404010689901 0 -0.35281285475310892 -0.43040955425544319 0 -0.33592221678600859 -0.42946155283282011 0 -0.3604515782202824 -0.41615659104997449 0 -0.34620496227569297 -0.42066404010689901 0 -0.35281285475310892 -0.43040955425544319 0 -0.37227104331404492 -0.37147264876230612 0 -0.34852071374818872 -0.37373278873259769 0 -0.36574522751293398 -0.39442041805045369 0 -0.38296974127767941 -0.41510804736830992 0 -0.36574522751293398 -0.39442041805045369 0 -0.3604515782202824 -0.41615659104997449 0 -0.3476779029651248 -0.40714288613616262 0 -0.36574522751293398 -0.39442041805045369 0 -0.3476779029651248 -0.40714288613616262 0 -0.36574522751293398 -0.39442041805045369 0 -0.34388186908700102 -0.39108595842240729 0 -0.34852071374818872 -0.37373278873259769 0 -0.34388186908700102 -0.39108595842240729 0 -0.33900671608016142 -0.38202244818007258 0 -0.34852071374818872 -0.37373278873259769 0 -0.36574522751293398 -0.39442041805045369 0 -0.34852071374818872 -0.37373278873259769 0 -0.36574522751293398 -0.39442041805045369 0 -0.34388186908700102 -0.39108595842240729 0 -0.34852071374818872 -0.37373278873259769 0 -0.33224517117171731 -0.37413434359557801 0 -0.33900671608016142 -0.38202244818007258 0 -0.33224517117171731 -0.37413434359557801 0 -0.33900671608016142 -0.38202244818007258 0 -0.33137911031373829 -0.38913670196970729 0 -0.34388186908700102 -0.39108595842240729 0 -0.33900671608016142 -0.38202244818007258 0 -0.33137911031373829 -0.38913670196970729 0 -0.3476779029651248 -0.40714288613616262 0 -0.34388186908700102 -0.39108595842240729 0 -0.33417126545874237 -0.4027895945723674 0 -0.33137911031373829 -0.38913670196970729 0 -0.33417126545874237 -0.4027895945723674 0 -0.3218308966105039 -0.40001402793500068 0 -0.34388186908700102 -0.39108595842240729 0 -0.33137911031373829 -0.38913670196970729 0 -0.33417126545874237 -0.4027895945723674 0 -0.3218308966105039 -0.40001402793500068 0 -0.3159508102009756 -0.38438867780800162 0 -0.31121042322855641 -0.39501699578723892 0 -0.3218308966105039 -0.40001402793500068 0 -0.31121042322855641 -0.39501699578723892 0 -0.30564103990174551 -0.40433846074368662 0 -0.33137911031373829 -0.38913670196970729 0 -0.3218308966105039 -0.40001402793500068 0 -0.3159508102009756 -0.38438867780800162 0 -0.3218308966105039 -0.40001402793500068 0 -0.31406195039717788 -0.41201399390707572 0 -0.30564103990174551 -0.40433846074368662 0 -0.33224517117171731 -0.37413434359557801 0 -0.33137911031373829 -0.38913670196970729 0 -0.3159508102009756 -0.38438867780800162 0 -0.33224517117171731 -0.37413434359557801 0 -0.31438354006152741 -0.36875611493129867 0 -0.3159508102009756 -0.38438867780800162 0 -0.34326946483396581 -0.44265267789020563 0 -0.31466242774451808 -0.43842590693240929 0 -0.33592221678600859 -0.42946155283282011 0 -0.3476779029651248 -0.40714288613616262 0 -0.34620496227569297 -0.42066404010689901 0 -0.33706477181825217 -0.41533181296965382 0 -0.34620496227569297 -0.42066404010689901 0 -0.33592221678600859 -0.42946155283282011 0 -0.33706477181825217 -0.41533181296965382 0 -0.3476779029651248 -0.40714288613616262 0 -0.33417126545874237 -0.4027895945723674 0 -0.33706477181825217 -0.41533181296965382 0 -0.33417126545874237 -0.4027895945723674 0 -0.33706477181825217 -0.41533181296965382 0 -0.32535906374400109 -0.4159625854605975 0 -0.33592221678600859 -0.42946155283282011 0 -0.33706477181825217 -0.41533181296965382 0 -0.32535906374400109 -0.4159625854605975 0 -0.3218308966105039 -0.40001402793500068 0 -0.31406195039717788 -0.41201399390707572 0 -0.32535906374400109 -0.4159625854605975 0 -0.31406195039717788 -0.41201399390707572 0 -0.32535906374400109 -0.4159625854605975 0 -0.32090442041243489 -0.42789514731710071 0 -0.33417126545874237 -0.4027895945723674 0 -0.3218308966105039 -0.40001402793500068 0 -0.32535906374400109 -0.4159625854605975 0 -0.31466242774451808 -0.43842590693240929 0 -0.33592221678600859 -0.42946155283282011 0 -0.32090442041243489 -0.42789514731710071 0 -0.33592221678600859 -0.42946155283282011 0 -0.32535906374400109 -0.4159625854605975 0 -0.32090442041243489 -0.42789514731710071 0 -0.31466242774451808 -0.43842590693240929 0 -0.32090442041243489 -0.42789514731710071 0 -0.30561837953086152 -0.4251428275057007 0 -0.31466242774451808 -0.43842590693240929 0 -0.28598685607781638 -0.43418900979622771 0 -0.31466242774451808 -0.43842590693240929 0 -0.30561837953086152 -0.4251428275057007 0 -0.28598685607781638 -0.43418900979622771 0 -0.31466242774451808 -0.43842590693240929 0 -0.30561837953086152 -0.4251428275057007 0 -0.32090442041243489 -0.42789514731710071 0 -0.2965743313172039 -0.41185974807899273 0 -0.32090442041243489 -0.42789514731710071 0 -0.30561837953086152 -0.4251428275057007 0 -0.2965743313172039 -0.41185974807899273 0 -0.31406195039717788 -0.41201399390707572 0 -0.32090442041243489 -0.42789514731710071 0 -0.2965743313172039 -0.41185974807899273 0 -0.31406195039717788 -0.41201399390707572 0 -0.2965743313172039 -0.41185974807899273 0 -0.30564103990174551 -0.40433846074368662 0 -0.30561837953086152 -0.4251428275057007 0 -0.2965743313172039 -0.41185974807899273 0 -0.30561837953086152 -0.4251428275057007 0 -0.2965743313172039 -0.41185974807899273 0 -0.28816769525652608 -0.41934601936165078 0 -0.2965743313172039 -0.41185974807899273 0 -0.28690452256396809 -0.40802859202950892 0 -0.28816769525652608 -0.41934601936165078 0 -0.30561837953086152 -0.4251428275057007 0 -0.28816769525652608 -0.41934601936165078 0 -0.28598685607781638 -0.43418900979622771 0 -0.31438354006152741 -0.36875611493129867 0 -0.29693760352854182 -0.37484173207312549 0 -0.3159508102009756 -0.38438867780800162 0 -0.29693760352854182 -0.37484173207312549 0 -0.3159508102009756 -0.38438867780800162 0 -0.30141894620100051 -0.39132681666226699 0 -0.3159508102009756 -0.38438867780800162 0 -0.30141894620100051 -0.39132681666226699 0 -0.31121042322855641 -0.39501699578723892 0 -0.30141894620100051 -0.39132681666226699 0 -0.31121042322855641 -0.39501699578723892 0 -0.30564103990174551 -0.40433846074368662 0 -0.2965743313172039 -0.41185974807899273 0 -0.30564103990174551 -0.40433846074368662 0 -0.29593638999336902 -0.40186524732471263 0 -0.30141894620100051 -0.39132681666226699 0 -0.30564103990174551 -0.40433846074368662 0 -0.29593638999336902 -0.40186524732471263 0 -0.2965743313172039 -0.41185974807899273 0 -0.27552151122349872 -0.39798432107298137 0 -0.2965743313172039 -0.41185974807899273 0 -0.28237559056417832 -0.39100592280892632 0 -0.27552151122349872 -0.39798432107298137 0 -0.2965743313172039 -0.41185974807899273 0 -0.28690452256396809 -0.40802859202950892 0 -0.27552151122349872 -0.39798432107298137 0 -0.2965743313172039 -0.41185974807899273 0 -0.28237559056417832 -0.39100592280892632 0 -0.2965743313172039 -0.41185974807899273 0 -0.29593638999336902 -0.40186524732471263 0 -0.28237559056417832 -0.39100592280892632 0 -0.30141894620100051 -0.39132681666226699 0 -0.29593638999336902 -0.40186524732471263 0 -0.29274202140988148 -0.39248613841547209 0 -0.29593638999336902 -0.40186524732471263 0 -0.28237559056417832 -0.39100592280892632 0 -0.29274202140988148 -0.39248613841547209 0 -0.29693760352854182 -0.37484173207312549 0 -0.30141894620100051 -0.39132681666226699 0 -0.29123715888097851 -0.38574656686598258 0 -0.30141894620100051 -0.39132681666226699 0 -0.29274202140988148 -0.39248613841547209 0 -0.29123715888097851 -0.38574656686598258 0 -0.28237559056417832 -0.39100592280892632 0 -0.29123715888097851 -0.38574656686598258 0 -0.28472066561877413 -0.37709208588744181 0 -0.28237559056417832 -0.39100592280892632 0 -0.29274202140988148 -0.39248613841547209 0 -0.29123715888097851 -0.38574656686598258 0 -0.29693760352854182 -0.37484173207312549 0 -0.29123715888097851 -0.38574656686598258 0 -0.28472066561877413 -0.37709208588744181 0 -0.26817684981115292 -0.3701520975388598 0 -0.28237559056417832 -0.39100592280892632 0 -0.28472066561877413 -0.37709208588744181 0 -0.26909853225321551 -0.38482057962975369 0 -0.27552151122349872 -0.39798432107298137 0 -0.25446869112979348 -0.38410889406697007 0 -0.26817684981115292 -0.3701520975388598 0 -0.28237559056417832 -0.39100592280892632 0 -0.26909853225321551 -0.38482057962975369 0 -0.26817684981115292 -0.3701520975388598 0 -0.28237559056417832 -0.39100592280892632 0 -0.27552151122349872 -0.39798432107298137 0 -0.26216593505038821 -0.40003740602642018 0 -0.26748158595744992 -0.41392413319429278 0 -0.28237559056417832 -0.39100592280892632 0 -0.26909853225321551 -0.38482057962975369 0 -0.27552151122349872 -0.39798432107298137 0 -0.27552151122349872 -0.39798432107298137 0 -0.25446869112979348 -0.38410889406697007 0 -0.27552151122349872 -0.39798432107298137 0 -0.26216593505038821 -0.40003740602642018 0 -0.25446869112979348 -0.38410889406697007 0 -0.26216593505038821 -0.40003740602642018 0 -0.25119195189081062 -0.40413227577143629 0 -0.25446869112979348 -0.38410889406697007 0 -0.26216593505038821 -0.40003740602642018 0 -0.25119195189081062 -0.40413227577143629 0 -0.26748158595744992 -0.41392413319429278 0 -0.26817684981115292 -0.3701520975388598 0 -0.26909853225321551 -0.38482057962975369 0 -0.25446869112979348 -0.38410889406697007 0 -0.28598685607781638 -0.43418900979622771 0 -0.25731128441111489 -0.42995211266004441 0 -0.28598685607781638 -0.43418900979622771 0 -0.26748158595744992 -0.41392413319429278 0 -0.25731128441111489 -0.42995211266004441 0 -0.28816769525652608 -0.41934601936165078 0 -0.28598685607781638 -0.43418900979622771 0 -0.26748158595744992 -0.41392413319429278 0 -0.28598685607781638 -0.43418900979622771 0 -0.25731128441111489 -0.42995211266004441 0 -0.27073559242217032 -0.44134138408834273 0 -0.28690452256396809 -0.40802859202950892 0 -0.28816769525652608 -0.41934601936165078 0 -0.26748158595744992 -0.41392413319429278 0 -0.28690452256396809 -0.40802859202950892 0 -0.26748158595744992 -0.41392413319429278 0 -0.28690452256396809 -0.40802859202950892 0 -0.27552151122349872 -0.39798432107298137 0 -0.26748158595744992 -0.41392413319429278 0 -0.26748158595744992 -0.41392413319429278 0 -0.24805864935093169 -0.41981967435907658 0 -0.26748158595744992 -0.41392413319429278 0 -0.25731128441111489 -0.42995211266004441 0 -0.24805864935093169 -0.41981967435907658 0 -0.25119195189081062 -0.40413227577143629 0 -0.26748158595744992 -0.41392413319429278 0 -0.24805864935093169 -0.41981967435907658 0 -0.25731128441111489 -0.42995211266004441 0 -0.25614776869779943 -0.44505142076967291 0 -0.23902726678776809 -0.44412022458874362 0 -0.25614776869779943 -0.44505142076967291 0 -0.26725909129047037 -0.45350369476864172 0 -0.24775598300350471 -0.45659113439444321 0 -0.25614776869779943 -0.44505142076967291 0 -0.26725909129047037 -0.45350369476864172 0 -0.27073559242217032 -0.44134138408834273 0 -0.25731128441111489 -0.42995211266004441 0 -0.25614776869779943 -0.44505142076967291 0 -0.27073559242217032 -0.44134138408834273 0 -0.26725909129047037 -0.45350369476864172 0 -0.24985943519203219 -0.47422045458176282 0 -0.24775598300350471 -0.45659113439444321 0 -0.26725909129047037 -0.45350369476864172 0 -0.27264948588105181 -0.4730314192254983 0 -0.24985943519203219 -0.47422045458176282 0 -0.26725909129047037 -0.45350369476864172 0 -0.28858712889519927 -0.4636455471819122 0 -0.26725909129047037 -0.45350369476864172 0 -0.28858712889519927 -0.4636455471819122 0 -0.27264948588105181 -0.4730314192254983 0 -0.26725909129047037 -0.45350369476864172 0 -0.27073559242217032 -0.44134138408834273 0 -0.29125680954531158 -0.44856684329525082 0 -0.28598685607781638 -0.43418900979622771 0 -0.27073559242217032 -0.44134138408834273 0 -0.29125680954531158 -0.44856684329525082 0 -0.26725909129047037 -0.45350369476864172 0 -0.29125680954531158 -0.44856684329525082 0 -0.28858712889519927 -0.4636455471819122 0 -0.29125680954531158 -0.44856684329525082 0 -0.28858712889519927 -0.4636455471819122 0 -0.30622810054540861 -0.45178475433591292 0 -0.31799703657267708 -0.47038634434143162 0 -0.30622810054540861 -0.45178475433591292 0 -0.30991516649993173 -0.47378739959517591 0 -0.28858712889519927 -0.4636455471819122 0 -0.30991516649993173 -0.47378739959517591 0 -0.28858712889519927 -0.4636455471819122 0 -0.30622810054540861 -0.45178475433591292 0 -0.30991516649993173 -0.47378739959517591 0 -0.31799703657267708 -0.47038634434143162 0 -0.30622810054540861 -0.45178475433591292 0 -0.31466242774451808 -0.43842590693240929 0 -0.29125680954531158 -0.44856684329525082 0 -0.30622810054540861 -0.45178475433591292 0 -0.31466242774451808 -0.43842590693240929 0 -0.28598685607781638 -0.43418900979622771 0 -0.29125680954531158 -0.44856684329525082 0 -0.3134768172442467 -0.48741200888955472 0 -0.30703095909454642 -0.5 0 -0.28915231350916232 -0.48252493306344868 0 -0.30991516649993173 -0.47378739959517591 0 -0.28915231350916232 -0.48252493306344868 0 -0.3134768172442467 -0.48741200888955472 0 -0.30991516649993173 -0.47378739959517591 0 -0.28915231350916232 -0.48252493306344868 0 -0.28858712889519927 -0.4636455471819122 0 -0.28915231350916232 -0.48252493306344868 0 -0.27264948588105181 -0.4730314192254983 0 -0.28858712889519927 -0.4636455471819122 0 -0.30991516649993173 -0.47378739959517591 0 -0.28915231350916232 -0.48252493306344868 0 -0.30703095909454642 -0.5 0 -0.28915231350916232 -0.48252493306344868 0 -0.27732878331108662 -0.5 0 -0.28915231350916232 -0.48252493306344868 0 -0.27732878331108662 -0.5 0 -0.2683894605183948 -0.49126246653172612 0 -0.28915231350916232 -0.48252493306344868 0 -0.2683894605183948 -0.49126246653172612 0 -0.28915231350916232 -0.48252493306344868 0 -0.2683894605183948 -0.49126246653172612 0 -0.27264948588105181 -0.4730314192254983 0 -0.2683894605183948 -0.49126246653172612 0 -0.27264948588105181 -0.4730314192254983 0 -0.24985943519203219 -0.47422045458176282 0 -0.27732878331108662 -0.5 0 -0.2683894605183948 -0.49126246653172612 0 -0.24762660752762669 -0.500000000000002 0 -0.2683894605183948 -0.49126246653172612 0 -0.24762660752762669 -0.500000000000002 0 -0.24985943519203219 -0.47422045458176282 0 -0.2683894605183948 -0.49126246653172612 0 -0.24762660752762669 -0.500000000000002 0 -0.24762660752762669 -0.500000000000002 0 -0.24985943519203219 -0.47422045458176282 0 -0.2305334212441103 -0.48269484447913569 0 -0.24985943519203219 -0.47422045458176282 0 -0.2305334212441103 -0.48269484447913569 0 -0.2249032539898547 -0.46200660971897362 0 -0.2305334212441103 -0.48269484447913569 0 -0.2249032539898547 -0.46200660971897362 0 -0.20880242932003371 -0.48037037229914992 0 -0.24762660752762669 -0.500000000000002 0 -0.2305334212441103 -0.48269484447913569 0 -0.21934656121631099 -0.5 0 -0.2305334212441103 -0.48269484447913569 0 -0.21934656121631099 -0.5 0 -0.20880242932003371 -0.48037037229914992 0 -0.25614776869779943 -0.44505142076967291 0 -0.23902726678776809 -0.44412022458874362 0 -0.24775598300350471 -0.45659113439444321 0 -0.24985943519203219 -0.47422045458176282 0 -0.24775598300350471 -0.45659113439444321 0 -0.2249032539898547 -0.46200660971897362 0 -0.23902726678776809 -0.44412022458874362 0 -0.24775598300350471 -0.45659113439444321 0 -0.2249032539898547 -0.46200660971897362 0 -0.23902726678776809 -0.44412022458874362 0 -0.21986005333660241 -0.44299993717761899 0 -0.22863571274441361 -0.42571521552386082 0 -0.23902726678776809 -0.44412022458874362 0 -0.2249032539898547 -0.46200660971897362 0 -0.21986005333660241 -0.44299993717761899 0 -0.2249032539898547 -0.46200660971897362 0 -0.21986005333660241 -0.44299993717761899 0 -0.20447801952438899 -0.44916319487235229 0 -0.21986005333660241 -0.44299993717761899 0 -0.20447801952438899 -0.44916319487235229 0 -0.2019528319591623 -0.43381440388303361 0 -0.2249032539898547 -0.46200660971897362 0 -0.19609640188956851 -0.4625234613654613 0 -0.20880242932003371 -0.48037037229914992 0 -0.2249032539898547 -0.46200660971897362 0 -0.20447801952438899 -0.44916319487235229 0 -0.19609640188956851 -0.4625234613654613 0 -0.17526995117391109 -0.44191359224220672 0 -0.2019528319591623 -0.43381440388303361 0 -0.20447801952438899 -0.44916319487235229 0 -0.17526995117391109 -0.44191359224220672 0 -0.2019528319591623 -0.43381440388303361 0 -0.20447801952438899 -0.44916319487235229 0 -0.19609640188956851 -0.4625234613654613 0 -0.17526995117391109 -0.44191359224220672 0 -0.21934656121631099 -0.5 0 -0.20880242932003371 -0.48037037229914992 0 -0.19106651490499529 -0.5 0 -0.19609640188956851 -0.4625234613654613 0 -0.20880242932003371 -0.48037037229914992 0 -0.17824334193607669 -0.47875905143411501 0 -0.20880242932003371 -0.48037037229914992 0 -0.19106651490499529 -0.5 0 -0.17824334193607669 -0.47875905143411501 0 -0.19106651490499529 -0.5 0 -0.1627864685936796 -0.5 0 -0.17824334193607669 -0.47875905143411501 0 -0.1627864685936796 -0.5 0 -0.17824334193607669 -0.47875905143411501 0 -0.1520341801117156 -0.48454416540487949 0 -0.17824334193607669 -0.47875905143411501 0 -0.16018326640710881 -0.46287486889837792 0 -0.1520341801117156 -0.48454416540487949 0 -0.19609640188956851 -0.4625234613654613 0 -0.17744824035166629 -0.46151774348504021 0 -0.17526995117391109 -0.44191359224220672 0 -0.19609640188956851 -0.4625234613654613 0 -0.17824334193607669 -0.47875905143411501 0 -0.17744824035166629 -0.46151774348504021 0 -0.17824334193607669 -0.47875905143411501 0 -0.17744824035166629 -0.46151774348504021 0 -0.16018326640710881 -0.46287486889837792 0 -0.17526995117391109 -0.44191359224220672 0 -0.16018326640710881 -0.46287486889837792 0 -0.15535023152798941 -0.4356168625989022 0 -0.17744824035166629 -0.46151774348504021 0 -0.17526995117391109 -0.44191359224220672 0 -0.16018326640710881 -0.46287486889837792 0 -0.16018326640710881 -0.46287486889837792 0 -0.13879078017136251 -0.44835376197592808 0 -0.13700953081382369 -0.47210681812287209 0 -0.16018326640710881 -0.46287486889837792 0 -0.13879078017136251 -0.44835376197592808 0 -0.15535023152798941 -0.4356168625989022 0 -0.13879078017136251 -0.44835376197592808 0 -0.1203939560598115 -0.4550276097247008 0 -0.1241859496454079 -0.43620775691521718 0 -0.13879078017136251 -0.44835376197592808 0 -0.13700953081382369 -0.47210681812287209 0 -0.1203939560598115 -0.4550276097247008 0 -0.13700953081382369 -0.47210681812287209 0 -0.13450642228236401 -0.50000000000000289 0 -0.11707183780328689 -0.47836198161063048 0 -0.13450642228236401 -0.50000000000000289 0 -0.11707183780328689 -0.47836198161063048 0 -0.1627864685936796 -0.5 0 -0.13450642228236401 -0.50000000000000289 0 -0.1520341801117156 -0.48454416540487949 0 -0.13700953081382369 -0.47210681812287209 0 -0.13450642228236401 -0.50000000000000289 0 -0.1520341801117156 -0.48454416540487949 0 -0.16018326640710881 -0.46287486889837792 0 -0.13700953081382369 -0.47210681812287209 0 -0.1520341801117156 -0.48454416540487949 0 -0.149943977133527 -0.39536366241122278 0 -0.14253090924801501 -0.37682780238681529 0 -0.1645325313341548 -0.37570660139370288 0 -0.14253090924801501 -0.37682780238681529 0 -0.12574048240505961 -0.38850498893021451 0 -0.12644632982997131 -0.36242712560295282 0 -0.12574048240505961 -0.38850498893021451 0 -0.12644632982997131 -0.36242712560295282 0 -0.149943977133527 -0.39536366241122278 0 -0.14253090924801501 -0.37682780238681529 0 -0.12574048240505961 -0.38850498893021451 0 -0.149943977133527 -0.39536366241122278 0 -0.12574048240505961 -0.38850498893021451 0 -0.13278745412050169 -0.41927138674945802 0 -0.13879078017136251 -0.44835376197592808 0 -0.13278745412050169 -0.41927138674945802 0 -0.1241859496454079 -0.43620775691521718 0 -0.13278745412050169 -0.41927138674945802 0 -0.15535023152798941 -0.4356168625989022 0 -0.16229244402534321 -0.41591280919320472 0 -0.13879078017136251 -0.44835376197592808 0 -0.13278745412050169 -0.41927138674945802 0 -0.15535023152798941 -0.4356168625989022 0 -0.149943977133527 -0.39536366241122278 0 -0.13278745412050169 -0.41927138674945802 0 -0.16229244402534321 -0.41591280919320472 0 -0.17526995117391109 -0.44191359224220672 0 -0.15535023152798941 -0.4356168625989022 0 -0.16229244402534321 -0.41591280919320472 0 -0.17526995117391109 -0.44191359224220672 0 -0.18440686693170011 -0.41918027797009022 0 -0.2019528319591623 -0.43381440388303361 0 -0.17526995117391109 -0.44191359224220672 0 -0.16229244402534321 -0.41591280919320472 0 -0.18440686693170011 -0.41918027797009022 0 -0.16229244402534321 -0.41591280919320472 0 -0.18440686693170011 -0.41918027797009022 0 -0.17878513684512989 -0.39774290256170458 0 -0.18440686693170011 -0.41918027797009022 0 -0.17878513684512989 -0.39774290256170458 0 -0.1972293859339099 -0.40886630593353762 0 -0.16229244402534321 -0.41591280919320472 0 -0.18440686693170011 -0.41918027797009022 0 -0.149943977133527 -0.39536366241122278 0 -0.16229244402534321 -0.41591280919320472 0 -0.17878513684512989 -0.39774290256170458 0 -0.149943977133527 -0.39536366241122278 0 -0.17878513684512989 -0.39774290256170458 0 -0.1645325313341548 -0.37570660139370288 0 -0.17878513684512989 -0.39774290256170458 0 -0.1645325313341548 -0.37570660139370288 0 -0.18732713314445729 -0.37436432124814978 0 -0.17878513684512989 -0.39774290256170458 0 -0.20630742451698619 -0.39514099252301749 0 -0.18732713314445729 -0.37436432124814978 0 -0.2024276293275947 -0.37692114020181899 0 -0.20630742451698619 -0.39514099252301749 0 -0.18732713314445729 -0.37436432124814978 0 -0.20630742451698619 -0.39514099252301749 0 -0.18732713314445729 -0.37436432124814978 0 -0.17878513684512989 -0.39774290256170458 0 -0.20630742451698619 -0.39514099252301749 0 -0.1972293859339099 -0.40886630593353762 0 -0.20630742451698619 -0.39514099252301749 0 -0.1972293859339099 -0.40886630593353762 0 -0.2181753218813203 -0.41026692057681069 0 -0.20630742451698619 -0.39514099252301749 0 -0.2181753218813203 -0.41026692057681069 0 -0.23168563180856089 -0.3957810206598748 0 -0.2024276293275947 -0.37692114020181899 0 -0.20630742451698619 -0.39514099252301749 0 -0.21477447255229201 -0.37658961782777062 0 -0.20630742451698619 -0.39514099252301749 0 -0.21477447255229201 -0.37658961782777062 0 -0.23168563180856089 -0.3957810206598748 0 -0.18440686693170011 -0.41918027797009022 0 -0.2019528319591623 -0.43381440388303361 0 -0.20652128983805679 -0.42244774674697572 0 -0.18440686693170011 -0.41918027797009022 0 -0.20652128983805679 -0.42244774674697572 0 -0.18440686693170011 -0.41918027797009022 0 -0.1972293859339099 -0.40886630593353762 0 -0.20652128983805679 -0.42244774674697572 0 -0.2181753218813203 -0.41026692057681069 0 -0.20652128983805679 -0.42244774674697572 0 -0.22863571274441361 -0.42571521552386082 0 -0.1972293859339099 -0.40886630593353762 0 -0.2181753218813203 -0.41026692057681069 0 -0.20652128983805679 -0.42244774674697572 0 -0.20652128983805679 -0.42244774674697572 0 -0.22863571274441361 -0.42571521552386082 0 -0.2019528319591623 -0.43381440388303361 0 -0.22863571274441361 -0.42571521552386082 0 -0.2019528319591623 -0.43381440388303361 0 -0.20652128983805679 -0.42244774674697572 0 -0.22863571274441361 -0.42571521552386082 0 -0.21986005333660241 -0.44299993717761899 0 -0.2019528319591623 -0.43381440388303361 0 -0.22863571274441361 -0.42571521552386082 0 -0.2181753218813203 -0.41026692057681069 0 -0.22863571274441361 -0.42571521552386082 0 -0.2355494535352074 -0.4111430213782119 0 -0.22863571274441361 -0.42571521552386082 0 -0.24805864935093169 -0.41981967435907658 0 -0.2355494535352074 -0.4111430213782119 0 -0.25119195189081062 -0.40413227577143629 0 -0.24805864935093169 -0.41981967435907658 0 -0.2355494535352074 -0.4111430213782119 0 -0.25731128441111489 -0.42995211266004441 0 -0.22863571274441361 -0.42571521552386082 0 -0.24805864935093169 -0.41981967435907658 0 -0.25731128441111489 -0.42995211266004441 0 -0.23902726678776809 -0.44412022458874362 0 -0.22863571274441361 -0.42571521552386082 0 -0.22863571274441361 -0.42571521552386082 0 -0.24805864935093169 -0.41981967435907658 0 -0.25731128441111489 -0.42995211266004441 0 -0.22863571274441361 -0.42571521552386082 0 -0.21477447255229201 -0.37658961782777062 0 -0.23168563180856089 -0.3957810206598748 0 -0.2334158710360883 -0.370233467060959 0 -0.2181753218813203 -0.41026692057681069 0 -0.2355494535352074 -0.4111430213782119 0 -0.23168563180856089 -0.3957810206598748 0 -0.25119195189081062 -0.40413227577143629 0 -0.25446869112979348 -0.38410889406697007 0 -0.23168563180856089 -0.3957810206598748 0 -0.25119195189081062 -0.40413227577143629 0 -0.2355494535352074 -0.4111430213782119 0 -0.23168563180856089 -0.3957810206598748 0 -0.25446869112979348 -0.38410889406697007 0 -0.2334158710360883 -0.370233467060959 0 -0.25446869112979348 -0.38410889406697007 0 -0.23168563180856089 -0.3957810206598748 0 -0.2334158710360883 -0.370233467060959 0 -0.25446869112979348 -0.38410889406697007 0 -0.24791879325482541 -0.36392303137098908 0 -0.2334158710360883 -0.370233467060959 0 -0.24791879325482541 -0.36392303137098908 0 -0.2334158710360883 -0.370233467060959 0 -0.2295544452389654 -0.3458224259193633 0 -0.21477447255229201 -0.37658961782777062 0 -0.2334158710360883 -0.370233467060959 0 -0.212363050942383 -0.35635804005494781 0 -0.2334158710360883 -0.370233467060959 0 -0.212363050942383 -0.35635804005494781 0 -0.2334158710360883 -0.370233467060959 0 -0.2295544452389654 -0.3458224259193633 0 -0.212363050942383 -0.35635804005494781 0 -0.25397810905812729 -0.3492982722687934 0 -0.24791879325482541 -0.36392303137098908 0 -0.2295544452389654 -0.3458224259193633 0 -0.25397810905812729 -0.3492982722687934 0 -0.2295544452389654 -0.3458224259193633 0 -0.23977936830510191 -0.32844444699872688 0 -0.25397810905812729 -0.3492982722687934 0 -0.23977936830510191 -0.32844444699872688 0 -0.25238151110775198 -0.31523893993999358 0 -0.23977936830510191 -0.32844444699872688 0 -0.23920833924652909 -0.31204749682481819 0 -0.23977936830510191 -0.32844444699872688 0 -0.22968119476792059 -0.31813043192056673 0 -0.23920833924652909 -0.31204749682481819 0 -0.23977936830510191 -0.32844444699872688 0 -0.22968119476792059 -0.31813043192056673 0 -0.22681561331449229 -0.32886237952025732 0 -0.22968119476792059 -0.31813043192056673 0 -0.22038439609142271 -0.32098175850284277 0 -0.22681561331449229 -0.32886237952025732 0 -0.22038439609142271 -0.32098175850284277 0 -0.22681561331449229 -0.32886237952025732 0 -0.21467866216905071 -0.33093283425978681 0 -0.22968119476792059 -0.31813043192056673 0 -0.22038439609142271 -0.32098175850284277 0 -0.22147731275691099 -0.3081334342043151 0 -0.2295544452389654 -0.3458224259193633 0 -0.23977936830510191 -0.32844444699872688 0 -0.22681561331449229 -0.32886237952025732 0 -0.2295544452389654 -0.3458224259193633 0 -0.22681561331449229 -0.32886237952025732 0 -0.21467866216905071 -0.33093283425978681 0 -0.2295544452389654 -0.3458224259193633 0 -0.21467866216905071 -0.33093283425978681 0 -0.20990117025318039 -0.3434053857809507 0 -0.21467866216905071 -0.33093283425978681 0 -0.20584459444274389 -0.32245622070960661 0 -0.20286178060371379 -0.33411414913192478 0 -0.21467866216905071 -0.33093283425978681 0 -0.20990117025318039 -0.3434053857809507 0 -0.20286178060371379 -0.33411414913192478 0 -0.20584459444274389 -0.32245622070960661 0 -0.1920807247295708 -0.32498994325789438 0 -0.21228811694048519 -0.30991100636153829 0 -0.22038439609142271 -0.32098175850284277 0 -0.21356616573020371 -0.31812071632012728 0 -0.22147731275691099 -0.3081334342043151 0 -0.22038439609142271 -0.32098175850284277 0 -0.21467866216905071 -0.33093283425978681 0 -0.21356616573020371 -0.31812071632012728 0 -0.21467866216905071 -0.33093283425978681 0 -0.21356616573020371 -0.31812071632012728 0 -0.20584459444274389 -0.32245622070960661 0 -0.21356616573020371 -0.31812071632012728 0 -0.20584459444274389 -0.32245622070960661 0 -0.21228811694048519 -0.30991100636153829 0 -0.1920807247295708 -0.32498994325789438 0 -0.21228811694048519 -0.30991100636153829 0 -0.1920807247295708 -0.32498994325789438 0 -0.19046393741604711 -0.30008183391353732 0 -0.1920807247295708 -0.32498994325789438 0 -0.19046393741604711 -0.30008183391353732 0 -0.18378624441934691 -0.31365547494245338 0 -0.1920807247295708 -0.32498994325789438 0 -0.21228811694048519 -0.30991100636153829 0 -0.19818241258497191 -0.31208735465767568 0 -0.20584459444274389 -0.32245622070960661 0 -0.1920807247295708 -0.32498994325789438 0 -0.20286178060371379 -0.33411414913192478 0 -0.1920807247295708 -0.32498994325789438 0 -0.18728836527271239 -0.32856604476967433 0 -0.1845704106483966 -0.32180114327434911 0 -0.1920807247295708 -0.32498994325789438 0 -0.18728836527271239 -0.32856604476967433 0 -0.1920807247295708 -0.32498994325789438 0 -0.1935595905362571 -0.3477732437640394 0 -0.18728836527271239 -0.32856604476967433 0 -0.1935595905362571 -0.3477732437640394 0 -0.18728836527271239 -0.32856604476967433 0 -0.18189570465109389 -0.33415092411799557 0 -0.1920807247295708 -0.32498994325789438 0 -0.20286178060371379 -0.33411414913192478 0 -0.1935595905362571 -0.3477732437640394 0 -0.20990117025318039 -0.3434053857809507 0 -0.20286178060371379 -0.33411414913192478 0 -0.1935595905362571 -0.3477732437640394 0 -0.1920807247295708 -0.32498994325789438 0 -0.1935595905362571 -0.3477732437640394 0 -0.1935595905362571 -0.3477732437640394 0 -0.19503845634294251 -0.37055654427018431 0 -0.18472025704459349 -0.35825010966367798 0 -0.1935595905362571 -0.3477732437640394 0 -0.19503845634294251 -0.37055654427018431 0 -0.1935595905362571 -0.3477732437640394 0 -0.19503845634294251 -0.37055654427018431 0 -0.20660649936811681 -0.36700279709318601 0 -0.19503845634294251 -0.37055654427018431 0 -0.18732713314445729 -0.37436432124814978 0 -0.18472025704459349 -0.35825010966367798 0 -0.2024276293275947 -0.37692114020181899 0 -0.19503845634294251 -0.37055654427018431 0 -0.18732713314445729 -0.37436432124814978 0 -0.2024276293275947 -0.37692114020181899 0 -0.19503845634294251 -0.37055654427018431 0 -0.20660649936811681 -0.36700279709318601 0 -0.21477447255229201 -0.37658961782777062 0 -0.20660649936811681 -0.36700279709318601 0 -0.212363050942383 -0.35635804005494781 0 -0.2024276293275947 -0.37692114020181899 0 -0.21477447255229201 -0.37658961782777062 0 -0.20660649936811681 -0.36700279709318601 0 -0.2295544452389654 -0.3458224259193633 0 -0.20990117025318039 -0.3434053857809507 0 -0.212363050942383 -0.35635804005494781 0 -0.20990117025318039 -0.3434053857809507 0 -0.1935595905362571 -0.3477732437640394 0 -0.212363050942383 -0.35635804005494781 0 -0.1935595905362571 -0.3477732437640394 0 -0.20660649936811681 -0.36700279709318601 0 -0.212363050942383 -0.35635804005494781 0 -0.2270610889270003 -0.25280106454640622 0 -0.2177401280423327 -0.25699505227229802 0 -0.21993562232046421 -0.2445375326246137 0 -0.22507791685697801 -0.26418349688860421 0 -0.2270610889270003 -0.25280106454640622 0 -0.2177401280423327 -0.25699505227229802 0 -0.22507791685697801 -0.26418349688860421 0 -0.2160408220612394 -0.26614451762511843 0 -0.2177401280423327 -0.25699505227229802 0 -0.22507791685697801 -0.26418349688860421 0 -0.2270610889270003 -0.25280106454640622 0 -0.23586196969001941 -0.26326351423125027 0 -0.2270610889270003 -0.25280106454640622 0 -0.2373790898840073 -0.2512296939779402 0 -0.23586196969001941 -0.26326351423125027 0 -0.25172158828799518 -0.25688399676078139 0 -0.2373790898840073 -0.2512296939779402 0 -0.24401469765292641 -0.26119460517826831 0 -0.25004532574454003 -0.26465311550714898 0 -0.24401469765292641 -0.26119460517826831 0 -0.24552001446038979 -0.26922480268830162 0 -0.25172158828799518 -0.25688399676078139 0 -0.25004532574454003 -0.26465311550714898 0 -0.24401469765292641 -0.26119460517826831 0 -0.24401469765292641 -0.26119460517826831 0 -0.23586196969001941 -0.26326351423125027 0 -0.24552001446038979 -0.26922480268830162 0 -0.2373790898840073 -0.2512296939779402 0 -0.24401469765292641 -0.26119460517826831 0 -0.23586196969001941 -0.26326351423125027 0 -0.23586196969001941 -0.26326351423125027 0 -0.23913057001101379 -0.27393771481085882 0 -0.23127595697238729 -0.27073934509515912 0 -0.23586196969001941 -0.26326351423125027 0 -0.24552001446038979 -0.26922480268830162 0 -0.23913057001101379 -0.27393771481085882 0 -0.24552001446038979 -0.26922480268830162 0 -0.24563014940792791 -0.27663176507707959 0 -0.23913057001101379 -0.27393771481085882 0 -0.25269197138231098 -0.26908379047068148 0 -0.25101643375777322 -0.27388885102801908 0 -0.24552001446038979 -0.26922480268830162 0 -0.25101643375777322 -0.27388885102801908 0 -0.24552001446038979 -0.26922480268830162 0 -0.24563014940792791 -0.27663176507707959 0 -0.25269197138231098 -0.26908379047068148 0 -0.25004532574454003 -0.26465311550714898 0 -0.24552001446038979 -0.26922480268830162 0 -0.25270290136231571 -0.27975313256882828 0 -0.24881615645343511 -0.2780623679240658 0 -0.2436367371127601 -0.28227498353312619 0 -0.25101643375777322 -0.27388885102801908 0 -0.24881615645343511 -0.2780623679240658 0 -0.24563014940792791 -0.27663176507707959 0 -0.24881615645343511 -0.2780623679240658 0 -0.24563014940792791 -0.27663176507707959 0 -0.2436367371127601 -0.28227498353312619 0 -0.24563014940792791 -0.27663176507707959 0 -0.23853896918872139 -0.28209558263047441 0 -0.2436367371127601 -0.28227498353312619 0 -0.24563014940792791 -0.27663176507707959 0 -0.23913057001101379 -0.27393771481085882 0 -0.23853896918872139 -0.28209558263047441 0 -0.23913057001101379 -0.27393771481085882 0 -0.23172936138052619 -0.27869751111920871 0 -0.23853896918872139 -0.28209558263047441 0 -0.23172936138052619 -0.27869751111920871 0 -0.23127595697238729 -0.27073934509515912 0 -0.22346278906875569 -0.27465216119340818 0 -0.23172936138052619 -0.27869751111920871 0 -0.22346278906875569 -0.27465216119340818 0 -0.22564667514780259 -0.284697437041324 0 -0.23913057001101379 -0.27393771481085882 0 -0.23172936138052619 -0.27869751111920871 0 -0.23127595697238729 -0.27073934509515912 0 -0.22507791685697801 -0.26418349688860421 0 -0.23586196969001941 -0.26326351423125027 0 -0.23127595697238729 -0.27073934509515912 0 -0.22507791685697801 -0.26418349688860421 0 -0.23127595697238729 -0.27073934509515912 0 -0.22346278906875569 -0.27465216119340818 0 -0.22507791685697801 -0.26418349688860421 0 -0.22346278906875569 -0.27465216119340818 0 -0.2160408220612394 -0.26614451762511843 0 -0.22346278906875569 -0.27465216119340818 0 -0.22564667514780259 -0.284697437041324 0 -0.21699719608124429 -0.28135660189207751 0 -0.22564667514780259 -0.284697437041324 0 -0.21802408698903891 -0.28903679915424058 0 -0.21699719608124429 -0.28135660189207751 0 -0.22564667514780259 -0.284697437041324 0 -0.22489541220608991 -0.29115872093568418 0 -0.21802408698903891 -0.28903679915424058 0 -0.22564667514780259 -0.284697437041324 0 -0.22489541220608991 -0.29115872093568418 0 -0.22883970109994231 -0.28918776334655472 0 -0.22489541220608991 -0.29115872093568418 0 -0.2187728417369546 -0.29696924038514178 0 -0.21802408698903891 -0.28903679915424058 0 -0.22489541220608991 -0.29115872093568418 0 -0.23249550915140041 -0.29483206946518331 0 -0.2187728417369546 -0.29696924038514178 0 -0.22883970109994231 -0.28918776334655472 0 -0.23249550915140041 -0.29483206946518331 0 -0.23232120789447649 -0.2860628259440276 0 -0.22489541220608991 -0.29115872093568418 0 -0.22883970109994231 -0.28918776334655472 0 -0.23249550915140041 -0.29483206946518331 0 -0.22564667514780259 -0.284697437041324 0 -0.22883970109994231 -0.28918776334655472 0 -0.23232120789447649 -0.2860628259440276 0 -0.23172936138052619 -0.27869751111920871 0 -0.22564667514780259 -0.284697437041324 0 -0.23232120789447649 -0.2860628259440276 0 -0.23172936138052619 -0.27869751111920871 0 -0.23232120789447649 -0.2860628259440276 0 -0.23853896918872139 -0.28209558263047441 0 -0.25270290136231571 -0.27975313256882828 0 -0.23249550915140041 -0.29483206946518331 0 -0.23249550915140041 -0.29483206946518331 0 -0.23853896918872139 -0.28209558263047441 0 -0.2436367371127601 -0.28227498353312619 0 -0.23249550915140041 -0.29483206946518331 0 -0.23232120789447649 -0.2860628259440276 0 -0.23853896918872139 -0.28209558263047441 0 -0.25270290136231571 -0.27975313256882828 0 -0.25576596663445739 -0.27916060851642033 0 -0.2386216396956842 -0.29364702136036769 0 -0.25270290136231571 -0.27975313256882828 0 -0.23249550915140041 -0.29483206946518331 0 -0.2436367371127601 -0.28227498353312619 0 -0.25270290136231571 -0.27975313256882828 0 -0.23249550915140041 -0.29483206946518331 0 -0.2386216396956842 -0.29364702136036769 0 -0.25225643245827201 -0.28572961195679092 0 -0.25576596663445739 -0.27916060851642033 0 -0.2386216396956842 -0.29364702136036769 0 -0.25576596663445739 -0.27916060851642033 0 -0.2386216396956842 -0.29364702136036769 0 -0.25041842839399159 -0.29232496755575482 0 -0.24793091216964791 -0.29576781264707991 0 -0.2386216396956842 -0.29364702136036769 0 -0.25225643245827201 -0.28572961195679092 0 -0.25041842839399159 -0.29232496755575482 0 -0.2386216396956842 -0.29364702136036769 0 -0.2386216396956842 -0.29364702136036769 0 -0.23836993573643039 -0.30389307460148618 0 -0.2318844390485246 -0.30729571293393732 0 -0.2386216396956842 -0.29364702136036769 0 -0.23836993573643039 -0.30389307460148618 0 -0.2454187055718281 -0.30245142025387772 0 -0.2562442207622766 -0.29823393437229567 0 -0.24793091216964791 -0.29576781264707991 0 -0.2454187055718281 -0.30245142025387772 0 -0.24793091216964791 -0.29576781264707991 0 -0.2386216396956842 -0.29364702136036769 0 -0.2454187055718281 -0.30245142025387772 0 -0.25238151110775198 -0.31523893993999358 0 -0.2454187055718281 -0.30245142025387772 0 -0.23920833924652909 -0.31204749682481819 0 -0.23836993573643039 -0.30389307460148618 0 -0.23920833924652909 -0.31204749682481819 0 -0.2318844390485246 -0.30729571293393732 0 -0.23836993573643039 -0.30389307460148618 0 -0.2454187055718281 -0.30245142025387772 0 -0.23920833924652909 -0.31204749682481819 0 -0.2386216396956842 -0.29364702136036769 0 -0.22147731275691099 -0.3081334342043151 0 -0.23249550915140041 -0.29483206946518331 0 -0.2187728417369546 -0.29696924038514178 0 -0.21228811694048519 -0.30991100636153829 0 -0.22968119476792059 -0.31813043192056673 0 -0.2318844390485246 -0.30729571293393732 0 -0.22147731275691099 -0.3081334342043151 0 -0.23249550915140041 -0.29483206946518331 0 -0.22147731275691099 -0.3081334342043151 0 -0.21228811694048519 -0.30991100636153829 0 -0.22968119476792059 -0.31813043192056673 0 -0.23920833924652909 -0.31204749682481819 0 -0.2318844390485246 -0.30729571293393732 0 -0.2386216396956842 -0.29364702136036769 0 -0.2318844390485246 -0.30729571293393732 0 -0.22147731275691099 -0.3081334342043151 0 -0.23249550915140041 -0.29483206946518331 0 -0.2386216396956842 -0.29364702136036769 0 -0.22147731275691099 -0.3081334342043151 0 -0.23249550915140041 -0.29483206946518331 0 -0.21228811694048519 -0.30991100636153829 0 -0.21356616573020371 -0.31812071632012728 0 -0.22147731275691099 -0.3081334342043151 0 -0.21228811694048519 -0.30991100636153829 0 -0.2187728417369546 -0.29696924038514178 0 -0.21058450243567761 -0.30103860151622369 0 -0.2113354485228392 -0.29387516082755433 0 -0.2187728417369546 -0.29696924038514178 0 -0.21228811694048519 -0.30991100636153829 0 -0.21058450243567761 -0.30103860151622369 0 -0.21058450243567761 -0.30103860151622369 0 -0.20503829046679581 -0.2988846292687416 0 -0.2113354485228392 -0.29387516082755433 0 -0.20503829046679581 -0.2988846292687416 0 -0.2050579385870395 -0.30543826641895611 0 -0.19929302426375731 -0.30251540718614162 0 -0.21058450243567761 -0.30103860151622369 0 -0.20503829046679581 -0.2988846292687416 0 -0.2050579385870395 -0.30543826641895611 0 -0.21228811694048519 -0.30991100636153829 0 -0.21058450243567761 -0.30103860151622369 0 -0.2050579385870395 -0.30543826641895611 0 -0.21228811694048519 -0.30991100636153829 0 -0.2050579385870395 -0.30543826641895611 0 -0.19818241258497191 -0.31208735465767568 0 -0.2050579385870395 -0.30543826641895611 0 -0.19818241258497191 -0.31208735465767568 0 -0.19929302426375731 -0.30251540718614162 0 -0.1920807247295708 -0.32498994325789438 0 -0.19818241258497191 -0.31208735465767568 0 -0.19046393741604711 -0.30008183391353732 0 -0.19818241258497191 -0.31208735465767568 0 -0.19046393741604711 -0.30008183391353732 0 -0.19929302426375731 -0.30251540718614162 0 -0.19046393741604711 -0.30008183391353732 0 -0.19929302426375731 -0.30251540718614162 0 -0.19911374640357479 -0.29608006387110031 0 -0.20503829046679581 -0.2988846292687416 0 -0.19929302426375731 -0.30251540718614162 0 -0.19911374640357479 -0.29608006387110031 0 -0.20503829046679581 -0.2988846292687416 0 -0.19911374640357479 -0.29608006387110031 0 -0.20409884101501219 -0.29100245775497879 0 -0.19046393741604711 -0.30008183391353732 0 -0.18884715010252259 -0.27517372456918021 0 -0.19911374640357479 -0.29608006387110031 0 -0.19667463885626149 -0.28791599123210188 0 -0.20409884101501219 -0.29100245775497879 0 -0.19046393741604711 -0.30008183391353732 0 -0.19911374640357479 -0.29608006387110031 0 -0.19667463885626149 -0.28791599123210188 0 -0.19046393741604711 -0.30008183391353732 0 -0.18884715010252259 -0.27517372456918021 0 -0.18499049146273519 -0.29393160856992601 0 -0.19046393741604711 -0.30008183391353732 0 -0.19667463885626149 -0.28791599123210188 0 -0.18884715010252259 -0.27517372456918021 0 -0.19667463885626149 -0.28791599123210188 0 -0.20324874344989791 -0.28311795847027171 0 -0.197596802333626 -0.27861377241195628 0 -0.19667463885626149 -0.28791599123210188 0 -0.20324874344989791 -0.28311795847027171 0 -0.20409884101501219 -0.29100245775497879 0 -0.20324874344989791 -0.28311795847027171 0 -0.21057338253034669 -0.28613605505940648 0 -0.20409884101501219 -0.29100245775497879 0 -0.20324874344989791 -0.28311795847027171 0 -0.21057338253034669 -0.28613605505940648 0 -0.20941267966442509 -0.27850810701694229 0 -0.20503829046679581 -0.2988846292687416 0 -0.20409884101501219 -0.29100245775497879 0 -0.2113354485228392 -0.29387516082755433 0 -0.21057338253034669 -0.28613605505940648 0 -0.20409884101501219 -0.29100245775497879 0 -0.2113354485228392 -0.29387516082755433 0 -0.21057338253034669 -0.28613605505940648 0 -0.2113354485228392 -0.29387516082755433 0 -0.21802408698903891 -0.28903679915424058 0 -0.2187728417369546 -0.29696924038514178 0 -0.2113354485228392 -0.29387516082755433 0 -0.21802408698903891 -0.28903679915424058 0 -0.21057338253034669 -0.28613605505940648 0 -0.21802408698903891 -0.28903679915424058 0 -0.21699719608124429 -0.28135660189207751 0 -0.21057338253034669 -0.28613605505940648 0 -0.21699719608124429 -0.28135660189207751 0 -0.20941267966442509 -0.27850810701694229 0 -0.2147757480041694 -0.27440024431136278 0 -0.20906892561204429 -0.27045583832967018 0 -0.20941267966442509 -0.27850810701694229 0 -0.22346278906875569 -0.27465216119340818 0 -0.21699719608124429 -0.28135660189207751 0 -0.2147757480041694 -0.27440024431136278 0 -0.21699719608124429 -0.28135660189207751 0 -0.2147757480041694 -0.27440024431136278 0 -0.20941267966442509 -0.27850810701694229 0 -0.2160408220612394 -0.26614451762511843 0 -0.20906892561204429 -0.27045583832967018 0 -0.2095603520858639 -0.26198172883486193 0 -0.2147757480041694 -0.27440024431136278 0 -0.2160408220612394 -0.26614451762511843 0 -0.20906892561204429 -0.27045583832967018 0 -0.22346278906875569 -0.27465216119340818 0 -0.2147757480041694 -0.27440024431136278 0 -0.2160408220612394 -0.26614451762511843 0 -0.20906892561204429 -0.27045583832967018 0 -0.2022380180685138 -0.26664602900943463 0 -0.2095603520858639 -0.26198172883486193 0 -0.20906892561204429 -0.27045583832967018 0 -0.20238593378805411 -0.2750544031803015 0 -0.2022380180685138 -0.26664602900943463 0 -0.20324874344989791 -0.28311795847027171 0 -0.20941267966442509 -0.27850810701694229 0 -0.20238593378805411 -0.2750544031803015 0 -0.20906892561204429 -0.27045583832967018 0 -0.20941267966442509 -0.27850810701694229 0 -0.20238593378805411 -0.2750544031803015 0 -0.20324874344989791 -0.28311795847027171 0 -0.20238593378805411 -0.2750544031803015 0 -0.197596802333626 -0.27861377241195628 0 -0.20238593378805411 -0.2750544031803015 0 -0.197596802333626 -0.27861377241195628 0 -0.19682754547139381 -0.27180678460792612 0 -0.19667463885626149 -0.28791599123210188 0 -0.197596802333626 -0.27861377241195628 0 -0.18884715010252259 -0.27517372456918021 0 -0.197596802333626 -0.27861377241195628 0 -0.18884715010252259 -0.27517372456918021 0 -0.19682754547139381 -0.27180678460792612 0 -0.18884715010252259 -0.27517372456918021 0 -0.19682754547139381 -0.27180678460792612 0 -0.1952403865158007 -0.26225221152940881 0 -0.20238593378805411 -0.2750544031803015 0 -0.2022380180685138 -0.26664602900943463 0 -0.19682754547139381 -0.27180678460792612 0 -0.2022380180685138 -0.26664602900943463 0 -0.19682754547139381 -0.27180678460792612 0 -0.1952403865158007 -0.26225221152940881 0 -0.18884715010252259 -0.27517372456918021 0 -0.18723036278899799 -0.2502656152248231 0 -0.18884715010252259 -0.27517372456918021 0 -0.1952403865158007 -0.26225221152940881 0 -0.18723036278899799 -0.2502656152248231 0 -0.2022380180685138 -0.26664602900943463 0 -0.20270793026514031 -0.25874213438301658 0 -0.1952403865158007 -0.26225221152940881 0 -0.1952403865158007 -0.26225221152940881 0 -0.19773592865307271 -0.25050872942719399 0 -0.18723036278899799 -0.2502656152248231 0 -0.20270793026514031 -0.25874213438301658 0 -0.1952403865158007 -0.26225221152940881 0 -0.19773592865307271 -0.25050872942719399 0 -0.20270793026514031 -0.25874213438301658 0 -0.19773592865307271 -0.25050872942719399 0 -0.20876496600245081 -0.25232197311418392 0 -0.20270793026514031 -0.25874213438301658 0 -0.20876496600245081 -0.25232197311418392 0 -0.2095603520858639 -0.26198172883486193 0 -0.2022380180685138 -0.26664602900943463 0 -0.20270793026514031 -0.25874213438301658 0 -0.2095603520858639 -0.26198172883486193 0 -0.2160408220612394 -0.26614451762511843 0 -0.2095603520858639 -0.26198172883486193 0 -0.2177401280423327 -0.25699505227229802 0 -0.20876496600245081 -0.25232197311418392 0 -0.2095603520858639 -0.26198172883486193 0 -0.2177401280423327 -0.25699505227229802 0 -0.20876496600245081 -0.25232197311418392 0 -0.2177401280423327 -0.25699505227229802 0 -0.21993562232046421 -0.2445375326246137 0 -0.1659022285767941 -0.25353079966181652 0 -0.15789184753753019 -0.26736601851636871 0 -0.14517279285523579 -0.25126526030606883 0 -0.17112947804905629 -0.26329040310990598 0 -0.1659022285767941 -0.25353079966181652 0 -0.15789184753753019 -0.26736601851636871 0 -0.17112947804905629 -0.26329040310990598 0 -0.1659022285767941 -0.25353079966181652 0 -0.17649565685194421 -0.25186673981806101 0 -0.18884715010252259 -0.27517372456918021 0 -0.18723036278899799 -0.2502656152248231 0 -0.1836337208322158 -0.26493997936018793 0 -0.17649565685194421 -0.25186673981806101 0 -0.18723036278899799 -0.2502656152248231 0 -0.1836337208322158 -0.26493997936018793 0 -0.17112947804905629 -0.26329040310990598 0 -0.17649565685194421 -0.25186673981806101 0 -0.1836337208322158 -0.26493997936018793 0 -0.1836337208322158 -0.26493997936018793 0 -0.1785380944787883 -0.29448920289788549 0 -0.18884715010252259 -0.27517372456918021 0 -0.1836337208322158 -0.26493997936018793 0 -0.1785380944787883 -0.29448920289788549 0 -0.1836337208322158 -0.26493997936018793 0 -0.16952265352873819 -0.2744908862211774 0 -0.17706521975947109 -0.29174581853964882 0 -0.17112947804905629 -0.26329040310990598 0 -0.1836337208322158 -0.26493997936018793 0 -0.16952265352873819 -0.2744908862211774 0 -0.16952265352873819 -0.2744908862211774 0 -0.15789184753753019 -0.26736601851636871 0 -0.1573133155148759 -0.28389511700984382 0 -0.17112947804905629 -0.26329040310990598 0 -0.16952265352873819 -0.2744908862211774 0 -0.15789184753753019 -0.26736601851636871 0 -0.16952265352873819 -0.2744908862211774 0 -0.1573133155148759 -0.28389511700984382 0 -0.17706521975947109 -0.29174581853964882 0 -0.1573133155148759 -0.28389511700984382 0 -0.17706521975947109 -0.29174581853964882 0 -0.1573133155148759 -0.28389511700984382 0 -0.16437268185284659 -0.29157223182466008 0 -0.17706521975947109 -0.29174581853964882 0 -0.16437268185284659 -0.29157223182466008 0 -0.16411319080687789 -0.30072611873955152 0 -0.15050574434168509 -0.29660212495240512 0 -0.1573133155148759 -0.28389511700984382 0 -0.16437268185284659 -0.29157223182466008 0 -0.15050574434168509 -0.29660212495240512 0 -0.16437268185284659 -0.29157223182466008 0 -0.17279520088700001 -0.2957516659442988 0 -0.1687592421148901 -0.29798082551089627 0 -0.16437268185284659 -0.29157223182466008 0 -0.1687592421148901 -0.29798082551089627 0 -0.16411319080687789 -0.30072611873955152 0 -0.16437268185284659 -0.29157223182466008 0 -0.17706521975947109 -0.29174581853964882 0 -0.17279520088700001 -0.2957516659442988 0 -0.18884715010252259 -0.27517372456918021 0 -0.18499049146273519 -0.29393160856992601 0 -0.1785380944787883 -0.29448920289788549 0 -0.1836337208322158 -0.26493997936018793 0 -0.1785380944787883 -0.29448920289788549 0 -0.17706521975947109 -0.29174581853964882 0 -0.1785380944787883 -0.29448920289788549 0 -0.17706521975947109 -0.29174581853964882 0 -0.17279520088700001 -0.2957516659442988 0 -0.1785380944787883 -0.29448920289788549 0 -0.17344246812536071 -0.32403842643558339 0 -0.1785380944787883 -0.29448920289788549 0 -0.17133058563427919 -0.3049621121981641 0 -0.17344246812536071 -0.32403842643558339 0 -0.1785380944787883 -0.29448920289788549 0 -0.1821127838535829 -0.30598167289910111 0 -0.17344246812536071 -0.32403842643558339 0 -0.1785380944787883 -0.29448920289788549 0 -0.17279520088700001 -0.2957516659442988 0 -0.17133058563427919 -0.3049621121981641 0 -0.18499049146273519 -0.29393160856992601 0 -0.1785380944787883 -0.29448920289788549 0 -0.1821127838535829 -0.30598167289910111 0 -0.19046393741604711 -0.30008183391353732 0 -0.18499049146273519 -0.29393160856992601 0 -0.1821127838535829 -0.30598167289910111 0 -0.19046393741604711 -0.30008183391353732 0 -0.1821127838535829 -0.30598167289910111 0 -0.18378624441934691 -0.31365547494245338 0 -0.17133058563427919 -0.3049621121981641 0 -0.16411319080687789 -0.30072611873955152 0 -0.16355321420794419 -0.31282003022120658 0 -0.17133058563427919 -0.3049621121981641 0 -0.1687592421148901 -0.29798082551089627 0 -0.16411319080687789 -0.30072611873955152 0 -0.17279520088700001 -0.2957516659442988 0 -0.17133058563427919 -0.3049621121981641 0 -0.1687592421148901 -0.29798082551089627 0 -0.16411319080687789 -0.30072611873955152 0 -0.15525259687400131 -0.30703247544030321 0 -0.15050574434168509 -0.29660212495240512 0 -0.15525259687400131 -0.30703247544030321 0 -0.16355321420794419 -0.31282003022120658 0 -0.15381806980292481 -0.31704436269783792 0 -0.16411319080687789 -0.30072611873955152 0 -0.15525259687400131 -0.30703247544030321 0 -0.16355321420794419 -0.31282003022120658 0 -0.14427276521057439 -0.30796974059051502 0 -0.1340960156638791 -0.29861948245330311 0 -0.15050574434168509 -0.29660212495240512 0 -0.15525259687400131 -0.30703247544030321 0 -0.14427276521057439 -0.30796974059051502 0 -0.15381806980292481 -0.31704436269783792 0 -0.15525259687400131 -0.30703247544030321 0 -0.14427276521057439 -0.30796974059051502 0 -0.15050574434168509 -0.29660212495240512 0 -0.14427276521057439 -0.30796974059051502 0 -0.1340960156638791 -0.29861948245330311 0 -0.13422034913832201 -0.3162312730190876 0 -0.1340960156638791 -0.29861948245330311 0 -0.12835828250628939 -0.30981439410955769 0 -0.11715710282151889 -0.29755308454199042 0 -0.1340960156638791 -0.29861948245330311 0 -0.12835828250628939 -0.30981439410955769 0 -0.13422034913832201 -0.3162312730190876 0 -0.1340960156638791 -0.29861948245330311 0 -0.1248999050116765 -0.28446567317832738 0 -0.11715710282151889 -0.29755308454199042 0 -0.1340960156638791 -0.29861948245330311 0 -0.1375614112702809 -0.276044415480038 0 -0.1248999050116765 -0.28446567317832738 0 -0.15050574434168509 -0.29660212495240512 0 -0.1375614112702809 -0.276044415480038 0 -0.1340960156638791 -0.29861948245330311 0 -0.15050574434168509 -0.29660212495240512 0 -0.1375614112702809 -0.276044415480038 0 -0.1573133155148759 -0.28389511700984382 0 -0.15050574434168509 -0.29660212495240512 0 -0.1375614112702809 -0.276044415480038 0 -0.1573133155148759 -0.28389511700984382 0 -0.1375614112702809 -0.276044415480038 0 -0.15789184753753019 -0.26736601851636871 0 -0.1573133155148759 -0.28389511700984382 0 -0.1375614112702809 -0.276044415480038 0 -0.1375614112702809 -0.276044415480038 0 -0.1248214992250038 -0.2558113598961278 0 -0.1375614112702809 -0.276044415480038 0 -0.1142348927122407 -0.27362644651723522 0 -0.1248999050116765 -0.28446567317832738 0 -0.1375614112702809 -0.276044415480038 0 -0.14517279285523579 -0.25126526030606883 0 -0.1248214992250038 -0.2558113598961278 0 -0.15789184753753019 -0.26736601851636871 0 -0.1375614112702809 -0.276044415480038 0 -0.14517279285523579 -0.25126526030606883 0 -0.16834684177192979 -0.35358764997328063 0 -0.15128359545512521 -0.33490946149618478 0 -0.1645325313341548 -0.37570660139370288 0 -0.16834684177192979 -0.35358764997328063 0 -0.1486206626713909 -0.35870205452800608 0 -0.1645325313341548 -0.37570660139370288 0 -0.16834684177192979 -0.35358764997328063 0 -0.16834684177192979 -0.35358764997328063 0 -0.18732713314445729 -0.37436432124814978 0 -0.18472025704459349 -0.35825010966367798 0 -0.1645325313341548 -0.37570660139370288 0 -0.16834684177192979 -0.35358764997328063 0 -0.18732713314445729 -0.37436432124814978 0 -0.16834684177192979 -0.35358764997328063 0 -0.18732713314445729 -0.37436432124814978 0 -0.1935595905362571 -0.3477732437640394 0 -0.18472025704459349 -0.35825010966367798 0 -0.17893326145362259 -0.34192140793234549 0 -0.16834684177192979 -0.35358764997328063 0 -0.18472025704459349 -0.35825010966367798 0 -0.17893326145362259 -0.34192140793234549 0 -0.1935595905362571 -0.3477732437640394 0 -0.18189570465109389 -0.33415092411799557 0 -0.17893326145362259 -0.34192140793234549 0 -0.16834684177192979 -0.35358764997328063 0 -0.17893326145362259 -0.34192140793234549 0 -0.17344246812536071 -0.32403842643558339 0 -0.18189570465109389 -0.33415092411799557 0 -0.17893326145362259 -0.34192140793234549 0 -0.17344246812536071 -0.32403842643558339 0 -0.18728836527271239 -0.32856604476967433 0 -0.18189570465109389 -0.33415092411799557 0 -0.18133057443399489 -0.32690484925144941 0 -0.18189570465109389 -0.33415092411799557 0 -0.18133057443399489 -0.32690484925144941 0 -0.17344246812536071 -0.32403842643558339 0 -0.1821127838535829 -0.30598167289910111 0 -0.18378624441934691 -0.31365547494245338 0 -0.17344246812536071 -0.32403842643558339 0 -0.18378624441934691 -0.31365547494245338 0 -0.1845704106483966 -0.32180114327434911 0 -0.17344246812536071 -0.32403842643558339 0 -0.1920807247295708 -0.32498994325789438 0 -0.18378624441934691 -0.31365547494245338 0 -0.1845704106483966 -0.32180114327434911 0 -0.1845704106483966 -0.32180114327434911 0 -0.18133057443399489 -0.32690484925144941 0 -0.17344246812536071 -0.32403842643558339 0 -0.18728836527271239 -0.32856604476967433 0 -0.1845704106483966 -0.32180114327434911 0 -0.18133057443399489 -0.32690484925144941 0 -0.17133058563427919 -0.3049621121981641 0 -0.17344246812536071 -0.32403842643558339 0 -0.16355321420794419 -0.31282003022120658 0 -0.17344246812536071 -0.32403842643558339 0 -0.16355321420794419 -0.31282003022120658 0 -0.1620888378726569 -0.32847998616481872 0 -0.16355321420794419 -0.31282003022120658 0 -0.1620888378726569 -0.32847998616481872 0 -0.15381806980292481 -0.31704436269783792 0 -0.16834684177192979 -0.35358764997328063 0 -0.1620888378726569 -0.32847998616481872 0 -0.15128359545512521 -0.33490946149618478 0 -0.16834684177192979 -0.35358764997328063 0 -0.17344246812536071 -0.32403842643558339 0 -0.1620888378726569 -0.32847998616481872 0 -0.16834684177192979 -0.35358764997328063 0 -0.17344246812536071 -0.32403842643558339 0 -0.15128359545512521 -0.33490946149618478 0 -0.15381806980292481 -0.31704436269783792 0 -0.1458986949017366 -0.31903870945090629 0 -0.15128359545512521 -0.33490946149618478 0 -0.13422034913832201 -0.3162312730190876 0 -0.15128359545512521 -0.33490946149618478 0 -0.1458986949017366 -0.31903870945090629 0 -0.13422034913832201 -0.3162312730190876 0 -0.1620888378726569 -0.32847998616481872 0 -0.15128359545512521 -0.33490946149618478 0 -0.15381806980292481 -0.31704436269783792 0 -0.14427276521057439 -0.30796974059051502 0 -0.1458986949017366 -0.31903870945090629 0 -0.13422034913832201 -0.3162312730190876 0 -0.14427276521057439 -0.30796974059051502 0 -0.15381806980292481 -0.31704436269783792 0 -0.1458986949017366 -0.31903870945090629 0 -0.12835828250628939 -0.30981439410955769 0 -0.12715217725488301 -0.33634926227569079 0 -0.12835828250628939 -0.30981439410955769 0 -0.13422034913832201 -0.3162312730190876 0 -0.12715217725488301 -0.33634926227569079 0 -0.12835828250628939 -0.30981439410955769 0 -0.13422034913832201 -0.3162312730190876 0 -0.15128359545512521 -0.33490946149618478 0 -0.12715217725488301 -0.33634926227569079 0 -0.13837569130284261 -0.34809697597570849 0 -0.15128359545512521 -0.33490946149618478 0 -0.13422034913832201 -0.3162312730190876 0 -0.12715217725488301 -0.33634926227569079 0 -0.13837569130284261 -0.34809697597570849 0 -0.1486206626713909 -0.35870205452800608 0 -0.12644632982997131 -0.36242712560295282 0 -0.12715217725488301 -0.33634926227569079 0 -0.12644632982997131 -0.36242712560295282 0 -0.12715217725488301 -0.33634926227569079 0 -0.13837569130284261 -0.34809697597570849 0 -0.12644632982997131 -0.36242712560295282 0 -0.15128359545512521 -0.33490946149618478 0 -0.13837569130284261 -0.34809697597570849 0 -0.1486206626713909 -0.35870205452800608 0 -0.16834684177192979 -0.35358764997328063 0 -0.15128359545512521 -0.33490946149618478 0 -0.1486206626713909 -0.35870205452800608 0 -0.14253090924801501 -0.37682780238681529 0 -0.1645325313341548 -0.37570660139370288 0 -0.1486206626713909 -0.35870205452800608 0 -0.14253090924801501 -0.37682780238681529 0 -0.1486206626713909 -0.35870205452800608 0 -0.12644632982997131 -0.36242712560295282 0 -0.12574048240505961 -0.38850498893021451 0 -0.12644632982997131 -0.36242712560295282 0 -0.10625227328680301 -0.36815275359329441 0 -0.12644632982997131 -0.36242712560295282 0 -0.10625227328680301 -0.36815275359329441 0 -0.1141355716723081 -0.3481513770478124 0 -0.10625227328680301 -0.36815275359329441 0 -0.086111920141789242 -0.36310122691344121 0 -0.089756384817184301 -0.38378277889226442 0 -0.10625227328680301 -0.36815275359329441 0 -0.098036094899123211 -0.34695698001864161 0 -0.086111920141789242 -0.36310122691344121 0 -0.10625227328680301 -0.36815275359329441 0 -0.098036094899123211 -0.34695698001864161 0 -0.1141355716723081 -0.3481513770478124 0 -0.12715217725488301 -0.33634926227569079 0 -0.12644632982997131 -0.36242712560295282 0 -0.1141355716723081 -0.3481513770478124 0 -0.12715217725488301 -0.33634926227569079 0 -0.1141355716723081 -0.3481513770478124 0 -0.1071053829690818 -0.33214014546056908 0 -0.12715217725488301 -0.33634926227569079 0 -0.11718559027935981 -0.32121520401151588 0 -0.1071053829690818 -0.33214014546056908 0 -0.12835828250628939 -0.30981439410955769 0 -0.12715217725488301 -0.33634926227569079 0 -0.11718559027935981 -0.32121520401151588 0 -0.12835828250628939 -0.30981439410955769 0 -0.11718559027935981 -0.32121520401151588 0 -0.1155360029261229 -0.30978357160576148 0 -0.11718559027935981 -0.32121520401151588 0 -0.10699007422786259 -0.31708946284229028 0 -0.1071053829690818 -0.33214014546056908 0 -0.11718559027935981 -0.32121520401151588 0 -0.10699007422786259 -0.31708946284229028 0 -0.1155360029261229 -0.30978357160576148 0 -0.10699007422786259 -0.31708946284229028 0 -0.094593509142281554 -0.32196438794889809 0 -0.1071053829690818 -0.33214014546056908 0 -0.10699007422786259 -0.31708946284229028 0 -0.094593509142281554 -0.32196438794889809 0 -0.096876880780028554 -0.30975690514363402 0 -0.098036094899123211 -0.34695698001864161 0 -0.1071053829690818 -0.33214014546056908 0 -0.090390613809089054 -0.33429496153405208 0 -0.094593509142281554 -0.32196438794889809 0 -0.1071053829690818 -0.33214014546056908 0 -0.090390613809089054 -0.33429496153405208 0 -0.098036094899123211 -0.34695698001864161 0 -0.1141355716723081 -0.3481513770478124 0 -0.1071053829690818 -0.33214014546056908 0 -0.098036094899123211 -0.34695698001864161 0 -0.090390613809089054 -0.33429496153405208 0 -0.081414266201782631 -0.3473102858104416 0 -0.090390613809089054 -0.33429496153405208 0 -0.082020369938709162 -0.32441981608174009 0 -0.076300543466540582 -0.3353995373257963 0 -0.090390613809089054 -0.33429496153405208 0 -0.076300543466540582 -0.3353995373257963 0 -0.081414266201782631 -0.3473102858104416 0 -0.094593509142281554 -0.32196438794889809 0 -0.085508720068107974 -0.3138427600564121 0 -0.096876880780028554 -0.30975690514363402 0 -0.094593509142281554 -0.32196438794889809 0 -0.082020369938709162 -0.32441981608174009 0 -0.085508720068107974 -0.3138427600564121 0 -0.094593509142281554 -0.32196438794889809 0 -0.090390613809089054 -0.33429496153405208 0 -0.082020369938709162 -0.32441981608174009 0 -0.085508720068107974 -0.3138427600564121 0 -0.074602776970436435 -0.3168891186161793 0 -0.077663945900313419 -0.30702863492039101 0 -0.082020369938709162 -0.32441981608174009 0 -0.085508720068107974 -0.3138427600564121 0 -0.074602776970436435 -0.3168891186161793 0 -0.082020369938709162 -0.32441981608174009 0 -0.074602776970436435 -0.3168891186161793 0 -0.070330680329041079 -0.32578902444733909 0 -0.074602776970436435 -0.3168891186161793 0 -0.070330680329041079 -0.32578902444733909 0 -0.06395476762760445 -0.32010032430048257 0 -0.070330680329041079 -0.32578902444733909 0 -0.06395476762760445 -0.32010032430048257 0 -0.060175388519221773 -0.32880621530543691 0 -0.06395476762760445 -0.32010032430048257 0 -0.06871025832738753 -0.31025907978950229 0 -0.05503602335462808 -0.31680253650274459 0 -0.074602776970436435 -0.3168891186161793 0 -0.06395476762760445 -0.32010032430048257 0 -0.06871025832738753 -0.31025907978950229 0 -0.076300543466540582 -0.3353995373257963 0 -0.067277296214279581 -0.34519455725156561 0 -0.081414266201782631 -0.3473102858104416 0 -0.070330680329041079 -0.32578902444733909 0 -0.076300543466540582 -0.3353995373257963 0 -0.066370034306342002 -0.33538857882963907 0 -0.082020369938709162 -0.32441981608174009 0 -0.070330680329041079 -0.32578902444733909 0 -0.076300543466540582 -0.3353995373257963 0 -0.070330680329041079 -0.32578902444733909 0 -0.066370034306342002 -0.33538857882963907 0 -0.060175388519221773 -0.32880621530543691 0 -0.076300543466540582 -0.3353995373257963 0 -0.066370034306342002 -0.33538857882963907 0 -0.067277296214279581 -0.34519455725156561 0 -0.066370034306342002 -0.33538857882963907 0 -0.067277296214279581 -0.34519455725156561 0 -0.055463184354981883 -0.3409447661764185 0 -0.067277296214279581 -0.34519455725156561 0 -0.069839092539680375 -0.36179732889466459 0 -0.081414266201782631 -0.3473102858104416 0 -0.067277296214279581 -0.34519455725156561 0 -0.069839092539680375 -0.36179732889466459 0 -0.053590945336823827 -0.35795420176512988 0 -0.069839092539680375 -0.36179732889466459 0 -0.086111920141789242 -0.36310122691344121 0 -0.073286967431346245 -0.38091375844925601 0 -0.069839092539680375 -0.36179732889466459 0 -0.058062686696695717 -0.3750226462790886 0 -0.073286967431346245 -0.38091375844925601 0 -0.098036094899123211 -0.34695698001864161 0 -0.086111920141789242 -0.36310122691344121 0 -0.081414266201782631 -0.3473102858104416 0 -0.069839092539680375 -0.36179732889466459 0 -0.086111920141789242 -0.36310122691344121 0 -0.081414266201782631 -0.3473102858104416 0 -0.10998461553155831 -0.26508358913073388 0 -0.094930372953753853 -0.26572012164974168 0 -0.082407819792836373 -0.2541227627814282 0 -0.10998461553155831 -0.26508358913073388 0 -0.082407819792836373 -0.2541227627814282 0 -0.10998461553155831 -0.26508358913073388 0 -0.082407819792836373 -0.2541227627814282 0 -0.1040340538385533 -0.24906600437507531 0 -0.1248214992250038 -0.2558113598961278 0 -0.10998461553155831 -0.26508358913073388 0 -0.1040340538385533 -0.24906600437507531 0 -0.1375614112702809 -0.276044415480038 0 -0.10998461553155831 -0.26508358913073388 0 -0.1375614112702809 -0.276044415480038 0 -0.10998461553155831 -0.26508358913073388 0 -0.1142348927122407 -0.27362644651723522 0 -0.1375614112702809 -0.276044415480038 0 -0.1248214992250038 -0.2558113598961278 0 -0.10998461553155831 -0.26508358913073388 0 -0.1142348927122407 -0.27362644651723522 0 -0.100093856504714 -0.27887489606489468 0 -0.10998461553155831 -0.26508358913073388 0 -0.1142348927122407 -0.27362644651723522 0 -0.100093856504714 -0.27887489606489468 0 -0.10998461553155831 -0.26508358913073388 0 -0.094930372953753853 -0.26572012164974168 0 -0.100093856504714 -0.27887489606489468 0 -0.094930372953753853 -0.26572012164974168 0 -0.100093856504714 -0.27887489606489468 0 -0.087235199985906703 -0.26479923862190979 0 -0.100093856504714 -0.27887489606489468 0 -0.11715710282151889 -0.29755308454199042 0 -0.100093856504714 -0.27887489606489468 0 -0.09377957236001129 -0.28792399523784901 0 -0.100298601415813 -0.29717646612137633 0 -0.100093856504714 -0.27887489606489468 0 -0.11715710282151889 -0.29755308454199042 0 -0.100298601415813 -0.29717646612137633 0 -0.09377957236001129 -0.28792399523784901 0 -0.100298601415813 -0.29717646612137633 0 -0.088934819367998408 -0.30215176915090031 0 -0.1142348927122407 -0.27362644651723522 0 -0.1248999050116765 -0.28446567317832738 0 -0.11715710282151889 -0.29755308454199042 0 -0.1142348927122407 -0.27362644651723522 0 -0.100093856504714 -0.27887489606489468 0 -0.11715710282151889 -0.29755308454199042 0 -0.11715710282151889 -0.29755308454199042 0 -0.1155360029261229 -0.30978357160576148 0 -0.1073717324342692 -0.30627189805101052 0 -0.12835828250628939 -0.30981439410955769 0 -0.11715710282151889 -0.29755308454199042 0 -0.12835828250628939 -0.30981439410955769 0 -0.11715710282151889 -0.29755308454199042 0 -0.1155360029261229 -0.30978357160576148 0 -0.10699007422786259 -0.31708946284229028 0 -0.1155360029261229 -0.30978357160576148 0 -0.1073717324342692 -0.30627189805101052 0 -0.11715710282151889 -0.29755308454199042 0 -0.1073717324342692 -0.30627189805101052 0 -0.100298601415813 -0.29717646612137633 0 -0.10699007422786259 -0.31708946284229028 0 -0.1073717324342692 -0.30627189805101052 0 -0.096876880780028554 -0.30975690514363402 0 -0.100298601415813 -0.29717646612137633 0 -0.096876880780028554 -0.30975690514363402 0 -0.088934819367998408 -0.30215176915090031 0 -0.1073717324342692 -0.30627189805101052 0 -0.100298601415813 -0.29717646612137633 0 -0.096876880780028554 -0.30975690514363402 0 -0.085508720068107974 -0.3138427600564121 0 -0.096876880780028554 -0.30975690514363402 0 -0.088934819367998408 -0.30215176915090031 0 -0.088934819367998408 -0.30215176915090031 0 -0.078708472910572091 -0.29704749605215941 0 -0.077663945900313419 -0.30702863492039101 0 -0.085508720068107974 -0.3138427600564121 0 -0.088934819367998408 -0.30215176915090031 0 -0.077663945900313419 -0.30702863492039101 0 -0.069518627757378104 -0.30198158585719281 0 -0.066086954024713457 -0.29149656744168778 0 -0.05503602335462808 -0.31680253650274459 0 -0.074602776970436435 -0.3168891186161793 0 -0.077663945900313419 -0.30702863492039101 0 -0.06871025832738753 -0.31025907978950229 0 -0.077663945900313419 -0.30702863492039101 0 -0.06871025832738753 -0.31025907978950229 0 -0.069518627757378104 -0.30198158585719281 0 -0.06871025832738753 -0.31025907978950229 0 -0.069518627757378104 -0.30198158585719281 0 -0.05503602335462808 -0.31680253650274459 0 -0.078708472910572091 -0.29704749605215941 0 -0.077663945900313419 -0.30702863492039101 0 -0.069518627757378104 -0.30198158585719281 0 -0.078708472910572091 -0.29704749605215941 0 -0.069518627757378104 -0.30198158585719281 0 -0.066086954024713457 -0.29149656744168778 0 -0.071152777167686559 -0.27319961414143401 0 -0.061871714807024032 -0.29306105465751853 0 -0.078708472910572091 -0.29704749605215941 0 -0.066086954024713457 -0.29149656744168778 0 -0.083090405264715034 -0.28518573175329459 0 -0.066086954024713457 -0.29149656744168778 0 -0.083090405264715034 -0.28518573175329459 0 -0.066086954024713457 -0.29149656744168778 0 -0.074247386908774457 -0.27280966511155791 0 -0.066086954024713457 -0.29149656744168778 0 -0.083090405264715034 -0.28518573175329459 0 -0.074247386908774457 -0.27280966511155791 0 -0.066086954024713457 -0.29149656744168778 0 -0.071152777167686559 -0.27319961414143401 0 -0.061871714807024032 -0.29306105465751853 0 -0.066086954024713457 -0.29149656744168778 0 -0.061871714807024032 -0.29306105465751853 0 -0.100093856504714 -0.27887489606489468 0 -0.09377957236001129 -0.28792399523784901 0 -0.083090405264715034 -0.28518573175329459 0 -0.100093856504714 -0.27887489606489468 0 -0.083090405264715034 -0.28518573175329459 0 -0.09377957236001129 -0.28792399523784901 0 -0.078708472910572091 -0.29704749605215941 0 -0.083090405264715034 -0.28518573175329459 0 -0.09377957236001129 -0.28792399523784901 0 -0.088934819367998408 -0.30215176915090031 0 -0.078708472910572091 -0.29704749605215941 0 -0.100093856504714 -0.27887489606489468 0 -0.083090405264715034 -0.28518573175329459 0 -0.086166712166027545 -0.27541738288791417 0 -0.100093856504714 -0.27887489606489468 0 -0.086166712166027545 -0.27541738288791417 0 -0.087235199985906703 -0.26479923862190979 0 -0.100093856504714 -0.27887489606489468 0 -0.087235199985906703 -0.26479923862190979 0 -0.086166712166027545 -0.27541738288791417 0 -0.074247386908774457 -0.27280966511155791 0 -0.087235199985906703 -0.26479923862190979 0 -0.083090405264715034 -0.28518573175329459 0 -0.086166712166027545 -0.27541738288791417 0 -0.074247386908774457 -0.27280966511155791 0 -0.071152777167686559 -0.27319961414143401 0 -0.074247386908774457 -0.27280966511155791 0 -0.080433839528360335 -0.25333817362535482 0 -0.066086954024713457 -0.29149656744168778 0 -0.071152777167686559 -0.27319961414143401 0 -0.074247386908774457 -0.27280966511155791 0 -0.071152777167686559 -0.27319961414143401 0 -0.065424251162719257 -0.26138427209296439 0 -0.059082178029117721 -0.27720069686942128 0 -0.071152777167686559 -0.27319961414143401 0 -0.059082178029117721 -0.27720069686942128 0 -0.061871714807024032 -0.29306105465751853 0 -0.071152777167686559 -0.27319961414143401 0 -0.065424251162719257 -0.26138427209296439 0 -0.080433839528360335 -0.25333817362535482 0 -0.071152777167686559 -0.27319961414143401 0 -0.080433839528360335 -0.25333817362535482 0 -0.065424251162719257 -0.26138427209296439 0 -0.061980445145124741 -0.250819843633248 0 -0.07180806958720759 -0.24990972721157259 0 -0.065424251162719257 -0.26138427209296439 0 -0.080433839528360335 -0.25333817362535482 0 -0.07180806958720759 -0.24990972721157259 0 -0.080433839528360335 -0.25333817362535482 0 -0.07180806958720759 -0.24990972721157259 0 -0.074247386908774457 -0.27280966511155791 0 -0.080433839528360335 -0.25333817362535482 0 -0.082407819792836373 -0.2541227627814282 0 -0.074247386908774457 -0.27280966511155791 0 -0.082407819792836373 -0.2541227627814282 0 -0.074247386908774457 -0.27280966511155791 0 -0.082407819792836373 -0.2541227627814282 0 -0.087235199985906703 -0.26479923862190979 0 -0.080433839528360335 -0.25333817362535482 0 -0.082407819792836373 -0.2541227627814282 0 -0.094930372953753853 -0.26572012164974168 0 -0.082407819792836373 -0.2541227627814282 0 -0.087235199985906703 -0.26479923862190979 0 -0.03512593084791707 -0.26427224819640183 0 -0.050111000711470621 -0.25491938513609719 0 -0.048711953771742478 -0.272291764199041 0 -0.03512593084791707 -0.26427224819640183 0 -0.050111000711470621 -0.25491938513609719 0 -0.035304444280471567 -0.2431673745471338 0 -0.065424251162719257 -0.26138427209296439 0 -0.050111000711470621 -0.25491938513609719 0 -0.048711953771742478 -0.272291764199041 0 -0.065424251162719257 -0.26138427209296439 0 -0.050111000711470621 -0.25491938513609719 0 -0.061980445145124741 -0.250819843633248 0 -0.065424251162719257 -0.26138427209296439 0 -0.048711953771742478 -0.272291764199041 0 -0.059082178029117721 -0.27720069686942128 0 -0.048711953771742478 -0.272291764199041 0 -0.059082178029117721 -0.27720069686942128 0 -0.048250193236427333 -0.28606677925615348 0 -0.03512593084791707 -0.26427224819640183 0 -0.048711953771742478 -0.272291764199041 0 -0.035335995355311942 -0.28175600611691332 0 -0.048711953771742478 -0.272291764199041 0 -0.035335995355311942 -0.28175600611691332 0 -0.048250193236427333 -0.28606677925615348 0 -0.035335995355311942 -0.28175600611691332 0 -0.048250193236427333 -0.28606677925615348 0 -0.038347756977390957 -0.30179197819229159 0 -0.035335995355311942 -0.28175600611691332 0 -0.038347756977390957 -0.30179197819229159 0 -0.02407235870838027 -0.29213852935916068 0 -0.059082178029117721 -0.27720069686942128 0 -0.048250193236427333 -0.28606677925615348 0 -0.061871714807024032 -0.29306105465751853 0 -0.048250193236427333 -0.28606677925615348 0 -0.061871714807024032 -0.29306105465751853 0 -0.038347756977390957 -0.30179197819229159 0 -0.066086954024713457 -0.29149656744168778 0 -0.055332846299464319 -0.30705421005914513 0 -0.05503602335462808 -0.31680253650274459 0 -0.061871714807024032 -0.29306105465751853 0 -0.038347756977390957 -0.30179197819229159 0 -0.066086954024713457 -0.29149656744168778 0 -0.05503602335462808 -0.31680253650274459 0 -0.061871714807024032 -0.29306105465751853 0 -0.055332846299464319 -0.30705421005914513 0 -0.038347756977390957 -0.30179197819229159 0 -0.061871714807024032 -0.29306105465751853 0 -0.055332846299464319 -0.30705421005914513 0 -0.066086954024713457 -0.29149656744168778 0 -0.061871714807024032 -0.29306105465751853 0 -0.055332846299464319 -0.30705421005914513 0 -0.055332846299464319 -0.30705421005914513 0 -0.038347756977390957 -0.30179197819229159 0 -0.041823044142942842 -0.31375688560320247 0 -0.038347756977390957 -0.30179197819229159 0 -0.041823044142942842 -0.31375688560320247 0 -0.030967968146689579 -0.31450259845869238 0 -0.014823799147754949 -0.3105229017270566 0 -0.0092811678636846775 -0.29098706164502408 0 -0.02407235870838027 -0.29213852935916068 0 -0.038347756977390957 -0.30179197819229159 0 -0.014823799147754949 -0.3105229017270566 0 -0.038347756977390957 -0.30179197819229159 0 -0.014823799147754949 -0.3105229017270566 0 -0.030967968146689579 -0.31450259845869238 0 -0.038347756977390957 -0.30179197819229159 0 -0.014823799147754949 -0.3105229017270566 0 -0.02407235870838027 -0.29213852935916068 0 -0.014823799147754949 -0.3105229017270566 0 -0.0092811678636846775 -0.29098706164502408 0 0.003586410024286505 -0.30265422310255369 0 -0.014823799147754949 -0.3105229017270566 0 0.0087001586818807805 -0.31925382526182278 0 0.003586410024286505 -0.30265422310255369 0 -0.0092811678636846775 -0.29098706164502408 0 0.003586410024286505 -0.30265422310255369 0 0.002408624111097153 -0.28821755391332921 0 -0.0092811678636846775 -0.29098706164502408 0 -0.0071670476770255027 -0.27572650538435378 0 0.002408624111097153 -0.28821755391332921 0 -0.035335995355311942 -0.28175600611691332 0 -0.02407235870838027 -0.29213852935916068 0 -0.022573074197758849 -0.27563469911451782 0 -0.0092811678636846775 -0.29098706164502408 0 -0.02407235870838027 -0.29213852935916068 0 -0.022573074197758849 -0.27563469911451782 0 -0.03512593084791707 -0.26427224819640183 0 -0.022573074197758849 -0.27563469911451782 0 -0.018719116770746971 -0.25786426006470747 0 -0.022573074197758849 -0.27563469911451782 0 -0.0071670476770255027 -0.27572650538435378 0 -0.018719116770746971 -0.25786426006470747 0 -0.03512593084791707 -0.26427224819640183 0 -0.035335995355311942 -0.28175600611691332 0 -0.022573074197758849 -0.27563469911451782 0 -0.0092811678636846775 -0.29098706164502408 0 -0.022573074197758849 -0.27563469911451782 0 -0.0071670476770255027 -0.27572650538435378 0 -0.0071670476770255027 -0.27572650538435378 0 -0.018719116770746971 -0.25786426006470747 0 0.00070653076890110633 -0.25304061558828861 0 -0.03512593084791707 -0.26427224819640183 0 -0.018719116770746971 -0.25786426006470747 0 -0.035304444280471567 -0.2431673745471338 0 -0.037763423015874507 -0.34985848760327309 0 -0.033005328905995418 -0.37612940802304512 0 -0.037763423015874507 -0.34985848760327309 0 -0.053590945336823827 -0.35795420176512988 0 -0.033005328905995418 -0.37612940802304512 0 -0.069839092539680375 -0.36179732889466459 0 -0.053590945336823827 -0.35795420176512988 0 -0.058062686696695717 -0.3750226462790886 0 -0.053590945336823827 -0.35795420176512988 0 -0.033005328905995418 -0.37612940802304512 0 -0.058062686696695717 -0.3750226462790886 0 -0.037763423015874507 -0.34985848760327309 0 -0.053590945336823827 -0.35795420176512988 0 -0.055463184354981883 -0.3409447661764185 0 -0.067277296214279581 -0.34519455725156561 0 -0.053590945336823827 -0.35795420176512988 0 -0.055463184354981883 -0.3409447661764185 0 -0.037763423015874507 -0.34985848760327309 0 -0.055463184354981883 -0.3409447661764185 0 -0.049919292269070971 -0.33123486775351441 0 -0.055463184354981883 -0.3409447661764185 0 -0.060175388519221773 -0.32880621530543691 0 -0.049919292269070971 -0.33123486775351441 0 -0.066370034306342002 -0.33538857882963907 0 -0.055463184354981883 -0.3409447661764185 0 -0.060175388519221773 -0.32880621530543691 0 -0.06395476762760445 -0.32010032430048257 0 -0.05503602335462808 -0.31680253650274459 0 -0.055353710739399667 -0.3234744169866165 0 -0.060175388519221773 -0.32880621530543691 0 -0.049919292269070971 -0.33123486775351441 0 -0.055353710739399667 -0.3234744169866165 0 -0.06395476762760445 -0.32010032430048257 0 -0.060175388519221773 -0.32880621530543691 0 -0.055353710739399667 -0.3234744169866165 0 -0.049919292269070971 -0.33123486775351441 0 -0.048793977791915688 -0.32104736546077678 0 -0.04252151712575359 -0.32358756718350112 0 -0.049919292269070971 -0.33123486775351441 0 -0.055353710739399667 -0.3234744169866165 0 -0.048793977791915688 -0.32104736546077678 0 -0.05503602335462808 -0.31680253650274459 0 -0.055353710739399667 -0.3234744169866165 0 -0.048793977791915688 -0.32104736546077678 0 -0.055332846299464319 -0.30705421005914513 0 -0.05503602335462808 -0.31680253650274459 0 -0.048793977791915688 -0.32104736546077678 0 -0.055332846299464319 -0.30705421005914513 0 -0.048793977791915688 -0.32104736546077678 0 -0.055332846299464319 -0.30705421005914513 0 -0.048793977791915688 -0.32104736546077678 0 -0.041823044142942842 -0.31375688560320247 0 -0.041823044142942842 -0.31375688560320247 0 -0.04252151712575359 -0.32358756718350112 0 -0.035377021438548262 -0.3207844431123289 0 -0.048793977791915688 -0.32104736546077678 0 -0.041823044142942842 -0.31375688560320247 0 -0.04252151712575359 -0.32358756718350112 0 -0.04252151712575359 -0.32358756718350112 0 -0.035377021438548262 -0.3207844431123289 0 -0.034056395396198293 -0.32717683882272319 0 -0.035377021438548262 -0.3207844431123289 0 -0.034056395396198293 -0.32717683882272319 0 -0.025478876274534351 -0.32723605223972618 0 -0.041823044142942842 -0.31375688560320247 0 -0.035377021438548262 -0.3207844431123289 0 -0.030967968146689579 -0.31450259845869238 0 -0.037763423015874507 -0.34985848760327309 0 -0.04252151712575359 -0.32358756718350112 0 -0.037763423015874507 -0.34985848760327309 0 -0.04252151712575359 -0.32358756718350112 0 -0.032848166745956961 -0.33709929275533701 0 -0.037763423015874507 -0.34985848760327309 0 -0.049919292269070971 -0.33123486775351441 0 -0.04252151712575359 -0.32358756718350112 0 -0.04252151712575359 -0.32358756718350112 0 -0.034056395396198293 -0.32717683882272319 0 -0.032848166745956961 -0.33709929275533701 0 -0.025478876274534351 -0.32723605223972618 0 -0.0070930087833613034 -0.33262826124676459 0 -0.022886176248603771 -0.34600269723170601 0 -0.032848166745956961 -0.33709929275533701 0 -0.025478876274534351 -0.32723605223972618 0 -0.022886176248603771 -0.34600269723170601 0 -0.034056395396198293 -0.32717683882272319 0 -0.032848166745956961 -0.33709929275533701 0 -0.025478876274534351 -0.32723605223972618 0 -0.014823799147754949 -0.3105229017270566 0 -0.030967968146689579 -0.31450259845869238 0 -0.025478876274534351 -0.32723605223972618 0 -0.014823799147754949 -0.3105229017270566 0 -0.025478876274534351 -0.32723605223972618 0 -0.0070930087833613034 -0.33262826124676459 0 -0.035377021438548262 -0.3207844431123289 0 -0.030967968146689579 -0.31450259845869238 0 -0.025478876274534351 -0.32723605223972618 0 -0.014823799147754949 -0.3105229017270566 0 -0.0070930087833613034 -0.33262826124676459 0 0.0087001586818807805 -0.31925382526182278 0 -0.014823799147754949 -0.3105229017270566 0 0.0087001586818807805 -0.31925382526182278 0 -0.0070930087833613034 -0.33262826124676459 0 -0.022886176248603771 -0.34600269723170601 0 -0.0070930087833613034 -0.33262826124676459 0 -0.0094732313975807447 -0.34582945971959123 0 -0.022886176248603771 -0.34600269723170601 0 -0.0070930087833613034 -0.33262826124676459 0 -0.0094732313975807447 -0.34582945971959123 0 0.0087629043895791105 -0.33963502671472029 0 -0.0039234005137417502 -0.35918784498975409 0 -0.0094732313975807447 -0.34582945971959123 0 0.0087629043895791105 -0.33963502671472029 0 -0.0039234005137417502 -0.35918784498975409 0 -0.0094732313975807447 -0.34582945971959123 0 -0.021641373453439881 -0.36004337857043989 0 -0.0094732313975807447 -0.34582945971959123 0 -0.022886176248603771 -0.34600269723170601 0 -0.021641373453439881 -0.36004337857043989 0 -0.037763423015874507 -0.34985848760327309 0 -0.022886176248603771 -0.34600269723170601 0 -0.021641373453439881 -0.36004337857043989 0 -0.037763423015874507 -0.34985848760327309 0 -0.032848166745956961 -0.33709929275533701 0 -0.022886176248603771 -0.34600269723170601 0 -0.021641373453439881 -0.36004337857043989 0 -0.01036157723351748 -0.37989260571530548 0 -0.033005328905995418 -0.37612940802304512 0 -0.037763423015874507 -0.34985848760327309 0 -0.021641373453439881 -0.36004337857043989 0 -0.033005328905995418 -0.37612940802304512 0 -0.0039234005137417502 -0.35918784498975409 0 -0.021641373453439881 -0.36004337857043989 0 -0.01036157723351748 -0.37989260571530548 0 -0.01036157723351748 -0.37989260571530548 0 -0.003563252404628626 -0.40258619868273499 0 -0.028247234796116311 -0.40240032844281731 0 -0.01036157723351748 -0.37989260571530548 0 -0.003563252404628626 -0.40258619868273499 0 0.0062363939555103148 -0.39102874309929181 0 -0.01036157723351748 -0.37989260571530548 0 -0.028247234796116311 -0.40240032844281731 0 -0.033005328905995418 -0.37612940802304512 0 -0.028247234796116311 -0.40240032844281731 0 -0.033005328905995418 -0.37612940802304512 0 -0.033005328905995418 -0.37612940802304512 0 -0.047900602737136477 -0.39192411753910639 0 -0.058062686696695717 -0.3750226462790886 0 -0.028247234796116311 -0.40240032844281731 0 -0.033005328905995418 -0.37612940802304512 0 -0.047900602737136477 -0.39192411753910639 0 -0.028247234796116311 -0.40240032844281731 0 -0.047900602737136477 -0.39192411753910639 0 -0.044222404532379397 -0.4071111626239664 0 -0.047900602737136477 -0.39192411753910639 0 -0.059027583310791713 -0.40632340520443921 0 -0.044222404532379397 -0.4071111626239664 0 -0.047900602737136477 -0.39192411753910639 0 -0.059027583310791713 -0.40632340520443921 0 -0.063218694134839243 -0.39281086407964438 0 -0.047900602737136477 -0.39192411753910639 0 -0.058062686696695717 -0.3750226462790886 0 -0.063218694134839243 -0.39281086407964438 0 -0.055957427029889227 -0.41935279845636719 0 -0.040938578210145293 -0.42299539267376901 0 -0.058476351870654093 -0.4386167733335955 0 -0.055957427029889227 -0.41935279845636719 0 -0.058476351870654093 -0.4386167733335955 0 -0.070615126077963719 -0.42070467501816139 0 -0.055957427029889227 -0.41935279845636719 0 -0.059027583310791713 -0.40632340520443921 0 -0.070615126077963719 -0.42070467501816139 0 -0.055957427029889227 -0.41935279845636719 0 -0.044222404532379397 -0.4071111626239664 0 -0.040938578210145293 -0.42299539267376901 0 -0.055957427029889227 -0.41935279845636719 0 -0.059027583310791713 -0.40632340520443921 0 -0.044222404532379397 -0.4071111626239664 0 -0.028247234796116311 -0.40240032844281731 0 -0.044222404532379397 -0.4071111626239664 0 -0.040938578210145293 -0.42299539267376901 0 -0.040938578210145293 -0.42299539267376901 0 -0.023489140686237191 -0.42867124886258939 0 -0.03475003489617353 -0.44214760183530549 0 -0.040938578210145293 -0.42299539267376901 0 -0.03475003489617353 -0.44214760183530549 0 -0.058476351870654093 -0.4386167733335955 0 -0.023489140686237191 -0.42867124886258939 0 -0.01957936601360594 -0.43691514096782458 0 -0.03475003489617353 -0.44214760183530549 0 -0.023489140686237191 -0.42867124886258939 0 -0.01957936601360594 -0.43691514096782458 0 -0.0090545705503197321 -0.43116328283638622 0 -0.028247234796116311 -0.40240032844281731 0 -0.040938578210145293 -0.42299539267376901 0 -0.023489140686237191 -0.42867124886258939 0 -0.028247234796116311 -0.40240032844281731 0 -0.023489140686237191 -0.42867124886258939 0 -0.011611141650675481 -0.41653662546505471 0 -0.028247234796116311 -0.40240032844281731 0 -0.023489140686237191 -0.42867124886258939 0 -0.003563252404628626 -0.40258619868273499 0 -0.028247234796116311 -0.40240032844281731 0 -0.011611141650675481 -0.41653662546505471 0 -0.011611141650675481 -0.41653662546505471 0 -0.0090545705503197321 -0.43116328283638622 0 0.0062984901839244593 -0.41786206850074548 0 -0.003563252404628626 -0.40258619868273499 0 -0.011611141650675481 -0.41653662546505471 0 0.0062984901839244593 -0.41786206850074548 0 -0.0090545705503197321 -0.43116328283638622 0 -0.011023717921693311 -0.44567843033701732 0 0.0055422597806522606 -0.43238786138596758 0 -0.023489140686237191 -0.42867124886258939 0 -0.011611141650675481 -0.41653662546505471 0 -0.0090545705503197321 -0.43116328283638622 0 -0.011023717921693311 -0.44567843033701732 0 -0.0060832217725938498 -0.44641364957203589 0 0.0055422597806522606 -0.43238786138596758 0 -0.011023717921693311 -0.44567843033701732 0 0.0055422597806522606 -0.43238786138596758 0 -0.01957936601360594 -0.43691514096782458 0 -0.0090545705503197321 -0.43116328283638622 0 -0.011023717921693311 -0.44567843033701732 0 -0.0081426800025291325 -0.44989607943054483 0 -0.003697900659681546 -0.45228595282283462 0 -0.01176587965614782 -0.45520628499029148 0 -0.011023717921693311 -0.44567843033701732 0 -0.0081426800025291325 -0.44989607943054483 0 -0.01176587965614782 -0.45520628499029148 0 -0.011023717921693311 -0.44567843033701732 0 -0.0060832217725938498 -0.44641364957203589 0 -0.011023717921693311 -0.44567843033701732 0 -0.0081426800025291325 -0.44989607943054483 0 -0.0060832217725938498 -0.44641364957203589 0 -0.0081426800025291325 -0.44989607943054483 0 -0.0060832217725938498 -0.44641364957203589 0 -0.003697900659681546 -0.45228595282283462 0 -0.0060832217725938498 -0.44641364957203589 0 -0.003697900659681546 -0.45228595282283462 0 0.001109291813816354 -0.4456136197789185 0 -0.003697900659681546 -0.45228595282283462 0 -0.0043639564959790751 -0.45919890235763322 0 0.0031655086819135552 -0.45680424098354411 0 -0.003697900659681546 -0.45228595282283462 0 -0.0043639564959790751 -0.45919890235763322 0 -0.01176587965614782 -0.45520628499029148 0 -0.0043639564959790751 -0.45919890235763322 0 -0.0030467895783102689 -0.46700675432217859 0 -0.012809802696612331 -0.4631108960000101 0 -0.0043639564959790751 -0.45919890235763322 0 -0.0030467895783102689 -0.46700675432217859 0 0.003463759182088915 -0.46399051862450402 0 -0.0030467895783102689 -0.46700675432217859 0 -0.012809802696612331 -0.4631108960000101 0 -0.01030853861199423 -0.47049613205048041 0 -0.012809802696612331 -0.4631108960000101 0 -0.01030853861199423 -0.47049613205048041 0 -0.01935545399129315 -0.4704723780214104 0 -0.0043639564959790751 -0.45919890235763322 0 -0.012809802696612331 -0.4631108960000101 0 -0.01176587965614782 -0.45520628499029148 0 -0.012809802696612331 -0.4631108960000101 0 -0.01176587965614782 -0.45520628499029148 0 -0.03054151932065299 -0.46133719131851331 0 -0.012809802696612331 -0.4631108960000101 0 -0.03054151932065299 -0.46133719131851331 0 -0.01935545399129315 -0.4704723780214104 0 -0.011023717921693311 -0.44567843033701732 0 -0.01176587965614782 -0.45520628499029148 0 -0.03054151932065299 -0.46133719131851331 0 -0.011023717921693311 -0.44567843033701732 0 -0.03054151932065299 -0.46133719131851331 0 -0.01957936601360594 -0.43691514096782458 0 -0.011023717921693311 -0.44567843033701732 0 -0.03475003489617353 -0.44214760183530549 0 -0.011023717921693311 -0.44567843033701732 0 -0.03054151932065299 -0.46133719131851331 0 -0.03475003489617353 -0.44214760183530549 0 -0.011023717921693311 -0.44567843033701732 0 -0.03475003489617353 -0.44214760183530549 0 -0.01258648955469951 -0.49022422133295718 0 -0.024001160667791739 -0.50000000000000111 0 0.00063280987308753089 -0.4955285359597546 0 -0.024001160667791739 -0.50000000000000111 0 0.00063280987308753089 -0.4955285359597546 0 -0.024001160667791739 -0.50000000000000111 0 0.0022516674866053239 -0.5 0 0.00063280987308753089 -0.4955285359597546 0 -0.01258648955469951 -0.49022422133295718 0 0.00063280987308753089 -0.4955285359597546 0 5.8411572622733281e-05 -0.48840353621755528 0 -0.01258648955469951 -0.49022422133295718 0 -0.0027610362254280808 -0.48246075507540859 0 5.8411572622733281e-05 -0.48840353621755528 0 -0.01258648955469951 -0.49022422133295718 0 -0.013007466487908121 -0.47767387722089483 0 -0.0027610362254280808 -0.48246075507540859 0 -0.013007466487908121 -0.47767387722089483 0 -0.0027610362254280808 -0.48246075507540859 0 -0.003323180305847316 -0.47421675468790808 0 -0.0027610362254280808 -0.48246075507540859 0 -0.003323180305847316 -0.47421675468790808 0 0.0057458652085904923 -0.47774714206355767 0 -0.0030467895783102689 -0.46700675432217859 0 -0.003323180305847316 -0.47421675468790808 0 0.0028524951045925868 -0.47082587573171919 0 -0.0030467895783102689 -0.46700675432217859 0 -0.003323180305847316 -0.47421675468790808 0 -0.01030853861199423 -0.47049613205048041 0 -0.013007466487908121 -0.47767387722089483 0 -0.01030853861199423 -0.47049613205048041 0 -0.01935545399129315 -0.4704723780214104 0 -0.013007466487908121 -0.47767387722089483 0 -0.003323180305847316 -0.47421675468790808 0 -0.01030853861199423 -0.47049613205048041 0 -0.03054151932065299 -0.46133719131851331 0 -0.03069633159467177 -0.48065380185394391 0 -0.01935545399129315 -0.4704723780214104 0 -0.01258648955469951 -0.49022422133295718 0 -0.013007466487908121 -0.47767387722089483 0 -0.03069633159467177 -0.48065380185394391 0 -0.013007466487908121 -0.47767387722089483 0 -0.03069633159467177 -0.48065380185394391 0 -0.01935545399129315 -0.4704723780214104 0 -0.01258648955469951 -0.49022422133295718 0 -0.03069633159467177 -0.48065380185394391 0 -0.024001160667791739 -0.50000000000000111 0 -0.03069633159467177 -0.48065380185394391 0 -0.024001160667791739 -0.50000000000000111 0 -0.051627476071434697 -0.5 0 -0.03069633159467177 -0.48065380185394391 0 -0.050059320719613422 -0.47699595230000841 0 -0.051627476071434697 -0.5 0 -0.03054151932065299 -0.46133719131851331 0 -0.050059320719613422 -0.47699595230000841 0 -0.03054151932065299 -0.46133719131851331 0 -0.03069633159467177 -0.48065380185394391 0 -0.050059320719613422 -0.47699595230000841 0 -0.050059320719613422 -0.47699595230000841 0 -0.051627476071434697 -0.5 0 -0.070844326007879571 -0.48064506825959452 0 -0.03054151932065299 -0.46133719131851331 0 -0.03475003489617353 -0.44214760183530549 0 -0.049247239181253143 -0.4558789715977099 0 -0.03475003489617353 -0.44214760183530549 0 -0.058476351870654093 -0.4386167733335955 0 -0.03054151932065299 -0.46133719131851331 0 -0.050059320719613422 -0.47699595230000841 0 -0.049247239181253143 -0.4558789715977099 0 -0.050059320719613422 -0.47699595230000841 0 -0.049247239181253143 -0.4558789715977099 0 -0.072408969099171661 -0.46029733920112698 0 -0.03475003489617353 -0.44214760183530549 0 -0.049247239181253143 -0.4558789715977099 0 -0.058476351870654093 -0.4386167733335955 0 -0.049247239181253143 -0.4558789715977099 0 -0.058476351870654093 -0.4386167733335955 0 -0.072408969099171661 -0.46029733920112698 0 -0.058476351870654093 -0.4386167733335955 0 -0.072408969099171661 -0.46029733920112698 0 -0.082202668845134413 -0.43508594483188462 0 -0.072408969099171661 -0.46029733920112698 0 -0.091016047431391314 -0.47933805871543478 0 -0.099637253324211306 -0.45672396322125702 0 -0.099637253324211306 -0.45672396322125702 0 -0.082202668845134413 -0.43508594483188462 0 -0.072408969099171661 -0.46029733920112698 0 -0.099637253324211306 -0.45672396322125702 0 -0.082202668845134413 -0.43508594483188462 0 -0.051627476071434697 -0.5 0 -0.070844326007879571 -0.48064506825959452 0 -0.079253791475077662 -0.5 0 -0.050059320719613422 -0.47699595230000841 0 -0.072408969099171661 -0.46029733920112698 0 -0.070844326007879571 -0.48064506825959452 0 -0.072408969099171661 -0.46029733920112698 0 -0.070844326007879571 -0.48064506825959452 0 -0.091016047431391314 -0.47933805871543478 0 -0.070844326007879571 -0.48064506825959452 0 -0.091016047431391314 -0.47933805871543478 0 -0.079253791475077662 -0.5 0 -0.091016047431391314 -0.47933805871543478 0 -0.079253791475077662 -0.5 0 -0.10688010687872079 -0.5 0 -0.091016047431391314 -0.47933805871543478 0 -0.10688010687872079 -0.5 0 -0.11707183780328689 -0.47836198161063048 0 -0.091016047431391314 -0.47933805871543478 0 -0.11707183780328689 -0.47836198161063048 0 -0.099637253324211306 -0.45672396322125702 0 -0.13450642228236401 -0.50000000000000289 0 -0.10688010687872079 -0.5 0 -0.11707183780328689 -0.47836198161063048 0 -0.099637253324211306 -0.45672396322125702 0 -0.10576289803280189 -0.43157983266065758 0 -0.082202668845134413 -0.43508594483188462 0 -0.099637253324211306 -0.45672396322125702 0 -0.1203939560598115 -0.4550276097247008 0 -0.10576289803280189 -0.43157983266065758 0 -0.11707183780328689 -0.47836198161063048 0 -0.099637253324211306 -0.45672396322125702 0 -0.13700953081382369 -0.47210681812287209 0 -0.11707183780328689 -0.47836198161063048 0 -0.1203939560598115 -0.4550276097247008 0 -0.11707183780328689 -0.47836198161063048 0 -0.099637253324211306 -0.45672396322125702 0 -0.1203939560598115 -0.4550276097247008 0 -0.1203939560598115 -0.4550276097247008 0 -0.1241859496454079 -0.43620775691521718 0 -0.10576289803280189 -0.43157983266065758 0 -0.13278745412050169 -0.41927138674945802 0 -0.1241859496454079 -0.43620775691521718 0 -0.10576289803280189 -0.43157983266065758 0 -0.10576289803280189 -0.43157983266065758 0 -0.082202668845134413 -0.43508594483188462 0 -0.10576289803280189 -0.43157983266065758 0 -0.11539966369565489 -0.4070637744883876 0 -0.096448505762961462 -0.404956964220891 0 -0.10576289803280189 -0.43157983266065758 0 -0.096448505762961462 -0.404956964220891 0 -0.08616695875510591 -0.41974825554734518 0 -0.13278745412050169 -0.41927138674945802 0 -0.10576289803280189 -0.43157983266065758 0 -0.11539966369565489 -0.4070637744883876 0 -0.12574048240505961 -0.38850498893021451 0 -0.11539966369565489 -0.4070637744883876 0 -0.1055874706869625 -0.39033530960769852 0 -0.12574048240505961 -0.38850498893021451 0 -0.13278745412050169 -0.41927138674945802 0 -0.11539966369565489 -0.4070637744883876 0 -0.12574048240505961 -0.38850498893021451 0 -0.10625227328680301 -0.36815275359329441 0 -0.1055874706869625 -0.39033530960769852 0 -0.10625227328680301 -0.36815275359329441 0 -0.1055874706869625 -0.39033530960769852 0 -0.089756384817184301 -0.38378277889226442 0 -0.11539966369565489 -0.4070637744883876 0 -0.1055874706869625 -0.39033530960769852 0 -0.096448505762961462 -0.404956964220891 0 -0.1055874706869625 -0.39033530960769852 0 -0.096448505762961462 -0.404956964220891 0 -0.089756384817184301 -0.38378277889226442 0 -0.096448505762961462 -0.404956964220891 0 -0.089756384817184301 -0.38378277889226442 0 -0.076819900537385841 -0.4015528754978176 0 -0.086111920141789242 -0.36310122691344121 0 -0.089756384817184301 -0.38378277889226442 0 -0.073286967431346245 -0.38091375844925601 0 -0.089756384817184301 -0.38378277889226442 0 -0.073286967431346245 -0.38091375844925601 0 -0.076819900537385841 -0.4015528754978176 0 -0.058062686696695717 -0.3750226462790886 0 -0.073286967431346245 -0.38091375844925601 0 -0.063218694134839243 -0.39281086407964438 0 -0.073286967431346245 -0.38091375844925601 0 -0.076819900537385841 -0.4015528754978176 0 -0.063218694134839243 -0.39281086407964438 0 -0.059027583310791713 -0.40632340520443921 0 -0.076819900537385841 -0.4015528754978176 0 -0.063218694134839243 -0.39281086407964438 0 -0.059027583310791713 -0.40632340520443921 0 -0.070615126077963719 -0.42070467501816139 0 -0.059027583310791713 -0.40632340520443921 0 -0.076819900537385841 -0.4015528754978176 0 -0.070615126077963719 -0.42070467501816139 0 -0.076819900537385841 -0.4015528754978176 0 -0.070615126077963719 -0.42070467501816139 0 -0.08616695875510591 -0.41974825554734518 0 -0.058476351870654093 -0.4386167733335955 0 -0.070615126077963719 -0.42070467501816139 0 -0.082202668845134413 -0.43508594483188462 0 -0.058476351870654093 -0.4386167733335955 0 -0.082202668845134413 -0.43508594483188462 0 -0.070615126077963719 -0.42070467501816139 0 -0.082202668845134413 -0.43508594483188462 0 -0.10576289803280189 -0.43157983266065758 0 -0.082202668845134413 -0.43508594483188462 0 -0.08616695875510591 -0.41974825554734518 0 -0.070615126077963719 -0.42070467501816139 0 -0.082202668845134413 -0.43508594483188462 0 -0.08616695875510591 -0.41974825554734518 0 -0.096448505762961462 -0.404956964220891 0 -0.076819900537385841 -0.4015528754978176 0 -0.08616695875510591 -0.41974825554734518 0 -0.092206600264790703 -0.086455166259882255 0 -0.077787318870045183 -0.077661742471664366 0 -0.070208965312518828 -0.092755069978120941 0 -0.092206600264790703 -0.086455166259882255 0 -0.070208965312518828 -0.092755069978120941 0 -0.092206600264790703 -0.086455166259882255 0 -0.077787318870045183 -0.077661742471664366 0 -0.097821688148559877 -0.057904235895213582 0 -0.077787318870045183 -0.077661742471664366 0 -0.069807296079807304 -0.062776877200949474 0 -0.097821688148559877 -0.057904235895213582 0 -0.077787318870045183 -0.077661742471664366 0 -0.069807296079807304 -0.062776877200949474 0 -0.055677910940299717 -0.081013921684692639 0 -0.077787318870045183 -0.077661742471664366 0 -0.070208965312518828 -0.092755069978120941 0 -0.055677910940299717 -0.081013921684692639 0 -0.070208965312518828 -0.092755069978120941 0 -0.055677910940299717 -0.081013921684692639 0 -0.070208965312518828 -0.092755069978120941 0 -0.073161519633642147 -0.1122795827084016 0 -0.085393688096190967 -0.10502438488334689 0 -0.070208965312518828 -0.092755069978120941 0 -0.073161519633642147 -0.1122795827084016 0 -0.0602073999110007 -0.1037710353347524 0 -0.070208965312518828 -0.092755069978120941 0 -0.085393688096190967 -0.10502438488334689 0 -0.073161519633642147 -0.1122795827084016 0 -0.049286155515505373 -0.12068444209281259 0 -0.065310563222665124 -0.13052567791833719 0 -0.073161519633642147 -0.1122795827084016 0 -0.1005784108798649 -0.1172936997885706 0 -0.097135337425604512 -0.13419760087574031 0 -0.073161519633642147 -0.1122795827084016 0 -0.085393688096190967 -0.10502438488334689 0 -0.1005784108798649 -0.1172936997885706 0 -0.073161519633642147 -0.1122795827084016 0 -0.1005784108798649 -0.1172936997885706 0 -0.085393688096190967 -0.10502438488334689 0 -0.1005784108798649 -0.1172936997885706 0 -0.092206600264790703 -0.086455166259882255 0 -0.070208965312518828 -0.092755069978120941 0 -0.085393688096190967 -0.10502438488334689 0 -0.085393688096190967 -0.10502438488334689 0 -0.1070748548946049 -0.098974470048784208 0 -0.1005784108798649 -0.1172936997885706 0 -0.092206600264790703 -0.086455166259882255 0 -0.085393688096190967 -0.10502438488334689 0 -0.1070748548946049 -0.098974470048784208 0 -0.1070748548946049 -0.098974470048784208 0 -0.1005784108798649 -0.1172936997885706 0 -0.11362049379493031 -0.1090684212839758 0 -0.12124900292172119 -0.1210740251246335 0 -0.11362049379493031 -0.1090684212839758 0 -0.12557970648353159 -0.098931490173913214 0 -0.1005784108798649 -0.1172936997885706 0 -0.12124900292172119 -0.1210740251246335 0 -0.11362049379493031 -0.1090684212839758 0 -0.1005784108798649 -0.1172936997885706 0 -0.12124900292172119 -0.1210740251246335 0 -0.1005784108798649 -0.1172936997885706 0 -0.12124900292172119 -0.1210740251246335 0 -0.12228219041385641 -0.13483043783310911 0 -0.1070748548946049 -0.098974470048784208 0 -0.11362049379493031 -0.1090684212839758 0 -0.12557970648353159 -0.098931490173913214 0 -0.1070748548946049 -0.098974470048784208 0 -0.11420423521706261 -0.080155262541643901 0 -0.12557970648353159 -0.098931490173913214 0 -0.092206600264790703 -0.086455166259882255 0 -0.1070748548946049 -0.098974470048784208 0 -0.11420423521706261 -0.080155262541643901 0 -0.092206600264790703 -0.086455166259882255 0 -0.11420423521706261 -0.080155262541643901 0 -0.092206600264790703 -0.086455166259882255 0 -0.11420423521706261 -0.080155262541643901 0 -0.097821688148559877 -0.057904235895213582 0 -0.11420423521706261 -0.080155262541643901 0 -0.097821688148559877 -0.057904235895213582 0 -0.12583608021731249 -0.053031594589477683 0 -0.1070598544707077 -0.038734620631901362 0 -0.097821688148559877 -0.057904235895213582 0 -0.12583608021731249 -0.053031594589477683 0 -0.097821688148559877 -0.057904235895213582 0 -0.12583608021731249 -0.053031594589477683 0 -0.120796230725104 -0.033044047216909532 0 -0.1070598544707077 -0.038734620631901362 0 -0.1043529660161535 -0.023248537262270479 0 -0.120796230725104 -0.033044047216909532 0 -0.1070598544707077 -0.038734620631901362 0 -0.12583608021731249 -0.053031594589477683 0 -0.1070598544707077 -0.038734620631901362 0 -0.097821688148559877 -0.057904235895213582 0 -0.089586878673951459 -0.029193303216616371 0 -0.1169419519889832 -0.0037933915582639799 0 -0.1088267339523719 -0.0098002100714055917 0 -0.10699188664771481 0.0055715876140656588 0 -0.1169419519889832 -0.0037933915582639799 0 -0.1267066811508025 -0.0058059763640995986 0 -0.12525354795531621 0.0057775578500688027 0 -0.1169419519889832 -0.0037933915582639799 0 -0.11947500089122171 -0.016876062711586381 0 -0.1267066811508025 -0.0058059763640995986 0 -0.1169419519889832 -0.0037933915582639799 0 -0.11947500089122171 -0.016876062711586381 0 -0.1088267339523719 -0.0098002100714055917 0 -0.120796230725104 -0.033044047216909532 0 -0.11947500089122171 -0.016876062711586381 0 -0.13111253267520931 -0.02661557240857404 0 -0.120796230725104 -0.033044047216909532 0 -0.11947500089122171 -0.016876062711586381 0 -0.1043529660161535 -0.023248537262270479 0 -0.11947500089122171 -0.016876062711586381 0 -0.1043529660161535 -0.023248537262270479 0 -0.1088267339523719 -0.0098002100714055917 0 -0.1070598544707077 -0.038734620631901362 0 -0.1043529660161535 -0.023248537262270479 0 -0.089586878673951459 -0.029193303216616371 0 -0.1043529660161535 -0.023248537262270479 0 -0.096371864217786457 -0.01065464643897278 0 -0.089586878673951459 -0.029193303216616371 0 -0.1088267339523719 -0.0098002100714055917 0 -0.096371864217786457 -0.01065464643897278 0 -0.10699188664771481 0.0055715876140656588 0 -0.096371864217786457 -0.01065464643897278 0 -0.079509947246398677 -0.0010759563403116689 0 -0.10699188664771481 0.0055715876140656588 0 -0.1043529660161535 -0.023248537262270479 0 -0.1088267339523719 -0.0098002100714055917 0 -0.096371864217786457 -0.01065464643897278 0 -0.096371864217786457 -0.01065464643897278 0 -0.079509947246398677 -0.0010759563403116689 0 -0.084761510678983354 -0.011817630244248169 0 -0.079509947246398677 -0.0010759563403116689 0 -0.084761510678983354 -0.011817630244248169 0 -0.076591769319478642 -0.0094038448890840232 0 -0.084761510678983354 -0.011817630244248169 0 -0.077339868568628442 -0.01881745763454129 0 -0.076591769319478642 -0.0094038448890840232 0 -0.096371864217786457 -0.01065464643897278 0 -0.084761510678983354 -0.011817630244248169 0 -0.089586878673951459 -0.029193303216616371 0 -0.084761510678983354 -0.011817630244248169 0 -0.089586878673951459 -0.029193303216616371 0 -0.077339868568628442 -0.01881745763454129 0 -0.089586878673951459 -0.029193303216616371 0 -0.077339868568628442 -0.01881745763454129 0 -0.07453114865914251 -0.032403957457444198 0 -0.066964757126720467 -0.020553828524143451 0 -0.077339868568628442 -0.01881745763454129 0 -0.07453114865914251 -0.032403957457444198 0 -0.066964757126720467 -0.020553828524143451 0 -0.07453114865914251 -0.032403957457444198 0 -0.064574081415250367 -0.032020966925887261 0 -0.066964757126720467 -0.020553828524143451 0 -0.064574081415250367 -0.032020966925887261 0 -0.058254511025422603 -0.026587895358013602 0 -0.066964757126720467 -0.020553828524143451 0 -0.077339868568628442 -0.01881745763454129 0 -0.070793377250075437 -0.01264319793393478 0 -0.070793377250075437 -0.01264319793393478 0 -0.076591769319478642 -0.0094038448890840232 0 -0.071726966427623579 -0.0042085193641821714 0 -0.077339868568628442 -0.01881745763454129 0 -0.070793377250075437 -0.01264319793393478 0 -0.076591769319478642 -0.0094038448890840232 0 -0.070793377250075437 -0.01264319793393478 0 -0.06383690569289642 -0.0095092981150633124 0 -0.071726966427623579 -0.0042085193641821714 0 -0.066964757126720467 -0.020553828524143451 0 -0.070793377250075437 -0.01264319793393478 0 -0.06383690569289642 -0.0095092981150633124 0 -0.06383690569289642 -0.0095092981150633124 0 -0.063144980984456769 -0.0010075260454264971 0 -0.071726966427623579 -0.0042085193641821714 0 -0.079509947246398677 -0.0010759563403116689 0 -0.071726966427623579 -0.0042085193641821714 0 -0.080238229884072268 0.0052698375758447446 0 -0.079509947246398677 -0.0010759563403116689 0 -0.076591769319478642 -0.0094038448890840232 0 -0.071726966427623579 -0.0042085193641821714 0 -0.069807296079807304 -0.062776877200949474 0 -0.097821688148559877 -0.057904235895213582 0 -0.080164286656787237 -0.047041906620680883 0 -0.069807296079807304 -0.062776877200949474 0 -0.097821688148559877 -0.057904235895213582 0 -0.089586878673951459 -0.029193303216616371 0 -0.080164286656787237 -0.047041906620680883 0 -0.07453114865914251 -0.032403957457444198 0 -0.097821688148559877 -0.057904235895213582 0 -0.089586878673951459 -0.029193303216616371 0 -0.080164286656787237 -0.047041906620680883 0 -0.080164286656787237 -0.047041906620680883 0 -0.07453114865914251 -0.032403957457444198 0 -0.066569293705732308 -0.043784646597336933 0 -0.07453114865914251 -0.032403957457444198 0 -0.064574081415250367 -0.032020966925887261 0 -0.066569293705732308 -0.043784646597336933 0 -0.064574081415250367 -0.032020966925887261 0 -0.066569293705732308 -0.043784646597336933 0 -0.056550696559233928 -0.036774506692498127 0 -0.069807296079807304 -0.062776877200949474 0 -0.066569293705732308 -0.043784646597336933 0 -0.054341366569322411 -0.047183983756156532 0 -0.069807296079807304 -0.062776877200949474 0 -0.080164286656787237 -0.047041906620680883 0 -0.066569293705732308 -0.043784646597336933 0 -0.069807296079807304 -0.062776877200949474 0 -0.046296669058737118 -0.056333385779404062 0 -0.041792904011054191 -0.067649518506682563 0 -0.069807296079807304 -0.062776877200949474 0 -0.054341366569322411 -0.047183983756156532 0 -0.046296669058737118 -0.056333385779404062 0 -0.054341366569322411 -0.047183983756156532 0 -0.040690379447170251 -0.04570585859273537 0 -0.046296669058737118 -0.056333385779404062 0 -0.066569293705732308 -0.043784646597336933 0 -0.054341366569322411 -0.047183983756156532 0 -0.056550696559233928 -0.036774506692498127 0 -0.064574081415250367 -0.032020966925887261 0 -0.056550696559233928 -0.036774506692498127 0 -0.058254511025422603 -0.026587895358013602 0 -0.056550696559233928 -0.036774506692498127 0 -0.046133864565253549 -0.037728627674015212 0 -0.048836699154100778 -0.02694058582723026 0 -0.054341366569322411 -0.047183983756156532 0 -0.040690379447170251 -0.04570585859273537 0 -0.046133864565253549 -0.037728627674015212 0 -0.054341366569322411 -0.047183983756156532 0 -0.056550696559233928 -0.036774506692498127 0 -0.046133864565253549 -0.037728627674015212 0 -0.040690379447170251 -0.04570585859273537 0 -0.046133864565253549 -0.037728627674015212 0 -0.037780133074529522 -0.031047718027388271 0 -0.046133864565253549 -0.037728627674015212 0 -0.048836699154100778 -0.02694058582723026 0 -0.037780133074529522 -0.031047718027388271 0 -0.040690379447170251 -0.04570585859273537 0 -0.037780133074529522 -0.031047718027388271 0 -0.028442280896299011 -0.041706235000539341 0 -0.040690379447170251 -0.04570585859273537 0 -0.038293654364960031 -0.055018376686875571 0 -0.028442280896299011 -0.041706235000539341 0 -0.038293654364960031 -0.055018376686875571 0 -0.028442280896299011 -0.041706235000539341 0 -0.034246038411540128 -0.063696885555012461 0 -0.028442280896299011 -0.041706235000539341 0 -0.034246038411540128 -0.063696885555012461 0 -0.038293654364960031 -0.055018376686875571 0 -0.034246038411540128 -0.063696885555012461 0 -0.041792904011054191 -0.067649518506682563 0 -0.038293654364960031 -0.055018376686875571 0 -0.046296669058737118 -0.056333385779404062 0 -0.041792904011054191 -0.067649518506682563 0 -0.046296669058737118 -0.056333385779404062 0 -0.041792904011054191 -0.067649518506682563 0 -0.040690379447170251 -0.04570585859273537 0 -0.038293654364960031 -0.055018376686875571 0 -0.046296669058737118 -0.056333385779404062 0 -0.055128367262123591 -0.0068105311256286332 0 -0.041978136703554707 -0.012740095574399301 0 -0.053484573120429778 0.0049680875376236439 0 -0.06383690569289642 -0.0095092981150633124 0 -0.063144980984456769 -0.0010075260454264971 0 -0.055128367262123591 -0.0068105311256286332 0 -0.063144980984456769 -0.0010075260454264971 0 -0.055128367262123591 -0.0068105311256286332 0 -0.053484573120429778 0.0049680875376236439 0 -0.066964757126720467 -0.020553828524143451 0 -0.06383690569289642 -0.0095092981150633124 0 -0.05473877549011797 -0.016604982538283609 0 -0.06383690569289642 -0.0095092981150633124 0 -0.055128367262123591 -0.0068105311256286332 0 -0.05473877549011797 -0.016604982538283609 0 -0.055128367262123591 -0.0068105311256286332 0 -0.05473877549011797 -0.016604982538283609 0 -0.041978136703554707 -0.012740095574399301 0 -0.05473877549011797 -0.016604982538283609 0 -0.058254511025422603 -0.026587895358013602 0 -0.048836699154100778 -0.02694058582723026 0 -0.05473877549011797 -0.016604982538283609 0 -0.048836699154100778 -0.02694058582723026 0 -0.041978136703554707 -0.012740095574399301 0 -0.066964757126720467 -0.020553828524143451 0 -0.05473877549011797 -0.016604982538283609 0 -0.058254511025422603 -0.026587895358013602 0 -0.056550696559233928 -0.036774506692498127 0 -0.058254511025422603 -0.026587895358013602 0 -0.048836699154100778 -0.02694058582723026 0 -0.048836699154100778 -0.02694058582723026 0 -0.037780133074529522 -0.031047718027388271 0 -0.041978136703554707 -0.012740095574399301 0 -0.037780133074529522 -0.031047718027388271 0 -0.041978136703554707 -0.012740095574399301 0 -0.02263852338105592 -0.019715584446066841 0 -0.041978136703554707 -0.012740095574399301 0 -0.053484573120429778 0.0049680875376236439 0 -0.026730916356787399 0.0046663374994025432 0 -0.041978136703554707 -0.012740095574399301 0 -0.02263852338105592 -0.019715584446066841 0 -0.026730916356787399 0.0046663374994025432 0 -0.02263852338105592 -0.019715584446066841 0 -0.0050843613286547787 -0.015010017962203489 0 -0.026730916356787399 0.0046663374994025432 0 -0.02263852338105592 -0.019715584446066841 0 -0.028442280896299011 -0.041706235000539341 0 -0.037780133074529522 -0.031047718027388271 0 -0.02263852338105592 -0.019715584446066841 0 -0.028442280896299011 -0.041706235000539341 0 -0.02263852338105592 -0.019715584446066841 0 -0.028442280896299011 -0.041706235000539341 0 -0.01300282018311974 -0.031274924437076343 0 -0.02263852338105592 -0.019715584446066841 0 -0.0050843613286547787 -0.015010017962203489 0 -0.01300282018311974 -0.031274924437076343 0 -0.0050843613286547787 -0.015010017962203489 0 -0.01300282018311974 -0.031274924437076343 0 0.0046704263767485821 -0.032252231063261472 0 -0.0050843613286547787 -0.015010017962203489 0 -0.026730916356787399 0.0046663374994025432 0 2.2740406854876442e-05 0.0043645874611814451 0 -0.028442280896299011 -0.041706235000539341 0 -0.01478780601739524 -0.047974558309137591 0 -0.034246038411540128 -0.063696885555012461 0 -0.01478780601739524 -0.047974558309137591 0 -0.034246038411540128 -0.063696885555012461 0 -0.02001570599478758 -0.060858302111263481 0 -0.01478780601739524 -0.047974558309137591 0 -0.034246038411540128 -0.063696885555012461 0 -0.028442280896299011 -0.041706235000539341 0 -0.01300282018311974 -0.031274924437076343 0 -0.01478780601739524 -0.047974558309137591 0 -0.01478780601739524 -0.047974558309137591 0 0.0046704263767485821 -0.032252231063261472 0 -0.0018447850692904339 -0.051540691110315763 0 -0.01478780601739524 -0.047974558309137591 0 0.0046704263767485821 -0.032252231063261472 0 -0.01300282018311974 -0.031274924437076343 0 -0.01478780601739524 -0.047974558309137591 0 0.0046704263767485821 -0.032252231063261472 0 -0.0018447850692904339 -0.051540691110315763 0 -0.01478780601739524 -0.047974558309137591 0 -0.011274646293490819 -0.06027900029421307 0 -0.02001570599478758 -0.060858302111263481 0 -0.01478780601739524 -0.047974558309137591 0 -0.011274646293490819 -0.06027900029421307 0 -0.0018447850692904339 -0.051540691110315763 0 -0.011274646293490819 -0.06027900029421307 0 0.00067646690987842946 -0.062900983789534709 0 -0.011274646293490819 -0.06027900029421307 0 -0.0039340070506783762 -0.074234449019045287 0 0.00067646690987842946 -0.062900983789534709 0 -0.0039340070506783762 -0.074234449019045287 0 -0.01218187218752899 -0.079248467612037923 0 -0.01975433325672515 -0.071482764286689565 0 -0.011274646293490819 -0.06027900029421307 0 -0.0039340070506783762 -0.074234449019045287 0 -0.0039340070506783762 -0.074234449019045287 0 -0.01975433325672515 -0.071482764286689565 0 -0.011274646293490819 -0.06027900029421307 0 -0.0039340070506783762 -0.074234449019045287 0 -0.01975433325672515 -0.071482764286689565 0 -0.0039340070506783762 -0.074234449019045287 0 -8.8213611018634307e-05 -0.081545770469152831 0 -0.0026614048536829919 -0.081632243047555425 0 -0.016440580819221579 -0.1019062174147814 0 0.00066019677475892134 -0.082968589711235788 0 -0.0026614048536829919 -0.081632243047555425 0 -0.016807883981668419 -0.086954690515453209 0 -0.016440580819221579 -0.1019062174147814 0 -0.016440580819221579 -0.1019062174147814 0 0.00066019677475892134 -0.082968589711235788 0 -0.0039340070506783762 -0.074234449019045287 0 -0.0026614048536829919 -0.081632243047555425 0 -0.01218187218752899 -0.079248467612037923 0 -0.0026614048536829919 -0.081632243047555425 0 -8.8213611018634307e-05 -0.081545770469152831 0 0.00066019677475892134 -0.082968589711235788 0 -0.0039340070506783762 -0.074234449019045287 0 -0.0026614048536829919 -0.081632243047555425 0 -8.8213611018634307e-05 -0.081545770469152831 0 -0.0026614048536829919 -0.081632243047555425 0 -8.8213611018634307e-05 -0.081545770469152831 0 -0.0026614048536829919 -0.081632243047555425 0 -0.01218187218752899 -0.079248467612037923 0 -0.016807883981668419 -0.086954690515453209 0 -0.024553228464846671 -0.089996512877939736 0 -0.037882373638224331 -0.077475093390000346 0 -0.02736383551222275 -0.1039039084525933 0 -0.016807883981668419 -0.086954690515453209 0 -0.024553228464846671 -0.089996512877939736 0 -0.016440580819221579 -0.1019062174147814 0 -0.01218187218752899 -0.079248467612037923 0 -0.016807883981668419 -0.086954690515453209 0 -0.02427146837289363 -0.079742654616870343 0 -0.016807883981668419 -0.086954690515453209 0 -0.02427146837289363 -0.079742654616870343 0 -0.024553228464846671 -0.089996512877939736 0 -0.02427146837289363 -0.079742654616870343 0 -0.024553228464846671 -0.089996512877939736 0 -0.037882373638224331 -0.077475093390000346 0 -0.02427146837289363 -0.079742654616870343 0 -0.01975433325672515 -0.071482764286689565 0 -0.035574659462772162 -0.068731079554334912 0 -0.01975433325672515 -0.071482764286689565 0 -0.035574659462772162 -0.068731079554334912 0 -0.01975433325672515 -0.071482764286689565 0 -0.034246038411540128 -0.063696885555012461 0 -0.035574659462772162 -0.068731079554334912 0 -0.02001570599478758 -0.060858302111263481 0 -0.011274646293490819 -0.06027900029421307 0 -0.01975433325672515 -0.071482764286689565 0 -0.01218187218752899 -0.079248467612037923 0 -0.02427146837289363 -0.079742654616870343 0 -0.01975433325672515 -0.071482764286689565 0 -0.02001570599478758 -0.060858302111263481 0 -0.01975433325672515 -0.071482764286689565 0 -0.034246038411540128 -0.063696885555012461 0 -0.034246038411540128 -0.063696885555012461 0 -0.035574659462772162 -0.068731079554334912 0 -0.034246038411540128 -0.063696885555012461 0 -0.039608178418958251 -0.068029515478799638 0 -0.041792904011054191 -0.067649518506682563 0 -0.035574659462772162 -0.068731079554334912 0 -0.039608178418958251 -0.068029515478799638 0 -0.034246038411540128 -0.063696885555012461 0 -0.035574659462772162 -0.068731079554334912 0 -0.039608178418958251 -0.068029515478799638 0 -0.035574659462772162 -0.068731079554334912 0 -0.039608178418958251 -0.068029515478799638 0 -0.041146856568081917 -0.069272773391262615 0 -0.034246038411540128 -0.063696885555012461 0 -0.039608178418958251 -0.068029515478799638 0 -0.039608178418958251 -0.068029515478799638 0 -0.041792904011054191 -0.067649518506682563 0 -0.039608178418958251 -0.068029515478799638 0 -0.041146856568081917 -0.069272773391262615 0 -0.041792904011054191 -0.067649518506682563 0 -0.039608178418958251 -0.068029515478799638 0 -0.041146856568081917 -0.069272773391262615 0 -0.041146856568081917 -0.069272773391262615 0 -0.041792904011054191 -0.067649518506682563 0 -0.041146856568081917 -0.069272773391262615 0 -0.041792904011054191 -0.067649518506682563 0 -0.055677910940299717 -0.081013921684692639 0 -0.041146856568081917 -0.069272773391262615 0 -0.037882373638224331 -0.077475093390000346 0 -0.041146856568081917 -0.069272773391262615 0 -0.037882373638224331 -0.077475093390000346 0 -0.045972408454798268 -0.083306320200849521 0 -0.02427146837289363 -0.079742654616870343 0 -0.035574659462772162 -0.068731079554334912 0 -0.037882373638224331 -0.077475093390000346 0 -0.035574659462772162 -0.068731079554334912 0 -0.041146856568081917 -0.069272773391262615 0 -0.037882373638224331 -0.077475093390000346 0 -0.035574659462772162 -0.068731079554334912 0 -0.037882373638224331 -0.077475093390000346 0 -0.037882373638224331 -0.077475093390000346 0 -0.041813501012817333 -0.092370279509120384 0 -0.02736383551222275 -0.1039039084525933 0 -0.037882373638224331 -0.077475093390000346 0 -0.02736383551222275 -0.1039039084525933 0 -0.041813501012817333 -0.092370279509120384 0 -0.045972408454798268 -0.083306320200849521 0 -0.051912692511044037 -0.089833035428492802 0 -0.037882373638224331 -0.077475093390000346 0 -0.041813501012817333 -0.092370279509120384 0 -0.037882373638224331 -0.077475093390000346 0 -0.041813501012817333 -0.092370279509120384 0 -0.045972408454798268 -0.083306320200849521 0 -0.070208965312518828 -0.092755069978120941 0 -0.051912692511044037 -0.089833035428492802 0 -0.055677910940299717 -0.081013921684692639 0 -0.045972408454798268 -0.083306320200849521 0 -0.051912692511044037 -0.089833035428492802 0 -0.055677910940299717 -0.081013921684692639 0 -0.069807296079807304 -0.062776877200949474 0 -0.041792904011054191 -0.067649518506682563 0 -0.055677910940299717 -0.081013921684692639 0 -0.069807296079807304 -0.062776877200949474 0 -0.041792904011054191 -0.067649518506682563 0 -0.041146856568081917 -0.069272773391262615 0 -0.055677910940299717 -0.081013921684692639 0 -0.041146856568081917 -0.069272773391262615 0 -0.045972408454798268 -0.083306320200849521 0 -0.055677910940299717 -0.081013921684692639 0 -0.073161519633642147 -0.1122795827084016 0 -0.049286155515505373 -0.12068444209281259 0 -0.045744628387418398 -0.1072654656282383 0 -0.073161519633642147 -0.1122795827084016 0 -0.045744628387418398 -0.1072654656282383 0 -0.049286155515505373 -0.12068444209281259 0 -0.045744628387418398 -0.1072654656282383 0 -0.070208965312518828 -0.092755069978120941 0 -0.04589067683478644 -0.099719585769680111 0 -0.070208965312518828 -0.092755069978120941 0 -0.0602073999110007 -0.1037710353347524 0 -0.04589067683478644 -0.099719585769680111 0 -0.070208965312518828 -0.092755069978120941 0 -0.051912692511044037 -0.089833035428492802 0 -0.04589067683478644 -0.099719585769680111 0 -0.073161519633642147 -0.1122795827084016 0 -0.0602073999110007 -0.1037710353347524 0 -0.045744628387418398 -0.1072654656282383 0 -0.0602073999110007 -0.1037710353347524 0 -0.045744628387418398 -0.1072654656282383 0 -0.04589067683478644 -0.099719585769680111 0 -0.041813501012817333 -0.092370279509120384 0 -0.045744628387418398 -0.1072654656282383 0 -0.02736383551222275 -0.1039039084525933 0 -0.045744628387418398 -0.1072654656282383 0 -0.03256001055582057 -0.1100318486087694 0 -0.02736383551222275 -0.1039039084525933 0 -0.045744628387418398 -0.1072654656282383 0 -0.02736383551222275 -0.1039039084525933 0 -0.041813501012817333 -0.092370279509120384 0 -0.045744628387418398 -0.1072654656282383 0 -0.04589067683478644 -0.099719585769680111 0 -0.041813501012817333 -0.092370279509120384 0 -0.051912692511044037 -0.089833035428492802 0 -0.04589067683478644 -0.099719585769680111 0 -0.041813501012817333 -0.092370279509120384 0 -0.045744628387418398 -0.1072654656282383 0 -0.03805232048664086 -0.11607678540635211 0 -0.02457409907211433 -0.1109133833022236 0 -0.041350458193628217 -0.12949174569061159 0 -0.03256001055582057 -0.1100318486087694 0 -0.03805232048664086 -0.11607678540635211 0 -0.02457409907211433 -0.1109133833022236 0 -0.02457409907211433 -0.1109133833022236 0 -0.041350458193628217 -0.12949174569061159 0 -0.045744628387418398 -0.1072654656282383 0 -0.03256001055582057 -0.1100318486087694 0 -0.03805232048664086 -0.11607678540635211 0 -0.0292318891287663 -0.1249989304526459 0 -0.02457409907211433 -0.1109133833022236 0 -0.041350458193628217 -0.12949174569061159 0 -0.049286155515505373 -0.12068444209281259 0 -0.045744628387418398 -0.1072654656282383 0 -0.03805232048664086 -0.11607678540635211 0 -0.049286155515505373 -0.12068444209281259 0 -0.03805232048664086 -0.11607678540635211 0 -0.041350458193628217 -0.12949174569061159 0 -0.02457409907211433 -0.1109133833022236 0 -0.01600199219558791 -0.1324516070195049 0 -0.02457409907211433 -0.1109133833022236 0 -0.01764047904580137 -0.11964645379998411 0 -0.01600199219558791 -0.1324516070195049 0 -0.0292318891287663 -0.1249989304526459 0 -0.02457409907211433 -0.1109133833022236 0 -0.023919769963093931 -0.12822967169361921 0 -0.02457409907211433 -0.1109133833022236 0 -0.01600199219558791 -0.1324516070195049 0 -0.023919769963093931 -0.12822967169361921 0 -0.02457409907211433 -0.1109133833022236 0 -0.01764047904580137 -0.11964645379998411 0 -0.01556095769779331 -0.1108764095895992 0 -0.03256001055582057 -0.1100318486087694 0 -0.02457409907211433 -0.1109133833022236 0 -0.02736383551222275 -0.1039039084525933 0 -0.02457409907211433 -0.1109133833022236 0 -0.02736383551222275 -0.1039039084525933 0 -0.02457409907211433 -0.1109133833022236 0 -0.02736383551222275 -0.1039039084525933 0 -0.016440580819221579 -0.1019062174147814 0 -0.02457409907211433 -0.1109133833022236 0 -0.016440580819221579 -0.1019062174147814 0 -0.01556095769779331 -0.1108764095895992 0 -0.02736383551222275 -0.1039039084525933 0 -0.016440580819221579 -0.1019062174147814 0 -0.02457409907211433 -0.1109133833022236 0 -0.016440580819221579 -0.1019062174147814 0 -0.024553228464846671 -0.089996512877939736 0 -0.02736383551222275 -0.1039039084525933 0 -0.016440580819221579 -0.1019062174147814 0 -0.016440580819221579 -0.1019062174147814 0 0.0082466267014323184 -0.097391316444453951 0 0.00066019677475892134 -0.082968589711235788 0 -0.016440580819221579 -0.1019062174147814 0 0.0082466267014323184 -0.097391316444453951 0 -0.016440580819221579 -0.1019062174147814 0 -0.0045536602266862316 -0.1116209113216069 0 0.0082466267014323184 -0.097391316444453951 0 -0.016440580819221579 -0.1019062174147814 0 -0.01556095769779331 -0.1108764095895992 0 -0.0045536602266862316 -0.1116209113216069 0 -0.01764047904580137 -0.11964645379998411 0 -0.0045536602266862316 -0.1116209113216069 0 -0.00083279118012277449 -0.1268033360194091 0 -0.01764047904580137 -0.11964645379998411 0 -0.01556095769779331 -0.1108764095895992 0 -0.0045536602266862316 -0.1116209113216069 0 -0.01764047904580137 -0.11964645379998411 0 -0.0122719984560748 -0.14060378966882861 0 -0.01600199219558791 -0.1324516070195049 0 -0.01764047904580137 -0.11964645379998411 0 -0.0122719984560748 -0.14060378966882861 0 -0.00083279118012277449 -0.1268033360194091 0 -0.0122719984560748 -0.14060378966882861 0 0.010021434624597699 -0.14187588095940559 0 -0.01764047904580137 -0.11964645379998411 0 -0.00083279118012277449 -0.1268033360194091 0 -0.0122719984560748 -0.14060378966882861 0 -0.0122719984560748 -0.14060378966882861 0 -0.024258819920192059 -0.13457261059698 0 -0.037085102017707733 -0.1391879228160742 0 -0.0122719984560748 -0.14060378966882861 0 -0.037085102017707733 -0.1391879228160742 0 -0.01600199219558791 -0.1324516070195049 0 -0.024258819920192059 -0.13457261059698 0 -0.023919769963093931 -0.12822967169361921 0 -0.0122719984560748 -0.14060378966882861 0 -0.01600199219558791 -0.1324516070195049 0 -0.024258819920192059 -0.13457261059698 0 -0.024258819920192059 -0.13457261059698 0 -0.031591264223037291 -0.13140616552321799 0 -0.037085102017707733 -0.1391879228160742 0 -0.0292318891287663 -0.1249989304526459 0 -0.023919769963093931 -0.12822967169361921 0 -0.031591264223037291 -0.13140616552321799 0 -0.024258819920192059 -0.13457261059698 0 -0.023919769963093931 -0.12822967169361921 0 -0.031591264223037291 -0.13140616552321799 0 -0.0122719984560748 -0.14060378966882861 0 -0.025515608563085521 -0.15456532526390551 0 -0.037085102017707733 -0.1391879228160742 0 -0.0122719984560748 -0.14060378966882861 0 -0.0071906607417434182 -0.16044018459704729 0 -0.0122719984560748 -0.14060378966882861 0 -0.0006726916903996423 -0.15009547999259859 0 0.010021434624597699 -0.14187588095940559 0 -0.0122719984560748 -0.14060378966882861 0 -0.025515608563085521 -0.15456532526390551 0 -0.0071906607417434182 -0.16044018459704729 0 -0.0122719984560748 -0.14060378966882861 0 0.010021434624597699 -0.14187588095940559 0 -0.0122719984560748 -0.14060378966882861 0 -0.0006726916903996423 -0.15009547999259859 0 -0.0071906607417434182 -0.16044018459704729 0 -0.0071906607417434182 -0.16044018459704729 0 -0.0021093230274114999 -0.1802765795252658 0 -0.02148186874493262 -0.17446068632146139 0 -0.0071906607417434182 -0.16044018459704729 0 -0.0021093230274114999 -0.1802765795252658 0 -0.0021093230274114999 -0.1802765795252658 0 -0.02148186874493262 -0.17446068632146139 0 -0.01421652605590111 -0.19394701040258569 0 -0.02148186874493262 -0.17446068632146139 0 -0.040759597444561153 -0.18150761291682521 0 -0.028192727153584281 -0.18879762731886229 0 -0.02148186874493262 -0.17446068632146139 0 -0.01421652605590111 -0.19394701040258569 0 -0.028192727153584281 -0.18879762731886229 0 -0.025515608563085521 -0.15456532526390551 0 -0.0071906607417434182 -0.16044018459704729 0 -0.02148186874493262 -0.17446068632146139 0 -0.025515608563085521 -0.15456532526390551 0 -0.02148186874493262 -0.17446068632146139 0 -0.035074932915057519 -0.16635804778614449 0 -0.035074932915057519 -0.16635804778614449 0 -0.040759597444561153 -0.18150761291682521 0 -0.052395689396595647 -0.1670913179286142 0 -0.035074932915057519 -0.16635804778614449 0 -0.052395689396595647 -0.1670913179286142 0 -0.042635207817646917 -0.15540462495353979 0 -0.025515608563085521 -0.15456532526390551 0 -0.035074932915057519 -0.16635804778614449 0 -0.042635207817646917 -0.15540462495353979 0 -0.02148186874493262 -0.17446068632146139 0 -0.035074932915057519 -0.16635804778614449 0 -0.040759597444561153 -0.18150761291682521 0 -0.040759597444561153 -0.18150761291682521 0 -0.052395689396595647 -0.1670913179286142 0 -0.064418843490413019 -0.18481723679662709 0 -0.052395689396595647 -0.1670913179286142 0 -0.05812681731514218 -0.14807010807899951 0 -0.042635207817646917 -0.15540462495353979 0 -0.052395689396595647 -0.1670913179286142 0 -0.05812681731514218 -0.14807010807899951 0 -0.074903176436656088 -0.1666484704673874 0 -0.05812681731514218 -0.14807010807899951 0 -0.041350458193628217 -0.12949174569061159 0 -0.049286155515505373 -0.12068444209281259 0 -0.053637718276734601 -0.13258418281488599 0 -0.065310563222665124 -0.13052567791833719 0 -0.05812681731514218 -0.14807010807899951 0 -0.053637718276734601 -0.13258418281488599 0 -0.065310563222665124 -0.13052567791833719 0 -0.05812681731514218 -0.14807010807899951 0 -0.053637718276734601 -0.13258418281488599 0 -0.041350458193628217 -0.12949174569061159 0 -0.049286155515505373 -0.12068444209281259 0 -0.053637718276734601 -0.13258418281488599 0 -0.041350458193628217 -0.12949174569061159 0 -0.05812681731514218 -0.14807010807899951 0 -0.041350458193628217 -0.12949174569061159 0 -0.037085102017707733 -0.1391879228160742 0 -0.0292318891287663 -0.1249989304526459 0 -0.041350458193628217 -0.12949174569061159 0 -0.031591264223037291 -0.13140616552321799 0 -0.041350458193628217 -0.12949174569061159 0 -0.031591264223037291 -0.13140616552321799 0 -0.037085102017707733 -0.1391879228160742 0 -0.025515608563085521 -0.15456532526390551 0 -0.037085102017707733 -0.1391879228160742 0 -0.042635207817646917 -0.15540462495353979 0 -0.05812681731514218 -0.14807010807899951 0 -0.037085102017707733 -0.1391879228160742 0 -0.042635207817646917 -0.15540462495353979 0 -0.018719116770746971 -0.25786426006470747 0 -0.01402016393150394 -0.23554379677505971 0 -0.035304444280471567 -0.2431673745471338 0 -0.01402016393150394 -0.23554379677505971 0 0.00070653076890110633 -0.25304061558828861 0 0.0085470182469993446 -0.2218765293599092 0 -0.018719116770746971 -0.25786426006470747 0 -0.01402016393150394 -0.23554379677505971 0 0.00070653076890110633 -0.25304061558828861 0 -0.01402016393150394 -0.23554379677505971 0 -0.010153179246198201 -0.21509354514327769 0 0.0085470182469993446 -0.2218765293599092 0 -0.01402016393150394 -0.23554379677505971 0 -0.02967255027156105 -0.22327996961852509 0 -0.035304444280471567 -0.2431673745471338 0 -0.01402016393150394 -0.23554379677505971 0 -0.02967255027156105 -0.22327996961852509 0 -0.010153179246198201 -0.21509354514327769 0 -0.02979058451441818 -0.20419691417391031 0 -0.010153179246198201 -0.21509354514327769 0 -0.01421652605590111 -0.19394701040258569 0 -0.02967255027156105 -0.22327996961852509 0 -0.02979058451441818 -0.20419691417391031 0 -0.010153179246198201 -0.21509354514327769 0 -0.010153179246198201 -0.21509354514327769 0 0.0029720146869214479 -0.20011297445348411 0 -0.010153179246198201 -0.21509354514327769 0 -0.01421652605590111 -0.19394701040258569 0 0.0029720146869214479 -0.20011297445348411 0 -0.0021093230274114999 -0.1802765795252658 0 -0.01421652605590111 -0.19394701040258569 0 0.0029720146869214479 -0.20011297445348411 0 -0.02979058451441818 -0.20419691417391031 0 -0.01421652605590111 -0.19394701040258569 0 -0.028192727153584281 -0.18879762731886229 0 -0.040759597444561153 -0.18150761291682521 0 -0.028192727153584281 -0.18879762731886229 0 -0.045837852051754578 -0.19841100057496469 0 -0.02979058451441818 -0.20419691417391031 0 -0.028192727153584281 -0.18879762731886229 0 -0.045837852051754578 -0.19841100057496469 0 -0.045837852051754578 -0.19841100057496469 0 -0.062485154999478078 -0.20463878814237441 0 -0.064418843490413019 -0.18481723679662709 0 -0.040759597444561153 -0.18150761291682521 0 -0.045837852051754578 -0.19841100057496469 0 -0.064418843490413019 -0.18481723679662709 0 -0.062485154999478078 -0.20463878814237441 0 -0.046217709609616242 -0.21394266376299531 0 -0.059111141087083457 -0.22208254692696811 0 -0.045837852051754578 -0.19841100057496469 0 -0.062485154999478078 -0.20463878814237441 0 -0.046217709609616242 -0.21394266376299531 0 -0.02967255027156105 -0.22327996961852509 0 -0.02979058451441818 -0.20419691417391031 0 -0.046217709609616242 -0.21394266376299531 0 -0.02979058451441818 -0.20419691417391031 0 -0.045837852051754578 -0.19841100057496469 0 -0.046217709609616242 -0.21394266376299531 0 -0.02967255027156105 -0.22327996961852509 0 -0.046217709609616242 -0.21394266376299531 0 -0.044524140341289473 -0.22731561156539601 0 -0.02967255027156105 -0.22327996961852509 0 -0.044524140341289473 -0.22731561156539601 0 -0.035304444280471567 -0.2431673745471338 0 -0.044524140341289473 -0.22731561156539601 0 -0.059111141087083457 -0.22208254692696811 0 -0.055288408602142611 -0.2377804873653046 0 -0.059111141087083457 -0.22208254692696811 0 -0.055288408602142611 -0.2377804873653046 0 -0.071883382452422651 -0.23121381110316941 0 -0.046217709609616242 -0.21394266376299531 0 -0.044524140341289473 -0.22731561156539601 0 -0.059111141087083457 -0.22208254692696811 0 -0.050111000711470621 -0.25491938513609719 0 -0.055288408602142611 -0.2377804873653046 0 -0.035304444280471567 -0.2431673745471338 0 -0.050111000711470621 -0.25491938513609719 0 -0.061980445145124741 -0.250819843633248 0 -0.055288408602142611 -0.2377804873653046 0 -0.061980445145124741 -0.250819843633248 0 -0.055288408602142611 -0.2377804873653046 0 -0.065749881189139214 -0.24173114227288151 0 -0.044524140341289473 -0.22731561156539601 0 -0.055288408602142611 -0.2377804873653046 0 -0.035304444280471567 -0.2431673745471338 0 -0.080433839528360335 -0.25333817362535482 0 -0.082407819792836373 -0.2541227627814282 0 -0.090874747463642408 -0.23473400575486819 0 -0.080433839528360335 -0.25333817362535482 0 -0.090874747463642408 -0.23473400575486819 0 -0.090874747463642408 -0.23473400575486819 0 -0.075225229330191906 -0.24173071524557399 0 -0.071883382452422651 -0.23121381110316941 0 -0.080433839528360335 -0.25333817362535482 0 -0.090874747463642408 -0.23473400575486819 0 -0.075225229330191906 -0.24173071524557399 0 -0.082407819792836373 -0.2541227627814282 0 -0.090874747463642408 -0.23473400575486819 0 -0.082407819792836373 -0.2541227627814282 0 -0.090874747463642408 -0.23473400575486819 0 -0.1040340538385533 -0.24906600437507531 0 -0.07180806958720759 -0.24990972721157259 0 -0.065749881189139214 -0.24173114227288151 0 -0.075225229330191906 -0.24173071524557399 0 -0.055288408602142611 -0.2377804873653046 0 -0.065749881189139214 -0.24173114227288151 0 -0.071883382452422651 -0.23121381110316941 0 -0.080433839528360335 -0.25333817362535482 0 -0.07180806958720759 -0.24990972721157259 0 -0.075225229330191906 -0.24173071524557399 0 -0.061980445145124741 -0.250819843633248 0 -0.07180806958720759 -0.24990972721157259 0 -0.065749881189139214 -0.24173114227288151 0 -0.065749881189139214 -0.24173114227288151 0 -0.075225229330191906 -0.24173071524557399 0 -0.071883382452422651 -0.23121381110316941 0 -0.071883382452422651 -0.23121381110316941 0 -0.086116061170753905 -0.2198179087345575 0 -0.074068274054108749 -0.2149432100102337 0 -0.059111141087083457 -0.22208254692696811 0 -0.071883382452422651 -0.23121381110316941 0 -0.074068274054108749 -0.2149432100102337 0 -0.090874747463642408 -0.23473400575486819 0 -0.086116061170753905 -0.2198179087345575 0 -0.099341675134448193 -0.21534524872830829 0 -0.090874747463642408 -0.23473400575486819 0 -0.071883382452422651 -0.23121381110316941 0 -0.086116061170753905 -0.2198179087345575 0 -0.086116061170753905 -0.2198179087345575 0 -0.084880069438355549 -0.19237786317323571 0 -0.099341675134448193 -0.21534524872830829 0 -0.084880069438355549 -0.19237786317323571 0 -0.099341675134448193 -0.21534524872830829 0 -0.086116061170753905 -0.2198179087345575 0 -0.074068274054108749 -0.2149432100102337 0 -0.084880069438355549 -0.19237786317323571 0 -0.062485154999478078 -0.20463878814237441 0 -0.059111141087083457 -0.22208254692696811 0 -0.074068274054108749 -0.2149432100102337 0 -0.062485154999478078 -0.20463878814237441 0 -0.074068274054108749 -0.2149432100102337 0 -0.084880069438355549 -0.19237786317323571 0 -0.062485154999478078 -0.20463878814237441 0 -0.084880069438355549 -0.19237786317323571 0 -0.064418843490413019 -0.18481723679662709 0 -0.084880069438355549 -0.19237786317323571 0 -0.096814877520861403 -0.19652241656465461 0 -0.099341675134448193 -0.21534524872830829 0 -0.084880069438355549 -0.19237786317323571 0 -0.096814877520861403 -0.19652241656465461 0 -0.09577590247779301 -0.1843227674056723 0 -0.1018699393359134 -0.19836174418878291 0 -0.1092056034811139 -0.19275744386252239 0 -0.099341675134448193 -0.21534524872830829 0 -0.096814877520861403 -0.19652241656465461 0 -0.10316456884980239 -0.19004187975508119 0 -0.09577590247779301 -0.1843227674056723 0 -0.096814877520861403 -0.19652241656465461 0 -0.1018699393359134 -0.19836174418878291 0 -0.10316456884980239 -0.19004187975508119 0 -0.1018699393359134 -0.19836174418878291 0 -0.1092056034811139 -0.19275744386252239 0 -0.10316456884980239 -0.19004187975508119 0 -0.1092056034811139 -0.19275744386252239 0 -0.10316456884980239 -0.19004187975508119 0 -0.1103804984693007 -0.19006700473945989 0 -0.1092056034811139 -0.19275744386252239 0 -0.1103804984693007 -0.19006700473945989 0 -0.1103804984693007 -0.19006700473945989 0 -0.1220733016959068 -0.1973229246484593 0 -0.1223751607946945 -0.18263275088287931 0 -0.1220733016959068 -0.1973229246484593 0 -0.1223751607946945 -0.18263275088287931 0 -0.12845415002012531 -0.18554843343597141 0 -0.1103804984693007 -0.19006700473945989 0 -0.1220733016959068 -0.1973229246484593 0 -0.11199720417549509 -0.2033486640247795 0 -0.1092056034811139 -0.19275744386252239 0 -0.1103804984693007 -0.19006700473945989 0 -0.11199720417549509 -0.2033486640247795 0 -0.1118307392106009 -0.2128474531439786 0 -0.099341675134448193 -0.21534524872830829 0 -0.1178246072921994 -0.22292474826853331 0 -0.11199720417549509 -0.2033486640247795 0 -0.1220350204687488 -0.2112825014743023 0 -0.1118307392106009 -0.2128474531439786 0 -0.1220733016959068 -0.1973229246484593 0 -0.11199720417549509 -0.2033486640247795 0 -0.1220350204687488 -0.2112825014743023 0 -0.1220350204687488 -0.2112825014743023 0 -0.1118307392106009 -0.2128474531439786 0 -0.1178246072921994 -0.22292474826853331 0 -0.096814877520861403 -0.19652241656465461 0 -0.1018699393359134 -0.19836174418878291 0 -0.099341675134448193 -0.21534524872830829 0 -0.1092056034811139 -0.19275744386252239 0 -0.099341675134448193 -0.21534524872830829 0 -0.1092056034811139 -0.19275744386252239 0 -0.11199720417549509 -0.2033486640247795 0 -0.099341675134448193 -0.21534524872830829 0 -0.11199720417549509 -0.2033486640247795 0 -0.1118307392106009 -0.2128474531439786 0 -0.099341675134448193 -0.21534524872830829 0 -0.099341675134448193 -0.21534524872830829 0 -0.1120815871797257 -0.23557830431221821 0 -0.090874747463642408 -0.23473400575486819 0 -0.099341675134448193 -0.21534524872830829 0 -0.090874747463642408 -0.23473400575486819 0 -0.099341675134448193 -0.21534524872830829 0 -0.1120815871797257 -0.23557830431221821 0 -0.099341675134448193 -0.21534524872830829 0 -0.1178246072921994 -0.22292474826853331 0 -0.1120815871797257 -0.23557830431221821 0 -0.1178246072921994 -0.22292474826853331 0 -0.1120815871797257 -0.23557830431221821 0 -0.13108106906633629 -0.22784023359231639 0 -0.1220350204687488 -0.2112825014743023 0 -0.1178246072921994 -0.22292474826853331 0 -0.13108106906633629 -0.22784023359231639 0 -0.1248214992250038 -0.2558113598961278 0 -0.1120815871797257 -0.23557830431221821 0 -0.13108106906633629 -0.22784023359231639 0 -0.1248214992250038 -0.2558113598961278 0 -0.1120815871797257 -0.23557830431221821 0 -0.1248214992250038 -0.2558113598961278 0 -0.1120815871797257 -0.23557830431221821 0 -0.1040340538385533 -0.24906600437507531 0 -0.090874747463642408 -0.23473400575486819 0 -0.1120815871797257 -0.23557830431221821 0 -0.1040340538385533 -0.24906600437507531 0 -0.0809318370611119 -0.14119326267241319 0 -0.074903176436656088 -0.1666484704673874 0 -0.095517988448435259 -0.1530776777731139 0 -0.0809318370611119 -0.14119326267241319 0 -0.095517988448435259 -0.1530776777731139 0 -0.097135337425604512 -0.13419760087574031 0 -0.073161519633642147 -0.1122795827084016 0 -0.0809318370611119 -0.14119326267241319 0 -0.097135337425604512 -0.13419760087574031 0 -0.073161519633642147 -0.1122795827084016 0 -0.0809318370611119 -0.14119326267241319 0 -0.065310563222665124 -0.13052567791833719 0 -0.05812681731514218 -0.14807010807899951 0 -0.0809318370611119 -0.14119326267241319 0 -0.065310563222665124 -0.13052567791833719 0 -0.05812681731514218 -0.14807010807899951 0 -0.0809318370611119 -0.14119326267241319 0 -0.074903176436656088 -0.1666484704673874 0 -0.05812681731514218 -0.14807010807899951 0 -0.074903176436656088 -0.1666484704673874 0 -0.074903176436656088 -0.1666484704673874 0 -0.064418843490413019 -0.18481723679662709 0 -0.084586796987216245 -0.17792862595068329 0 -0.084880069438355549 -0.19237786317323571 0 -0.064418843490413019 -0.18481723679662709 0 -0.084586796987216245 -0.17792862595068329 0 -0.052395689396595647 -0.1670913179286142 0 -0.074903176436656088 -0.1666484704673874 0 -0.064418843490413019 -0.18481723679662709 0 -0.084586796987216245 -0.17792862595068329 0 -0.098322501634865694 -0.16975195766012191 0 -0.09577590247779301 -0.1843227674056723 0 -0.084880069438355549 -0.19237786317323571 0 -0.084586796987216245 -0.17792862595068329 0 -0.09577590247779301 -0.1843227674056723 0 -0.074903176436656088 -0.1666484704673874 0 -0.098322501634865694 -0.16975195766012191 0 -0.095517988448435259 -0.1530776777731139 0 -0.074903176436656088 -0.1666484704673874 0 -0.084586796987216245 -0.17792862595068329 0 -0.098322501634865694 -0.16975195766012191 0 -0.098322501634865694 -0.16975195766012191 0 -0.1095114792131773 -0.16033406372909309 0 -0.095517988448435259 -0.1530776777731139 0 -0.098322501634865694 -0.16975195766012191 0 -0.1098108834110514 -0.1745065345160686 0 -0.1095114792131773 -0.16033406372909309 0 -0.10316456884980239 -0.19004187975508119 0 -0.09577590247779301 -0.1843227674056723 0 -0.1042259078221745 -0.1817321937713024 0 -0.098322501634865694 -0.16975195766012191 0 -0.09577590247779301 -0.1843227674056723 0 -0.1042259078221745 -0.1817321937713024 0 -0.098322501634865694 -0.16975195766012191 0 -0.1042259078221745 -0.1817321937713024 0 -0.1098108834110514 -0.1745065345160686 0 -0.10316456884980239 -0.19004187975508119 0 -0.1103804984693007 -0.19006700473945989 0 -0.1042259078221745 -0.1817321937713024 0 -0.1103804984693007 -0.19006700473945989 0 -0.1042259078221745 -0.1817321937713024 0 -0.1098108834110514 -0.1745065345160686 0 -0.1103804984693007 -0.19006700473945989 0 -0.1214193218041528 -0.16478876075061141 0 -0.1103804984693007 -0.19006700473945989 0 -0.1223751607946945 -0.18263275088287931 0 -0.1214193218041528 -0.16478876075061141 0 -0.1103804984693007 -0.19006700473945989 0 -0.1098108834110514 -0.1745065345160686 0 -0.1214193218041528 -0.16478876075061141 0 -0.1223751607946945 -0.18263275088287931 0 -0.1214193218041528 -0.16478876075061141 0 -0.12954853198398669 -0.17543663083989439 0 -0.1098108834110514 -0.1745065345160686 0 -0.1095114792131773 -0.16033406372909309 0 -0.1214193218041528 -0.16478876075061141 0 -0.1095114792131773 -0.16033406372909309 0 -0.1214193218041528 -0.16478876075061141 0 -0.12160549496579209 -0.152247353900067 0 -0.1214193218041528 -0.16478876075061141 0 -0.12160549496579209 -0.152247353900067 0 -0.12991056376611029 -0.16096861089041431 0 -0.12160549496579209 -0.152247353900067 0 -0.1103400781167152 -0.14651094447883639 0 -0.12228219041385641 -0.13483043783310911 0 -0.1103400781167152 -0.14651094447883639 0 -0.12228219041385641 -0.13483043783310911 0 -0.1095114792131773 -0.16033406372909309 0 -0.12160549496579209 -0.152247353900067 0 -0.1103400781167152 -0.14651094447883639 0 -0.1095114792131773 -0.16033406372909309 0 -0.1103400781167152 -0.14651094447883639 0 -0.095517988448435259 -0.1530776777731139 0 -0.1103400781167152 -0.14651094447883639 0 -0.095517988448435259 -0.1530776777731139 0 -0.097135337425604512 -0.13419760087574031 0 -0.1005784108798649 -0.1172936997885706 0 -0.097135337425604512 -0.13419760087574031 0 -0.12228219041385641 -0.13483043783310911 0 -0.1103400781167152 -0.14651094447883639 0 -0.097135337425604512 -0.13419760087574031 0 -0.12228219041385641 -0.13483043783310911 0 -0.1005784108798649 -0.1172936997885706 0 -0.12228219041385641 -0.13483043783310911 0 -0.12228219041385641 -0.13483043783310911 0 -0.14358679466483021 -0.13208435722887599 0 -0.14185793722547721 -0.1156835201824986 0 -0.12228219041385641 -0.13483043783310911 0 -0.14358679466483021 -0.13208435722887599 0 -0.13616933648073931 -0.14605130571833849 0 -0.12228219041385641 -0.13483043783310911 0 -0.14185793722547721 -0.1156835201824986 0 -0.12228219041385641 -0.13483043783310911 0 -0.13616933648073931 -0.14605130571833849 0 -0.14358679466483021 -0.13208435722887599 0 -0.1567609322233999 -0.13477070352848769 0 -0.16069615430552681 -0.11833360347832229 0 -0.14358679466483021 -0.13208435722887599 0 -0.14961186411809729 -0.14379628110971071 0 -0.1567609322233999 -0.13477070352848769 0 -0.13616933648073931 -0.14605130571833849 0 -0.14258559929395631 -0.1634254690753677 0 -0.1500564825476213 -0.1572721736035691 0 -0.14961186411809729 -0.14379628110971071 0 -0.1500564825476213 -0.1572721736035691 0 -0.16314200031738771 -0.1471086180712573 0 -0.14358679466483021 -0.13208435722887599 0 -0.14961186411809729 -0.14379628110971071 0 -0.13616933648073931 -0.14605130571833849 0 -0.13616933648073931 -0.14605130571833849 0 -0.1500564825476213 -0.1572721736035691 0 -0.14961186411809729 -0.14379628110971071 0 -0.13616933648073931 -0.14605130571833849 0 -0.1500564825476213 -0.1572721736035691 0 -0.12160549496579209 -0.152247353900067 0 -0.12228219041385641 -0.13483043783310911 0 -0.13616933648073931 -0.14605130571833849 0 -0.12160549496579209 -0.152247353900067 0 -0.13616933648073931 -0.14605130571833849 0 -0.12991056376611029 -0.16096861089041431 0 -0.12991056376611029 -0.16096861089041431 0 -0.14700924858985731 -0.18269961860058731 0 -0.12991056376611029 -0.16096861089041431 0 -0.14700924858985731 -0.18269961860058731 0 -0.14258559929395631 -0.1634254690753677 0 -0.13616933648073931 -0.14605130571833849 0 -0.12991056376611029 -0.16096861089041431 0 -0.14258559929395631 -0.1634254690753677 0 -0.1214193218041528 -0.16478876075061141 0 -0.12991056376611029 -0.16096861089041431 0 -0.12954853198398669 -0.17543663083989439 0 -0.12991056376611029 -0.16096861089041431 0 -0.12954853198398669 -0.17543663083989439 0 -0.14700924858985731 -0.18269961860058731 0 -0.12845415002012531 -0.18554843343597141 0 -0.12954853198398669 -0.17543663083989439 0 -0.14700924858985731 -0.18269961860058731 0 -0.1223751607946945 -0.18263275088287931 0 -0.12845415002012531 -0.18554843343597141 0 -0.12954853198398669 -0.17543663083989439 0 -0.14700924858985731 -0.18269961860058731 0 -0.14258559929395631 -0.1634254690753677 0 -0.1497823650854534 -0.1701356365639291 0 -0.14700924858985731 -0.18269961860058731 0 -0.1497823650854534 -0.1701356365639291 0 -0.1620306038872931 -0.17170491258459181 0 -0.14258559929395631 -0.1634254690753677 0 -0.1497823650854534 -0.1701356365639291 0 -0.1500564825476213 -0.1572721736035691 0 -0.1497823650854534 -0.1701356365639291 0 -0.1500564825476213 -0.1572721736035691 0 -0.1620306038872931 -0.17170491258459181 0 -0.1500564825476213 -0.1572721736035691 0 -0.1620306038872931 -0.17170491258459181 0 -0.1717033209967084 -0.1604294731792292 0 -0.1620306038872931 -0.17170491258459181 0 -0.1717033209967084 -0.1604294731792292 0 -0.18162076499540841 -0.1719045372467673 0 -0.14700924858985731 -0.18269961860058731 0 -0.1620306038872931 -0.17170491258459181 0 -0.16548322265490009 -0.18544748353643781 0 -0.1620306038872931 -0.17170491258459181 0 -0.16548322265490009 -0.18544748353643781 0 -0.18162076499540841 -0.1719045372467673 0 -0.16548322265490009 -0.18544748353643781 0 -0.18162076499540841 -0.1719045372467673 0 -0.1785980648922996 -0.19125475272577541 0 -0.18162076499540841 -0.1719045372467673 0 -0.1785980648922996 -0.19125475272577541 0 -0.1888437321285569 -0.18318365675102111 0 -0.1717033209967084 -0.1604294731792292 0 -0.18162076499540841 -0.1719045372467673 0 -0.18510286151670111 -0.15922290082243751 0 -0.18510286151670111 -0.15922290082243751 0 -0.1802341013606098 -0.1483218298016856 0 -0.193039821627467 -0.15214833134874661 0 -0.1717033209967084 -0.1604294731792292 0 -0.18510286151670111 -0.15922290082243751 0 -0.1802341013606098 -0.1483218298016856 0 -0.1802341013606098 -0.1483218298016856 0 -0.18272511732725691 -0.13470357510701339 0 -0.1928348204223268 -0.14005386210981141 0 -0.18272511732725691 -0.13470357510701339 0 -0.1922032201017578 -0.12776663734185251 0 -0.17811241014881721 -0.1228458214842766 0 -0.18272511732725691 -0.13470357510701339 0 -0.1702410346027729 -0.13452972479744099 0 -0.17811241014881721 -0.1228458214842766 0 -0.1802341013606098 -0.1483218298016856 0 -0.18272511732725691 -0.13470357510701339 0 -0.1702410346027729 -0.13452972479744099 0 -0.1702410346027729 -0.13452972479744099 0 -0.1567609322233999 -0.13477070352848769 0 -0.16069615430552681 -0.11833360347832229 0 -0.1702410346027729 -0.13452972479744099 0 -0.17811241014881721 -0.1228458214842766 0 -0.16069615430552681 -0.11833360347832229 0 -0.1702410346027729 -0.13452972479744099 0 -0.1567609322233999 -0.13477070352848769 0 -0.16314200031738771 -0.1471086180712573 0 -0.1717033209967084 -0.1604294731792292 0 -0.1802341013606098 -0.1483218298016856 0 -0.16314200031738771 -0.1471086180712573 0 -0.14961186411809729 -0.14379628110971071 0 -0.1567609322233999 -0.13477070352848769 0 -0.16314200031738771 -0.1471086180712573 0 -0.1802341013606098 -0.1483218298016856 0 -0.1702410346027729 -0.13452972479744099 0 -0.16314200031738771 -0.1471086180712573 0 -0.1500564825476213 -0.1572721736035691 0 -0.1717033209967084 -0.1604294731792292 0 -0.16314200031738771 -0.1471086180712573 0 -0.1659022285767941 -0.25353079966181652 0 -0.14517279285523579 -0.25126526030606883 0 -0.1534195357245712 -0.2308700109198682 0 -0.14517279285523579 -0.25126526030606883 0 -0.13108106906633629 -0.22784023359231639 0 -0.1534195357245712 -0.2308700109198682 0 -0.14517279285523579 -0.25126526030606883 0 -0.1248214992250038 -0.2558113598961278 0 -0.13108106906633629 -0.22784023359231639 0 -0.13108106906633629 -0.22784023359231639 0 -0.1534195357245712 -0.2308700109198682 0 -0.14093684287234831 -0.20820922217791979 0 -0.1534195357245712 -0.2308700109198682 0 -0.14093684287234831 -0.20820922217791979 0 -0.1534195357245712 -0.2308700109198682 0 -0.14093684287234831 -0.20820922217791979 0 -0.16410793341360419 -0.20443062631076031 0 -0.1220350204687488 -0.2112825014743023 0 -0.13108106906633629 -0.22784023359231639 0 -0.14093684287234831 -0.20820922217791979 0 -0.1220733016959068 -0.1973229246484593 0 -0.1220350204687488 -0.2112825014743023 0 -0.14093684287234831 -0.20820922217791979 0 -0.12845415002012531 -0.18554843343597141 0 -0.14093684287234831 -0.20820922217791979 0 -0.12845415002012531 -0.18554843343597141 0 -0.14700924858985731 -0.18269961860058731 0 -0.14093684287234831 -0.20820922217791979 0 -0.1220733016959068 -0.1973229246484593 0 -0.12845415002012531 -0.18554843343597141 0 -0.14093684287234831 -0.20820922217791979 0 -0.14700924858985731 -0.18269961860058731 0 -0.16410793341360419 -0.20443062631076031 0 -0.14700924858985731 -0.18269961860058731 0 -0.14093684287234831 -0.20820922217791979 0 -0.16410793341360419 -0.20443062631076031 0 -0.14700924858985731 -0.18269961860058731 0 -0.16548322265490009 -0.18544748353643781 0 -0.16410793341360419 -0.20443062631076031 0 -0.16548322265490009 -0.18544748353643781 0 -0.1785980648922996 -0.19125475272577541 0 -0.16410793341360419 -0.20443062631076031 0 -0.1785980648922996 -0.19125475272577541 0 -0.16410793341360419 -0.20443062631076031 0 -0.18901941768085909 -0.20751990787183661 0 -0.16410793341360419 -0.20443062631076031 0 -0.18120661823735121 -0.22616163402093339 0 -0.16410793341360419 -0.20443062631076031 0 -0.18120661823735121 -0.22616163402093339 0 -0.18901941768085909 -0.20751990787183661 0 -0.16410793341360419 -0.20443062631076031 0 -0.18120661823735121 -0.22616163402093339 0 -0.16846481738188379 -0.23531296429670179 0 -0.1534195357245712 -0.2308700109198682 0 -0.16410793341360419 -0.20443062631076031 0 -0.16846481738188379 -0.23531296429670179 0 -0.17649565685194421 -0.25186673981806101 0 -0.18215473287478801 -0.24297367892744801 0 -0.16846481738188379 -0.23531296429670179 0 -0.18120661823735121 -0.22616163402093339 0 -0.18215473287478801 -0.24297367892744801 0 -0.16846481738188379 -0.23531296429670179 0 -0.17649565685194421 -0.25186673981806101 0 -0.18723036278899799 -0.2502656152248231 0 -0.18215473287478801 -0.24297367892744801 0 -0.1659022285767941 -0.25353079966181652 0 -0.1534195357245712 -0.2308700109198682 0 -0.1659022285767941 -0.25353079966181652 0 -0.1534195357245712 -0.2308700109198682 0 -0.16846481738188379 -0.23531296429670179 0 -0.1659022285767941 -0.25353079966181652 0 -0.17649565685194421 -0.25186673981806101 0 -0.16846481738188379 -0.23531296429670179 0 -0.20876496600245081 -0.25232197311418392 0 -0.20647886277416519 -0.23988461512371409 0 -0.21993562232046421 -0.2445375326246137 0 -0.20647886277416519 -0.23988461512371409 0 -0.2192146094441503 -0.23239790626822701 0 -0.21993562232046421 -0.2445375326246137 0 -0.19773592865307271 -0.25050872942719399 0 -0.20876496600245081 -0.25232197311418392 0 -0.20647886277416519 -0.23988461512371409 0 -0.19773592865307271 -0.25050872942719399 0 -0.18215473287478801 -0.24297367892744801 0 -0.20647886277416519 -0.23988461512371409 0 -0.18215473287478801 -0.24297367892744801 0 -0.20647886277416519 -0.23988461512371409 0 -0.2041656927161237 -0.22391025457133509 0 -0.19773592865307271 -0.25050872942719399 0 -0.18723036278899799 -0.2502656152248231 0 -0.18215473287478801 -0.24297367892744801 0 -0.18215473287478801 -0.24297367892744801 0 -0.2041656927161237 -0.22391025457133509 0 -0.18120661823735121 -0.22616163402093339 0 -0.2041656927161237 -0.22391025457133509 0 -0.18901941768085909 -0.20751990787183661 0 -0.18120661823735121 -0.22616163402093339 0 -0.18215473287478801 -0.24297367892744801 0 -0.2041656927161237 -0.22391025457133509 0 -0.20647886277416519 -0.23988461512371409 0 -0.2041656927161237 -0.22391025457133509 0 -0.2192146094441503 -0.23239790626822701 0 -0.2041656927161237 -0.22391025457133509 0 -0.2192146094441503 -0.23239790626822701 0 -0.22888641686413819 -0.22067929622772159 0 -0.2041656927161237 -0.22391025457133509 0 -0.22617665255745939 -0.20484683021522221 0 -0.2041656927161237 -0.22391025457133509 0 -0.2057556293014734 -0.20396266800582011 0 -0.22617665255745939 -0.20484683021522221 0 -0.2041656927161237 -0.22391025457133509 0 -0.2057556293014734 -0.20396266800582011 0 -0.18901941768085909 -0.20751990787183661 0 -0.1785980648922996 -0.19125475272577541 0 -0.18901941768085909 -0.20751990787183661 0 -0.19598485620130099 -0.19313407327591481 0 -0.2057556293014734 -0.20396266800582011 0 -0.18901941768085909 -0.20751990787183661 0 -0.19598485620130099 -0.19313407327591481 0 -0.1785980648922996 -0.19125475272577541 0 -0.19598485620130099 -0.19313407327591481 0 -0.1888437321285569 -0.18318365675102111 0 -0.2057556293014734 -0.20396266800582011 0 -0.21343152735162399 -0.19040227409479191 0 -0.22617665255745939 -0.20484683021522221 0 -0.2057556293014734 -0.20396266800582011 0 -0.19598485620130099 -0.19313407327591481 0 -0.21343152735162399 -0.19040227409479191 0 -0.21343152735162399 -0.19040227409479191 0 -0.22617665255745939 -0.20484683021522221 0 -0.2291256553107994 -0.1859031293670047 0 -0.22617665255745939 -0.20484683021522221 0 -0.24818761239879369 -0.18578340585910769 0 -0.24147715487458221 -0.21070517376070419 0 -0.24818761239879369 -0.18578340585910769 0 -0.24147715487458221 -0.21070517376070419 0 -0.22617665255745939 -0.20484683021522221 0 -0.24818761239879369 -0.18578340585910769 0 -0.22617665255745939 -0.20484683021522221 0 -0.2291256553107994 -0.1859031293670047 0 -0.24818761239879369 -0.18578340585910769 0 -0.24587507562056679 -0.20023872645376989 0 -0.24147715487458221 -0.21070517376070419 0 -0.24818761239879369 -0.18578340585910769 0 -0.24587507562056679 -0.20023872645376989 0 -0.24147715487458221 -0.21070517376070419 0 -0.25308690854675991 -0.21453893093298909 0 -0.24147715487458221 -0.21070517376070419 0 -0.24957050408421699 -0.22624871205991451 0 -0.25308690854675991 -0.21453893093298909 0 -0.24147715487458221 -0.21070517376070419 0 -0.22617665255745939 -0.20484683021522221 0 -0.22888641686413819 -0.22067929622772159 0 -0.2041656927161237 -0.22391025457133509 0 -0.22617665255745939 -0.20484683021522221 0 -0.22888641686413819 -0.22067929622772159 0 -0.2192146094441503 -0.23239790626822701 0 -0.22888641686413819 -0.22067929622772159 0 -0.23476669735037231 -0.23562694166230139 0 -0.24147715487458221 -0.21070517376070419 0 -0.24957050408421699 -0.22624871205991451 0 -0.23476669735037231 -0.23562694166230139 0 -0.24147715487458221 -0.21070517376070419 0 -0.22888641686413819 -0.22067929622772159 0 -0.23476669735037231 -0.23562694166230139 0 -0.24147715487458221 -0.21070517376070419 0 -0.23476669735037231 -0.23562694166230139 0 -0.24957050408421699 -0.22624871205991451 0 -0.23476669735037231 -0.23562694166230139 0 -0.2604980440622664 -0.23994881258203651 0 -0.2373790898840073 -0.2512296939779402 0 -0.23476669735037231 -0.23562694166230139 0 -0.2604980440622664 -0.23994881258203651 0 -0.2373790898840073 -0.2512296939779402 0 -0.2604980440622664 -0.23994881258203651 0 -0.25172158828799518 -0.25688399676078139 0 -0.2373790898840073 -0.2512296939779402 0 -0.2604980440622664 -0.23994881258203651 0 -0.2270610889270003 -0.25280106454640622 0 -0.2373790898840073 -0.2512296939779402 0 -0.23476669735037231 -0.23562694166230139 0 -0.2270610889270003 -0.25280106454640622 0 -0.23476669735037231 -0.23562694166230139 0 -0.21993562232046421 -0.2445375326246137 0 -0.2192146094441503 -0.23239790626822701 0 -0.23476669735037231 -0.23562694166230139 0 -0.21993562232046421 -0.2445375326246137 0 -0.20590968977853191 -0.15493178913474809 0 -0.21765510891387821 -0.14382849930975669 0 -0.2029580189311834 -0.14442487955765629 0 -0.20590968977853191 -0.15493178913474809 0 -0.21765510891387821 -0.14382849930975669 0 -0.2170083226910148 -0.1567285696568157 0 -0.21765510891387821 -0.14382849930975669 0 -0.206073151252047 -0.13186372218831041 0 -0.2196079399859962 -0.12996824879353469 0 -0.206073151252047 -0.13186372218831041 0 -0.2196079399859962 -0.12996824879353469 0 -0.21730514021703451 -0.1169328589490604 0 -0.21765510891387821 -0.14382849930975669 0 -0.206073151252047 -0.13186372218831041 0 -0.2029580189311834 -0.14442487955765629 0 -0.206073151252047 -0.13186372218831041 0 -0.1922032201017578 -0.12776663734185251 0 -0.1928348204223268 -0.14005386210981141 0 -0.206073151252047 -0.13186372218831041 0 -0.1928348204223268 -0.14005386210981141 0 -0.2029580189311834 -0.14442487955765629 0 -0.206073151252047 -0.13186372218831041 0 -0.1922032201017578 -0.12776663734185251 0 -0.20348905260914449 -0.117271147354059 0 -0.18272511732725691 -0.13470357510701339 0 -0.1922032201017578 -0.12776663734185251 0 -0.1928348204223268 -0.14005386210981141 0 -0.1802341013606098 -0.1483218298016856 0 -0.1928348204223268 -0.14005386210981141 0 -0.193039821627467 -0.15214833134874661 0 -0.1928348204223268 -0.14005386210981141 0 -0.2029580189311834 -0.14442487955765629 0 -0.193039821627467 -0.15214833134874661 0 -0.20590968977853191 -0.15493178913474809 0 -0.2029580189311834 -0.14442487955765629 0 -0.193039821627467 -0.15214833134874661 0 -0.18162076499540841 -0.1719045372467673 0 -0.18510286151670111 -0.15922290082243751 0 -0.19891629860331189 -0.1633103325357588 0 -0.18162076499540841 -0.1719045372467673 0 -0.19891629860331189 -0.1633103325357588 0 -0.20088984426957879 -0.17762987816672779 0 -0.18510286151670111 -0.15922290082243751 0 -0.193039821627467 -0.15214833134874661 0 -0.19891629860331189 -0.1633103325357588 0 -0.20590968977853191 -0.15493178913474809 0 -0.193039821627467 -0.15214833134874661 0 -0.19891629860331189 -0.1633103325357588 0 -0.18162076499540841 -0.1719045372467673 0 -0.1888437321285569 -0.18318365675102111 0 -0.20088984426957879 -0.17762987816672779 0 -0.19598485620130099 -0.19313407327591481 0 -0.1888437321285569 -0.18318365675102111 0 -0.20088984426957879 -0.17762987816672779 0 -0.20088984426957879 -0.17762987816672779 0 -0.2174211695585366 -0.17697357270408809 0 -0.2104093630371065 -0.16588792482750381 0 -0.19598485620130099 -0.19313407327591481 0 -0.21343152735162399 -0.19040227409479191 0 -0.20088984426957879 -0.17762987816672779 0 -0.21343152735162399 -0.19040227409479191 0 -0.20088984426957879 -0.17762987816672779 0 -0.2174211695585366 -0.17697357270408809 0 -0.20590968977853191 -0.15493178913474809 0 -0.19891629860331189 -0.1633103325357588 0 -0.2104093630371065 -0.16588792482750381 0 -0.19891629860331189 -0.1633103325357588 0 -0.20088984426957879 -0.17762987816672779 0 -0.2104093630371065 -0.16588792482750381 0 -0.2174211695585366 -0.17697357270408809 0 -0.2104093630371065 -0.16588792482750381 0 -0.22231085332166509 -0.16575340676688441 0 -0.20590968977853191 -0.15493178913474809 0 -0.2104093630371065 -0.16588792482750381 0 -0.2170083226910148 -0.1567285696568157 0 -0.2104093630371065 -0.16588792482750381 0 -0.2170083226910148 -0.1567285696568157 0 -0.22231085332166509 -0.16575340676688441 0 -0.2170083226910148 -0.1567285696568157 0 -0.22231085332166509 -0.16575340676688441 0 -0.2279718856716606 -0.15583383736182321 0 -0.22231085332166509 -0.16575340676688441 0 -0.23345894087506361 -0.1650293646850286 0 -0.2275466875217661 -0.17514486063190679 0 -0.23345894087506361 -0.1650293646850286 0 -0.2275466875217661 -0.17514486063190679 0 -0.236704751477086 -0.17485313798864791 0 -0.23345894087506361 -0.1650293646850286 0 -0.23723296065832611 -0.1530615452435711 0 -0.2279718856716606 -0.15583383736182321 0 -0.22231085332166509 -0.16575340676688441 0 -0.23345894087506361 -0.1650293646850286 0 -0.2279718856716606 -0.15583383736182321 0 -0.21343152735162399 -0.19040227409479191 0 -0.2174211695585366 -0.17697357270408809 0 -0.2291256553107994 -0.1859031293670047 0 -0.2174211695585366 -0.17697357270408809 0 -0.2275466875217661 -0.17514486063190679 0 -0.2291256553107994 -0.1859031293670047 0 -0.2174211695585366 -0.17697357270408809 0 -0.22231085332166509 -0.16575340676688441 0 -0.2275466875217661 -0.17514486063190679 0 -0.2275466875217661 -0.17514486063190679 0 -0.2291256553107994 -0.1859031293670047 0 -0.236704751477086 -0.17485313798864791 0 -0.236704751477086 -0.17485313798864791 0 -0.24818761239879369 -0.18578340585910769 0 -0.2428708035595637 -0.16451872807130241 0 -0.2291256553107994 -0.1859031293670047 0 -0.236704751477086 -0.17485313798864791 0 -0.24818761239879369 -0.18578340585910769 0 -0.2428708035595637 -0.16451872807130241 0 -0.24642263758421251 -0.14871115227158291 0 -0.2552179183639004 -0.15967376237987591 0 -0.24818761239879369 -0.18578340585910769 0 -0.2428708035595637 -0.16451872807130241 0 -0.2552179183639004 -0.15967376237987591 0 -0.23345894087506361 -0.1650293646850286 0 -0.2428708035595637 -0.16451872807130241 0 -0.23723296065832611 -0.1530615452435711 0 -0.23345894087506361 -0.1650293646850286 0 -0.236704751477086 -0.17485313798864791 0 -0.2428708035595637 -0.16451872807130241 0 -0.2428708035595637 -0.16451872807130241 0 -0.24642263758421251 -0.14871115227158291 0 -0.23723296065832611 -0.1530615452435711 0 -0.24642263758421251 -0.14871115227158291 0 -0.2386970195287782 -0.14115074911273259 0 -0.24630147112816239 -0.1352824983523529 0 -0.24642263758421251 -0.14871115227158291 0 -0.24630147112816239 -0.1352824983523529 0 -0.25321354566815257 -0.14177662786902151 0 -0.24642263758421251 -0.14871115227158291 0 -0.2386970195287782 -0.14115074911273259 0 -0.23723296065832611 -0.1530615452435711 0 -0.2386970195287782 -0.14115074911273259 0 -0.23723296065832611 -0.1530615452435711 0 -0.23100679675462349 -0.14524138812607601 0 -0.23723296065832611 -0.1530615452435711 0 -0.2279718856716606 -0.15583383736182321 0 -0.23100679675462349 -0.14524138812607601 0 -0.21765510891387821 -0.14382849930975669 0 -0.2279718856716606 -0.15583383736182321 0 -0.23100679675462349 -0.14524138812607601 0 -0.21765510891387821 -0.14382849930975669 0 -0.23100679675462349 -0.14524138812607601 0 -0.22903767088809501 -0.1349973830922705 0 -0.21765510891387821 -0.14382849930975669 0 -0.2170083226910148 -0.1567285696568157 0 -0.2279718856716606 -0.15583383736182321 0 -0.2196079399859962 -0.12996824879353469 0 -0.22903767088809501 -0.1349973830922705 0 -0.22894032022593941 -0.123770062710662 0 -0.21765510891387821 -0.14382849930975669 0 -0.2196079399859962 -0.12996824879353469 0 -0.22903767088809501 -0.1349973830922705 0 -0.2386970195287782 -0.14115074911273259 0 -0.23100679675462349 -0.14524138812607601 0 -0.22903767088809501 -0.1349973830922705 0 -0.22903767088809501 -0.1349973830922705 0 -0.2385193959611708 -0.12962290868754861 0 -0.22894032022593941 -0.123770062710662 0 -0.2386970195287782 -0.14115074911273259 0 -0.22903767088809501 -0.1349973830922705 0 -0.2385193959611708 -0.12962290868754861 0 -0.2386970195287782 -0.14115074911273259 0 -0.2385193959611708 -0.12962290868754861 0 -0.24630147112816239 -0.1352824983523529 0 -0.2385193959611708 -0.12962290868754861 0 -0.24630147112816239 -0.1352824983523529 0 -0.24792423294045909 -0.125119138346176 0 -0.23923315934791539 -0.11800376199127791 0 -0.2382785768428303 -0.10204888121293421 0 -0.2289243720145516 -0.11291916555538881 0 -0.23923315934791539 -0.11800376199127791 0 -0.2382785768428303 -0.10204888121293421 0 -0.25172645123408321 -0.11446245311117979 0 -0.24792423294045909 -0.125119138346176 0 -0.23923315934791539 -0.11800376199127791 0 -0.25172645123408321 -0.11446245311117979 0 -0.2385193959611708 -0.12962290868754861 0 -0.24792423294045909 -0.125119138346176 0 -0.23923315934791539 -0.11800376199127791 0 -0.2385193959611708 -0.12962290868754861 0 -0.23923315934791539 -0.11800376199127791 0 -0.22894032022593941 -0.123770062710662 0 -0.2382785768428303 -0.10204888121293421 0 -0.2466802580002713 -0.085842961896821141 0 -0.26193035017432681 -0.1018753290321181 0 -0.2382785768428303 -0.10204888121293421 0 -0.21984455025413721 -0.082968863378409752 0 -0.21604751052387511 -0.10332009073644929 0 -0.2382785768428303 -0.10204888121293421 0 -0.2289243720145516 -0.11291916555538881 0 -0.21604751052387511 -0.10332009073644929 0 -0.2289243720145516 -0.11291916555538881 0 -0.21730514021703451 -0.1169328589490604 0 -0.21604751052387511 -0.10332009073644929 0 -0.2196079399859962 -0.12996824879353469 0 -0.22894032022593941 -0.123770062710662 0 -0.21730514021703451 -0.1169328589490604 0 -0.22894032022593941 -0.123770062710662 0 -0.2289243720145516 -0.11291916555538881 0 -0.21730514021703451 -0.1169328589490604 0 -0.23923315934791539 -0.11800376199127791 0 -0.22894032022593941 -0.123770062710662 0 -0.2289243720145516 -0.11291916555538881 0 -0.2466802580002713 -0.085842961896821141 0 -0.2350586708027648 -0.062005148463273388 0 -0.25276945385038652 -0.067640583333853768 0 -0.2382785768428303 -0.10204888121293421 0 -0.2466802580002713 -0.085842961896821141 0 -0.21984455025413721 -0.082968863378409752 0 -0.2466802580002713 -0.085842961896821141 0 -0.21984455025413721 -0.082968863378409752 0 -0.2466802580002713 -0.085842961896821141 0 -0.21984455025413721 -0.082968863378409752 0 -0.2350586708027648 -0.062005148463273388 0 -0.21984455025413721 -0.082968863378409752 0 -0.21734523009691739 -0.06413623425732691 0 -0.2350586708027648 -0.062005148463273388 0 -0.21734523009691739 -0.06413623425732691 0 -0.2066350349779604 -0.073865960491458174 0 -0.2005851776603135 -0.058242767230640757 0 -0.21984455025413721 -0.082968863378409752 0 -0.21734523009691739 -0.06413623425732691 0 -0.2066350349779604 -0.073865960491458174 0 -0.21984455025413721 -0.082968863378409752 0 -0.20290674634543909 -0.08847535691122406 0 -0.21604751052387511 -0.10332009073644929 0 -0.21984455025413721 -0.082968863378409752 0 -0.2066350349779604 -0.073865960491458174 0 -0.20290674634543909 -0.08847535691122406 0 -0.20290674634543909 -0.08847535691122406 0 -0.1924934705329929 -0.075506580679687435 0 -0.1844017634056748 -0.092770394128735306 0 -0.1924934705329929 -0.075506580679687435 0 -0.1844017634056748 -0.092770394128735306 0 -0.2066350349779604 -0.073865960491458174 0 -0.20290674634543909 -0.08847535691122406 0 -0.1924934705329929 -0.075506580679687435 0 -0.18100943084870261 -0.077389684881261328 0 -0.2005851776603135 -0.058242767230640757 0 -0.1924934705329929 -0.075506580679687435 0 -0.2005851776603135 -0.058242767230640757 0 -0.2066350349779604 -0.073865960491458174 0 -0.1924934705329929 -0.075506580679687435 0 -0.2005851776603135 -0.058242767230640757 0 -0.1924934705329929 -0.075506580679687435 0 -0.18100943084870261 -0.077389684881261328 0 -0.2005851776603135 -0.058242767230640757 0 -0.206073151252047 -0.13186372218831041 0 -0.20348905260914449 -0.117271147354059 0 -0.21730514021703451 -0.1169328589490604 0 -0.20348905260914449 -0.117271147354059 0 -0.21730514021703451 -0.1169328589490604 0 -0.21604751052387511 -0.10332009073644929 0 -0.20290674634543909 -0.08847535691122406 0 -0.21604751052387511 -0.10332009073644929 0 -0.19894905620063941 -0.10236126115729061 0 -0.20348905260914449 -0.117271147354059 0 -0.21604751052387511 -0.10332009073644929 0 -0.19894905620063941 -0.10236126115729061 0 -0.20290674634543909 -0.08847535691122406 0 -0.19894905620063941 -0.10236126115729061 0 -0.1844017634056748 -0.092770394128735306 0 -0.19894905620063941 -0.10236126115729061 0 -0.18790020811906341 -0.10996931665598531 0 -0.1844017634056748 -0.092770394128735306 0 -0.1922032201017578 -0.12776663734185251 0 -0.20348905260914449 -0.117271147354059 0 -0.18790020811906341 -0.10996931665598531 0 -0.20348905260914449 -0.117271147354059 0 -0.19894905620063941 -0.10236126115729061 0 -0.18790020811906341 -0.10996931665598531 0 -0.18790020811906341 -0.10996931665598531 0 -0.17811241014881721 -0.1228458214842766 0 -0.17448078460567901 -0.1068530963329635 0 -0.1922032201017578 -0.12776663734185251 0 -0.18790020811906341 -0.10996931665598531 0 -0.17811241014881721 -0.1228458214842766 0 -0.17811241014881721 -0.1228458214842766 0 -0.16069615430552681 -0.11833360347832229 0 -0.17448078460567901 -0.1068530963329635 0 -0.16069615430552681 -0.11833360347832229 0 -0.16143368403708991 -0.096536602531879998 0 -0.17448078460567901 -0.1068530963329635 0 -0.18790020811906341 -0.10996931665598531 0 -0.17448078460567901 -0.1068530963329635 0 -0.1844017634056748 -0.092770394128735306 0 -0.16143368403708991 -0.096536602531879998 0 -0.17448078460567901 -0.1068530963329635 0 -0.1844017634056748 -0.092770394128735306 0 -0.16143368403708991 -0.096536602531879998 0 -0.1844017634056748 -0.092770394128735306 0 -0.18100943084870261 -0.077389684881261328 0 -0.1924934705329929 -0.075506580679687435 0 -0.1844017634056748 -0.092770394128735306 0 -0.18100943084870261 -0.077389684881261328 0 -0.18100943084870261 -0.077389684881261328 0 -0.17427150948452769 -0.060158258819842887 0 -0.2005851776603135 -0.058242767230640757 0 -0.18100943084870261 -0.077389684881261328 0 -0.15868165350342811 -0.072612166957139138 0 -0.17427150948452769 -0.060158258819842887 0 -0.16143368403708991 -0.096536602531879998 0 -0.18100943084870261 -0.077389684881261328 0 -0.15868165350342811 -0.072612166957139138 0 -0.16143368403708991 -0.096536602531879998 0 -0.18100943084870261 -0.077389684881261328 0 -0.15868165350342811 -0.072612166957139138 0 -0.14348131453775531 -0.091132543588147624 0 -0.1362018701693346 -0.073855358823405534 0 -0.16143368403708991 -0.096536602531879998 0 -0.15868165350342811 -0.072612166957139138 0 -0.14348131453775531 -0.091132543588147624 0 -0.15868165350342811 -0.072612166957139138 0 -0.1362018701693346 -0.073855358823405534 0 -0.1538504722860653 -0.048158953283741771 0 -0.11420423521706261 -0.080155262541643901 0 -0.1362018701693346 -0.073855358823405534 0 -0.11420423521706261 -0.080155262541643901 0 -0.1362018701693346 -0.073855358823405534 0 -0.12583608021731249 -0.053031594589477683 0 -0.14348131453775531 -0.091132543588147624 0 -0.1362018701693346 -0.073855358823405534 0 -0.12557970648353159 -0.098931490173913214 0 -0.11420423521706261 -0.080155262541643901 0 -0.1362018701693346 -0.073855358823405534 0 -0.12557970648353159 -0.098931490173913214 0 -0.14348131453775531 -0.091132543588147624 0 -0.12557970648353159 -0.098931490173913214 0 -0.14185793722547721 -0.1156835201824986 0 -0.12124900292172119 -0.1210740251246335 0 -0.12228219041385641 -0.13483043783310911 0 -0.14185793722547721 -0.1156835201824986 0 -0.12124900292172119 -0.1210740251246335 0 -0.12557970648353159 -0.098931490173913214 0 -0.14185793722547721 -0.1156835201824986 0 -0.16069615430552681 -0.11833360347832229 0 -0.16143368403708991 -0.096536602531879998 0 -0.14185793722547721 -0.1156835201824986 0 -0.14358679466483021 -0.13208435722887599 0 -0.16069615430552681 -0.11833360347832229 0 -0.14185793722547721 -0.1156835201824986 0 -0.16143368403708991 -0.096536602531879998 0 -0.14348131453775531 -0.091132543588147624 0 -0.14185793722547721 -0.1156835201824986 0 -0.16143368403708991 -0.096536602531879998 0 -0.14185793722547721 -0.1156835201824986 0 -0.1456950895611954 -0.017671921514921109 0 -0.1411117709730263 -0.01188691821433141 0 -0.14032700686325481 -0.02282045855949888 0 -0.1481411870877534 -0.023392368673470498 0 -0.1456950895611954 -0.017671921514921109 0 -0.14032700686325481 -0.02282045855949888 0 -0.1481411870877534 -0.023392368673470498 0 -0.1456950895611954 -0.017671921514921109 0 -0.1504950147818768 -0.018176020354927849 0 -0.1481411870877534 -0.023392368673470498 0 -0.14665115333553749 -0.03122799927192953 0 -0.14032700686325481 -0.02282045855949888 0 -0.14665115333553749 -0.03122799927192953 0 -0.14032700686325481 -0.02282045855949888 0 -0.13883957572741321 -0.03110733903801071 0 -0.1481411870877534 -0.023392368673470498 0 -0.14665115333553749 -0.03122799927192953 0 -0.15296132257908121 -0.028407573787015888 0 -0.1481411870877534 -0.023392368673470498 0 -0.15296132257908121 -0.028407573787015888 0 -0.15386848092533681 -0.022411243064503369 0 -0.15296132257908121 -0.028407573787015888 0 -0.15655518514876021 -0.025703102130178849 0 -0.15792561523671511 -0.029993900488572971 0 -0.15296132257908121 -0.028407573787015888 0 -0.15386848092533681 -0.022411243064503369 0 -0.15655518514876021 -0.025703102130178849 0 -0.15386848092533681 -0.022411243064503369 0 -0.1576593814075716 -0.022440947602345839 0 -0.15655518514876021 -0.025703102130178849 0 -0.15386848092533681 -0.022411243064503369 0 -0.1552770918411385 -0.017913620851936419 0 -0.1576593814075716 -0.022440947602345839 0 -0.1481411870877534 -0.023392368673470498 0 -0.15386848092533681 -0.022411243064503369 0 -0.1504950147818768 -0.018176020354927849 0 -0.1456950895611954 -0.017671921514921109 0 -0.1504950147818768 -0.018176020354927849 0 -0.15009287056129031 -0.01366283350326734 0 -0.1504950147818768 -0.018176020354927849 0 -0.1552770918411385 -0.017913620851936419 0 -0.15009287056129031 -0.01366283350326734 0 -0.15386848092533681 -0.022411243064503369 0 -0.1504950147818768 -0.018176020354927849 0 -0.1552770918411385 -0.017913620851936419 0 -0.1552770918411385 -0.017913620851936419 0 -0.15009287056129031 -0.01366283350326734 0 -0.15728395035699319 -0.012036541858247421 0 -0.15009287056129031 -0.01366283350326734 0 -0.1505357492832731 -0.00591175187845482 0 -0.15728395035699319 -0.012036541858247421 0 -0.1505357492832731 -0.00591175187845482 0 -0.16213180396831009 -0.001835995319171498 0 -0.15155385676476049 0.0040722451845775819 0 -0.1505357492832731 -0.00591175187845482 0 -0.14216720601109231 -0.0015998198185955201 0 -0.15155385676476049 0.0040722451845775819 0 -0.1505357492832731 -0.00591175187845482 0 -0.14216720601109231 -0.0015998198185955201 0 -0.1411117709730263 -0.01188691821433141 0 -0.15009287056129031 -0.01366283350326734 0 -0.1505357492832731 -0.00591175187845482 0 -0.1411117709730263 -0.01188691821433141 0 -0.1456950895611954 -0.017671921514921109 0 -0.15009287056129031 -0.01366283350326734 0 -0.1411117709730263 -0.01188691821433141 0 -0.1411117709730263 -0.01188691821433141 0 -0.13510903505743249 -0.0059188089523830234 0 -0.13230700460182451 -0.01498729953507889 0 -0.14216720601109231 -0.0015998198185955201 0 -0.1411117709730263 -0.01188691821433141 0 -0.13510903505743249 -0.0059188089523830234 0 -0.14216720601109231 -0.0015998198185955201 0 -0.13510903505743249 -0.0059188089523830234 0 -0.13432522243980111 0.0022323207627066429 0 -0.13510903505743249 -0.0059188089523830234 0 -0.1267066811508025 -0.0058059763640995986 0 -0.13432522243980111 0.0022323207627066429 0 -0.11947500089122171 -0.016876062711586381 0 -0.1267066811508025 -0.0058059763640995986 0 -0.13230700460182451 -0.01498729953507889 0 -0.13510903505743249 -0.0059188089523830234 0 -0.1267066811508025 -0.0058059763640995986 0 -0.13230700460182451 -0.01498729953507889 0 -0.11947500089122171 -0.016876062711586381 0 -0.13230700460182451 -0.01498729953507889 0 -0.13111253267520931 -0.02661557240857404 0 -0.13230700460182451 -0.01498729953507889 0 -0.14032700686325481 -0.02282045855949888 0 -0.13111253267520931 -0.02661557240857404 0 -0.1411117709730263 -0.01188691821433141 0 -0.13230700460182451 -0.01498729953507889 0 -0.14032700686325481 -0.02282045855949888 0 -0.14032700686325481 -0.02282045855949888 0 -0.13883957572741321 -0.03110733903801071 0 -0.13111253267520931 -0.02661557240857404 0 -0.120796230725104 -0.033044047216909532 0 -0.13694095008001941 -0.039757895697647302 0 -0.12583608021731249 -0.053031594589477683 0 -0.120796230725104 -0.033044047216909532 0 -0.13111253267520931 -0.02661557240857404 0 -0.13694095008001941 -0.039757895697647302 0 -0.13883957572741321 -0.03110733903801071 0 -0.13111253267520931 -0.02661557240857404 0 -0.13694095008001941 -0.039757895697647302 0 -0.1362018701693346 -0.073855358823405534 0 -0.12583608021731249 -0.053031594589477683 0 -0.1538504722860653 -0.048158953283741771 0 -0.13694095008001941 -0.039757895697647302 0 -0.12583608021731249 -0.053031594589477683 0 -0.1538504722860653 -0.048158953283741771 0 -0.12583608021731249 -0.053031594589477683 0 -0.1538504722860653 -0.048158953283741771 0 -0.14665115333553749 -0.03122799927192953 0 -0.13694095008001941 -0.039757895697647302 0 -0.153536376666881 -0.036610514208347489 0 -0.13694095008001941 -0.039757895697647302 0 -0.1538504722860653 -0.048158953283741771 0 -0.153536376666881 -0.036610514208347489 0 -0.14665115333553749 -0.03122799927192953 0 -0.13883957572741321 -0.03110733903801071 0 -0.13694095008001941 -0.039757895697647302 0 -0.15296132257908121 -0.028407573787015888 0 -0.153536376666881 -0.036610514208347489 0 -0.15792561523671511 -0.029993900488572971 0 -0.14665115333553749 -0.03122799927192953 0 -0.15296132257908121 -0.028407573787015888 0 -0.153536376666881 -0.036610514208347489 0 -0.1538504722860653 -0.048158953283741771 0 -0.1617485213037631 -0.033799322960748571 0 -0.16964450607755319 -0.036835924517160328 0 -0.1538504722860653 -0.048158953283741771 0 -0.16964450607755319 -0.036835924517160328 0 -0.181864864354818 -0.043286311978005851 0 -0.153536376666881 -0.036610514208347489 0 -0.1617485213037631 -0.033799322960748571 0 -0.15792561523671511 -0.029993900488572971 0 -0.1538504722860653 -0.048158953283741771 0 -0.181864864354818 -0.043286311978005851 0 -0.1538504722860653 -0.048158953283741771 0 -0.153536376666881 -0.036610514208347489 0 -0.1617485213037631 -0.033799322960748571 0 -0.16964450607755319 -0.036835924517160328 0 -0.17459096037377789 -0.028373654899650089 0 -0.16710683481629121 -0.028810326487935571 0 -0.1617485213037631 -0.033799322960748571 0 -0.16964450607755319 -0.036835924517160328 0 -0.16710683481629121 -0.028810326487935571 0 -0.1538504722860653 -0.048158953283741771 0 -0.17427150948452769 -0.060158258819842887 0 -0.181864864354818 -0.043286311978005851 0 -0.15868165350342811 -0.072612166957139138 0 -0.1538504722860653 -0.048158953283741771 0 -0.17427150948452769 -0.060158258819842887 0 -0.17427150948452769 -0.060158258819842887 0 -0.181864864354818 -0.043286311978005851 0 -0.2005851776603135 -0.058242767230640757 0 -0.181864864354818 -0.043286311978005851 0 -0.18404786308994919 -0.02382955469759673 0 -0.17459096037377789 -0.028373654899650089 0 -0.16964450607755319 -0.036835924517160328 0 -0.181864864354818 -0.043286311978005851 0 -0.17459096037377789 -0.028373654899650089 0 -0.181864864354818 -0.043286311978005851 0 -0.18404786308994919 -0.02382955469759673 0 -0.19612677654465241 -0.02649639324145853 0 -0.18404786308994919 -0.02382955469759673 0 -0.17905573699290239 -0.014235676407732101 0 -0.18966158575372211 -0.01415604000676722 0 -0.18404786308994919 -0.02382955469759673 0 -0.17233424609789899 -0.019082824943987348 0 -0.17905573699290239 -0.014235676407732101 0 -0.18404786308994919 -0.02382955469759673 0 -0.17233424609789899 -0.019082824943987348 0 -0.17459096037377789 -0.028373654899650089 0 -0.17233424609789899 -0.019082824943987348 0 -0.17459096037377789 -0.028373654899650089 0 -0.16897858963328979 -0.024727100456903909 0 -0.16710683481629121 -0.028810326487935571 0 -0.16897858963328979 -0.024727100456903909 0 -0.16188231724519089 -0.02264159549604261 0 -0.17459096037377789 -0.028373654899650089 0 -0.16710683481629121 -0.028810326487935571 0 -0.16897858963328979 -0.024727100456903909 0 -0.17233424609789899 -0.019082824943987348 0 -0.16897858963328979 -0.024727100456903909 0 -0.16188231724519089 -0.02264159549604261 0 -0.1552770918411385 -0.017913620851936419 0 -0.16188231724519089 -0.02264159549604261 0 -0.15728395035699319 -0.012036541858247421 0 -0.1552770918411385 -0.017913620851936419 0 -0.16188231724519089 -0.02264159549604261 0 -0.1576593814075716 -0.022440947602345839 0 -0.15655518514876021 -0.025703102130178849 0 -0.15792561523671511 -0.029993900488572971 0 -0.16036112559509641 -0.025261845708456191 0 -0.1617485213037631 -0.033799322960748571 0 -0.16188231724519089 -0.02264159549604261 0 -0.1576593814075716 -0.022440947602345839 0 -0.15655518514876021 -0.025703102130178849 0 -0.16036112559509641 -0.025261845708456191 0 -0.16188231724519089 -0.02264159549604261 0 -0.1576593814075716 -0.022440947602345839 0 -0.16036112559509641 -0.025261845708456191 0 -0.1617485213037631 -0.033799322960748571 0 -0.16188231724519089 -0.02264159549604261 0 -0.16036112559509641 -0.025261845708456191 0 -0.1617485213037631 -0.033799322960748571 0 -0.16710683481629121 -0.028810326487935571 0 -0.16188231724519089 -0.02264159549604261 0 -0.1617485213037631 -0.033799322960748571 0 -0.15792561523671511 -0.029993900488572971 0 -0.16036112559509641 -0.025261845708456191 0 -0.16188231724519089 -0.02264159549604261 0 -0.16036112559509641 -0.025261845708456191 0 -0.16188231724519089 -0.02264159549604261 0 -0.16213180396831009 -0.001835995319171498 0 -0.17688534875143 0.003201102554937572 0 -0.17233424609789899 -0.019082824943987348 0 -0.16188231724519089 -0.02264159549604261 0 -0.17688534875143 0.003201102554937572 0 -0.16188231724519089 -0.02264159549604261 0 -0.16213180396831009 -0.001835995319171498 0 -0.16188231724519089 -0.02264159549604261 0 -0.16213180396831009 -0.001835995319171498 0 -0.15728395035699319 -0.012036541858247421 0 -0.16188231724519089 -0.02264159549604261 0 -0.17688534875143 0.003201102554937572 0 -0.1505357492832731 -0.00591175187845482 0 -0.16213180396831009 -0.001835995319171498 0 -0.15728395035699319 -0.012036541858247421 0 -0.17905573699290239 -0.014235676407732101 0 -0.1840474572968509 -0.0066425685205745398 0 -0.17688534875143 0.003201102554937572 0 -0.17233424609789899 -0.019082824943987348 0 -0.17905573699290239 -0.014235676407732101 0 -0.17688534875143 0.003201102554937572 0 -0.17905573699290239 -0.014235676407732101 0 -0.1840474572968509 -0.0066425685205745398 0 -0.18966158575372211 -0.01415604000676722 0 -0.1840474572968509 -0.0066425685205745398 0 -0.190587157689349 -0.00137966022273641 0 -0.17688534875143 0.003201102554937572 0 -0.1840474572968509 -0.0066425685205745398 0 -0.190587157689349 -0.00137966022273641 0 -0.18966158575372211 -0.01415604000676722 0 -0.190587157689349 -0.00137966022273641 0 -0.2033907340440847 -0.0125036268732945 0 -0.2051230715147683 0.0065562007059215416 0 -0.190587157689349 -0.00137966022273641 0 -0.18966158575372211 -0.01415604000676722 0 -0.2033907340440847 -0.0125036268732945 0 -0.18404786308994919 -0.02382955469759673 0 -0.18966158575372211 -0.01415604000676722 0 -0.19612677654465241 -0.02649639324145853 0 -0.18966158575372211 -0.01415604000676722 0 -0.19612677654465241 -0.02649639324145853 0 -0.2033907340440847 -0.0125036268732945 0 -0.19612677654465241 -0.02649639324145853 0 -0.2068314565473755 -0.024663237950227301 0 -0.2033907340440847 -0.0125036268732945 0 -0.21792905917719421 -0.021239261013886249 0 -0.20987925642357061 -0.038413670672269078 0 -0.2068314565473755 -0.024663237950227301 0 -0.21792905917719421 -0.021239261013886249 0 -0.2033907340440847 -0.0125036268732945 0 -0.2068314565473755 -0.024663237950227301 0 -0.21792905917719421 -0.021239261013886249 0 -0.20987925642357061 -0.038413670672269078 0 -0.19612677654465241 -0.02649639324145853 0 -0.2068314565473755 -0.024663237950227301 0 -0.20987925642357061 -0.038413670672269078 0 -0.2130566491954711 -0.002830905124650721 0 -0.2033907340440847 -0.0125036268732945 0 -0.2051230715147683 0.0065562007059215416 0 -0.21792905917719421 -0.021239261013886249 0 -0.2130566491954711 -0.002830905124650721 0 -0.2033907340440847 -0.0125036268732945 0 -0.181864864354818 -0.043286311978005851 0 -0.20987925642357061 -0.038413670672269078 0 -0.181864864354818 -0.043286311978005851 0 -0.2005851776603135 -0.058242767230640757 0 -0.20987925642357061 -0.038413670672269078 0 -0.181864864354818 -0.043286311978005851 0 -0.19612677654465241 -0.02649639324145853 0 -0.20987925642357061 -0.038413670672269078 0 -0.21792905917719421 -0.021239261013886249 0 -0.20987925642357061 -0.038413670672269078 0 -0.2232330797010697 -0.0360909934308105 0 -0.20987925642357061 -0.038413670672269078 0 -0.2232330797010697 -0.0360909934308105 0 -0.21190912868069289 -0.047166880330726947 0 -0.2232330797010697 -0.0360909934308105 0 -0.20987925642357061 -0.038413670672269078 0 -0.21190912868069289 -0.047166880330726947 0 -0.2232330797010697 -0.0360909934308105 0 -0.2005851776603135 -0.058242767230640757 0 -0.20987925642357061 -0.038413670672269078 0 -0.21734523009691739 -0.06413623425732691 0 -0.2005851776603135 -0.058242767230640757 0 -0.21190912868069289 -0.047166880330726947 0 -0.2005851776603135 -0.058242767230640757 0 -0.20987925642357061 -0.038413670672269078 0 -0.21190912868069289 -0.047166880330726947 0 -0.2005851776603135 -0.058242767230640757 0 -0.21190912868069289 -0.047166880330726947 0 -0.21734523009691739 -0.06413623425732691 0 -0.2270739744855334 -0.051517937498557473 0 -0.2350586708027648 -0.062005148463273388 0 -0.21734523009691739 -0.06413623425732691 0 -0.21190912868069289 -0.047166880330726947 0 -0.2270739744855334 -0.051517937498557473 0 -0.2270739744855334 -0.051517937498557473 0 -0.2380254582701446 -0.050958096467811943 0 -0.2350586708027648 -0.062005148463273388 0 -0.21190912868069289 -0.047166880330726947 0 -0.2270739744855334 -0.051517937498557473 0 -0.22700584215470759 -0.042427416473955128 0 -0.2270739744855334 -0.051517937498557473 0 -0.2339008720691112 -0.043790838997930993 0 -0.2380254582701446 -0.050958096467811943 0 -0.2270739744855334 -0.051517937498557473 0 -0.2339008720691112 -0.043790838997930993 0 -0.22700584215470759 -0.042427416473955128 0 -0.2339008720691112 -0.043790838997930993 0 -0.22700584215470759 -0.042427416473955128 0 -0.23402976099167219 -0.037854359455088367 0 -0.21190912868069289 -0.047166880330726947 0 -0.22700584215470759 -0.042427416473955128 0 -0.2232330797010697 -0.0360909934308105 0 -0.22700584215470759 -0.042427416473955128 0 -0.2264223012412476 -0.035536280961173429 0 -0.2232330797010697 -0.0360909934308105 0 -0.2264223012412476 -0.035536280961173429 0 -0.2232330797010697 -0.0360909934308105 0 -0.2264223012412476 -0.035536280961173429 0 -0.23402976099167219 -0.037854359455088367 0 -0.23924497912056669 -0.031032591977374201 0 -0.22700584215470759 -0.042427416473955128 0 -0.2264223012412476 -0.035536280961173429 0 -0.23402976099167219 -0.037854359455088367 0 -0.24474582939655681 -0.042147510974781408 0 -0.23924497912056669 -0.031032591977374201 0 -0.25730001741856973 -0.027890021634931522 0 -0.23402976099167219 -0.037854359455088367 0 -0.24474582939655681 -0.042147510974781408 0 -0.23924497912056669 -0.031032591977374201 0 -0.2339008720691112 -0.043790838997930993 0 -0.24474582939655681 -0.042147510974781408 0 -0.2380254582701446 -0.050958096467811943 0 -0.2339008720691112 -0.043790838997930993 0 -0.23402976099167219 -0.037854359455088367 0 -0.24474582939655681 -0.042147510974781408 0 -0.24779117961946839 -0.054983148444685603 0 -0.2350586708027648 -0.062005148463273388 0 -0.25276945385038652 -0.067640583333853768 0 -0.24474582939655681 -0.042147510974781408 0 -0.2380254582701446 -0.050958096467811943 0 -0.24779117961946839 -0.054983148444685603 0 -0.2380254582701446 -0.050958096467811943 0 -0.24779117961946839 -0.054983148444685603 0 -0.2350586708027648 -0.062005148463273388 0 -0.21792905917719421 -0.021239261013886249 0 -0.2130566491954711 -0.002830905124650721 0 -0.22597886193081909 -0.0040648513555040719 0 -0.21792905917719421 -0.021239261013886249 0 -0.22597886193081909 -0.0040648513555040719 0 -0.21792905917719421 -0.021239261013886249 0 -0.22597886193081909 -0.0040648513555040719 0 -0.24200929232367549 -0.017726095256798399 0 -0.21792905917719421 -0.021239261013886249 0 -0.2232330797010697 -0.0360909934308105 0 -0.24200929232367549 -0.017726095256798399 0 -0.2232330797010697 -0.0360909934308105 0 -0.24200929232367549 -0.017726095256798399 0 -0.2264223012412476 -0.035536280961173429 0 -0.2232330797010697 -0.0360909934308105 0 -0.24200929232367549 -0.017726095256798399 0 -0.2264223012412476 -0.035536280961173429 0 -0.24200929232367549 -0.017726095256798399 0 -0.23924497912056669 -0.031032591977374201 0 -0.24200929232367549 -0.017726095256798399 0 -0.23924497912056669 -0.031032591977374201 0 -0.25730001741856973 -0.027890021634931522 0 -0.22597886193081909 -0.0040648513555040719 0 -0.24200929232367549 -0.017726095256798399 0 -0.23782537117294611 0.0055356417309746766 0 -0.24200929232367549 -0.017726095256798399 0 -0.2607855049462805 0.00063880291721445104 0 -0.23782537117294611 0.0055356417309746766 0 -0.24200929232367549 -0.017726095256798399 0 -0.2607855049462805 0.00063880291721445104 0 -0.25730001741856973 -0.027890021634931522 0 -0.2761854034703739 -0.015901895942094069 0 -0.2607855049462805 0.00063880291721445104 0 -0.24200929232367549 -0.017726095256798399 0 -0.25730001741856973 -0.027890021634931522 0 -0.2607855049462805 0.00063880291721445104 0 -0.25730001741856973 -0.027890021634931522 0 -0.2761854034703739 -0.015901895942094069 0 -0.27838832918949169 -0.040353127983414033 0 -0.2761854034703739 -0.015901895942094069 0 -0.2607855049462805 0.00063880291721445104 0 -0.27919270882625968 0.00053425038285558806 0 -0.2761854034703739 -0.015901895942094069 0 -0.28831079488054201 -0.0072340278293513433 0 -0.27919270882625968 0.00053425038285558806 0 -0.2761854034703739 -0.015901895942094069 0 -0.28831079488054201 -0.0072340278293513433 0 -0.29531720249654919 -0.021513962212947511 0 -0.28831079488054201 -0.0072340278293513433 0 -0.27919270882625968 0.00053425038285558806 0 -0.29112012326521658 0.0061646716772815616 0 -0.28831079488054201 -0.0072340278293513433 0 -0.30267852896154013 -0.0066743577366705394 0 -0.29112012326521658 0.0061646716772815616 0 -0.28831079488054201 -0.0072340278293513433 0 -0.29531720249654919 -0.021513962212947511 0 -0.30267852896154013 -0.0066743577366705394 0 -0.2761854034703739 -0.015901895942094069 0 -0.29531720249654919 -0.021513962212947511 0 -0.27838832918949169 -0.040353127983414033 0 -0.29531720249654919 -0.021513962212947511 0 -0.31247419868770709 -0.0234553977025951 0 -0.30267852896154013 -0.0066743577366705394 0 -0.29531720249654919 -0.021513962212947511 0 -0.31247419868770709 -0.0234553977025951 0 -0.29792262948206888 -0.041089683144855248 0 -0.31247419868770709 -0.0234553977025951 0 -0.30267852896154013 -0.0066743577366705394 0 -0.31884765557223532 -0.0027971671293464469 0 -0.30267852896154013 -0.0066743577366705394 0 -0.29112012326521658 0.0061646716772815616 0 -0.30454846039889638 -0.056318747972593911 0 -0.29792262948206888 -0.041089683144855248 0 -0.31471516469226918 -0.044794174713565213 0 -0.30454846039889638 -0.056318747972593911 0 -0.29792262948206888 -0.041089683144855248 0 -0.29028898949221571 -0.059382730094480377 0 -0.30454846039889638 -0.056318747972593911 0 -0.31686429824231588 -0.064132063451602189 0 -0.31471516469226918 -0.044794174713565213 0 -0.31247419868770709 -0.0234553977025951 0 -0.29792262948206888 -0.041089683144855248 0 -0.31471516469226918 -0.044794174713565213 0 -0.29531720249654919 -0.021513962212947511 0 -0.29792262948206888 -0.041089683144855248 0 -0.27838832918949169 -0.040353127983414033 0 -0.29792262948206888 -0.041089683144855248 0 -0.29028898949221571 -0.059382730094480377 0 -0.27838832918949169 -0.040353127983414033 0 -0.29028898949221571 -0.059382730094480377 0 -0.27838832918949169 -0.040353127983414033 0 -0.27330558913160069 -0.064995623408285047 0 -0.27838832918949169 -0.040353127983414033 0 -0.26088401388650478 -0.050504092776519231 0 -0.27330558913160069 -0.064995623408285047 0 -0.24474582939655681 -0.042147510974781408 0 -0.25730001741856973 -0.027890021634931522 0 -0.26088401388650478 -0.050504092776519231 0 -0.25730001741856973 -0.027890021634931522 0 -0.27838832918949169 -0.040353127983414033 0 -0.26088401388650478 -0.050504092776519231 0 -0.24779117961946839 -0.054983148444685603 0 -0.26088401388650478 -0.050504092776519231 0 -0.25276945385038652 -0.067640583333853768 0 -0.24474582939655681 -0.042147510974781408 0 -0.24779117961946839 -0.054983148444685603 0 -0.26088401388650478 -0.050504092776519231 0 -0.26088401388650478 -0.050504092776519231 0 -0.25276945385038652 -0.067640583333853768 0 -0.27330558913160069 -0.064995623408285047 0 -0.2466802580002713 -0.085842961896821141 0 -0.25276945385038652 -0.067640583333853768 0 -0.27351596574640552 -0.088717060415232529 0 -0.2466802580002713 -0.085842961896821141 0 -0.27351596574640552 -0.088717060415232529 0 -0.26193035017432681 -0.1018753290321181 0 -0.2466802580002713 -0.085842961896821141 0 -0.27351596574640552 -0.088717060415232529 0 -0.25276945385038652 -0.067640583333853768 0 -0.27351596574640552 -0.088717060415232529 0 -0.27330558913160069 -0.064995623408285047 0 -0.27351596574640552 -0.088717060415232529 0 -0.27330558913160069 -0.064995623408285047 0 -0.28808268758967481 -0.075376332262021672 0 -0.26399658262058362 -0.1186250198486878 0 -0.25172645123408321 -0.11446245311117979 0 -0.26193035017432681 -0.1018753290321181 0 -0.26399658262058362 -0.1186250198486878 0 -0.25488118593265119 -0.12246455468667369 0 -0.25587747693547908 -0.13165160744065121 0 -0.24792423294045909 -0.125119138346176 0 -0.25488118593265119 -0.12246455468667369 0 -0.25172645123408321 -0.11446245311117979 0 -0.26399658262058362 -0.1186250198486878 0 -0.25488118593265119 -0.12246455468667369 0 -0.25172645123408321 -0.11446245311117979 0 -0.2382785768428303 -0.10204888121293421 0 -0.25172645123408321 -0.11446245311117979 0 -0.26193035017432681 -0.1018753290321181 0 -0.27351596574640552 -0.088717060415232529 0 -0.26193035017432681 -0.1018753290321181 0 -0.28255369399798158 -0.1047442302087002 0 -0.26399658262058362 -0.1186250198486878 0 -0.26193035017432681 -0.1018753290321181 0 -0.28255369399798158 -0.1047442302087002 0 -0.26399658262058362 -0.1186250198486878 0 -0.27903579827152591 -0.12169647781217199 0 -0.25587747693547908 -0.13165160744065121 0 -0.26399658262058362 -0.1186250198486878 0 -0.27903579827152591 -0.12169647781217199 0 -0.28255369399798158 -0.1047442302087002 0 -0.27903579827152591 -0.12169647781217199 0 -0.30219411960757259 -0.1117413481836929 0 -0.27903579827152591 -0.12169647781217199 0 -0.30219411960757259 -0.1117413481836929 0 -0.29999719472155412 -0.12679035439911471 0 -0.27903579827152591 -0.12169647781217199 0 -0.28255369399798158 -0.1047442302087002 0 -0.30219411960757259 -0.1117413481836929 0 -0.28255369399798158 -0.1047442302087002 0 -0.30219411960757259 -0.1117413481836929 0 -0.30035167349253961 -0.091591158933643904 0 -0.27351596574640552 -0.088717060415232529 0 -0.28255369399798158 -0.1047442302087002 0 -0.30035167349253961 -0.091591158933643904 0 -0.31186352125585293 -0.1005345627066096 0 -0.30219411960757259 -0.1117413481836929 0 -0.30035167349253961 -0.091591158933643904 0 -0.30219411960757259 -0.1117413481836929 0 -0.29999719472155412 -0.12679035439911471 0 -0.31806539372528148 -0.12526311014766009 0 -0.29028898949221571 -0.059382730094480377 0 -0.27330558913160069 -0.064995623408285047 0 -0.28808268758967481 -0.075376332262021672 0 -0.29028898949221571 -0.059382730094480377 0 -0.28808268758967481 -0.075376332262021672 0 -0.30295122008561248 -0.072195088458466533 0 -0.27351596574640552 -0.088717060415232529 0 -0.28808268758967481 -0.075376332262021672 0 -0.30035167349253961 -0.091591158933643904 0 -0.27351596574640552 -0.088717060415232529 0 -0.30035167349253961 -0.091591158933643904 0 -0.30035167349253961 -0.091591158933643904 0 -0.30295122008561248 -0.072195088458466533 0 -0.31771010854387638 -0.080767402956557946 0 -0.28808268758967481 -0.075376332262021672 0 -0.30035167349253961 -0.091591158933643904 0 -0.30295122008561248 -0.072195088458466533 0 -0.30454846039889638 -0.056318747972593911 0 -0.30295122008561248 -0.072195088458466533 0 -0.31686429824231588 -0.064132063451602189 0 -0.30454846039889638 -0.056318747972593911 0 -0.29028898949221571 -0.059382730094480377 0 -0.30295122008561248 -0.072195088458466533 0 -0.31686429824231588 -0.064132063451602189 0 -0.32545324845222362 -0.073491316971113482 0 -0.31771010854387638 -0.080767402956557946 0 -0.30295122008561248 -0.072195088458466533 0 -0.31686429824231588 -0.064132063451602189 0 -0.31771010854387638 -0.080767402956557946 0 -0.31686429824231588 -0.064132063451602189 0 -0.32545324845222362 -0.073491316971113482 0 -0.33092791559173418 -0.063800854682426258 0 -0.30035167349253961 -0.091591158933643904 0 -0.31771010854387638 -0.080767402956557946 0 -0.32718738123867369 -0.094465257452055307 0 -0.30035167349253961 -0.091591158933643904 0 -0.32718738123867369 -0.094465257452055307 0 -0.31771010854387638 -0.080767402956557946 0 -0.32794146080519798 -0.082631179786409131 0 -0.32718738123867369 -0.094465257452055307 0 -0.32545324845222362 -0.073491316971113482 0 -0.31771010854387638 -0.080767402956557946 0 -0.32794146080519798 -0.082631179786409131 0 -0.32794146080519798 -0.082631179786409131 0 -0.33741912328976048 -0.089667775123333682 0 -0.33382245907799329 -0.076125083978571928 0 -0.32794146080519798 -0.082631179786409131 0 -0.33741912328976048 -0.089667775123333682 0 -0.32718738123867369 -0.094465257452055307 0 -0.33741912328976048 -0.089667775123333682 0 -0.34238226610810152 -0.079933661751766638 0 -0.34851076227966599 -0.091831088926734528 0 -0.33741912328976048 -0.089667775123333682 0 -0.34238226610810152 -0.079933661751766638 0 -0.33382245907799329 -0.076125083978571928 0 -0.34238226610810152 -0.079933661751766638 0 -0.34210202407351292 -0.06815268994992979 0 -0.33382245907799329 -0.076125083978571928 0 -0.34210202407351292 -0.06815268994992979 0 -0.33092791559173418 -0.063800854682426258 0 -0.33382245907799329 -0.076125083978571928 0 -0.32545324845222362 -0.073491316971113482 0 -0.33092791559173418 -0.063800854682426258 0 -0.33382245907799329 -0.076125083978571928 0 -0.32545324845222362 -0.073491316971113482 0 -0.32794146080519798 -0.082631179786409131 0 -0.33382245907799329 -0.076125083978571928 0 -0.30219411960757259 -0.1117413481836929 0 -0.32580582681889009 -0.1145179367573451 0 -0.31806539372528148 -0.12526311014766009 0 -0.31186352125585293 -0.1005345627066096 0 -0.30219411960757259 -0.1117413481836929 0 -0.32535244094361931 -0.10178621855521371 0 -0.31186352125585293 -0.1005345627066096 0 -0.30035167349253961 -0.091591158933643904 0 -0.32718738123867369 -0.094465257452055307 0 -0.30219411960757259 -0.1117413481836929 0 -0.32535244094361931 -0.10178621855521371 0 -0.30219411960757259 -0.1117413481836929 0 -0.32580582681889009 -0.1145179367573451 0 -0.32535244094361931 -0.10178621855521371 0 -0.31186352125585293 -0.1005345627066096 0 -0.32535244094361931 -0.10178621855521371 0 -0.32718738123867369 -0.094465257452055307 0 -0.33741912328976048 -0.089667775123333682 0 -0.32535244094361931 -0.10178621855521371 0 -0.34851076227966599 -0.091831088926734528 0 -0.32535244094361931 -0.10178621855521371 0 -0.34851076227966599 -0.091831088926734528 0 -0.32535244094361931 -0.10178621855521371 0 -0.3366040461040552 -0.10769608076414849 0 -0.34851076227966599 -0.091831088926734528 0 -0.33741912328976048 -0.089667775123333682 0 -0.32535244094361931 -0.10178621855521371 0 -0.32718738123867369 -0.094465257452055307 0 -0.32580582681889009 -0.1145179367573451 0 -0.32535244094361931 -0.10178621855521371 0 -0.3366040461040552 -0.10769608076414849 0 -0.32580582681889009 -0.1145179367573451 0 -0.3366040461040552 -0.10769608076414849 0 -0.33986812370020442 -0.12129698897646719 0 -0.3366040461040552 -0.10769608076414849 0 -0.33986812370020442 -0.12129698897646719 0 -0.34661128810286501 -0.1104210366793793 0 -0.35122226856874511 -0.1205730769427855 0 -0.3611644318819025 -0.11045131672119179 0 -0.36183137456954623 -0.1255087755946237 0 -0.33986812370020442 -0.12129698897646719 0 -0.35122226856874511 -0.1205730769427855 0 -0.34654555374471219 -0.13214267710318109 0 -0.33986812370020442 -0.12129698897646719 0 -0.35122226856874511 -0.1205730769427855 0 -0.34661128810286501 -0.1104210366793793 0 -0.35122226856874511 -0.1205730769427855 0 -0.34661128810286501 -0.1104210366793793 0 -0.3611644318819025 -0.11045131672119179 0 -0.3366040461040552 -0.10769608076414849 0 -0.34661128810286501 -0.1104210366793793 0 -0.34851076227966599 -0.091831088926734528 0 -0.34661128810286501 -0.1104210366793793 0 -0.3611644318819025 -0.11045131672119179 0 -0.34851076227966599 -0.091831088926734528 0 -0.37128157453651872 -0.096258113454353061 0 -0.3611644318819025 -0.11045131672119179 0 -0.34851076227966599 -0.091831088926734528 0 -0.37128157453651872 -0.096258113454353061 0 -0.37394662130893241 -0.1184380252876308 0 -0.37128157453651872 -0.096258113454353061 0 -0.3611644318819025 -0.11045131672119179 0 -0.37394662130893241 -0.1184380252876308 0 -0.37394662130893241 -0.1184380252876308 0 -0.36183137456954623 -0.1255087755946237 0 -0.36807223829307961 -0.12954023301948939 0 -0.37394662130893241 -0.1184380252876308 0 -0.36183137456954623 -0.1255087755946237 0 -0.3611644318819025 -0.11045131672119179 0 -0.37394662130893241 -0.1184380252876308 0 -0.36183137456954623 -0.1255087755946237 0 -0.35120357012093828 -0.074422335227352837 0 -0.36861652776410492 -0.074078201621075396 0 -0.3532849464753447 -0.060611801193971249 0 -0.34210202407351292 -0.06815268994992979 0 -0.35120357012093828 -0.074422335227352837 0 -0.3532849464753447 -0.060611801193971249 0 -0.34238226610810152 -0.079933661751766638 0 -0.34210202407351292 -0.06815268994992979 0 -0.35120357012093828 -0.074422335227352837 0 -0.34238226610810152 -0.079933661751766638 0 -0.35120357012093828 -0.074422335227352837 0 -0.34851076227966599 -0.091831088926734528 0 -0.35120357012093828 -0.074422335227352837 0 -0.34851076227966599 -0.091831088926734528 0 -0.36861652776410492 -0.074078201621075396 0 -0.37128157453651872 -0.096258113454353061 0 -0.34851076227966599 -0.091831088926734528 0 -0.36861652776410492 -0.074078201621075396 0 -0.37128157453651872 -0.096258113454353061 0 -0.36861652776410492 -0.074078201621075396 0 -0.36861652776410492 -0.074078201621075396 0 -0.36595148099169211 -0.051898289787797633 0 -0.36861652776410492 -0.074078201621075396 0 -0.36595148099169211 -0.051898289787797633 0 -0.37526100441289201 -0.062157433877697968 0 -0.36457042775233461 -0.040404443074470407 0 -0.37526100441289201 -0.062157433877697968 0 -0.36595148099169211 -0.051898289787797633 0 -0.37526100441289201 -0.062157433877697968 0 -0.36595148099169211 -0.051898289787797633 0 -0.36457042775233461 -0.040404443074470407 0 -0.37526100441289201 -0.062157433877697968 0 -0.36861652776410492 -0.074078201621075396 0 -0.36595148099169211 -0.051898289787797633 0 -0.3532849464753447 -0.060611801193971249 0 -0.36457042775233461 -0.040404443074470407 0 -0.38327502475463332 -0.044007525031594087 0 -0.37526100441289201 -0.062157433877697968 0 -0.36595148099169211 -0.051898289787797633 0 -0.3532849464753447 -0.060611801193971249 0 -0.34952019885096081 -0.047169016502866257 0 -0.3532849464753447 -0.060611801193971249 0 -0.34952019885096081 -0.047169016502866257 0 -0.34099098706696518 -0.054022402865489871 0 -0.34210202407351292 -0.06815268994992979 0 -0.3532849464753447 -0.060611801193971249 0 -0.34099098706696518 -0.054022402865489871 0 -0.36595148099169211 -0.051898289787797633 0 -0.34952019885096081 -0.047169016502866257 0 -0.346511017270623 -0.0304747958595467 0 -0.34952019885096081 -0.047169016502866257 0 -0.346511017270623 -0.0304747958595467 0 -0.33983277149798891 -0.041146736284023558 0 -0.36595148099169211 -0.051898289787797633 0 -0.346511017270623 -0.0304747958595467 0 -0.36595148099169211 -0.051898289787797633 0 -0.36457042775233461 -0.040404443074470407 0 -0.346511017270623 -0.0304747958595467 0 -0.36457042775233461 -0.040404443074470407 0 -0.37503026422349067 -0.028990526449197161 0 -0.38327502475463332 -0.044007525031594087 0 -0.36595148099169211 -0.051898289787797633 0 -0.36457042775233461 -0.040404443074470407 0 -0.36457042775233461 -0.040404443074470407 0 -0.36215507458007867 -0.020302611856566819 0 -0.37503026422349067 -0.028990526449197161 0 -0.36215507458007867 -0.020302611856566819 0 -0.37925483984040131 -0.014166985462018691 0 -0.37503026422349067 -0.028990526449197161 0 -0.36457042775233461 -0.040404443074470407 0 -0.36215507458007867 -0.020302611856566819 0 -0.35204712530216348 -0.014922255193096159 0 -0.36457042775233461 -0.040404443074470407 0 -0.36215507458007867 -0.020302611856566819 0 -0.35204712530216348 -0.014922255193096159 0 -0.37405007168609422 0.0038964993754090939 0 -0.35204712530216348 -0.014922255193096159 0 -0.35650028279266027 0.0036910959581561401 0 -0.37405007168609422 0.0038964993754090939 0 -0.36215507458007867 -0.020302611856566819 0 -0.37925483984040131 -0.014166985462018691 0 -0.37405007168609422 0.0038964993754090939 0 -0.36215507458007867 -0.020302611856566819 0 -0.35204712530216348 -0.014922255193096159 0 -0.37405007168609422 0.0038964993754090939 0 -0.35204712530216348 -0.014922255193096159 0 -0.34099450962819489 0.0075674060049263012 0 -0.35650028279266027 0.0036910959581561401 0 -0.35204712530216348 -0.014922255193096159 0 -0.34099450962819489 0.0075674060049263012 0 -0.36457042775233461 -0.040404443074470407 0 -0.35204712530216348 -0.014922255193096159 0 -0.346511017270623 -0.0304747958595467 0 -0.36457042775233461 -0.040404443074470407 0 -0.35204712530216348 -0.014922255193096159 0 -0.35204712530216348 -0.014922255193096159 0 -0.32912359063155983 -0.034528373632023351 0 -0.35204712530216348 -0.014922255193096159 0 -0.346511017270623 -0.0304747958595467 0 -0.32912359063155983 -0.034528373632023351 0 -0.35204712530216348 -0.014922255193096159 0 -0.33030188283952477 -0.0135480309778108 0 -0.32912359063155983 -0.034528373632023351 0 -0.35204712530216348 -0.014922255193096159 0 -0.33030188283952477 -0.0135480309778108 0 -0.34099450962819489 0.0075674060049263012 0 -0.33030188283952477 -0.0135480309778108 0 -0.31884765557223532 -0.0027971671293464469 0 -0.34099450962819489 0.0075674060049263012 0 -0.31247419868770709 -0.0234553977025951 0 -0.33030188283952477 -0.0135480309778108 0 -0.31884765557223532 -0.0027971671293464469 0 -0.31247419868770709 -0.0234553977025951 0 -0.33030188283952477 -0.0135480309778108 0 -0.32912359063155983 -0.034528373632023351 0 -0.31471516469226918 -0.044794174713565213 0 -0.32874245462047208 -0.050404100938188402 0 -0.32912359063155983 -0.034528373632023351 0 -0.31247419868770709 -0.0234553977025951 0 -0.31471516469226918 -0.044794174713565213 0 -0.32912359063155983 -0.034528373632023351 0 -0.31686429824231588 -0.064132063451602189 0 -0.31471516469226918 -0.044794174713565213 0 -0.32874245462047208 -0.050404100938188402 0 -0.31686429824231588 -0.064132063451602189 0 -0.33092791559173418 -0.063800854682426258 0 -0.32874245462047208 -0.050404100938188402 0 -0.33092791559173418 -0.063800854682426258 0 -0.32874245462047208 -0.050404100938188402 0 -0.34099098706696518 -0.054022402865489871 0 -0.34210202407351292 -0.06815268994992979 0 -0.33092791559173418 -0.063800854682426258 0 -0.34099098706696518 -0.054022402865489871 0 -0.32874245462047208 -0.050404100938188402 0 -0.34099098706696518 -0.054022402865489871 0 -0.33983277149798891 -0.041146736284023558 0 -0.34952019885096081 -0.047169016502866257 0 -0.34099098706696518 -0.054022402865489871 0 -0.33983277149798891 -0.041146736284023558 0 -0.32874245462047208 -0.050404100938188402 0 -0.33983277149798891 -0.041146736284023558 0 -0.32912359063155983 -0.034528373632023351 0 -0.346511017270623 -0.0304747958595467 0 -0.33983277149798891 -0.041146736284023558 0 -0.32912359063155983 -0.034528373632023351 0 -0.30307646981606179 -0.23918473291679651 0 -0.30490563932189918 -0.23763914266308259 0 -0.3224546209801864 -0.24875777641678209 0 -0.30307646981606179 -0.23918473291679651 0 -0.30319544545079558 -0.2365556029072802 0 -0.29179103306546023 -0.2373567777044176 0 -0.30307646981606179 -0.23918473291679651 0 -0.30490563932189918 -0.23763914266308259 0 -0.30307646981606179 -0.23918473291679651 0 -0.30319544545079558 -0.2365556029072802 0 -0.30307646981606179 -0.23918473291679651 0 -0.30319544545079558 -0.2365556029072802 0 -0.30490563932189918 -0.23763914266308259 0 -0.30319544545079558 -0.2365556029072802 0 -0.30490563932189918 -0.23763914266308259 0 -0.30490563932189918 -0.23763914266308259 0 -0.30883385215078651 -0.22800265857723209 0 -0.31476690758643561 -0.22423902978598459 0 -0.30319544545079558 -0.2365556029072802 0 -0.30400251996271899 -0.21872082670344239 0 -0.30319544545079558 -0.2365556029072802 0 -0.30701468310002789 -0.22410568579318371 0 -0.30400251996271899 -0.21872082670344239 0 -0.30319544545079558 -0.2365556029072802 0 -0.30883385215078651 -0.22800265857723209 0 -0.30701468310002789 -0.22410568579318371 0 -0.30319544545079558 -0.2365556029072802 0 -0.30490563932189918 -0.23763914266308259 0 -0.30883385215078651 -0.22800265857723209 0 -0.30319544545079558 -0.2365556029072802 0 -0.28764435253005433 -0.2267027858024292 0 -0.30400251996271899 -0.21872082670344239 0 -0.30883385215078651 -0.22800265857723209 0 -0.31203356449507152 -0.21999505277771 0 -0.30701468310002789 -0.22410568579318371 0 -0.30883385215078651 -0.22800265857723209 0 -0.31203356449507152 -0.21999505277771 0 -0.31476690758643561 -0.22423902978598459 0 -0.31203356449507152 -0.21999505277771 0 -0.30701468310002789 -0.22410568579318371 0 -0.30700803344076733 -0.2172542880002539 0 -0.30701468310002789 -0.22410568579318371 0 -0.30400251996271899 -0.21872082670344239 0 -0.30700803344076733 -0.2172542880002539 0 -0.30319544545079558 -0.2365556029072802 0 -0.28764435253005433 -0.2267027858024292 0 -0.29179103306546023 -0.2373567777044176 0 -0.28764435253005433 -0.2267027858024292 0 -0.29690724572616839 -0.21688143576925081 0 -0.30400251996271899 -0.21872082670344239 0 -0.28764435253005433 -0.2267027858024292 0 -0.30400251996271899 -0.21872082670344239 0 -0.30319544545079558 -0.2365556029072802 0 -0.28764435253005433 -0.2267027858024292 0 -0.28764435253005433 -0.2267027858024292 0 -0.29083591955261567 -0.21558731857259211 0 -0.29690724572616839 -0.21688143576925081 0 -0.28497911609081938 -0.22155315836616721 0 -0.28764435253005433 -0.2267027858024292 0 -0.29083591955261567 -0.21558731857259211 0 -0.28438818945555822 -0.22463975528746241 0 -0.28497911609081938 -0.22155315836616721 0 -0.28764435253005433 -0.2267027858024292 0 -0.28438818945555822 -0.22463975528746241 0 -0.28764435253005433 -0.2267027858024292 0 -0.28438818945555822 -0.22463975528746241 0 -0.28497911609081938 -0.22155315836616721 0 -0.28764435253005433 -0.2267027858024292 0 -0.28361699824052578 -0.22866793118613321 0 -0.29179103306546023 -0.2373567777044176 0 -0.28438818945555822 -0.22463975528746241 0 -0.28764435253005433 -0.2267027858024292 0 -0.28361699824052578 -0.22866793118613321 0 -0.28764435253005433 -0.2267027858024292 0 -0.28361699824052578 -0.22866793118613321 0 -0.28438818945555822 -0.22463975528746241 0 -0.28361699824052578 -0.22866793118613321 0 -0.28361699824052578 -0.22866793118613321 0 -0.29179103306546023 -0.2373567777044176 0 -0.28053827580960827 -0.2447490732598582 0 -0.29026801159737442 -0.25000747412518948 0 -0.29268791555190632 -0.26029070854663089 0 -0.30307646981606179 -0.23918473291679651 0 -0.28361699824052578 -0.22866793118613321 0 -0.28053827580960827 -0.2447490732598582 0 -0.29026801159737442 -0.25000747412518948 0 -0.30307646981606179 -0.23918473291679651 0 -0.29179103306546023 -0.2373567777044176 0 -0.29026801159737442 -0.25000747412518948 0 -0.30307646981606179 -0.23918473291679651 0 -0.29026801159737442 -0.25000747412518948 0 -0.29179103306546023 -0.2373567777044176 0 -0.28053827580960827 -0.2447490732598582 0 -0.28361699824052578 -0.22866793118613321 0 -0.28053827580960827 -0.2447490732598582 0 -0.2604980440622664 -0.23994881258203651 0 -0.26935117868715769 -0.25292376973431518 0 -0.28053827580960827 -0.2447490732598582 0 -0.2604980440622664 -0.23994881258203651 0 -0.24957050408421699 -0.22624871205991451 0 -0.27117482793238129 -0.22419797719929641 0 -0.25308690854675991 -0.21453893093298909 0 -0.24957050408421699 -0.22624871205991451 0 -0.2604980440622664 -0.23994881258203651 0 -0.27117482793238129 -0.22419797719929641 0 -0.28361699824052578 -0.22866793118613321 0 -0.2604980440622664 -0.23994881258203651 0 -0.27117482793238129 -0.22419797719929641 0 -0.28361699824052578 -0.22866793118613321 0 -0.2604980440622664 -0.23994881258203651 0 -0.28438818945555822 -0.22463975528746241 0 -0.28497911609081938 -0.22155315836616721 0 -0.26513163253806271 -0.21243924087061611 0 -0.28438818945555822 -0.22463975528746241 0 -0.27117482793238129 -0.22419797719929641 0 -0.26513163253806271 -0.21243924087061611 0 -0.28438818945555822 -0.22463975528746241 0 -0.28361699824052578 -0.22866793118613321 0 -0.27117482793238129 -0.22419797719929641 0 -0.28497911609081938 -0.22155315836616721 0 -0.26513163253806271 -0.21243924087061611 0 -0.28220867198230909 -0.21024025313249189 0 -0.28438818945555822 -0.22463975528746241 0 -0.26513163253806271 -0.21243924087061611 0 -0.26513163253806271 -0.21243924087061611 0 -0.27259866279921041 -0.19985634903603861 0 -0.28220867198230909 -0.21024025313249189 0 -0.27259866279921041 -0.19985634903603861 0 -0.28677591739037972 -0.20132306244599329 0 -0.28220867198230909 -0.21024025313249189 0 -0.24587507562056679 -0.20023872645376989 0 -0.26513163253806271 -0.21243924087061611 0 -0.25308690854675991 -0.21453893093298909 0 -0.24587507562056679 -0.20023872645376989 0 -0.26513163253806271 -0.21243924087061611 0 -0.27117482793238129 -0.22419797719929641 0 -0.26513163253806271 -0.21243924087061611 0 -0.25308690854675991 -0.21453893093298909 0 -0.24587507562056679 -0.20023872645376989 0 -0.26513163253806271 -0.21243924087061611 0 -0.2564189821357617 -0.19451288400164549 0 -0.2564189821357617 -0.19451288400164549 0 -0.26580965507164889 -0.19049743962390961 0 -0.27259866279921041 -0.19985634903603861 0 -0.26513163253806271 -0.21243924087061611 0 -0.2564189821357617 -0.19451288400164549 0 -0.27259866279921041 -0.19985634903603861 0 -0.24818761239879369 -0.18578340585910769 0 -0.2564189821357617 -0.19451288400164549 0 -0.26580965507164889 -0.19049743962390961 0 -0.24587507562056679 -0.20023872645376989 0 -0.24818761239879369 -0.18578340585910769 0 -0.2564189821357617 -0.19451288400164549 0 -0.26580965507164889 -0.19049743962390961 0 -0.27259866279921041 -0.19985634903603861 0 -0.2788110251674828 -0.1903645690661771 0 -0.27259866279921041 -0.19985634903603861 0 -0.2788110251674828 -0.1903645690661771 0 -0.28677591739037972 -0.20132306244599329 0 -0.2788110251674828 -0.1903645690661771 0 -0.29355626646486432 -0.1920164121940838 0 -0.28677591739037972 -0.20132306244599329 0 -0.29355626646486432 -0.1920164121940838 0 -0.28677591739037972 -0.20132306244599329 0 -0.29824671203448849 -0.20327595525253589 0 -0.28677591739037972 -0.20132306244599329 0 -0.28220867198230909 -0.21024025313249189 0 -0.29116921466824069 -0.2082228201567039 0 -0.28497911609081938 -0.22155315836616721 0 -0.28220867198230909 -0.21024025313249189 0 -0.29083591955261567 -0.21558731857259211 0 -0.28220867198230909 -0.21024025313249189 0 -0.29083591955261567 -0.21558731857259211 0 -0.29116921466824069 -0.2082228201567039 0 -0.29083591955261567 -0.21558731857259211 0 -0.29116921466824069 -0.2082228201567039 0 -0.29777885238141039 -0.21068751137990629 0 -0.29083591955261567 -0.21558731857259211 0 -0.29777885238141039 -0.21068751137990629 0 -0.29690724572616839 -0.21688143576925081 0 -0.28677591739037972 -0.20132306244599329 0 -0.29116921466824069 -0.2082228201567039 0 -0.29824671203448849 -0.20327595525253589 0 -0.29116921466824069 -0.2082228201567039 0 -0.29824671203448849 -0.20327595525253589 0 -0.29777885238141039 -0.21068751137990629 0 -0.29824671203448849 -0.20327595525253589 0 -0.29777885238141039 -0.21068751137990629 0 -0.30255538179288122 -0.2081072578318203 0 -0.29777885238141039 -0.21068751137990629 0 -0.30255538179288122 -0.2081072578318203 0 -0.30427458420404269 -0.21270873638788401 0 -0.29824671203448849 -0.20327595525253589 0 -0.30255538179288122 -0.2081072578318203 0 -0.30538773124007529 -0.20459189077144341 0 -0.29777885238141039 -0.21068751137990629 0 -0.29690724572616839 -0.21688143576925081 0 -0.30427458420404269 -0.21270873638788401 0 -0.30427458420404269 -0.21270873638788401 0 -0.30400251996271899 -0.21872082670344239 0 -0.29690724572616839 -0.21688143576925081 0 -0.30427458420404269 -0.21270873638788401 0 -0.30400251996271899 -0.21872082670344239 0 -0.30427458420404269 -0.21270873638788401 0 -0.30400251996271899 -0.21872082670344239 0 -0.30700803344076733 -0.2172542880002539 0 -0.30400251996271899 -0.21872082670344239 0 -0.30700803344076733 -0.2172542880002539 0 -0.30427458420404269 -0.21270873638788401 0 -0.30805400439194819 -0.21354063952840729 0 -0.30738177393931748 -0.20942637918578419 0 -0.30427458420404269 -0.21270873638788401 0 -0.30700803344076733 -0.2172542880002539 0 -0.30805400439194819 -0.21354063952840729 0 -0.30805400439194819 -0.21354063952840729 0 -0.31183331662734232 -0.21202861491245811 0 -0.30738177393931748 -0.20942637918578419 0 -0.30805400439194819 -0.21354063952840729 0 -0.31183331662734232 -0.21202861491245811 0 -0.31098966989758792 -0.21593131394609011 0 -0.31203356449507152 -0.21999505277771 0 -0.30700803344076733 -0.2172542880002539 0 -0.31098966989758792 -0.21593131394609011 0 -0.30700803344076733 -0.2172542880002539 0 -0.30805400439194819 -0.21354063952840729 0 -0.31098966989758792 -0.21593131394609011 0 -0.30538773124007529 -0.20459189077144341 0 -0.30738177393931748 -0.20942637918578419 0 -0.31218562537961603 -0.2055811356826921 0 -0.30255538179288122 -0.2081072578318203 0 -0.30427458420404269 -0.21270873638788401 0 -0.30738177393931748 -0.20942637918578419 0 -0.30255538179288122 -0.2081072578318203 0 -0.30538773124007529 -0.20459189077144341 0 -0.30738177393931748 -0.20942637918578419 0 -0.31183331662734232 -0.21202861491245811 0 -0.30738177393931748 -0.20942637918578419 0 -0.31218562537961603 -0.2055811356826921 0 -0.30635852339075648 -0.19667345798899871 0 -0.30244996641685878 -0.18023241238610679 0 -0.31390840175321572 -0.18670344007347461 0 -0.29355626646486432 -0.1920164121940838 0 -0.30635852339075648 -0.19667345798899871 0 -0.30244996641685878 -0.18023241238610679 0 -0.31218562537961603 -0.2055811356826921 0 -0.30635852339075648 -0.19667345798899871 0 -0.31669138148010961 -0.19664495039320271 0 -0.30538773124007529 -0.20459189077144341 0 -0.31218562537961603 -0.2055811356826921 0 -0.30635852339075648 -0.19667345798899871 0 -0.30635852339075648 -0.19667345798899871 0 -0.31390840175321572 -0.18670344007347461 0 -0.31669138148010961 -0.19664495039320271 0 -0.29824671203448849 -0.20327595525253589 0 -0.30538773124007529 -0.20459189077144341 0 -0.30635852339075648 -0.19667345798899871 0 -0.29355626646486432 -0.1920164121940838 0 -0.29824671203448849 -0.20327595525253589 0 -0.30635852339075648 -0.19667345798899871 0 -0.30244996641685878 -0.18023241238610679 0 -0.31903449380644539 -0.17433502997206349 0 -0.31390840175321572 -0.18670344007347461 0 -0.30244996641685878 -0.18023241238610679 0 -0.31470786798060102 -0.15885309362825931 0 -0.31903449380644539 -0.17433502997206349 0 -0.30244996641685878 -0.18023241238610679 0 -0.2967689730437223 -0.1626475234078909 0 -0.31470786798060102 -0.15885309362825931 0 -0.2967689730437223 -0.1626475234078909 0 -0.28296457936545338 -0.17823566894618151 0 -0.28312650306203829 -0.15552325800338471 0 -0.29355626646486432 -0.1920164121940838 0 -0.30244996641685878 -0.18023241238610679 0 -0.28296457936545338 -0.17823566894618151 0 -0.30244996641685878 -0.18023241238610679 0 -0.2967689730437223 -0.1626475234078909 0 -0.28296457936545338 -0.17823566894618151 0 -0.2788110251674828 -0.1903645690661771 0 -0.29355626646486432 -0.1920164121940838 0 -0.28296457936545338 -0.17823566894618151 0 -0.28296457936545338 -0.17823566894618151 0 -0.27116106991334032 -0.1802584821508558 0 -0.2656570577304167 -0.17065333193124699 0 -0.2788110251674828 -0.1903645690661771 0 -0.28296457936545338 -0.17823566894618151 0 -0.27116106991334032 -0.1802584821508558 0 -0.26580965507164889 -0.19049743962390961 0 -0.2788110251674828 -0.1903645690661771 0 -0.27116106991334032 -0.1802584821508558 0 -0.24818761239879369 -0.18578340585910769 0 -0.26580965507164889 -0.19049743962390961 0 -0.27116106991334032 -0.1802584821508558 0 -0.24818761239879369 -0.18578340585910769 0 -0.27116106991334032 -0.1802584821508558 0 -0.2656570577304167 -0.17065333193124699 0 -0.24818761239879369 -0.18578340585910769 0 -0.2552179183639004 -0.15967376237987591 0 -0.2656570577304167 -0.17065333193124699 0 -0.24818761239879369 -0.18578340585910769 0 -0.2656570577304167 -0.17065333193124699 0 -0.24818761239879369 -0.18578340585910769 0 -0.2552179183639004 -0.15967376237987591 0 -0.2552179183639004 -0.15967376237987591 0 -0.26819407333907602 -0.1587359448218664 0 -0.2656570577304167 -0.17065333193124699 0 -0.2656570577304167 -0.17065333193124699 0 -0.28312650306203829 -0.15552325800338471 0 -0.26819407333907602 -0.1587359448218664 0 -0.2656570577304167 -0.17065333193124699 0 -0.28312650306203829 -0.15552325800338471 0 -0.28296457936545338 -0.17823566894618151 0 -0.2656570577304167 -0.17065333193124699 0 -0.28312650306203829 -0.15552325800338471 0 -0.26877481419994859 -0.14909342697295791 0 -0.28289367221150541 -0.13774327478398479 0 -0.28312650306203829 -0.15552325800338471 0 -0.26819407333907602 -0.1587359448218664 0 -0.26877481419994859 -0.14909342697295791 0 -0.28312650306203829 -0.15552325800338471 0 -0.24642263758421251 -0.14871115227158291 0 -0.2552179183639004 -0.15967376237987591 0 -0.25321354566815257 -0.14177662786902151 0 -0.2552179183639004 -0.15967376237987591 0 -0.26224822432900879 -0.13356411890064471 0 -0.2552179183639004 -0.15967376237987591 0 -0.25321354566815257 -0.14177662786902151 0 -0.26224822432900879 -0.13356411890064471 0 -0.2552179183639004 -0.15967376237987591 0 -0.26877481419994859 -0.14909342697295791 0 -0.26224822432900879 -0.13356411890064471 0 -0.2552179183639004 -0.15967376237987591 0 -0.26819407333907602 -0.1587359448218664 0 -0.26877481419994859 -0.14909342697295791 0 -0.24630147112816239 -0.1352824983523529 0 -0.24792423294045909 -0.125119138346176 0 -0.25587747693547908 -0.13165160744065121 0 -0.24792423294045909 -0.125119138346176 0 -0.25488118593265119 -0.12246455468667369 0 -0.25587747693547908 -0.13165160744065121 0 -0.25321354566815257 -0.14177662786902151 0 -0.25587747693547908 -0.13165160744065121 0 -0.26224822432900879 -0.13356411890064471 0 -0.24630147112816239 -0.1352824983523529 0 -0.25321354566815257 -0.14177662786902151 0 -0.25587747693547908 -0.13165160744065121 0 -0.26877481419994859 -0.14909342697295791 0 -0.26224822432900879 -0.13356411890064471 0 -0.28289367221150541 -0.13774327478398479 0 -0.27903579827152591 -0.12169647781217199 0 -0.26224822432900879 -0.13356411890064471 0 -0.28289367221150541 -0.13774327478398479 0 -0.27903579827152591 -0.12169647781217199 0 -0.25587747693547908 -0.13165160744065121 0 -0.27903579827152591 -0.12169647781217199 0 -0.25587747693547908 -0.13165160744065121 0 -0.26224822432900879 -0.13356411890064471 0 -0.28289367221150541 -0.13774327478398479 0 -0.29999719472155412 -0.12679035439911471 0 -0.30059594839365988 -0.1403931840755224 0 -0.27903579827152591 -0.12169647781217199 0 -0.28289367221150541 -0.13774327478398479 0 -0.29999719472155412 -0.12679035439911471 0 -0.2967689730437223 -0.1626475234078909 0 -0.28312650306203829 -0.15552325800338471 0 -0.30059594839365988 -0.1403931840755224 0 -0.28312650306203829 -0.15552325800338471 0 -0.30059594839365988 -0.1403931840755224 0 -0.28289367221150541 -0.13774327478398479 0 -0.28312650306203829 -0.15552325800338471 0 -0.30059594839365988 -0.1403931840755224 0 -0.30059594839365988 -0.1403931840755224 0 -0.31643592088481348 -0.141354554660966 0 -0.31470786798060102 -0.15885309362825931 0 -0.2967689730437223 -0.1626475234078909 0 -0.30059594839365988 -0.1403931840755224 0 -0.31470786798060102 -0.15885309362825931 0 -0.30059594839365988 -0.1403931840755224 0 -0.31806539372528148 -0.12526311014766009 0 -0.31643592088481348 -0.141354554660966 0 -0.30059594839365988 -0.1403931840755224 0 -0.31806539372528148 -0.12526311014766009 0 -0.29999719472155412 -0.12679035439911471 0 -0.30059594839365988 -0.1403931840755224 0 -0.31806539372528148 -0.12526311014766009 0 -0.31806539372528148 -0.12526311014766009 0 -0.31643592088481348 -0.141354554660966 0 -0.33237447343971172 -0.140908830792422 0 -0.32580582681889009 -0.1145179367573451 0 -0.31806539372528148 -0.12526311014766009 0 -0.33237447343971172 -0.140908830792422 0 -0.31643592088481348 -0.141354554660966 0 -0.33237447343971172 -0.140908830792422 0 -0.31470786798060102 -0.15885309362825931 0 -0.33237447343971172 -0.140908830792422 0 -0.33894312006053318 -0.16729972482749869 0 -0.33237447343971172 -0.140908830792422 0 -0.33894312006053318 -0.16729972482749869 0 -0.31470786798060102 -0.15885309362825931 0 -0.33237447343971172 -0.140908830792422 0 -0.35250333200542322 -0.1507275757581315 0 -0.33894312006053318 -0.16729972482749869 0 -0.33986812370020442 -0.12129698897646719 0 -0.33237447343971172 -0.140908830792422 0 -0.34654555374471219 -0.13214267710318109 0 -0.32580582681889009 -0.1145179367573451 0 -0.33986812370020442 -0.12129698897646719 0 -0.33237447343971172 -0.140908830792422 0 -0.32580582681889009 -0.1145179367573451 0 -0.33237447343971172 -0.140908830792422 0 -0.34654555374471219 -0.13214267710318109 0 -0.36183137456954623 -0.1255087755946237 0 -0.36239536488145452 -0.13728548318972161 0 -0.34654555374471219 -0.13214267710318109 0 -0.36239536488145452 -0.13728548318972161 0 -0.35250333200542322 -0.1507275757581315 0 -0.35122226856874511 -0.1205730769427855 0 -0.34654555374471219 -0.13214267710318109 0 -0.36183137456954623 -0.1255087755946237 0 -0.36183137456954623 -0.1255087755946237 0 -0.36239536488145452 -0.13728548318972161 0 -0.36807223829307961 -0.12954023301948939 0 -0.37394662130893241 -0.1184380252876308 0 -0.37411559241238562 -0.13692864800598151 0 -0.37639281248125978 -0.13808017742922879 0 -0.37394662130893241 -0.1184380252876308 0 -0.37411559241238562 -0.13692864800598151 0 -0.36807223829307961 -0.12954023301948939 0 -0.36239536488145452 -0.13728548318972161 0 -0.37639281248125978 -0.13808017742922879 0 -0.36239536488145452 -0.13728548318972161 0 -0.37411559241238562 -0.13692864800598151 0 -0.36807223829307961 -0.12954023301948939 0 -0.36239536488145452 -0.13728548318972161 0 -0.37411559241238562 -0.13692864800598151 0 -0.37639281248125978 -0.13808017742922879 0 -0.36239536488145452 -0.13728548318972161 0 -0.37143710926894707 -0.14317609053639341 0 -0.37639281248125978 -0.13808017742922879 0 -0.36774021055547251 -0.1497502898281928 0 -0.37294295394531263 -0.15990989194725011 0 -0.37754319927430252 -0.1521234378785711 0 -0.36774021055547251 -0.1497502898281928 0 -0.37489839647815942 -0.14660936321772289 0 -0.37754319927430252 -0.1521234378785711 0 -0.36239536488145452 -0.13728548318972161 0 -0.36774021055547251 -0.1497502898281928 0 -0.37143710926894707 -0.14317609053639341 0 -0.36774021055547251 -0.1497502898281928 0 -0.37489839647815942 -0.14660936321772289 0 -0.37143710926894707 -0.14317609053639341 0 -0.37143710926894707 -0.14317609053639341 0 -0.37673159887360852 -0.14161606384273789 0 -0.37639281248125978 -0.13808017742922879 0 -0.37489839647815942 -0.14660936321772289 0 -0.37143710926894707 -0.14317609053639341 0 -0.37673159887360852 -0.14161606384273789 0 -0.36239536488145452 -0.13728548318972161 0 -0.36774021055547251 -0.1497502898281928 0 -0.35250333200542322 -0.1507275757581315 0 -0.36774021055547251 -0.1497502898281928 0 -0.35250333200542322 -0.1507275757581315 0 -0.36347284861807938 -0.1596135993735614 0 -0.33237447343971172 -0.140908830792422 0 -0.34654555374471219 -0.13214267710318109 0 -0.35250333200542322 -0.1507275757581315 0 -0.35250333200542322 -0.1507275757581315 0 -0.35572288797710921 -0.16905189448517491 0 -0.36347284861807938 -0.1596135993735614 0 -0.35250333200542322 -0.1507275757581315 0 -0.35572288797710921 -0.16905189448517491 0 -0.33894312006053318 -0.16729972482749869 0 -0.35572288797710921 -0.16905189448517491 0 -0.36347284861807938 -0.1596135993735614 0 -0.36776781785724783 -0.1711185022645357 0 -0.36776781785724783 -0.1711185022645357 0 -0.37294295394531263 -0.15990989194725011 0 -0.37873460248840712 -0.167513530520321 0 -0.36347284861807938 -0.1596135993735614 0 -0.36776781785724783 -0.1711185022645357 0 -0.37294295394531263 -0.15990989194725011 0 -0.36774021055547251 -0.1497502898281928 0 -0.36347284861807938 -0.1596135993735614 0 -0.37294295394531263 -0.15990989194725011 0 -0.36776781785724783 -0.1711185022645357 0 -0.36969394187757859 -0.18547564367389069 0 -0.37849900173202228 -0.17754990754507599 0 -0.35572288797710921 -0.16905189448517491 0 -0.36776781785724783 -0.1711185022645357 0 -0.36072084402368282 -0.179865151807029 0 -0.36776781785724783 -0.1711185022645357 0 -0.36969394187757859 -0.18547564367389069 0 -0.36072084402368282 -0.179865151807029 0 -0.36969394187757859 -0.18547564367389069 0 -0.36072084402368282 -0.179865151807029 0 -0.36080820507306133 -0.1889898169331172 0 -0.36072084402368282 -0.179865151807029 0 -0.35291602580866882 -0.18276674602362189 0 -0.36080820507306133 -0.1889898169331172 0 -0.35291602580866882 -0.18276674602362189 0 -0.33894312006053318 -0.16729972482749869 0 -0.34551176668135469 -0.19369061886257541 0 -0.35572288797710921 -0.16905189448517491 0 -0.35291602580866882 -0.18276674602362189 0 -0.33894312006053318 -0.16729972482749869 0 -0.35572288797710921 -0.16905189448517491 0 -0.36072084402368282 -0.179865151807029 0 -0.35291602580866882 -0.18276674602362189 0 -0.33894312006053318 -0.16729972482749869 0 -0.33434777278364408 -0.19014324930999729 0 -0.34551176668135469 -0.19369061886257541 0 -0.33894312006053318 -0.16729972482749869 0 -0.34551176668135469 -0.19369061886257541 0 -0.33894312006053318 -0.16729972482749869 0 -0.32500764367190838 -0.18563134962700159 0 -0.33434777278364408 -0.19014324930999729 0 -0.33894312006053318 -0.16729972482749869 0 -0.31470786798060102 -0.15885309362825931 0 -0.31903449380644539 -0.17433502997206349 0 -0.33894312006053318 -0.16729972482749869 0 -0.31903449380644539 -0.17433502997206349 0 -0.32500764367190838 -0.18563134962700159 0 -0.31903449380644539 -0.17433502997206349 0 -0.31390840175321572 -0.18670344007347461 0 -0.32500764367190838 -0.18563134962700159 0 -0.32602348571646012 -0.1985658746177659 0 -0.31669138148010961 -0.19664495039320271 0 -0.31868746172333529 -0.2071362604556013 0 -0.32500764367190838 -0.18563134962700159 0 -0.32602348571646012 -0.1985658746177659 0 -0.31669138148010961 -0.19664495039320271 0 -0.31390840175321572 -0.18670344007347461 0 -0.32500764367190838 -0.18563134962700159 0 -0.31669138148010961 -0.19664495039320271 0 -0.31218562537961603 -0.2055811356826921 0 -0.31669138148010961 -0.19664495039320271 0 -0.31868746172333529 -0.2071362604556013 0 -0.31218562537961603 -0.2055811356826921 0 -0.31604931036561162 -0.2107841532934405 0 -0.31868746172333529 -0.2071362604556013 0 -0.31183331662734232 -0.21202861491245811 0 -0.31218562537961603 -0.2055811356826921 0 -0.31604931036561162 -0.2107841532934405 0 -0.31604931036561162 -0.2107841532934405 0 -0.31868746172333529 -0.2071362604556013 0 -0.32131972605230669 -0.21200149166548199 0 -0.31203356449507152 -0.21999505277771 0 -0.31098966989758792 -0.21593131394609011 0 -0.31644306126004579 -0.21629406776431129 0 -0.31183331662734232 -0.21202861491245811 0 -0.31604931036561162 -0.2107841532934405 0 -0.31644306126004579 -0.21629406776431129 0 -0.31183331662734232 -0.21202861491245811 0 -0.31098966989758792 -0.21593131394609011 0 -0.31644306126004579 -0.21629406776431129 0 -0.31604931036561162 -0.2107841532934405 0 -0.31644306126004579 -0.21629406776431129 0 -0.32131972605230669 -0.21200149166548199 0 -0.31644306126004579 -0.21629406776431129 0 -0.32178517799502038 -0.2163742608001917 0 -0.32131972605230669 -0.21200149166548199 0 -0.31644306126004579 -0.21629406776431129 0 -0.32178517799502038 -0.2163742608001917 0 -0.31868521223030277 -0.2199854479057278 0 -0.32178517799502038 -0.2163742608001917 0 -0.32876752703885048 -0.2118405497944427 0 -0.32371036339359621 -0.2217497468709948 0 -0.32178517799502038 -0.2163742608001917 0 -0.32131972605230669 -0.21200149166548199 0 -0.32876752703885048 -0.2118405497944427 0 -0.32602348571646012 -0.1985658746177659 0 -0.31868746172333529 -0.2071362604556013 0 -0.32588064016218782 -0.2066871392179935 0 -0.31868746172333529 -0.2071362604556013 0 -0.32131972605230669 -0.21200149166548199 0 -0.32588064016218782 -0.2066871392179935 0 -0.32131972605230669 -0.21200149166548199 0 -0.32588064016218782 -0.2066871392179935 0 -0.32876752703885048 -0.2118405497944427 0 -0.3425150874652933 -0.20586035107890699 0 -0.32371036339359621 -0.2217497468709948 0 -0.3425150874652933 -0.20586035107890699 0 -0.33637235073572319 -0.21937348244944629 0 -0.32371036339359621 -0.2217497468709948 0 -0.32588064016218782 -0.2066871392179935 0 -0.32876752703885048 -0.2118405497944427 0 -0.33432659151953159 -0.2028856075997775 0 -0.32876752703885048 -0.2118405497944427 0 -0.3425150874652933 -0.20586035107890699 0 -0.33432659151953159 -0.2028856075997775 0 -0.32876752703885048 -0.2118405497944427 0 -0.3425150874652933 -0.20586035107890699 0 -0.32371036339359621 -0.2217497468709948 0 -0.34279121955127911 -0.2176215515630093 0 -0.3425150874652933 -0.20586035107890699 0 -0.33637235073572319 -0.21937348244944629 0 -0.33432659151953159 -0.2028856075997775 0 -0.33434777278364408 -0.19014324930999729 0 -0.34551176668135469 -0.19369061886257541 0 -0.3425150874652933 -0.20586035107890699 0 -0.33432659151953159 -0.2028856075997775 0 -0.34551176668135469 -0.19369061886257541 0 -0.32602348571646012 -0.1985658746177659 0 -0.33432659151953159 -0.2028856075997775 0 -0.33434777278364408 -0.19014324930999729 0 -0.32602348571646012 -0.1985658746177659 0 -0.32588064016218782 -0.2066871392179935 0 -0.33432659151953159 -0.2028856075997775 0 -0.32500764367190838 -0.18563134962700159 0 -0.32602348571646012 -0.1985658746177659 0 -0.33434777278364408 -0.19014324930999729 0 -0.35291602580866882 -0.18276674602362189 0 -0.34551176668135469 -0.19369061886257541 0 -0.35578933103627119 -0.1977032692263361 0 -0.34551176668135469 -0.19369061886257541 0 -0.35578933103627119 -0.1977032692263361 0 -0.35108492163819038 -0.20574847430635571 0 -0.3425150874652933 -0.20586035107890699 0 -0.34551176668135469 -0.19369061886257541 0 -0.35108492163819038 -0.20574847430635571 0 -0.35291602580866882 -0.18276674602362189 0 -0.35578933103627119 -0.1977032692263361 0 -0.36080820507306133 -0.1889898169331172 0 -0.36969394187757859 -0.18547564367389069 0 -0.36080820507306133 -0.1889898169331172 0 -0.36690754313008511 -0.1962182070780368 0 -0.35578933103627119 -0.1977032692263361 0 -0.36080820507306133 -0.1889898169331172 0 -0.36690754313008511 -0.1962182070780368 0 -0.35578933103627119 -0.1977032692263361 0 -0.36690754313008511 -0.1962182070780368 0 -0.3596632787684193 -0.20777533171011131 0 -0.36690754313008511 -0.1962182070780368 0 -0.37497602096562382 -0.2001978563966231 0 -0.36937834950968512 -0.20719457188935539 0 -0.36690754313008511 -0.1962182070780368 0 -0.37497602096562382 -0.2001978563966231 0 -0.37988381357897788 -0.19137794198795999 0 -0.36969394187757859 -0.18547564367389069 0 -0.36690754313008511 -0.1962182070780368 0 -0.37988381357897788 -0.19137794198795999 0 -0.37116342681033782 -0.2173382308974163 0 -0.36937834950968512 -0.20719457188935539 0 -0.36238644358549238 -0.21754377831046801 0 -0.37116342681033782 -0.2173382308974163 0 -0.36937834950968512 -0.20719457188935539 0 -0.37657669884692557 -0.21109580282912871 0 -0.37497602096562382 -0.2001978563966231 0 -0.36937834950968512 -0.20719457188935539 0 -0.37657669884692557 -0.21109580282912871 0 -0.36937834950968512 -0.20719457188935539 0 -0.3596632787684193 -0.20777533171011131 0 -0.36238644358549238 -0.21754377831046801 0 -0.36690754313008511 -0.1962182070780368 0 -0.36937834950968512 -0.20719457188935539 0 -0.3596632787684193 -0.20777533171011131 0 -0.36238644358549238 -0.21754377831046801 0 -0.35493700527277428 -0.21433640271082849 0 -0.3541624208740296 -0.22156277292153029 0 -0.3596632787684193 -0.20777533171011131 0 -0.36238644358549238 -0.21754377831046801 0 -0.35493700527277428 -0.21433640271082849 0 -0.35493700527277428 -0.21433640271082849 0 -0.34809306060502931 -0.21512487224937579 0 -0.3541624208740296 -0.22156277292153029 0 -0.3596632787684193 -0.20777533171011131 0 -0.35493700527277428 -0.21433640271082849 0 -0.35108492163819038 -0.20574847430635571 0 -0.35578933103627119 -0.1977032692263361 0 -0.3596632787684193 -0.20777533171011131 0 -0.35108492163819038 -0.20574847430635571 0 -0.3425150874652933 -0.20586035107890699 0 -0.35108492163819038 -0.20574847430635571 0 -0.34809306060502931 -0.21512487224937579 0 -0.34279121955127911 -0.2176215515630093 0 -0.3425150874652933 -0.20586035107890699 0 -0.34809306060502931 -0.21512487224937579 0 -0.35493700527277428 -0.21433640271082849 0 -0.35108492163819038 -0.20574847430635571 0 -0.34809306060502931 -0.21512487224937579 0 -0.34279121955127911 -0.2176215515630093 0 -0.34809306060502931 -0.21512487224937579 0 -0.34732082054951452 -0.22254173601874519 0 -0.34732082054951452 -0.22254173601874519 0 -0.34797210823384511 -0.22863018433020851 0 -0.34069096660884263 -0.22477391879939429 0 -0.34732082054951452 -0.22254173601874519 0 -0.34797210823384511 -0.22863018433020851 0 -0.35236503212635018 -0.2268074123683094 0 -0.34732082054951452 -0.22254173601874519 0 -0.35236503212635018 -0.2268074123683094 0 -0.3541624208740296 -0.22156277292153029 0 -0.34809306060502931 -0.21512487224937579 0 -0.34732082054951452 -0.22254173601874519 0 -0.3541624208740296 -0.22156277292153029 0 -0.34797210823384511 -0.22863018433020851 0 -0.35382336702583561 -0.23138395677244949 0 -0.34772140428886428 -0.23741161258709911 0 -0.34797210823384511 -0.22863018433020851 0 -0.34772140428886428 -0.23741161258709911 0 -0.34069096660884263 -0.22477391879939429 0 -0.34797210823384511 -0.22863018433020851 0 -0.35382336702583561 -0.23138395677244949 0 -0.35236503212635018 -0.2268074123683094 0 -0.35382336702583561 -0.23138395677244949 0 -0.35892306176260291 -0.22646593911023691 0 -0.3628227465854047 -0.23573215333663011 0 -0.35382336702583561 -0.23138395677244949 0 -0.35236503212635018 -0.2268074123683094 0 -0.35892306176260291 -0.22646593911023691 0 -0.36238644358549238 -0.21754377831046801 0 -0.3541624208740296 -0.22156277292153029 0 -0.35892306176260291 -0.22646593911023691 0 -0.35236503212635018 -0.2268074123683094 0 -0.3541624208740296 -0.22156277292153029 0 -0.35892306176260291 -0.22646593911023691 0 -0.37116342681033782 -0.2173382308974163 0 -0.36238644358549238 -0.21754377831046801 0 -0.36797836037850501 -0.22576556095203409 0 -0.36238644358549238 -0.21754377831046801 0 -0.35892306176260291 -0.22646593911023691 0 -0.36797836037850501 -0.22576556095203409 0 -0.35892306176260291 -0.22646593911023691 0 -0.36797836037850501 -0.22576556095203409 0 -0.3628227465854047 -0.23573215333663011 0 -0.37417528283493168 -0.23380290132228329 0 -0.36797836037850501 -0.22576556095203409 0 -0.3628227465854047 -0.23573215333663011 0 -0.37417528283493168 -0.23380290132228329 0 -0.36797836037850501 -0.22576556095203409 0 -0.37833256297506129 -0.22254100675501151 0 -0.37116342681033782 -0.2173382308974163 0 -0.36797836037850501 -0.22576556095203409 0 -0.37833256297506129 -0.22254100675501151 0 -0.37176924001865042 -0.2485901356174591 0 -0.3628227465854047 -0.23573215333663011 0 -0.34772140428886428 -0.23741161258709911 0 -0.37176924001865042 -0.2485901356174591 0 -0.35918484438993342 -0.2487827792123892 0 -0.35063868068570658 -0.24018160018812901 0 -0.37176924001865042 -0.2485901356174591 0 -0.34772140428886428 -0.23741161258709911 0 -0.37417528283493168 -0.23380290132228329 0 -0.37176924001865042 -0.2485901356174591 0 -0.3628227465854047 -0.23573215333663011 0 -0.34797017227484539 -0.25650650960666249 0 -0.3532267391408368 -0.25320540233443228 0 -0.35063868068570658 -0.24018160018812901 0 -0.37176924001865042 -0.2485901356174591 0 -0.34772140428886428 -0.23741161258709911 0 -0.35063868068570658 -0.24018160018812901 0 -0.3532267391408368 -0.25320540233443228 0 -0.35918484438993342 -0.2487827792123892 0 -0.35063868068570658 -0.24018160018812901 0 -0.34000360263847368 -0.25987641017048141 0 -0.35063868068570658 -0.24018160018812901 0 -0.34357164371513588 -0.24513225368432909 0 -0.35382336702583561 -0.23138395677244949 0 -0.3628227465854047 -0.23573215333663011 0 -0.34772140428886428 -0.23741161258709911 0 -0.34772140428886428 -0.23741161258709911 0 -0.35063868068570658 -0.24018160018812901 0 -0.34357164371513588 -0.24513225368432909 0 -0.34357164371513588 -0.24513225368432909 0 -0.33965117610215151 -0.24666884555447841 0 -0.33984335486048328 -0.24152279992145759 0 -0.33965117610215151 -0.24666884555447841 0 -0.33307358606610599 -0.2451527455302164 0 -0.33984335486048328 -0.24152279992145759 0 -0.33307358606610599 -0.2451527455302164 0 -0.33362544886184842 -0.23660607365458339 0 -0.32304117108664859 -0.23784722836021599 0 -0.33307358606610599 -0.2451527455302164 0 -0.33362544886184842 -0.23660607365458339 0 -0.33984335486048328 -0.24152279992145759 0 -0.34772140428886428 -0.23741161258709911 0 -0.33362544886184842 -0.23660607365458339 0 -0.33984335486048328 -0.24152279992145759 0 -0.34772140428886428 -0.23741161258709911 0 -0.34357164371513588 -0.24513225368432909 0 -0.33984335486048328 -0.24152279992145759 0 -0.34772140428886428 -0.23741161258709911 0 -0.33362544886184842 -0.23660607365458339 0 -0.32367356855907797 -0.22623308955673899 0 -0.34772140428886428 -0.23741161258709911 0 -0.33422649307561941 -0.22599504949657029 0 -0.32367356855907797 -0.22623308955673899 0 -0.34772140428886428 -0.23741161258709911 0 -0.34069096660884263 -0.22477391879939429 0 -0.33422649307561941 -0.22599504949657029 0 -0.34772140428886428 -0.23741161258709911 0 -0.32367356855907797 -0.22623308955673899 0 -0.34279121955127911 -0.2176215515630093 0 -0.34069096660884263 -0.22477391879939429 0 -0.33637235073572319 -0.21937348244944629 0 -0.34279121955127911 -0.2176215515630093 0 -0.34732082054951452 -0.22254173601874519 0 -0.34069096660884263 -0.22477391879939429 0 -0.34069096660884263 -0.22477391879939429 0 -0.33637235073572319 -0.21937348244944629 0 -0.33422649307561941 -0.22599504949657029 0 -0.33637235073572319 -0.21937348244944629 0 -0.33422649307561941 -0.22599504949657029 0 -0.32371036339359621 -0.2217497468709948 0 -0.30490563932189918 -0.23763914266308259 0 -0.32367356855907797 -0.22623308955673899 0 -0.32371036339359621 -0.2217497468709948 0 -0.30490563932189918 -0.23763914266308259 0 -0.32371036339359621 -0.2217497468709948 0 -0.31476690758643561 -0.22423902978598459 0 -0.33362544886184842 -0.23660607365458339 0 -0.32367356855907797 -0.22623308955673899 0 -0.32304117108664859 -0.23784722836021599 0 -0.30490563932189918 -0.23763914266308259 0 -0.32371036339359621 -0.2217497468709948 0 -0.30490563932189918 -0.23763914266308259 0 -0.32367356855907797 -0.22623308955673899 0 -0.32304117108664859 -0.23784722836021599 0 -0.33422649307561941 -0.22599504949657029 0 -0.32367356855907797 -0.22623308955673899 0 -0.32371036339359621 -0.2217497468709948 0 -0.32178517799502038 -0.2163742608001917 0 -0.32371036339359621 -0.2217497468709948 0 -0.31868521223030277 -0.2199854479057278 0 -0.32371036339359621 -0.2217497468709948 0 -0.31868521223030277 -0.2199854479057278 0 -0.31476690758643561 -0.22423902978598459 0 -0.31644306126004579 -0.21629406776431129 0 -0.31868521223030277 -0.2199854479057278 0 -0.31548218639296388 -0.22012839955843341 0 -0.31868521223030277 -0.2199854479057278 0 -0.31476690758643561 -0.22423902978598459 0 -0.31548218639296388 -0.22012839955843341 0 -0.31203356449507152 -0.21999505277771 0 -0.31644306126004579 -0.21629406776431129 0 -0.31548218639296388 -0.22012839955843341 0 -0.31203356449507152 -0.21999505277771 0 -0.31476690758643561 -0.22423902978598459 0 -0.31548218639296388 -0.22012839955843341 0 -0.30490563932189918 -0.23763914266308259 0 -0.3224546209801864 -0.24875777641678209 0 -0.32304117108664859 -0.23784722836021599 0 -0.31293921215208581 -0.25985783795421658 0 -0.30307646981606179 -0.23918473291679651 0 -0.3224546209801864 -0.24875777641678209 0 -0.30490563932189918 -0.23763914266308259 0 -0.3224546209801864 -0.24875777641678209 0 -0.33307358606610599 -0.2451527455302164 0 -0.3224546209801864 -0.24875777641678209 0 -0.32304117108664859 -0.23784722836021599 0 -0.425866359971175 -0.25578479492991019 0 -0.4270664780843122 -0.2383905323974673 0 -0.41273684682590889 -0.24819362120123339 0 -0.425866359971175 -0.25578479492991019 0 -0.4270664780843122 -0.2383905323974673 0 -0.43225563689115237 -0.24748709107291739 0 -0.425866359971175 -0.25578479492991019 0 -0.4270664780843122 -0.2383905323974673 0 -0.43983828166826378 -0.25471054225934309 0 -0.43225563689115237 -0.24748709107291739 0 -0.43707668311688308 -0.2387085461573322 0 -0.4270664780843122 -0.2383905323974673 0 -0.43707668311688308 -0.2387085461573322 0 -0.44240629669913362 -0.22789636116563 0 -0.4270664780843122 -0.2383905323974673 0 -0.43225563689115237 -0.24748709107291739 0 -0.43707668311688308 -0.2387085461573322 0 -0.4270664780843122 -0.2383905323974673 0 -0.43490025932529708 -0.22492306600834069 0 -0.44240629669913362 -0.22789636116563 0 -0.4270664780843122 -0.2383905323974673 0 -0.44240629669913362 -0.22789636116563 0 -0.4270664780843122 -0.2383905323974673 0 -0.43490025932529708 -0.22492306600834069 0 -0.42773852151620428 -0.22865007455456191 0 -0.43490025932529708 -0.22492306600834069 0 -0.42715160569146898 -0.2210983748212258 0 -0.43477389676882339 -0.21643325612616571 0 -0.43490025932529708 -0.22492306600834069 0 -0.43477389676882339 -0.21643325612616571 0 -0.44240629669913362 -0.22789636116563 0 -0.43490025932529708 -0.22492306600834069 0 -0.42715160569146898 -0.2210983748212258 0 -0.42773852151620428 -0.22865007455456191 0 -0.42715160569146898 -0.2210983748212258 0 -0.42773852151620428 -0.22865007455456191 0 -0.4190753908881602 -0.22832366856465511 0 -0.4270664780843122 -0.2383905323974673 0 -0.42773852151620428 -0.22865007455456191 0 -0.4270664780843122 -0.2383905323974673 0 -0.42773852151620428 -0.22865007455456191 0 -0.4190753908881602 -0.22832366856465511 0 -0.4190753908881602 -0.22832366856465511 0 -0.40878639762461227 -0.23138529478684711 0 -0.41460505087506377 -0.2367346863516101 0 -0.4190753908881602 -0.22832366856465511 0 -0.41873927208713441 -0.21883656057719919 0 -0.40977765408197458 -0.22344799284244629 0 -0.42715160569146898 -0.2210983748212258 0 -0.4190753908881602 -0.22832366856465511 0 -0.41873927208713441 -0.21883656057719919 0 -0.4190753908881602 -0.22832366856465511 0 -0.40977765408197458 -0.22344799284244629 0 -0.40878639762461227 -0.23138529478684711 0 -0.40977765408197458 -0.22344799284244629 0 -0.40878639762461227 -0.23138529478684711 0 -0.4008476943801767 -0.23077788478825029 0 -0.40878639762461227 -0.23138529478684711 0 -0.41460505087506377 -0.2367346863516101 0 -0.40441775700743821 -0.24158974065685759 0 -0.41460505087506377 -0.2367346863516101 0 -0.41273684682590889 -0.24819362120123339 0 -0.40441775700743821 -0.24158974065685759 0 -0.4270664780843122 -0.2383905323974673 0 -0.41460505087506377 -0.2367346863516101 0 -0.41273684682590889 -0.24819362120123339 0 -0.4270664780843122 -0.2383905323974673 0 -0.4190753908881602 -0.22832366856465511 0 -0.41460505087506377 -0.2367346863516101 0 -0.4270664780843122 -0.2383905323974673 0 -0.41273684682590889 -0.24819362120123339 0 -0.39840721556750652 -0.2579967100050008 0 -0.40441775700743821 -0.24158974065685759 0 -0.39503541333675052 -0.24574898680682239 0 -0.39840721556750652 -0.2579967100050008 0 -0.41273684682590889 -0.24819362120123339 0 -0.40441775700743821 -0.24158974065685759 0 -0.39840721556750652 -0.2579967100050008 0 -0.40441775700743821 -0.24158974065685759 0 -0.40878639762461227 -0.23138529478684711 0 -0.40441775700743821 -0.24158974065685759 0 -0.4008476943801767 -0.23077788478825029 0 -0.40441775700743821 -0.24158974065685759 0 -0.39221127524982802 -0.23626370827365301 0 -0.4008476943801767 -0.23077788478825029 0 -0.39221127524982802 -0.23626370827365301 0 -0.39503541333675052 -0.24574898680682239 0 -0.38681063058778642 -0.2439486319143877 0 -0.40441775700743821 -0.24158974065685759 0 -0.39221127524982802 -0.23626370827365301 0 -0.39503541333675052 -0.24574898680682239 0 -0.39061090947268728 -0.25132276844921941 0 -0.39503541333675052 -0.24574898680682239 0 -0.38681063058778642 -0.2439486319143877 0 -0.39061090947268728 -0.25132276844921941 0 -0.37176924001865042 -0.2485901356174591 0 -0.38681063058778642 -0.2439486319143877 0 -0.39221127524982802 -0.23626370827365301 0 -0.38681063058778642 -0.2439486319143877 0 -0.38176145305327869 -0.23869747515528239 0 -0.39221127524982802 -0.23626370827365301 0 -0.38176145305327869 -0.23869747515528239 0 -0.38384083657519702 -0.23088199864862879 0 -0.37417528283493168 -0.23380290132228329 0 -0.37176924001865042 -0.2485901356174591 0 -0.38176145305327869 -0.23869747515528239 0 -0.37417528283493168 -0.23380290132228329 0 -0.38176145305327869 -0.23869747515528239 0 -0.38384083657519702 -0.23088199864862879 0 -0.37176924001865042 -0.2485901356174591 0 -0.38681063058778642 -0.2439486319143877 0 -0.38176145305327869 -0.23869747515528239 0 -0.37417528283493168 -0.23380290132228329 0 -0.37833256297506129 -0.22254100675501151 0 -0.38384083657519702 -0.23088199864862879 0 -0.39221127524982802 -0.23626370827365301 0 -0.38384083657519702 -0.23088199864862879 0 -0.39000117993750261 -0.2235197097659469 0 -0.37833256297506129 -0.22254100675501151 0 -0.39000117993750261 -0.2235197097659469 0 -0.38331464141102722 -0.21553534480887521 0 -0.37833256297506129 -0.22254100675501151 0 -0.38384083657519702 -0.23088199864862879 0 -0.39000117993750261 -0.2235197097659469 0 -0.39000117993750261 -0.2235197097659469 0 -0.4008476943801767 -0.23077788478825029 0 -0.40110192686558122 -0.2175754951780558 0 -0.39221127524982802 -0.23626370827365301 0 -0.39000117993750261 -0.2235197097659469 0 -0.4008476943801767 -0.23077788478825029 0 -0.40977765408197458 -0.22344799284244629 0 -0.4008476943801767 -0.23077788478825029 0 -0.40110192686558122 -0.2175754951780558 0 -0.40110192686558122 -0.2175754951780558 0 -0.40236059466950469 -0.20410993379397799 0 -0.4117843359824383 -0.21205105097100321 0 -0.40236059466950469 -0.20410993379397799 0 -0.3918109171765457 -0.21117045971245171 0 -0.39150683903272721 -0.20003418319630831 0 -0.40110192686558122 -0.2175754951780558 0 -0.40236059466950469 -0.20410993379397799 0 -0.3918109171765457 -0.21117045971245171 0 -0.39000117993750261 -0.2235197097659469 0 -0.40110192686558122 -0.2175754951780558 0 -0.3918109171765457 -0.21117045971245171 0 -0.39000117993750261 -0.2235197097659469 0 -0.3918109171765457 -0.21117045971245171 0 -0.38331464141102722 -0.21553534480887521 0 -0.3918109171765457 -0.21117045971245171 0 -0.38241221574254608 -0.2040826817726179 0 -0.39150683903272721 -0.20003418319630831 0 -0.3918109171765457 -0.21117045971245171 0 -0.38331464141102722 -0.21553534480887521 0 -0.38241221574254608 -0.2040826817726179 0 -0.38331464141102722 -0.21553534480887521 0 -0.38241221574254608 -0.2040826817726179 0 -0.37657669884692557 -0.21109580282912871 0 -0.37497602096562382 -0.2001978563966231 0 -0.38241221574254608 -0.2040826817726179 0 -0.37657669884692557 -0.21109580282912871 0 -0.37116342681033782 -0.2173382308974163 0 -0.37833256297506129 -0.22254100675501151 0 -0.37657669884692557 -0.21109580282912871 0 -0.37833256297506129 -0.22254100675501151 0 -0.38331464141102722 -0.21553534480887521 0 -0.37657669884692557 -0.21109580282912871 0 -0.37497602096562382 -0.2001978563966231 0 -0.38241221574254608 -0.2040826817726179 0 -0.37988381357897788 -0.19137794198795999 0 -0.38241221574254608 -0.2040826817726179 0 -0.37988381357897788 -0.19137794198795999 0 -0.39150683903272721 -0.20003418319630831 0 -0.37988381357897788 -0.19137794198795999 0 -0.39259235623490912 -0.19042845197261249 0 -0.39031490297767341 -0.18159399674959681 0 -0.37988381357897788 -0.19137794198795999 0 -0.39259235623490912 -0.19042845197261249 0 -0.39150683903272721 -0.20003418319630831 0 -0.39259235623490912 -0.19042845197261249 0 -0.39150683903272721 -0.20003418319630831 0 -0.39912877881291281 -0.1949547065156633 0 -0.39259235623490912 -0.19042845197261249 0 -0.39912877881291281 -0.1949547065156633 0 -0.40062625082039471 -0.18601233173352649 0 -0.40236059466950469 -0.20410993379397799 0 -0.39150683903272721 -0.20003418319630831 0 -0.39912877881291281 -0.1949547065156633 0 -0.40236059466950469 -0.20410993379397799 0 -0.39912877881291281 -0.1949547065156633 0 -0.40841857841352081 -0.19263286843383659 0 -0.39912877881291281 -0.1949547065156633 0 -0.40841857841352081 -0.19263286843383659 0 -0.40062625082039471 -0.18601233173352649 0 -0.40841857841352081 -0.19263286843383659 0 -0.42164091695949879 -0.1872369858760595 0 -0.41079798193757011 -0.18292067407085361 0 -0.40841857841352081 -0.19263286843383659 0 -0.4160486937382869 -0.2004570341529136 0 -0.42164091695949879 -0.1872369858760595 0 -0.40236059466950469 -0.20410993379397799 0 -0.40841857841352081 -0.19263286843383659 0 -0.4160486937382869 -0.2004570341529136 0 -0.40236059466950469 -0.20410993379397799 0 -0.4160486937382869 -0.2004570341529136 0 -0.4117843359824383 -0.21205105097100321 0 -0.41873927208713441 -0.21883656057719919 0 -0.40977765408197458 -0.22344799284244629 0 -0.4117843359824383 -0.21205105097100321 0 -0.40977765408197458 -0.22344799284244629 0 -0.40110192686558122 -0.2175754951780558 0 -0.4117843359824383 -0.21205105097100321 0 -0.41873927208713441 -0.21883656057719919 0 -0.4117843359824383 -0.21205105097100321 0 -0.42420474224409399 -0.2094695964614551 0 -0.4160486937382869 -0.2004570341529136 0 -0.4117843359824383 -0.21205105097100321 0 -0.42420474224409399 -0.2094695964614551 0 -0.42715160569146898 -0.2210983748212258 0 -0.42420474224409399 -0.2094695964614551 0 -0.43477389676882339 -0.21643325612616571 0 -0.42715160569146898 -0.2210983748212258 0 -0.41873927208713441 -0.21883656057719919 0 -0.42420474224409399 -0.2094695964614551 0 -0.42420474224409399 -0.2094695964614551 0 -0.43477389676882339 -0.21643325612616571 0 -0.43340070680734383 -0.2073580966933285 0 -0.42420474224409399 -0.2094695964614551 0 -0.43340070680734383 -0.2073580966933285 0 -0.43223718885527718 -0.19663293372625659 0 -0.43340070680734383 -0.2073580966933285 0 -0.43223718885527718 -0.19663293372625659 0 -0.44635187930554648 -0.2066960246870419 0 -0.4160486937382869 -0.2004570341529136 0 -0.43223718885527718 -0.19663293372625659 0 -0.42164091695949879 -0.1872369858760595 0 -0.4160486937382869 -0.2004570341529136 0 -0.42420474224409399 -0.2094695964614551 0 -0.43223718885527718 -0.19663293372625659 0 -0.43223718885527718 -0.19663293372625659 0 -0.43516964128725177 -0.1824482021002134 0 -0.42164091695949879 -0.1872369858760595 0 -0.42788065265850622 -0.1751312677474007 0 -0.43516964128725177 -0.1824482021002134 0 -0.44461708238551623 -0.1715262282669075 0 -0.42788065265850622 -0.1751312677474007 0 -0.43516964128725177 -0.1824482021002134 0 -0.42164091695949879 -0.1872369858760595 0 -0.42192601372580618 -0.16039091652442231 0 -0.44461708238551623 -0.1715262282669075 0 -0.42192601372580618 -0.16039091652442231 0 -0.43726068032837001 -0.15258267989137411 0 -0.44230236018987129 -0.16155170699198959 0 -0.42788065265850622 -0.1751312677474007 0 -0.42192601372580618 -0.16039091652442231 0 -0.44461708238551623 -0.1715262282669075 0 -0.42192601372580618 -0.16039091652442231 0 -0.44230236018987129 -0.16155170699198959 0 -0.44461708238551623 -0.1715262282669075 0 -0.42788065265850622 -0.1751312677474007 0 -0.42192601372580618 -0.16039091652442231 0 -0.41604960893445808 -0.1740540059694009 0 -0.42192601372580618 -0.16039091652442231 0 -0.40711983693008541 -0.16418787803877871 0 -0.41604960893445808 -0.1740540059694009 0 -0.42192601372580618 -0.16039091652442231 0 -0.40711983693008541 -0.16418787803877871 0 -0.3992349450660963 -0.14925560478193731 0 -0.40711983693008541 -0.16418787803877871 0 -0.41604960893445808 -0.1740540059694009 0 -0.40182392196020272 -0.1745186615734251 0 -0.41604960893445808 -0.1740540059694009 0 -0.41079798193757011 -0.18292067407085361 0 -0.40182392196020272 -0.1745186615734251 0 -0.42788065265850622 -0.1751312677474007 0 -0.41604960893445808 -0.1740540059694009 0 -0.42164091695949879 -0.1872369858760595 0 -0.41604960893445808 -0.1740540059694009 0 -0.42164091695949879 -0.1872369858760595 0 -0.41079798193757011 -0.18292067407085361 0 -0.40841857841352081 -0.19263286843383659 0 -0.41079798193757011 -0.18292067407085361 0 -0.40062625082039471 -0.18601233173352649 0 -0.41079798193757011 -0.18292067407085361 0 -0.40062625082039471 -0.18601233173352649 0 -0.40182392196020272 -0.1745186615734251 0 -0.40182392196020272 -0.1745186615734251 0 -0.39031490297767341 -0.18159399674959681 0 -0.38820934556502301 -0.17040720678450361 0 -0.40062625082039471 -0.18601233173352649 0 -0.40182392196020272 -0.1745186615734251 0 -0.39031490297767341 -0.18159399674959681 0 -0.39259235623490912 -0.19042845197261249 0 -0.40062625082039471 -0.18601233173352649 0 -0.39031490297767341 -0.18159399674959681 0 -0.37988381357897788 -0.19137794198795999 0 -0.39031490297767341 -0.18159399674959681 0 -0.37849900173202228 -0.17754990754507599 0 -0.39031490297767341 -0.18159399674959681 0 -0.37849900173202228 -0.17754990754507599 0 -0.38820934556502301 -0.17040720678450361 0 -0.36776781785724783 -0.1711185022645357 0 -0.37849900173202228 -0.17754990754507599 0 -0.37873460248840712 -0.167513530520321 0 -0.36969394187757859 -0.18547564367389069 0 -0.37988381357897788 -0.19137794198795999 0 -0.37849900173202228 -0.17754990754507599 0 -0.37294295394531263 -0.15990989194725011 0 -0.38325339315550178 -0.15936836000399179 0 -0.37754319927430252 -0.1521234378785711 0 -0.37294295394531263 -0.15990989194725011 0 -0.37873460248840712 -0.167513530520321 0 -0.38325339315550178 -0.15936836000399179 0 -0.37849900173202228 -0.17754990754507599 0 -0.37873460248840712 -0.167513530520321 0 -0.38820934556502301 -0.17040720678450361 0 -0.37873460248840712 -0.167513530520321 0 -0.38820934556502301 -0.17040720678450361 0 -0.38325339315550178 -0.15936836000399179 0 -0.38820934556502301 -0.17040720678450361 0 -0.38325339315550178 -0.15936836000399179 0 -0.39656469496386371 -0.16272020134470799 0 -0.38325339315550178 -0.15936836000399179 0 -0.39656469496386371 -0.16272020134470799 0 -0.3912248611979281 -0.15469002560923331 0 -0.40182392196020272 -0.1745186615734251 0 -0.38820934556502301 -0.17040720678450361 0 -0.39656469496386371 -0.16272020134470799 0 -0.40711983693008541 -0.16418787803877871 0 -0.40182392196020272 -0.1745186615734251 0 -0.39656469496386371 -0.16272020134470799 0 -0.40711983693008541 -0.16418787803877871 0 -0.39656469496386371 -0.16272020134470799 0 -0.3992349450660963 -0.14925560478193731 0 -0.3992349450660963 -0.14925560478193731 0 -0.37639281248125978 -0.13808017742922879 0 -0.40036905694278951 -0.13952605896389811 0 -0.3992349450660963 -0.14925560478193731 0 -0.3912248611979281 -0.15469002560923331 0 -0.3871607237119129 -0.147858766312539 0 -0.39656469496386371 -0.16272020134470799 0 -0.3992349450660963 -0.14925560478193731 0 -0.3912248611979281 -0.15469002560923331 0 -0.3992349450660963 -0.14925560478193731 0 -0.37639281248125978 -0.13808017742922879 0 -0.38325339315550178 -0.15936836000399179 0 -0.3912248611979281 -0.15469002560923331 0 -0.38399994820016359 -0.1528771908932568 0 -0.3992349450660963 -0.14925560478193731 0 -0.3871607237119129 -0.147858766312539 0 -0.37639281248125978 -0.13808017742922879 0 -0.38399994820016359 -0.1528771908932568 0 -0.3871607237119129 -0.147858766312539 0 -0.38127401042895459 -0.14586031742685659 0 -0.3912248611979281 -0.15469002560923331 0 -0.38399994820016359 -0.1528771908932568 0 -0.3871607237119129 -0.147858766312539 0 -0.3871607237119129 -0.147858766312539 0 -0.38127401042895459 -0.14586031742685659 0 -0.37639281248125978 -0.13808017742922879 0 -0.38127401042895459 -0.14586031742685659 0 -0.37673159887360852 -0.14161606384273789 0 -0.37639281248125978 -0.13808017742922879 0 -0.37489839647815942 -0.14660936321772289 0 -0.38127401042895459 -0.14586031742685659 0 -0.37673159887360852 -0.14161606384273789 0 -0.37489839647815942 -0.14660936321772289 0 -0.38127401042895459 -0.14586031742685659 0 -0.37754319927430252 -0.1521234378785711 0 -0.38325339315550178 -0.15936836000399179 0 -0.38399994820016359 -0.1528771908932568 0 -0.37754319927430252 -0.1521234378785711 0 -0.38399994820016359 -0.1528771908932568 0 -0.38127401042895459 -0.14586031742685659 0 -0.37754319927430252 -0.1521234378785711 0 -0.37394662130893241 -0.1184380252876308 0 -0.37639281248125978 -0.13808017742922879 0 -0.39068184935444711 -0.12822055049371681 0 -0.37394662130893241 -0.1184380252876308 0 -0.37639281248125978 -0.13808017742922879 0 -0.37639281248125978 -0.13808017742922879 0 -0.40036905694278951 -0.13952605896389811 0 -0.39068184935444711 -0.12822055049371681 0 -0.37639281248125978 -0.13808017742922879 0 -0.40036905694278951 -0.13952605896389811 0 -0.37673159887360852 -0.14161606384273789 0 -0.37639281248125978 -0.13808017742922879 0 -0.37411559241238562 -0.13692864800598151 0 -0.37639281248125978 -0.13808017742922879 0 -0.40036905694278951 -0.13952605896389811 0 -0.39068184935444711 -0.12822055049371681 0 -0.40768174226577569 -0.1281265611512096 0 -0.40036905694278951 -0.13952605896389811 0 -0.42419423747919233 -0.14093182488834441 0 -0.40036905694278951 -0.13952605896389811 0 -0.40768174226577569 -0.1281265611512096 0 -0.42419423747919233 -0.14093182488834441 0 -0.40768174226577569 -0.1281265611512096 0 -0.42419423747919233 -0.14093182488834441 0 -0.41855677803122332 -0.12305592223272339 0 -0.3992349450660963 -0.14925560478193731 0 -0.40036905694278951 -0.13952605896389811 0 -0.42419423747919233 -0.14093182488834441 0 -0.42192601372580618 -0.16039091652442231 0 -0.3992349450660963 -0.14925560478193731 0 -0.42419423747919233 -0.14093182488834441 0 -0.42192601372580618 -0.16039091652442231 0 -0.3992349450660963 -0.14925560478193731 0 -0.42419423747919233 -0.14093182488834441 0 -0.44801941801559492 -0.14233759081279709 0 -0.42419423747919233 -0.14093182488834441 0 -0.43726068032837001 -0.15258267989137411 0 -0.44801941801559492 -0.14233759081279709 0 -0.42192601372580618 -0.16039091652442231 0 -0.42419423747919233 -0.14093182488834441 0 -0.43726068032837001 -0.15258267989137411 0 -0.42419423747919233 -0.14093182488834441 0 -0.43231176422182782 -0.12502767318398189 0 -0.41855677803122332 -0.12305592223272339 0 -0.42419423747919233 -0.14093182488834441 0 -0.43231176422182782 -0.12502767318398189 0 -0.44801941801559492 -0.14233759081279709 0 -0.43231176422182782 -0.12502767318398189 0 -0.44952353548026169 -0.12519089024636759 0 -0.44801941801559492 -0.14233759081279709 0 -0.44952353548026169 -0.12519089024636759 0 -0.44801941801559492 -0.14233759081279709 0 -0.45636979410688588 -0.13525089622132341 0 -0.43231176422182782 -0.12502767318398189 0 -0.44801941801559492 -0.14233759081279709 0 -0.43726068032837001 -0.15258267989137411 0 -0.44801941801559492 -0.14233759081279709 0 -0.44986137223138428 -0.15770136023932321 0 -0.44801941801559492 -0.14233759081279709 0 -0.46198016808912351 -0.14316132210427429 0 -0.44801941801559492 -0.14233759081279709 0 -0.46198016808912351 -0.14316132210427429 0 -0.46652752651384949 -0.16273362435011141 0 -0.44801941801559492 -0.14233759081279709 0 -0.46652752651384949 -0.16273362435011141 0 -0.44986137223138428 -0.15770136023932321 0 -0.46198016808912351 -0.14316132210427429 0 -0.47632925047948332 -0.1534818125309233 0 -0.46652752651384949 -0.16273362435011141 0 -0.44801941801559492 -0.14233759081279709 0 -0.46652752651384949 -0.16273362435011141 0 -0.46198016808912351 -0.14316132210427429 0 -0.46595605484256303 -0.13031378172186081 0 -0.47632925047948332 -0.1534818125309233 0 -0.46198016808912351 -0.14316132210427429 0 -0.45636979410688588 -0.13525089622132341 0 -0.46595605484256303 -0.13031378172186081 0 -0.44952353548026169 -0.12519089024636759 0 -0.45636979410688588 -0.13525089622132341 0 -0.46595605484256303 -0.13031378172186081 0 -0.44801941801559492 -0.14233759081279709 0 -0.46198016808912351 -0.14316132210427429 0 -0.45636979410688588 -0.13525089622132341 0 -0.46595605484256303 -0.13031378172186081 0 -0.48337680653290382 -0.14004001369620281 0 -0.48579551934728238 -0.12631891385974461 0 -0.48337680653290382 -0.14004001369620281 0 -0.48579551934728238 -0.12631891385974461 0 -0.5 -0.14139597102997509 0 -0.48579551934728238 -0.12631891385974461 0 -0.5 -0.14139597102997509 0 -0.5 -0.11190378117022801 0 -0.48337680653290382 -0.14004001369620281 0 -0.5 -0.14139597102997509 0 -0.48699399982104868 -0.14923989105111121 0 -0.5 -0.14139597102997509 0 -0.48699399982104868 -0.14923989105111121 0 -0.48826994227180792 -0.16204176694734371 0 -0.46595605484256303 -0.13031378172186081 0 -0.48337680653290382 -0.14004001369620281 0 -0.47632925047948332 -0.1534818125309233 0 -0.48699399982104868 -0.14923989105111121 0 -0.47632925047948332 -0.1534818125309233 0 -0.48826994227180792 -0.16204176694734371 0 -0.46595605484256303 -0.13031378172186081 0 -0.47632925047948332 -0.1534818125309233 0 -0.48337680653290382 -0.14004001369620281 0 -0.48699399982104868 -0.14923989105111121 0 -0.47632925047948332 -0.1534818125309233 0 -0.47632925047948332 -0.1534818125309233 0 -0.48670244611640368 -0.17664984333998579 0 -0.46652752651384949 -0.16273362435011141 0 -0.47632925047948332 -0.1534818125309233 0 -0.48826994227180792 -0.16204176694734371 0 -0.48670244611640368 -0.17664984333998579 0 -0.47632925047948332 -0.1534818125309233 0 -0.48670244611640368 -0.17664984333998579 0 -0.5 -0.14139597102997509 0 -0.48826994227180792 -0.16204176694734371 0 -0.5 -0.17088816088972211 0 -0.48826994227180792 -0.16204176694734371 0 -0.5 -0.17088816088972211 0 -0.48670244611640368 -0.17664984333998579 0 -0.5 -0.17088816088972211 0 -0.48503563501210761 -0.18312965788742269 0 -0.48999921970493632 -0.1937968517518778 0 -0.5 -0.17088816088972211 0 -0.48670244611640368 -0.17664984333998579 0 -0.48503563501210761 -0.18312965788742269 0 -0.48670244611640368 -0.17664984333998579 0 -0.48503563501210761 -0.18312965788742269 0 -0.46652752651384949 -0.16273362435011141 0 -0.48503563501210761 -0.18312965788742269 0 -0.46652752651384949 -0.16273362435011141 0 -0.48503563501210761 -0.18312965788742269 0 -0.46730815104522633 -0.18266154000939261 0 -0.48999921970493632 -0.1937968517518778 0 -0.48503563501210761 -0.18312965788742269 0 -0.46730815104522633 -0.18266154000939261 0 -0.46652752651384949 -0.16273362435011141 0 -0.46730815104522633 -0.18266154000939261 0 -0.44960867812418792 -0.18268876590089131 0 -0.45855963813256412 -0.19607110441881731 0 -0.46730815104522633 -0.18266154000939261 0 -0.45616988918892221 -0.168619058215843 0 -0.44461708238551623 -0.1715262282669075 0 -0.46730815104522633 -0.18266154000939261 0 -0.44461708238551623 -0.1715262282669075 0 -0.44960867812418792 -0.18268876590089131 0 -0.46730815104522633 -0.18266154000939261 0 -0.44461708238551623 -0.1715262282669075 0 -0.46730815104522633 -0.18266154000939261 0 -0.46652752651384949 -0.16273362435011141 0 -0.45616988918892221 -0.168619058215843 0 -0.46652752651384949 -0.16273362435011141 0 -0.45616988918892221 -0.168619058215843 0 -0.44986137223138428 -0.15770136023932321 0 -0.45616988918892221 -0.168619058215843 0 -0.44230236018987129 -0.16155170699198959 0 -0.44461708238551623 -0.1715262282669075 0 -0.45616988918892221 -0.168619058215843 0 -0.44986137223138428 -0.15770136023932321 0 -0.44230236018987129 -0.16155170699198959 0 -0.43726068032837001 -0.15258267989137411 0 -0.44986137223138428 -0.15770136023932321 0 -0.44230236018987129 -0.16155170699198959 0 -0.43516964128725177 -0.1824482021002134 0 -0.44461708238551623 -0.1715262282669075 0 -0.44960867812418792 -0.18268876590089131 0 -0.43223718885527718 -0.19663293372625659 0 -0.43516964128725177 -0.1824482021002134 0 -0.44960867812418792 -0.18268876590089131 0 -0.44960867812418792 -0.18268876590089131 0 -0.44635187930554648 -0.2066960246870419 0 -0.45855963813256412 -0.19607110441881731 0 -0.43223718885527718 -0.19663293372625659 0 -0.44960867812418792 -0.18268876590089131 0 -0.44635187930554648 -0.2066960246870419 0 -0.44960867812418792 -0.18268876590089131 0 -0.44635187930554648 -0.2066960246870419 0 -0.43477389676882339 -0.21643325612616571 0 -0.43340070680734383 -0.2073580966933285 0 -0.44635187930554648 -0.2066960246870419 0 -0.43477389676882339 -0.21643325612616571 0 -0.44635187930554648 -0.2066960246870419 0 -0.44240629669913362 -0.22789636116563 0 -0.44635187930554648 -0.2066960246870419 0 -0.44309508048690521 -0.23070328347319249 0 -0.46191791710640873 -0.2082828606826084 0 -0.46760195162499402 -0.22272291217315951 0 -0.45197377085967011 -0.22051857497290711 0 -0.44635187930554648 -0.2066960246870419 0 -0.46191791710640873 -0.2082828606826084 0 -0.45855963813256412 -0.19607110441881731 0 -0.46191791710640873 -0.2082828606826084 0 -0.47668736953510332 -0.20644540068490441 0 -0.46760195162499402 -0.22272291217315951 0 -0.44635187930554648 -0.2066960246870419 0 -0.46191791710640873 -0.2082828606826084 0 -0.45197377085967011 -0.22051857497290711 0 -0.46191791710640873 -0.2082828606826084 0 -0.45855963813256412 -0.19607110441881731 0 -0.47033289318057397 -0.19724314715882041 0 -0.46730815104522633 -0.18266154000939261 0 -0.45855963813256412 -0.19607110441881731 0 -0.47033289318057397 -0.19724314715882041 0 -0.46730815104522633 -0.18266154000939261 0 -0.48999921970493632 -0.1937968517518778 0 -0.47033289318057397 -0.19724314715882041 0 -0.48999921970493632 -0.1937968517518778 0 -0.47668736953510332 -0.20644540068490441 0 -0.46730815104522633 -0.18266154000939261 0 -0.47033289318057397 -0.19724314715882041 0 -0.48999921970493632 -0.1937968517518778 0 -0.5 -0.17088816088972211 0 -0.48999921970493632 -0.1937968517518778 0 -0.5 -0.20038035074946911 0 -0.48999921970493632 -0.1937968517518778 0 -0.4864455889197245 -0.20226639796681881 0 -0.5 -0.20038035074946911 0 -0.48999921970493632 -0.1937968517518778 0 -0.4864455889197245 -0.20226639796681881 0 -0.47668736953510332 -0.20644540068490441 0 -0.4864455889197245 -0.20226639796681881 0 -0.47991199687682667 -0.21655918769982579 0 -0.48758021496756032 -0.2302766982118655 0 -0.4864455889197245 -0.20226639796681881 0 -0.48758021496756032 -0.2302766982118655 0 -0.5 -0.20038035074946911 0 -0.49333260531511119 -0.21601555297336211 0 -0.5 -0.22987254060921611 0 -0.4864455889197245 -0.20226639796681881 0 -0.49333260531511119 -0.21601555297336211 0 -0.48758021496756032 -0.2302766982118655 0 -0.4864455889197245 -0.20226639796681881 0 -0.5 -0.20038035074946911 0 -0.49333260531511119 -0.21601555297336211 0 -0.47991199687682667 -0.21655918769982579 0 -0.47668736953510332 -0.20644540068490441 0 -0.46760195162499402 -0.22272291217315951 0 -0.4864455889197245 -0.20226639796681881 0 -0.47991199687682667 -0.21655918769982579 0 -0.47668736953510332 -0.20644540068490441 0 -0.46191791710640873 -0.2082828606826084 0 -0.47033289318057397 -0.19724314715882041 0 -0.47668736953510332 -0.20644540068490441 0 -0.47991199687682667 -0.21655918769982579 0 -0.47820030511312189 -0.22716237697444949 0 -0.46760195162499402 -0.22272291217315951 0 -0.47309521839596053 -0.23261827819593109 0 -0.46563787971989201 -0.23565781666417479 0 -0.46760195162499402 -0.22272291217315951 0 -0.47309521839596053 -0.23261827819593109 0 -0.47820030511312189 -0.22716237697444949 0 -0.46760195162499402 -0.22272291217315951 0 -0.47820030511312189 -0.22716237697444949 0 -0.48758021496756032 -0.2302766982118655 0 -0.47857955385876622 -0.23508321145996811 0 -0.47309521839596053 -0.23261827819593109 0 -0.47820030511312189 -0.22716237697444949 0 -0.47857955385876622 -0.23508321145996811 0 -0.47991199687682667 -0.21655918769982579 0 -0.47820030511312189 -0.22716237697444949 0 -0.48758021496756032 -0.2302766982118655 0 -0.49333260531511119 -0.21601555297336211 0 -0.48758021496756032 -0.2302766982118655 0 -0.5 -0.22987254060921611 0 -0.48871484101539608 -0.258286998456912 0 -0.48758021496756032 -0.2302766982118655 0 -0.5 -0.25936473046896319 0 -0.5 -0.22987254060921611 0 -0.4940737639957391 -0.2444502419367392 0 -0.48871484101539608 -0.258286998456912 0 -0.48758021496756032 -0.2302766982118655 0 -0.48113941845852648 -0.24456572903372439 0 -0.48871484101539608 -0.258286998456912 0 -0.48758021496756032 -0.2302766982118655 0 -0.4940737639957391 -0.2444502419367392 0 -0.48758021496756032 -0.2302766982118655 0 -0.5 -0.22987254060921611 0 -0.4940737639957391 -0.2444502419367392 0 -0.47882278311194942 -0.25456118493898022 0 -0.48113941845852648 -0.24456572903372439 0 -0.47301928786745168 -0.2492694817793254 0 -0.48758021496756032 -0.2302766982118655 0 -0.48113941845852648 -0.24456572903372439 0 -0.47857955385876622 -0.23508321145996811 0 -0.48113941845852648 -0.24456572903372439 0 -0.47857955385876622 -0.23508321145996811 0 -0.47288261235866152 -0.2407929748838695 0 -0.47309521839596053 -0.23261827819593109 0 -0.47288261235866152 -0.2407929748838695 0 -0.46563787971989201 -0.23565781666417479 0 -0.47309521839596053 -0.23261827819593109 0 -0.47857955385876622 -0.23508321145996811 0 -0.47288261235866152 -0.2407929748838695 0 -0.47288261235866152 -0.2407929748838695 0 -0.47301928786745168 -0.2492694817793254 0 -0.46543515829312898 -0.24540964989413461 0 -0.48113941845852648 -0.24456572903372439 0 -0.47288261235866152 -0.2407929748838695 0 -0.47301928786745168 -0.2492694817793254 0 -0.46540837827810377 -0.25432746959745162 0 -0.47301928786745168 -0.2492694817793254 0 -0.46543515829312898 -0.24540964989413461 0 -0.46540837827810377 -0.25432746959745162 0 -0.46543515829312898 -0.24540964989413461 0 -0.45750383617840618 -0.24975152893491601 0 -0.46543515829312898 -0.24540964989413461 0 -0.45750383617840618 -0.24975152893491601 0 -0.458255711154613 -0.2405381458489162 0 -0.45750383617840618 -0.24975152893491601 0 -0.458255711154613 -0.2405381458489162 0 -0.45044198355091802 -0.2452825499058687 0 -0.458255711154613 -0.2405381458489162 0 -0.45741521060235057 -0.23131622722536271 0 -0.45244872188740148 -0.23677739371131881 0 -0.458255711154613 -0.2405381458489162 0 -0.45044198355091802 -0.2452825499058687 0 -0.45244872188740148 -0.23677739371131881 0 -0.458255711154613 -0.2405381458489162 0 -0.46563787971989201 -0.23565781666417479 0 -0.45741521060235057 -0.23131622722536271 0 -0.46543515829312898 -0.24540964989413461 0 -0.458255711154613 -0.2405381458489162 0 -0.46563787971989201 -0.23565781666417479 0 -0.47288261235866152 -0.2407929748838695 0 -0.46543515829312898 -0.24540964989413461 0 -0.46563787971989201 -0.23565781666417479 0 -0.46563787971989201 -0.23565781666417479 0 -0.46760195162499402 -0.22272291217315951 0 -0.45741521060235057 -0.23131622722536271 0 -0.46760195162499402 -0.22272291217315951 0 -0.45741521060235057 -0.23131622722536271 0 -0.45197377085967011 -0.22051857497290711 0 -0.45741521060235057 -0.23131622722536271 0 -0.45024594346826657 -0.2310273483840842 0 -0.45197377085967011 -0.22051857497290711 0 -0.45741521060235057 -0.23131622722536271 0 -0.45024594346826657 -0.2310273483840842 0 -0.45244872188740148 -0.23677739371131881 0 -0.44635187930554648 -0.2066960246870419 0 -0.44240629669913362 -0.22789636116563 0 -0.44309508048690521 -0.23070328347319249 0 -0.44635187930554648 -0.2066960246870419 0 -0.45197377085967011 -0.22051857497290711 0 -0.44309508048690521 -0.23070328347319249 0 -0.45024594346826657 -0.2310273483840842 0 -0.44309508048690521 -0.23070328347319249 0 -0.44721400221235103 -0.23970022354676149 0 -0.45024594346826657 -0.2310273483840842 0 -0.45197377085967011 -0.22051857497290711 0 -0.44309508048690521 -0.23070328347319249 0 -0.43707668311688308 -0.2387085461573322 0 -0.44240629669913362 -0.22789636116563 0 -0.44309508048690521 -0.23070328347319249 0 -0.43983828166826378 -0.25471054225934309 0 -0.43707668311688308 -0.2387085461573322 0 -0.44309508048690521 -0.23070328347319249 0 -0.43983828166826378 -0.25471054225934309 0 -0.44309508048690521 -0.23070328347319249 0 -0.44721400221235103 -0.23970022354676149 0 -0.43983828166826378 -0.25471054225934309 0 -0.44309508048690521 -0.23070328347319249 0 -0.4503986285135258 -0.25491720351246738 0 -0.45750383617840618 -0.24975152893491601 0 -0.45044198355091802 -0.2452825499058687 0 -0.43983828166826378 -0.25471054225934309 0 -0.45044198355091802 -0.2452825499058687 0 -0.44721400221235103 -0.23970022354676149 0 -0.45044198355091802 -0.2452825499058687 0 -0.44721400221235103 -0.23970022354676149 0 -0.45244872188740148 -0.23677739371131881 0 -0.45024594346826657 -0.2310273483840842 0 -0.44721400221235103 -0.23970022354676149 0 -0.45244872188740148 -0.23677739371131881 0 -0.4224871434673782 -0.043201775580943881 0 -0.41611195131758399 -0.023160694108993522 0 -0.40394044138683932 -0.042979691067149682 0 -0.41513608659547729 -0.05922370405124544 0 -0.4224871434673782 -0.043201775580943881 0 -0.40394044138683932 -0.042979691067149682 0 -0.41513608659547729 -0.05922370405124544 0 -0.43537022500343969 -0.0568097766703414 0 -0.4224871434673782 -0.043201775580943881 0 -0.43537022500343969 -0.0568097766703414 0 -0.4224871434673782 -0.043201775580943881 0 -0.44187701303355059 -0.033835012006989337 0 -0.4224871434673782 -0.043201775580943881 0 -0.41611195131758399 -0.023160694108993522 0 -0.44187701303355059 -0.033835012006989337 0 -0.43516248135226088 -0.01359671946363035 0 -0.41611195131758399 -0.023160694108993522 0 -0.44187701303355059 -0.033835012006989337 0 -0.43516248135226088 -0.01359671946363035 0 -0.41611195131758399 -0.023160694108993522 0 -0.42037474346193737 0.00066640551219111852 0 -0.41611195131758399 -0.023160694108993522 0 -0.39816389856521289 -0.0024442781464990371 0 -0.42037474346193737 0.00066640551219111852 0 -0.41611195131758399 -0.023160694108993522 0 -0.39135308963838528 -0.026159390236447821 0 -0.39816389856521289 -0.0024442781464990371 0 -0.41611195131758399 -0.023160694108993522 0 -0.39135308963838528 -0.026159390236447821 0 -0.40394044138683932 -0.042979691067149682 0 -0.39816389856521289 -0.0024442781464990371 0 -0.37925483984040131 -0.014166985462018691 0 -0.37405007168609422 0.0038964993754090939 0 -0.39135308963838528 -0.026159390236447821 0 -0.39816389856521289 -0.0024442781464990371 0 -0.37925483984040131 -0.014166985462018691 0 -0.39135308963838528 -0.026159390236447821 0 -0.37925483984040131 -0.014166985462018691 0 -0.37503026422349067 -0.028990526449197161 0 -0.39135308963838528 -0.026159390236447821 0 -0.37503026422349067 -0.028990526449197161 0 -0.38327502475463332 -0.044007525031594087 0 -0.39135308963838528 -0.026159390236447821 0 -0.38327502475463332 -0.044007525031594087 0 -0.40394044138683932 -0.042979691067149682 0 -0.38327502475463332 -0.044007525031594087 0 -0.40394044138683932 -0.042979691067149682 0 -0.39540465686822568 -0.060826689754889418 0 -0.41513608659547729 -0.05922370405124544 0 -0.40394044138683932 -0.042979691067149682 0 -0.39540465686822568 -0.060826689754889418 0 -0.38327502475463332 -0.044007525031594087 0 -0.39540465686822568 -0.060826689754889418 0 -0.37526100441289201 -0.062157433877697968 0 -0.37526100441289201 -0.062157433877697968 0 -0.38586163076537577 -0.083727395431294468 0 -0.37526100441289201 -0.062157433877697968 0 -0.39172769781208361 -0.080303817169656205 0 -0.39540465686822568 -0.060826689754889418 0 -0.37526100441289201 -0.062157433877697968 0 -0.39172769781208361 -0.080303817169656205 0 -0.37526100441289201 -0.062157433877697968 0 -0.38586163076537577 -0.083727395431294468 0 -0.39172769781208361 -0.080303817169656205 0 -0.36861652776410492 -0.074078201621075396 0 -0.37526100441289201 -0.062157433877697968 0 -0.38586163076537577 -0.083727395431294468 0 -0.37128157453651872 -0.096258113454353061 0 -0.36861652776410492 -0.074078201621075396 0 -0.38586163076537577 -0.083727395431294468 0 -0.37128157453651872 -0.096258113454353061 0 -0.38586163076537577 -0.083727395431294468 0 -0.38574728312734952 -0.099101934393264729 0 -0.39172769781208361 -0.080303817169656205 0 -0.40819439121127549 -0.098450200461614248 0 -0.41055848305226311 -0.078389384989442951 0 -0.38586163076537577 -0.083727395431294468 0 -0.39172769781208361 -0.080303817169656205 0 -0.39646225711785921 -0.10529735698489109 0 -0.39172769781208361 -0.080303817169656205 0 -0.40819439121127549 -0.098450200461614248 0 -0.39540465686822568 -0.060826689754889418 0 -0.39172769781208361 -0.080303817169656205 0 -0.41055848305226311 -0.078389384989442951 0 -0.37394662130893241 -0.1184380252876308 0 -0.39168858807446882 -0.10808338541502591 0 -0.37394662130893241 -0.1184380252876308 0 -0.39068184935444711 -0.12822055049371681 0 -0.39235725513908443 -0.11817248158616669 0 -0.37394662130893241 -0.1184380252876308 0 -0.3872965461031927 -0.1081478376736487 0 -0.39168858807446882 -0.10808338541502591 0 -0.37394662130893241 -0.1184380252876308 0 -0.39168858807446882 -0.10808338541502591 0 -0.39235725513908443 -0.11817248158616669 0 -0.37128157453651872 -0.096258113454353061 0 -0.37394662130893241 -0.1184380252876308 0 -0.3872965461031927 -0.1081478376736487 0 -0.38586163076537577 -0.083727395431294468 0 -0.38574728312734952 -0.099101934393264729 0 -0.39646225711785921 -0.10529735698489109 0 -0.37128157453651872 -0.096258113454353061 0 -0.3872965461031927 -0.1081478376736487 0 -0.38574728312734952 -0.099101934393264729 0 -0.3872965461031927 -0.1081478376736487 0 -0.38574728312734952 -0.099101934393264729 0 -0.39168858807446882 -0.10808338541502591 0 -0.3872965461031927 -0.1081478376736487 0 -0.39168858807446882 -0.10808338541502591 0 -0.38586163076537577 -0.083727395431294468 0 -0.39646225711785921 -0.10529735698489109 0 -0.39172769781208361 -0.080303817169656205 0 -0.39646225711785921 -0.10529735698489109 0 -0.40819439121127549 -0.098450200461614248 0 -0.39646225711785921 -0.10529735698489109 0 -0.40819439121127549 -0.098450200461614248 0 -0.39778747469179793 -0.107993885583251 0 -0.39646225711785921 -0.10529735698489109 0 -0.40819439121127549 -0.098450200461614248 0 -0.39778747469179793 -0.107993885583251 0 -0.39646225711785921 -0.10529735698489109 0 -0.39168858807446882 -0.10808338541502591 0 -0.39778747469179793 -0.107993885583251 0 -0.39168858807446882 -0.10808338541502591 0 -0.38574728312734952 -0.099101934393264729 0 -0.39646225711785921 -0.10529735698489109 0 -0.39168858807446882 -0.10808338541502591 0 -0.39778747469179793 -0.107993885583251 0 -0.39646225711785921 -0.10529735698489109 0 -0.39646225711785921 -0.10529735698489109 0 -0.39168858807446882 -0.10808338541502591 0 -0.40768174226577569 -0.1281265611512096 0 -0.39778747469179793 -0.107993885583251 0 -0.41036136073277563 -0.1163626717144013 0 -0.39068184935444711 -0.12822055049371681 0 -0.40768174226577569 -0.1281265611512096 0 -0.39235725513908443 -0.11817248158616669 0 -0.40768174226577569 -0.1281265611512096 0 -0.39778747469179793 -0.107993885583251 0 -0.40768174226577569 -0.1281265611512096 0 -0.39778747469179793 -0.107993885583251 0 -0.39235725513908443 -0.11817248158616669 0 -0.39778747469179793 -0.107993885583251 0 -0.39168858807446882 -0.10808338541502591 0 -0.39235725513908443 -0.11817248158616669 0 -0.39778747469179793 -0.107993885583251 0 -0.41036136073277563 -0.1163626717144013 0 -0.41660411042806489 -0.1077177555551629 0 -0.40768174226577569 -0.1281265611512096 0 -0.41855677803122332 -0.12305592223272339 0 -0.41036136073277563 -0.1163626717144013 0 -0.41855677803122332 -0.12305592223272339 0 -0.41036136073277563 -0.1163626717144013 0 -0.41660411042806489 -0.1077177555551629 0 -0.39778747469179793 -0.107993885583251 0 -0.41660411042806489 -0.1077177555551629 0 -0.39778747469179793 -0.107993885583251 0 -0.41660411042806489 -0.1077177555551629 0 -0.40819439121127549 -0.098450200461614248 0 -0.40819439121127549 -0.098450200461614248 0 -0.4173529944077069 -0.097041948688422391 0 -0.42855749583123082 -0.087061957027630518 0 -0.41660411042806489 -0.1077177555551629 0 -0.40819439121127549 -0.098450200461614248 0 -0.41660411042806489 -0.1077177555551629 0 -0.40819439121127549 -0.098450200461614248 0 -0.4173529944077069 -0.097041948688422391 0 -0.41660411042806489 -0.1077177555551629 0 -0.43609348481685378 -0.1074317532339801 0 -0.41660411042806489 -0.1077177555551629 0 -0.4173529944077069 -0.097041948688422391 0 -0.43609348481685378 -0.1074317532339801 0 -0.4173529944077069 -0.097041948688422391 0 -0.43606982521483401 -0.093782938912798264 0 -0.43609348481685378 -0.1074317532339801 0 -0.43231176422182782 -0.12502767318398189 0 -0.41660411042806489 -0.1077177555551629 0 -0.43231176422182782 -0.12502767318398189 0 -0.41855677803122332 -0.12305592223272339 0 -0.41660411042806489 -0.1077177555551629 0 -0.43231176422182782 -0.12502767318398189 0 -0.41660411042806489 -0.1077177555551629 0 -0.43609348481685378 -0.1074317532339801 0 -0.41513608659547729 -0.05922370405124544 0 -0.39540465686822568 -0.060826689754889418 0 -0.41055848305226311 -0.078389384989442951 0 -0.41513608659547729 -0.05922370405124544 0 -0.41055848305226311 -0.078389384989442951 0 -0.42408472952264659 -0.071784632855268829 0 -0.40819439121127549 -0.098450200461614248 0 -0.42855749583123082 -0.087061957027630518 0 -0.40819439121127549 -0.098450200461614248 0 -0.41055848305226311 -0.078389384989442951 0 -0.42855749583123082 -0.087061957027630518 0 -0.41055848305226311 -0.078389384989442951 0 -0.42855749583123082 -0.087061957027630518 0 -0.42408472952264659 -0.071784632855268829 0 -0.4173529944077069 -0.097041948688422391 0 -0.43606982521483401 -0.093782938912798264 0 -0.42855749583123082 -0.087061957027630518 0 -0.4173529944077069 -0.097041948688422391 0 -0.42855749583123082 -0.087061957027630518 0 -0.43606982521483401 -0.093782938912798264 0 -0.42855749583123082 -0.087061957027630518 0 -0.43801474580578098 -0.078638264414063852 0 -0.42855749583123082 -0.087061957027630518 0 -0.43801474580578098 -0.078638264414063852 0 -0.42855749583123082 -0.087061957027630518 0 -0.42408472952264659 -0.071784632855268829 0 -0.43801474580578098 -0.078638264414063852 0 -0.43537022500343969 -0.0568097766703414 0 -0.42408472952264659 -0.071784632855268829 0 -0.43801474580578098 -0.078638264414063852 0 -0.41513608659547729 -0.05922370405124544 0 -0.43537022500343969 -0.0568097766703414 0 -0.42408472952264659 -0.071784632855268829 0 -0.43537022500343969 -0.0568097766703414 0 -0.43801474580578098 -0.078638264414063852 0 -0.45867649720385523 -0.060234580139705313 0 -0.43801474580578098 -0.078638264414063852 0 -0.45867649720385523 -0.060234580139705313 0 -0.43801474580578098 -0.078638264414063852 0 -0.45648778155669661 -0.079752903671970632 0 -0.45867649720385523 -0.060234580139705313 0 -0.43801474580578098 -0.078638264414063852 0 -0.4469730064133795 -0.087916061072313811 0 -0.45648778155669661 -0.079752903671970632 0 -0.43606982521483401 -0.093782938912798264 0 -0.4469730064133795 -0.087916061072313811 0 -0.44237431239446068 -0.098194470903066641 0 -0.43606982521483401 -0.093782938912798264 0 -0.43801474580578098 -0.078638264414063852 0 -0.4469730064133795 -0.087916061072313811 0 -0.45648778155669661 -0.079752903671970632 0 -0.46193679742462962 -0.092759171389067779 0 -0.47334566947338069 -0.080741709117241656 0 -0.4469730064133795 -0.087916061072313811 0 -0.45648778155669661 -0.079752903671970632 0 -0.46193679742462962 -0.092759171389067779 0 -0.45648778155669661 -0.079752903671970632 0 -0.47334566947338069 -0.080741709117241656 0 -0.45867649720385523 -0.060234580139705313 0 -0.44952353548026169 -0.12519089024636759 0 -0.43609348481685378 -0.1074317532339801 0 -0.45558285920564268 -0.107145750912798 0 -0.43231176422182782 -0.12502767318398189 0 -0.44952353548026169 -0.12519089024636759 0 -0.43609348481685378 -0.1074317532339801 0 -0.43609348481685378 -0.1074317532339801 0 -0.44237431239446068 -0.098194470903066641 0 -0.45558285920564268 -0.107145750912798 0 -0.43609348481685378 -0.1074317532339801 0 -0.45558285920564268 -0.107145750912798 0 -0.4469730064133795 -0.087916061072313811 0 -0.44237431239446068 -0.098194470903066641 0 -0.45558285920564268 -0.107145750912798 0 -0.4469730064133795 -0.087916061072313811 0 -0.45558285920564268 -0.107145750912798 0 -0.43606982521483401 -0.093782938912798264 0 -0.43609348481685378 -0.1074317532339801 0 -0.44237431239446068 -0.098194470903066641 0 -0.46193679742462962 -0.092759171389067779 0 -0.45558285920564268 -0.107145750912798 0 -0.48052447252731167 -0.1067797381736653 0 -0.4469730064133795 -0.087916061072313811 0 -0.46193679742462962 -0.092759171389067779 0 -0.45558285920564268 -0.107145750912798 0 -0.45558285920564268 -0.107145750912798 0 -0.48052447252731167 -0.1067797381736653 0 -0.46595605484256303 -0.13031378172186081 0 -0.45558285920564268 -0.107145750912798 0 -0.47196472648069998 -0.1176395461670172 0 -0.46595605484256303 -0.13031378172186081 0 -0.45558285920564268 -0.107145750912798 0 -0.44952353548026169 -0.12519089024636759 0 -0.46595605484256303 -0.13031378172186081 0 -0.45558285920564268 -0.107145750912798 0 -0.46595605484256303 -0.13031378172186081 0 -0.48579551934728238 -0.12631891385974461 0 -0.47196472648069998 -0.1176395461670172 0 -0.48579551934728238 -0.12631891385974461 0 -0.47196472648069998 -0.1176395461670172 0 -0.48052447252731167 -0.1067797381736653 0 -0.45558285920564268 -0.107145750912798 0 -0.47196472648069998 -0.1176395461670172 0 -0.48052447252731167 -0.1067797381736653 0 -0.48052447252731167 -0.1067797381736653 0 -0.5 -0.11190378117022801 0 -0.5 -0.082411591310481036 0 -0.48579551934728238 -0.12631891385974461 0 -0.48052447252731167 -0.1067797381736653 0 -0.5 -0.11190378117022801 0 -0.48227208305583308 -0.063627635576701772 0 -0.47334566947338069 -0.080741709117241656 0 -0.45867649720385523 -0.060234580139705313 0 -0.46193679742462962 -0.092759171389067779 0 -0.48052447252731167 -0.1067797381736653 0 -0.47334566947338069 -0.080741709117241656 0 -0.48052447252731167 -0.1067797381736653 0 -0.47334566947338069 -0.080741709117241656 0 -0.5 -0.082411591310481036 0 -0.48227208305583308 -0.063627635576701772 0 -0.47334566947338069 -0.080741709117241656 0 -0.5 -0.082411591310481036 0 -0.48227208305583308 -0.063627635576701772 0 -0.5 -0.082411591310481036 0 -0.5 -0.052919401450734038 0 -0.48227208305583308 -0.063627635576701772 0 -0.5 -0.052919401450734038 0 -0.47933824860192942 -0.04183089586534678 0 -0.5 -0.052919401450734038 0 -0.47933824860192942 -0.04183089586534678 0 -0.50000000000000244 -0.02342721159098702 0 -0.47933824860192942 -0.04183089586534678 0 -0.50000000000000244 -0.02342721159098702 0 -0.48227208305583308 -0.063627635576701772 0 -0.47933824860192942 -0.04183089586534678 0 -0.45867649720385523 -0.060234580139705313 0 -0.47933824860192942 -0.04183089586534678 0 -0.45867649720385523 -0.060234580139705313 0 -0.45867649720385523 -0.060234580139705313 0 -0.46391460144228958 -0.032038184662852867 0 -0.44187701303355059 -0.033835012006989337 0 -0.47933824860192942 -0.04183089586534678 0 -0.45867649720385523 -0.060234580139705313 0 -0.46391460144228958 -0.032038184662852867 0 -0.43537022500343969 -0.0568097766703414 0 -0.45867649720385523 -0.060234580139705313 0 -0.44187701303355059 -0.033835012006989337 0 -0.43516248135226088 -0.01359671946363035 0 -0.45916202732248729 -0.0077784946848453414 0 -0.43959148271035109 0.016099475693613668 0 -0.43516248135226088 -0.01359671946363035 0 -0.44187701303355059 -0.033835012006989337 0 -0.45916202732248729 -0.0077784946848453414 0 -0.46391460144228958 -0.032038184662852867 0 -0.45916202732248729 -0.0077784946848453414 0 -0.4805192210496253 -0.016511940617377579 0 -0.46391460144228958 -0.032038184662852867 0 -0.44187701303355059 -0.033835012006989337 0 -0.45916202732248729 -0.0077784946848453414 0 -0.45916202732248729 -0.0077784946848453414 0 -0.4805192210496253 -0.016511940617377579 0 -0.48012022391215092 0.002467763543633858 0 -0.47933824860192942 -0.04183089586534678 0 -0.46391460144228958 -0.032038184662852867 0 -0.4805192210496253 -0.016511940617377579 0 -0.47933824860192942 -0.04183089586534678 0 -0.4805192210496253 -0.016511940617377579 0 -0.50000000000000244 -0.02342721159098702 0 -0.4805192210496253 -0.016511940617377579 0 -0.5 0.0027833808384853942 0 -0.48012022391215092 0.002467763543633858 0 -0.4805192210496253 -0.016511940617377579 0 -0.50000000000000244 -0.02342721159098702 0 -0.5 0.0027833808384853942 0 -0.5 0.0027833808384853942 0 -0.49999999999999778 0.028993973267957659 0 -0.48012022391215092 0.002467763543633858 0 -0.49999999999999778 0.028993973267957659 0 -0.47182617735033389 0.02053745925801265 0 -0.48012022391215092 0.002467763543633858 0 -0.49999999999999778 0.028993973267957659 0 -0.47182617735033389 0.02053745925801265 0 -0.47854099660465838 0.038241971788448938 0 -0.45916202732248729 -0.0077784946848453414 0 -0.47182617735033389 0.02053745925801265 0 -0.48012022391215092 0.002467763543633858 0 -0.49999999999999778 0.028993973267957659 0 -0.4858865150965555 0.055694247274579681 0 -0.48970681376961028 0.056879621350090233 0 -0.49999999999999778 0.028993973267957659 0 -0.48970681376961028 0.056879621350090233 0 -0.5 0.058835388392852177 0 -0.4858865150965555 0.055694247274579681 0 -0.48970681376961028 0.056879621350090233 0 -0.4858865150965555 0.055694247274579681 0 -0.48970681376961028 0.056879621350090233 0 -0.49232641798059579 0.06234346698562597 0 -0.48970681376961028 0.056879621350090233 0 -0.5 0.058835388392852177 0 -0.49232641798059579 0.06234346698562597 0 -0.49999999999999778 0.028993973267957659 0 -0.4858865150965555 0.055694247274579681 0 -0.47854099660465838 0.038241971788448938 0 -0.49999999999999778 0.028993973267957659 0 -0.4858865150965555 0.055694247274579681 0 -0.4858865150965555 0.055694247274579681 0 -0.46260648496443862 0.048470847598933428 0 -0.46121006510145363 0.066726742014876578 0 -0.4858865150965555 0.055694247274579681 0 -0.47854099660465838 0.038241971788448938 0 -0.46260648496443862 0.048470847598933428 0 -0.4858865150965555 0.055694247274579681 0 -0.46260648496443862 0.048470847598933428 0 -0.46260648496443862 0.048470847598933428 0 -0.44355770034599518 0.068352871058214026 0 -0.46121006510145363 0.066726742014876578 0 -0.47854099660465838 0.038241971788448938 0 -0.46260648496443862 0.048470847598933428 0 -0.45539055148087298 0.03060093733774558 0 -0.46260648496443862 0.048470847598933428 0 -0.43932645483232052 0.041247447923290527 0 -0.46260648496443862 0.048470847598933428 0 -0.43932645483232052 0.041247447923290527 0 -0.45539055148087298 0.03060093733774558 0 -0.46260648496443862 0.048470847598933428 0 -0.43932645483232052 0.041247447923290527 0 -0.44355770034599518 0.068352871058214026 0 -0.47182617735033389 0.02053745925801265 0 -0.45539055148087298 0.03060093733774558 0 -0.43959148271035109 0.016099475693613668 0 -0.45916202732248729 -0.0077784946848453414 0 -0.47182617735033389 0.02053745925801265 0 -0.43959148271035109 0.016099475693613668 0 -0.47182617735033389 0.02053745925801265 0 -0.47854099660465838 0.038241971788448938 0 -0.45539055148087298 0.03060093733774558 0 -0.43932645483232052 0.041247447923290527 0 -0.45539055148087298 0.03060093733774558 0 -0.43959148271035109 0.016099475693613668 0 -0.43959148271035109 0.016099475693613668 0 -0.42037474346193737 0.00066640551219111852 0 -0.41313624600088222 0.015830512265850891 0 -0.43516248135226088 -0.01359671946363035 0 -0.43959148271035109 0.016099475693613668 0 -0.42037474346193737 0.00066640551219111852 0 -0.39816389856521289 -0.0024442781464990371 0 -0.42037474346193737 0.00066640551219111852 0 -0.41313624600088222 0.015830512265850891 0 -0.41313624600088222 0.015830512265850891 0 -0.41604642470020248 0.034024048247647647 0 -0.39605301807002491 0.022715253943914299 0 -0.43932645483232052 0.041247447923290527 0 -0.43959148271035109 0.016099475693613668 0 -0.41604642470020248 0.034024048247647647 0 -0.43959148271035109 0.016099475693613668 0 -0.41313624600088222 0.015830512265850891 0 -0.41604642470020248 0.034024048247647647 0 -0.43932645483232052 0.041247447923290527 0 -0.42771242156689349 0.058335058717859392 0 -0.41604642470020248 0.034024048247647647 0 -0.43932645483232052 0.041247447923290527 0 -0.41604642470020248 0.034024048247647647 0 -0.43932645483232052 0.041247447923290527 0 -0.42771242156689349 0.058335058717859392 0 -0.44355770034599518 0.068352871058214026 0 -0.42771242156689349 0.058335058717859392 0 -0.40981387134576358 0.054012512579047753 0 -0.41020488704210972 0.07435765848260778 0 -0.42771242156689349 0.058335058717859392 0 -0.40981387134576358 0.054012512579047753 0 -0.41604642470020248 0.034024048247647647 0 -0.40981387134576358 0.054012512579047753 0 -0.41604642470020248 0.034024048247647647 0 -0.40075146480632362 0.037736714937042427 0 -0.40075146480632362 0.037736714937042427 0 -0.3924886652411721 0.050560227548346839 0 -0.3801605458460946 0.032746825862793157 0 -0.41604642470020248 0.034024048247647647 0 -0.40075146480632362 0.037736714937042427 0 -0.39605301807002491 0.022715253943914299 0 -0.40981387134576358 0.054012512579047753 0 -0.40075146480632362 0.037736714937042427 0 -0.3924886652411721 0.050560227548346839 0 -0.40981387134576358 0.054012512579047753 0 -0.3924886652411721 0.050560227548346839 0 -0.3888544246536918 0.068085601619174443 0 -0.3924886652411721 0.050560227548346839 0 -0.37688779552557522 0.05495176422339032 0 -0.3888544246536918 0.068085601619174443 0 -0.3924886652411721 0.050560227548346839 0 -0.37688779552557522 0.05495176422339032 0 -0.3801605458460946 0.032746825862793157 0 -0.3801605458460946 0.032746825862793157 0 -0.39605301807002491 0.022715253943914299 0 -0.37405007168609422 0.0038964993754090939 0 -0.39605301807002491 0.022715253943914299 0 -0.37405007168609422 0.0038964993754090939 0 -0.39816389856521289 -0.0024442781464990371 0 -0.39605301807002491 0.022715253943914299 0 -0.37405007168609422 0.0038964993754090939 0 -0.39816389856521289 -0.0024442781464990371 0 -0.41313624600088222 0.015830512265850891 0 -0.39605301807002491 0.022715253943914299 0 -0.40075146480632362 0.037736714937042427 0 -0.3801605458460946 0.032746825862793157 0 -0.39605301807002491 0.022715253943914299 0 -0.40213096971399359 0.11919149953945959 0 -0.38511909746425521 0.1038981399573173 0 -0.40785298472465359 0.096884045315691447 0 -0.38511909746425521 0.1038981399573173 0 -0.39419380383317493 0.085683770453980582 0 -0.40785298472465359 0.096884045315691447 0 -0.40213096971399359 0.11919149953945959 0 -0.38077851961252179 0.1180032331263893 0 -0.3975227137449634 0.13438062650326149 0 -0.40213096971399359 0.11919149953945959 0 -0.38511909746425521 0.1038981399573173 0 -0.40213096971399359 0.11919149953945959 0 -0.38077851961252179 0.1180032331263893 0 -0.38511909746425521 0.1038981399573173 0 -0.38077851961252179 0.1180032331263893 0 -0.38511909746425521 0.1038981399573173 0 -0.3640343254800808 0.1016258397495166 0 -0.38511909746425521 0.1038981399573173 0 -0.36810722521451761 0.088604780375174205 0 -0.38511909746425521 0.1038981399573173 0 -0.38136269478661089 0.083660651903409627 0 -0.39419380383317493 0.085683770453980582 0 -0.38511909746425521 0.1038981399573173 0 -0.38136269478661089 0.083660651903409627 0 -0.36810722521451761 0.088604780375174205 0 -0.38136269478661089 0.083660651903409627 0 -0.3888544246536918 0.068085601619174443 0 -0.39419380383317493 0.085683770453980582 0 -0.38136269478661089 0.083660651903409627 0 -0.3888544246536918 0.068085601619174443 0 -0.37316665922047931 0.0724297711955708 0 -0.37688779552557522 0.05495176422339032 0 -0.3888544246536918 0.068085601619174443 0 -0.37316665922047931 0.0724297711955708 0 -0.3888544246536918 0.068085601619174443 0 -0.39419380383317493 0.085683770453980582 0 -0.41020488704210972 0.07435765848260778 0 -0.40981387134576358 0.054012512579047753 0 -0.3888544246536918 0.068085601619174443 0 -0.41020488704210972 0.07435765848260778 0 -0.39419380383317493 0.085683770453980582 0 -0.41020488704210972 0.07435765848260778 0 -0.40785298472465359 0.096884045315691447 0 -0.41020488704210972 0.07435765848260778 0 -0.42791815985857179 0.082330006682659357 0 -0.40785298472465359 0.096884045315691447 0 -0.42771242156689349 0.058335058717859392 0 -0.42791815985857179 0.082330006682659357 0 -0.44355770034599518 0.068352871058214026 0 -0.42771242156689349 0.058335058717859392 0 -0.41020488704210972 0.07435765848260778 0 -0.42791815985857179 0.082330006682659357 0 -0.42791815985857179 0.082330006682659357 0 -0.42933912725692253 0.10346483505643279 0 -0.44807419159093359 0.086028995611444795 0 -0.40213096971399359 0.11919149953945959 0 -0.42933912725692253 0.10346483505643279 0 -0.40785298472465359 0.096884045315691447 0 -0.42791815985857179 0.082330006682659357 0 -0.42933912725692253 0.10346483505643279 0 -0.40785298472465359 0.096884045315691447 0 -0.40213096971399359 0.11919149953945959 0 -0.42933912725692253 0.10346483505643279 0 -0.43008575196675658 0.12220198881816489 0 -0.42933912725692253 0.10346483505643279 0 -0.43008575196675658 0.12220198881816489 0 -0.44858766443424308 0.12625722584645219 0 -0.42933912725692253 0.10346483505643279 0 -0.46102061465501409 0.1027362329891614 0 -0.44858766443424308 0.12625722584645219 0 -0.42933912725692253 0.10346483505643279 0 -0.46102061465501409 0.1027362329891614 0 -0.44807419159093359 0.086028995611444795 0 -0.46102061465501409 0.1027362329891614 0 -0.44858766443424308 0.12625722584645219 0 -0.46102061465501409 0.1027362329891614 0 -0.47568161634878969 0.13049837938767389 0 -0.44858766443424308 0.12625722584645219 0 -0.44355770034599518 0.068352871058214026 0 -0.44807419159093359 0.086028995611444795 0 -0.46121006510145363 0.066726742014876578 0 -0.42791815985857179 0.082330006682659357 0 -0.44355770034599518 0.068352871058214026 0 -0.44807419159093359 0.086028995611444795 0 -0.46102061465501409 0.1027362329891614 0 -0.4734535648757851 0.079215240131870673 0 -0.46102061465501409 0.1027362329891614 0 -0.44807419159093359 0.086028995611444795 0 -0.4734535648757851 0.079215240131870673 0 -0.44807419159093359 0.086028995611444795 0 -0.46121006510145363 0.066726742014876578 0 -0.4734535648757851 0.079215240131870673 0 -0.4858865150965555 0.055694247274579681 0 -0.4734535648757851 0.079215240131870673 0 -0.49183257934198932 0.073756095955299292 0 -0.4858865150965555 0.055694247274579681 0 -0.46121006510145363 0.066726742014876578 0 -0.4734535648757851 0.079215240131870673 0 -0.4858865150965555 0.055694247274579681 0 -0.4734535648757851 0.079215240131870673 0 -0.4734535648757851 0.079215240131870673 0 -0.5 0.088676803517746372 0 -0.48335650041457312 0.1035975110801934 0 -0.4734535648757851 0.079215240131870673 0 -0.5 0.088676803517746372 0 -0.49183257934198932 0.073756095955299292 0 -0.5 0.058835388392852177 0 -0.5 0.088676803517746372 0 -0.49183257934198932 0.073756095955299292 0 -0.4858865150965555 0.055694247274579681 0 -0.49232641798059579 0.06234346698562597 0 -0.49183257934198932 0.073756095955299292 0 -0.5 0.058835388392852177 0 -0.49232641798059579 0.06234346698562597 0 -0.49183257934198932 0.073756095955299292 0 -0.46102061465501409 0.1027362329891614 0 -0.48335650041457312 0.1035975110801934 0 -0.47568161634878969 0.13049837938767389 0 -0.46102061465501409 0.1027362329891614 0 -0.4734535648757851 0.079215240131870673 0 -0.48335650041457312 0.1035975110801934 0 -0.5 0.088676803517746372 0 -0.48335650041457312 0.1035975110801934 0 -0.5 0.1185182186426405 0 -0.48335650041457312 0.1035975110801934 0 -0.5 0.1185182186426405 0 -0.47568161634878969 0.13049837938767389 0 -0.5 0.1185182186426405 0 -0.47568161634878969 0.13049837938767389 0 -0.5 0.14835963376753461 0 -0.47568161634878969 0.13049837938767389 0 -0.47772384192171219 0.14892900460537489 0 -0.45530462012876299 0.1430332052032301 0 -0.47568161634878969 0.13049837938767389 0 -0.47772384192171219 0.14892900460537489 0 -0.5 0.14835963376753461 0 -0.47772384192171219 0.14892900460537489 0 -0.5 0.14835963376753461 0 -0.48412166496061998 0.1660993663684445 0 -0.5 0.14835963376753461 0 -0.5 0.1782010488924288 0 -0.48412166496061998 0.1660993663684445 0 -0.5 0.1782010488924288 0 -0.48412166496061998 0.1660993663684445 0 -0.48559885924114798 0.18893589262538521 0 -0.46993473883385822 0.1801458381890805 0 -0.48412166496061998 0.1660993663684445 0 -0.48559885924114798 0.18893589262538521 0 -0.46993473883385822 0.1801458381890805 0 -0.48412166496061998 0.1660993663684445 0 -0.46608835626323109 0.15753361940984351 0 -0.47772384192171219 0.14892900460537489 0 -0.48412166496061998 0.1660993663684445 0 -0.46608835626323109 0.15753361940984351 0 -0.46993473883385822 0.1801458381890805 0 -0.46608835626323109 0.15753361940984351 0 -0.45554501651366192 0.16720974306096639 0 -0.46608835626323109 0.15753361940984351 0 -0.45554501651366192 0.16720974306096639 0 -0.44115529419346561 0.15427364793285239 0 -0.46993473883385822 0.1801458381890805 0 -0.45500461793539948 0.1799130123968522 0 -0.45280024478113862 0.19538358243780951 0 -0.46993473883385822 0.1801458381890805 0 -0.45554501651366192 0.16720974306096639 0 -0.46993473883385822 0.1801458381890805 0 -0.45554501651366192 0.16720974306096639 0 -0.45500461793539948 0.1799130123968522 0 -0.45500461793539948 0.1799130123968522 0 -0.44244251148971148 0.17831640461574311 0 -0.45280024478113862 0.19538358243780951 0 -0.45500461793539948 0.1799130123968522 0 -0.44244251148971148 0.17831640461574311 0 -0.44543169990752618 0.16827186435819111 0 -0.45554501651366192 0.16720974306096639 0 -0.44543169990752618 0.16827186435819111 0 -0.44115529419346561 0.15427364793285239 0 -0.45554501651366192 0.16720974306096639 0 -0.44115529419346561 0.15427364793285239 0 -0.45554501651366192 0.16720974306096639 0 -0.45500461793539948 0.1799130123968522 0 -0.44543169990752618 0.16827186435819111 0 -0.44244251148971148 0.17831640461574311 0 -0.44543169990752618 0.16827186435819111 0 -0.43825392103941641 0.1637246835248069 0 -0.43825392103941641 0.1637246835248069 0 -0.44115529419346561 0.15427364793285239 0 -0.43425534998500648 0.15337148753035501 0 -0.44543169990752618 0.16827186435819111 0 -0.43825392103941641 0.1637246835248069 0 -0.44115529419346561 0.15427364793285239 0 -0.44115529419346561 0.15427364793285239 0 -0.43425534998500648 0.15337148753035501 0 -0.44115529419346561 0.15427364793285239 0 -0.45530462012876299 0.1430332052032301 0 -0.43615471421347168 0.1497782187037428 0 -0.44115529419346561 0.15427364793285239 0 -0.43615471421347168 0.1497782187037428 0 -0.44858766443424308 0.12625722584645219 0 -0.45530462012876299 0.1430332052032301 0 -0.43615471421347168 0.1497782187037428 0 -0.44858766443424308 0.12625722584645219 0 -0.43615471421347168 0.1497782187037428 0 -0.43008575196675658 0.12220198881816489 0 -0.44858766443424308 0.12625722584645219 0 -0.43615471421347168 0.1497782187037428 0 -0.47568161634878969 0.13049837938767389 0 -0.44858766443424308 0.12625722584645219 0 -0.45530462012876299 0.1430332052032301 0 -0.46608835626323109 0.15753361940984351 0 -0.44115529419346561 0.15427364793285239 0 -0.47772384192171219 0.14892900460537489 0 -0.46608835626323109 0.15753361940984351 0 -0.45530462012876299 0.1430332052032301 0 -0.46608835626323109 0.15753361940984351 0 -0.44115529419346561 0.15427364793285239 0 -0.45530462012876299 0.1430332052032301 0 -0.48009569721831502 0.24875800001989709 0 -0.5 0.23788387914221731 0 -0.48485926293839138 0.22291048560185009 0 -0.5 0.23788387914221731 0 -0.48485926293839138 0.22291048560185009 0 -0.5 0.2080424640173231 0 -0.48009569721831502 0.24875800001989709 0 -0.48485926293839138 0.22291048560185009 0 -0.465523189258639 0.229936529208942 0 -0.48485926293839138 0.22291048560185009 0 -0.47442559104487331 0.20471401891146121 0 -0.465523189258639 0.229936529208942 0 -0.48485926293839138 0.22291048560185009 0 -0.47442559104487331 0.20471401891146121 0 -0.5 0.2080424640173231 0 -0.47442559104487331 0.20471401891146121 0 -0.5 0.2080424640173231 0 -0.48559885924114798 0.18893589262538521 0 -0.5 0.1782010488924288 0 -0.5 0.2080424640173231 0 -0.48559885924114798 0.18893589262538521 0 -0.46993473883385822 0.1801458381890805 0 -0.47442559104487331 0.20471401891146121 0 -0.48559885924114798 0.18893589262538521 0 -0.46993473883385822 0.1801458381890805 0 -0.47442559104487331 0.20471401891146121 0 -0.45280024478113862 0.19538358243780951 0 -0.44244251148971148 0.17831640461574311 0 -0.45280024478113862 0.19538358243780951 0 -0.43317195722318758 0.1908474344841036 0 -0.45280024478113862 0.19538358243780951 0 -0.43382620851748249 0.21609458377439431 0 -0.43317195722318758 0.1908474344841036 0 -0.45280024478113862 0.19538358243780951 0 -0.43382620851748249 0.21609458377439431 0 -0.45280024478113862 0.19538358243780951 0 -0.45316532802610021 0.21543613963791791 0 -0.43382620851748249 0.21609458377439431 0 -0.47442559104487331 0.20471401891146121 0 -0.45316532802610021 0.21543613963791791 0 -0.465523189258639 0.229936529208942 0 -0.47442559104487331 0.20471401891146121 0 -0.45280024478113862 0.19538358243780951 0 -0.45316532802610021 0.21543613963791791 0 -0.45316532802610021 0.21543613963791791 0 -0.465523189258639 0.229936529208942 0 -0.44197025293690589 0.23676466157854231 0 -0.45316532802610021 0.21543613963791791 0 -0.44197025293690589 0.23676466157854231 0 -0.43382620851748249 0.21609458377439431 0 -0.465523189258639 0.229936529208942 0 -0.44197025293690589 0.23676466157854231 0 -0.45443708739589561 0.26040746066243919 0 -0.48009569721831502 0.24875800001989709 0 -0.465523189258639 0.229936529208942 0 -0.45443708739589561 0.26040746066243919 0 -0.44197025293690589 0.23676466157854231 0 -0.41485217225382642 0.23680558511097921 0 -0.42367523380313798 0.26134256429042541 0 -0.41485217225382642 0.23680558511097921 0 -0.43382620851748249 0.21609458377439431 0 -0.44197025293690589 0.23676466157854231 0 -0.41485217225382642 0.23680558511097921 0 -0.43382620851748249 0.21609458377439431 0 -0.41485217225382642 0.23680558511097921 0 -0.41244709491732839 0.2161705429523865 0 -0.43382620851748249 0.21609458377439431 0 -0.41485217225382642 0.23680558511097921 0 -0.41244709491732839 0.2161705429523865 0 -0.39842846142454719 0.22391946593062509 0 -0.41244709491732839 0.2161705429523865 0 -0.41534988870610567 0.19652098097024831 0 -0.40016635779888621 0.20654757811369059 0 -0.41244709491732839 0.2161705429523865 0 -0.43382620851748249 0.21609458377439431 0 -0.41534988870610567 0.19652098097024831 0 -0.43382620851748249 0.21609458377439431 0 -0.43317195722318758 0.1908474344841036 0 -0.41534988870610567 0.19652098097024831 0 -0.43317195722318758 0.1908474344841036 0 -0.41534988870610567 0.19652098097024831 0 -0.42147366402334541 0.18170383658211611 0 -0.41534988870610567 0.19652098097024831 0 -0.39936880589683188 0.19153665857062371 0 -0.41008501537789172 0.18137735510924169 0 -0.41534988870610567 0.19652098097024831 0 -0.39936880589683188 0.19153665857062371 0 -0.40016635779888621 0.20654757811369059 0 -0.39936880589683188 0.19153665857062371 0 -0.38833956094355743 0.19936684906720589 0 -0.40016635779888621 0.20654757811369059 0 -0.39936880589683188 0.19153665857062371 0 -0.38833956094355743 0.19936684906720589 0 -0.38790892746372052 0.1869142520409881 0 -0.37673806501982621 0.192659408328269 0 -0.38833956094355743 0.19936684906720589 0 -0.38790892746372052 0.1869142520409881 0 -0.37673806501982621 0.192659408328269 0 -0.38790892746372052 0.1869142520409881 0 -0.37959360431313749 0.18379385338001819 0 -0.37673806501982621 0.192659408328269 0 -0.38833956094355743 0.19936684906720589 0 -0.3778695026521719 0.20501424373228569 0 -0.38833956094355743 0.19936684906720589 0 -0.3778695026521719 0.20501424373228569 0 -0.38798570682990852 0.21352895361737831 0 -0.3778695026521719 0.20501424373228569 0 -0.37812105176782512 0.21661334823991241 0 -0.3695893614186066 0.21089801379188039 0 -0.3778695026521719 0.20501424373228569 0 -0.37812105176782512 0.21661334823991241 0 -0.38798570682990852 0.21352895361737831 0 -0.37812105176782512 0.21661334823991241 0 -0.38798570682990852 0.21352895361737831 0 -0.3841671162116061 0.22580061869399781 0 -0.41244709491732839 0.2161705429523865 0 -0.40016635779888621 0.20654757811369059 0 -0.39842846142454719 0.22391946593062509 0 -0.38798570682990852 0.21352895361737831 0 -0.40016635779888621 0.20654757811369059 0 -0.39842846142454719 0.22391946593062509 0 -0.38833956094355743 0.19936684906720589 0 -0.38798570682990852 0.21352895361737831 0 -0.40016635779888621 0.20654757811369059 0 -0.41485217225382642 0.23680558511097921 0 -0.39842846142454719 0.22391946593062509 0 -0.393184977833552 0.23910787693022759 0 -0.39842846142454719 0.22391946593062509 0 -0.3841671162116061 0.22580061869399781 0 -0.393184977833552 0.23910787693022759 0 -0.38798570682990852 0.21352895361737831 0 -0.39842846142454719 0.22391946593062509 0 -0.3841671162116061 0.22580061869399781 0 -0.37812105176782512 0.21661334823991241 0 -0.3841671162116061 0.22580061869399781 0 -0.37107359238792242 0.2240824917220271 0 -0.3841671162116061 0.22580061869399781 0 -0.37895814158385022 0.23391855112902979 0 -0.37107359238792242 0.2240824917220271 0 -0.3841671162116061 0.22580061869399781 0 -0.37895814158385022 0.23391855112902979 0 -0.393184977833552 0.23910787693022759 0 -0.37895814158385022 0.23391855112902979 0 -0.37869082978814 0.24847683284980271 0 -0.393184977833552 0.23910787693022759 0 -0.37869082978814 0.24847683284980271 0 -0.393184977833552 0.23910787693022759 0 -0.3958781359901703 0.25751658644756398 0 -0.37895814158385022 0.23391855112902979 0 -0.37869082978814 0.24847683284980271 0 -0.36916426339337238 0.23338487593315699 0 -0.41485217225382642 0.23680558511097921 0 -0.3958781359901703 0.25751658644756398 0 -0.41485217225382642 0.23680558511097921 0 -0.393184977833552 0.23910787693022759 0 -0.3958781359901703 0.25751658644756398 0 -0.41426690787740528 0.15075801988013329 0 -0.41914284196373208 0.13448485912160191 0 -0.3975227137449634 0.13438062650326149 0 -0.40213096971399359 0.11919149953945959 0 -0.41914284196373208 0.13448485912160191 0 -0.40213096971399359 0.11919149953945959 0 -0.43008575196675658 0.12220198881816489 0 -0.41914284196373208 0.13448485912160191 0 -0.40213096971399359 0.11919149953945959 0 -0.41914284196373208 0.13448485912160191 0 -0.3975227137449634 0.13438062650326149 0 -0.43008575196675658 0.12220198881816489 0 -0.41914284196373208 0.13448485912160191 0 -0.43615471421347168 0.1497782187037428 0 -0.41426690787740528 0.15075801988013329 0 -0.43425534998500648 0.15337148753035501 0 -0.4283537573377294 0.16453628076433219 0 -0.41426690787740528 0.15075801988013329 0 -0.43425534998500648 0.15337148753035501 0 -0.41914284196373208 0.13448485912160191 0 -0.43615471421347168 0.1497782187037428 0 -0.41426690787740528 0.15075801988013329 0 -0.41914284196373208 0.13448485912160191 0 -0.43615471421347168 0.1497782187037428 0 -0.41426690787740528 0.15075801988013329 0 -0.43615471421347168 0.1497782187037428 0 -0.43425534998500648 0.15337148753035501 0 -0.43615471421347168 0.1497782187037428 0 -0.43425534998500648 0.15337148753035501 0 -0.44115529419346561 0.15427364793285239 0 -0.43615471421347168 0.1497782187037428 0 -0.43425534998500648 0.15337148753035501 0 -0.43425534998500648 0.15337148753035501 0 -0.4283537573377294 0.16453628076433219 0 -0.43825392103941641 0.1637246835248069 0 -0.43425534998500648 0.15337148753035501 0 -0.4283537573377294 0.16453628076433219 0 -0.44244251148971148 0.17831640461574311 0 -0.43825392103941641 0.1637246835248069 0 -0.4283537573377294 0.16453628076433219 0 -0.44244251148971148 0.17831640461574311 0 -0.4283537573377294 0.16453628076433219 0 -0.4283537573377294 0.16453628076433219 0 -0.42481841175948382 0.1712245435352287 0 -0.41614665252445832 0.16305626201324011 0 -0.4283537573377294 0.16453628076433219 0 -0.42481841175948382 0.1712245435352287 0 -0.43024117713741877 0.17707051608961721 0 -0.4283537573377294 0.16453628076433219 0 -0.42481841175948382 0.1712245435352287 0 -0.44244251148971148 0.17831640461574311 0 -0.43317195722318758 0.1908474344841036 0 -0.43024117713741877 0.17707051608961721 0 -0.44244251148971148 0.17831640461574311 0 -0.4283537573377294 0.16453628076433219 0 -0.43024117713741877 0.17707051608961721 0 -0.42481841175948382 0.1712245435352287 0 -0.43024117713741877 0.17707051608961721 0 -0.42147366402334541 0.18170383658211611 0 -0.43317195722318758 0.1908474344841036 0 -0.43024117713741877 0.17707051608961721 0 -0.42147366402334541 0.18170383658211611 0 -0.41534988870610567 0.19652098097024831 0 -0.42147366402334541 0.18170383658211611 0 -0.41008501537789172 0.18137735510924169 0 -0.42147366402334541 0.18170383658211611 0 -0.41517553393598478 0.17318218930425711 0 -0.41008501537789172 0.18137735510924169 0 -0.42481841175948382 0.1712245435352287 0 -0.42147366402334541 0.18170383658211611 0 -0.41517553393598478 0.17318218930425711 0 -0.41517553393598478 0.17318218930425711 0 -0.41008501537789172 0.18137735510924169 0 -0.40240834214110888 0.1698248688148967 0 -0.41426690787740528 0.15075801988013329 0 -0.4283537573377294 0.16453628076433219 0 -0.41426690787740528 0.15075801988013329 0 -0.4283537573377294 0.16453628076433219 0 -0.41614665252445832 0.16305626201324011 0 -0.42481841175948382 0.1712245435352287 0 -0.41517553393598478 0.17318218930425711 0 -0.41614665252445832 0.16305626201324011 0 -0.41517553393598478 0.17318218930425711 0 -0.41614665252445832 0.16305626201324011 0 -0.40240834214110888 0.1698248688148967 0 -0.41614665252445832 0.16305626201324011 0 -0.4066324419379263 0.15978126522081079 0 -0.40240834214110888 0.1698248688148967 0 -0.41426690787740528 0.15075801988013329 0 -0.41614665252445832 0.16305626201324011 0 -0.4066324419379263 0.15978126522081079 0 -0.40240834214110888 0.1698248688148967 0 -0.39730230792055782 0.15732247378980399 0 -0.38537458623575321 0.16298756693282529 0 -0.4066324419379263 0.15978126522081079 0 -0.40240834214110888 0.1698248688148967 0 -0.39730230792055782 0.15732247378980399 0 -0.40240834214110888 0.1698248688148967 0 -0.38649155512634409 0.17544621908334479 0 -0.38537458623575321 0.16298756693282529 0 -0.40240834214110888 0.1698248688148967 0 -0.39725252920117943 0.181019870723819 0 -0.38649155512634409 0.17544621908334479 0 -0.39936880589683188 0.19153665857062371 0 -0.41008501537789172 0.18137735510924169 0 -0.39725252920117943 0.181019870723819 0 -0.41008501537789172 0.18137735510924169 0 -0.40240834214110888 0.1698248688148967 0 -0.39725252920117943 0.181019870723819 0 -0.39936880589683188 0.19153665857062371 0 -0.39725252920117943 0.181019870723819 0 -0.38790892746372052 0.1869142520409881 0 -0.39725252920117943 0.181019870723819 0 -0.38790892746372052 0.1869142520409881 0 -0.38649155512634409 0.17544621908334479 0 -0.38790892746372052 0.1869142520409881 0 -0.38649155512634409 0.17544621908334479 0 -0.37959360431313749 0.18379385338001819 0 -0.38649155512634409 0.17544621908334479 0 -0.37959360431313749 0.18379385338001819 0 -0.37428230211887947 0.17657732165074119 0 -0.38649155512634409 0.17544621908334479 0 -0.37658765268353572 0.16807898055482479 0 -0.37428230211887947 0.17657732165074119 0 -0.37959360431313749 0.18379385338001819 0 -0.37167215183682772 0.18466049976717461 0 -0.37428230211887947 0.17657732165074119 0 -0.37673806501982621 0.192659408328269 0 -0.37959360431313749 0.18379385338001819 0 -0.37167215183682772 0.18466049976717461 0 -0.38649155512634409 0.17544621908334479 0 -0.38537458623575321 0.16298756693282529 0 -0.37658765268353572 0.16807898055482479 0 -0.38537458623575321 0.16298756693282529 0 -0.37658765268353572 0.16807898055482479 0 -0.37195811551269342 0.15548364112316301 0 -0.38537458623575321 0.16298756693282529 0 -0.38501814683424512 0.1469337753300162 0 -0.37195811551269342 0.15548364112316301 0 -0.39730230792055782 0.15732247378980399 0 -0.38537458623575321 0.16298756693282529 0 -0.38501814683424512 0.1469337753300162 0 -0.41426690787740528 0.15075801988013329 0 -0.3975227137449634 0.13438062650326149 0 -0.41426690787740528 0.15075801988013329 0 -0.4066324419379263 0.15978126522081079 0 -0.39730230792055782 0.15732247378980399 0 -0.41426690787740528 0.15075801988013329 0 -0.39730230792055782 0.15732247378980399 0 -0.38501814683424512 0.1469337753300162 0 -0.41426690787740528 0.15075801988013329 0 -0.38501814683424512 0.1469337753300162 0 -0.3975227137449634 0.13438062650326149 0 -0.41426690787740528 0.15075801988013329 0 -0.38501814683424512 0.1469337753300162 0 -0.38077851961252179 0.1180032331263893 0 -0.3975227137449634 0.13438062650326149 0 -0.38397354928320132 0.13318652174274689 0 -0.38077851961252179 0.1180032331263893 0 -0.3975227137449634 0.13438062650326149 0 -0.38501814683424512 0.1469337753300162 0 -0.3975227137449634 0.13438062650326149 0 -0.38397354928320132 0.13318652174274689 0 -0.38501814683424512 0.1469337753300162 0 -0.38397354928320132 0.13318652174274689 0 -0.37257481694107519 0.13342845201132081 0 -0.38077851961252179 0.1180032331263893 0 -0.38397354928320132 0.13318652174274689 0 -0.37257481694107519 0.13342845201132081 0 -0.38077851961252179 0.1180032331263893 0 -0.37257481694107519 0.13342845201132081 0 -0.35669965247370788 0.12507478741199179 0 -0.37257481694107519 0.13342845201132081 0 -0.35669965247370788 0.12507478741199179 0 -0.35576938579108469 0.14310953077989941 0 -0.35669965247370788 0.12507478741199179 0 -0.35066189276185578 0.13752909158510521 0 -0.34936497946733469 0.14852373507446681 0 -0.35669965247370788 0.12507478741199179 0 -0.34936497946733469 0.14852373507446681 0 -0.35669965247370788 0.12507478741199179 0 -0.34936497946733469 0.14852373507446681 0 -0.35576938579108469 0.14310953077989941 0 -0.35066189276185578 0.13752909158510521 0 -0.34485361926919278 0.12972697015614121 0 -0.33783887112942418 0.13745478625582649 0 -0.35669965247370788 0.12507478741199179 0 -0.34485361926919278 0.12972697015614121 0 -0.35029818350595188 0.1205058490694053 0 -0.35669965247370788 0.12507478741199179 0 -0.35066189276185578 0.13752909158510521 0 -0.34485361926919278 0.12972697015614121 0 -0.35066189276185578 0.13752909158510521 0 -0.34080960953221329 0.1649579539314672 0 -0.35066189276185578 0.13752909158510521 0 -0.34936497946733469 0.14852373507446681 0 -0.34080960953221329 0.1649579539314672 0 -0.34936497946733469 0.14852373507446681 0 -0.35576938579108469 0.14310953077989941 0 -0.3600028410176806 0.15461219641416679 0 -0.38501814683424512 0.1469337753300162 0 -0.35576938579108469 0.14310953077989941 0 -0.37195811551269342 0.15548364112316301 0 -0.38501814683424512 0.1469337753300162 0 -0.35576938579108469 0.14310953077989941 0 -0.35576938579108469 0.14310953077989941 0 -0.3600028410176806 0.15461219641416679 0 -0.37195811551269342 0.15548364112316301 0 -0.38501814683424512 0.1469337753300162 0 -0.37257481694107519 0.13342845201132081 0 -0.35576938579108469 0.14310953077989941 0 -0.37658765268353572 0.16807898055482479 0 -0.37195811551269342 0.15548364112316301 0 -0.36707339554461238 0.16573319746078841 0 -0.37658765268353572 0.16807898055482479 0 -0.36707339554461238 0.16573319746078841 0 -0.37428230211887947 0.17657732165074119 0 -0.36707339554461238 0.16573319746078841 0 -0.36218337388927252 0.1776635149340097 0 -0.3560083898030163 0.1660300410753813 0 -0.3600028410176806 0.15461219641416679 0 -0.37195811551269342 0.15548364112316301 0 -0.36707339554461238 0.16573319746078841 0 -0.3600028410176806 0.15461219641416679 0 -0.36707339554461238 0.16573319746078841 0 -0.3560083898030163 0.1660300410753813 0 -0.37167215183682772 0.18466049976717461 0 -0.37428230211887947 0.17657732165074119 0 -0.36218337388927252 0.1776635149340097 0 -0.36707339554461238 0.16573319746078841 0 -0.37428230211887947 0.17657732165074119 0 -0.36218337388927252 0.1776635149340097 0 -0.37167215183682772 0.18466049976717461 0 -0.36218337388927252 0.1776635149340097 0 -0.36453519763255049 0.18939363985745339 0 -0.36218337388927252 0.1776635149340097 0 -0.36453519763255049 0.18939363985745339 0 -0.35651818076427272 0.18880092524782741 0 -0.36218337388927252 0.1776635149340097 0 -0.34857890993890173 0.18371014312158529 0 -0.3560083898030163 0.1660300410753813 0 -0.34857890993890173 0.18371014312158529 0 -0.3560083898030163 0.1660300410753813 0 -0.34203030646096139 0.17197268273694191 0 -0.36218337388927252 0.1776635149340097 0 -0.34857890993890173 0.18371014312158529 0 -0.35651818076427272 0.18880092524782741 0 -0.34936497946733469 0.14852373507446681 0 -0.34203030646096139 0.17197268273694191 0 -0.34936497946733469 0.14852373507446681 0 -0.3600028410176806 0.15461219641416679 0 -0.3560083898030163 0.1660300410753813 0 -0.34936497946733469 0.14852373507446681 0 -0.34080960953221329 0.1649579539314672 0 -0.34203030646096139 0.17197268273694191 0 -0.34936497946733469 0.14852373507446681 0 -0.3560083898030163 0.1660300410753813 0 -0.34203030646096139 0.17197268273694191 0 -0.34080960953221329 0.1649579539314672 0 -0.32982703183716461 0.15836297644669309 0 -0.33782573166256769 0.1490017163076576 0 -0.34080960953221329 0.1649579539314672 0 -0.32973045933101791 0.16732797990230561 0 -0.32933978125224828 0.17597861503822251 0 -0.34080960953221329 0.1649579539314672 0 -0.32973045933101791 0.16732797990230561 0 -0.32982703183716461 0.15836297644669309 0 -0.34203030646096139 0.17197268273694191 0 -0.33469563345458758 0.19542163039941679 0 -0.34203030646096139 0.17197268273694191 0 -0.33469563345458758 0.19542163039941679 0 -0.3309573263025688 0.19238681627782839 0 -0.34080960953221329 0.1649579539314672 0 -0.3309573263025688 0.19238681627782839 0 -0.34080960953221329 0.1649579539314672 0 -0.34203030646096139 0.17197268273694191 0 -0.3309573263025688 0.19238681627782839 0 -0.34080960953221329 0.1649579539314672 0 -0.32933978125224828 0.17597861503822251 0 -0.3309573263025688 0.19238681627782839 0 -0.34857890993890173 0.18371014312158529 0 -0.34203030646096139 0.17197268273694191 0 -0.33469563345458758 0.19542163039941679 0 -0.31774991061168972 0.18166483704540079 0 -0.32291301127873812 0.17092291400694681 0 -0.31463461700644019 0.16558291409065579 0 -0.31774991061168972 0.18166483704540079 0 -0.32842354654035338 0.1950380929686997 0 -0.3064421673458893 0.18047957485936481 0 -0.32933978125224828 0.17597861503822251 0 -0.31774991061168972 0.18166483704540079 0 -0.3309573263025688 0.19238681627782839 0 -0.31774991061168972 0.18166483704540079 0 -0.3309573263025688 0.19238681627782839 0 -0.32933978125224828 0.17597861503822251 0 -0.31774991061168972 0.18166483704540079 0 -0.32291301127873812 0.17092291400694681 0 -0.32973045933101791 0.16732797990230561 0 -0.32982703183716461 0.15836297644669309 0 -0.32353965583485739 0.16451439447840069 0 -0.32982703183716461 0.15836297644669309 0 -0.32353965583485739 0.16451439447840069 0 -0.31883034854612768 0.15687019691349749 0 -0.32973045933101791 0.16732797990230561 0 -0.32933978125224828 0.17597861503822251 0 -0.32291301127873812 0.17092291400694681 0 -0.32973045933101791 0.16732797990230561 0 -0.32291301127873812 0.17092291400694681 0 -0.32353965583485739 0.16451439447840069 0 -0.32291301127873812 0.17092291400694681 0 -0.32353965583485739 0.16451439447840069 0 -0.31463461700644019 0.16558291409065579 0 -0.32353965583485739 0.16451439447840069 0 -0.31463461700644019 0.16558291409065579 0 -0.31883034854612768 0.15687019691349749 0 -0.31463461700644019 0.16558291409065579 0 -0.31883034854612768 0.15687019691349749 0 -0.30739392374180519 0.1603147186065384 0 -0.31883034854612768 0.15687019691349749 0 -0.31523652757330739 0.14575041187509941 0 -0.30739392374180519 0.1603147186065384 0 -0.32982703183716461 0.15836297644669309 0 -0.31883034854612768 0.15687019691349749 0 -0.32814764733484553 0.1465090546049051 0 -0.31883034854612768 0.15687019691349749 0 -0.31523652757330739 0.14575041187509941 0 -0.32814764733484553 0.1465090546049051 0 -0.32876949647502418 0.12807033645837751 0 -0.30724080944409649 0.13563482384734959 0 -0.30822054705628632 0.1162359202591448 0 -0.31523652757330739 0.14575041187509941 0 -0.32876949647502418 0.12807033645837751 0 -0.32814764733484553 0.1465090546049051 0 -0.32876949647502418 0.12807033645837751 0 -0.30724080944409649 0.13563482384734959 0 -0.31523652757330739 0.14575041187509941 0 -0.32876949647502418 0.12807033645837751 0 -0.30724080944409649 0.13563482384734959 0 -0.32876949647502418 0.12807033645837751 0 -0.33783887112942418 0.13745478625582649 0 -0.32814764733484553 0.1465090546049051 0 -0.34485361926919278 0.12972697015614121 0 -0.32876949647502418 0.12807033645837751 0 -0.35029818350595188 0.1205058490694053 0 -0.34485361926919278 0.12972697015614121 0 -0.32876949647502418 0.12807033645837751 0 -0.33783887112942418 0.13745478625582649 0 -0.35066189276185578 0.13752909158510521 0 -0.34080960953221329 0.1649579539314672 0 -0.33782573166256769 0.1490017163076576 0 -0.35066189276185578 0.13752909158510521 0 -0.33783887112942418 0.13745478625582649 0 -0.33782573166256769 0.1490017163076576 0 -0.32982703183716461 0.15836297644669309 0 -0.33782573166256769 0.1490017163076576 0 -0.32814764733484553 0.1465090546049051 0 -0.33783887112942418 0.13745478625582649 0 -0.33782573166256769 0.1490017163076576 0 -0.32814764733484553 0.1465090546049051 0 -0.34916208045610958 0.24571638332980941 0 -0.36114265797441369 0.24929296294783351 0 -0.3572248280965073 0.2322449175082153 0 -0.34916208045610958 0.24571638332980941 0 -0.3572248280965073 0.2322449175082153 0 -0.33978862411279592 0.2329936542908696 0 -0.37869082978814 0.24847683284980271 0 -0.36114265797441369 0.24929296294783351 0 -0.3572248280965073 0.2322449175082153 0 -0.37869082978814 0.24847683284980271 0 -0.3572248280965073 0.2322449175082153 0 -0.37869082978814 0.24847683284980271 0 -0.36916426339337238 0.23338487593315699 0 -0.3572248280965073 0.2322449175082153 0 -0.35987392511044219 0.2282015864567101 0 -0.36916426339337238 0.23338487593315699 0 -0.37107359238792242 0.2240824917220271 0 -0.35987392511044219 0.2282015864567101 0 -0.36916426339337238 0.23338487593315699 0 -0.3572248280965073 0.2322449175082153 0 -0.37895814158385022 0.23391855112902979 0 -0.36916426339337238 0.23338487593315699 0 -0.37107359238792242 0.2240824917220271 0 -0.35987392511044219 0.2282015864567101 0 -0.37107359238792242 0.2240824917220271 0 -0.36139756198660361 0.2170986586604266 0 -0.35987392511044219 0.2282015864567101 0 -0.34682956183757307 0.2137907504506219 0 -0.35987392511044219 0.2282015864567101 0 -0.34682956183757307 0.2137907504506219 0 -0.36139756198660361 0.2170986586604266 0 -0.3572248280965073 0.2322449175082153 0 -0.33575882640487398 0.2160130021666285 0 -0.33978862411279592 0.2329936542908696 0 -0.3572248280965073 0.2322449175082153 0 -0.33575882640487398 0.2160130021666285 0 -0.3572248280965073 0.2322449175082153 0 -0.34682956183757307 0.2137907504506219 0 -0.33575882640487398 0.2160130021666285 0 -0.35987392511044219 0.2282015864567101 0 -0.3572248280965073 0.2322449175082153 0 -0.34682956183757307 0.2137907504506219 0 -0.34937276963816682 0.2073367508919568 0 -0.36139756198660361 0.2170986586604266 0 -0.36071698716871309 0.20547351948890619 0 -0.34937276963816682 0.2073367508919568 0 -0.36071698716871309 0.20547351948890619 0 -0.35423459864768392 0.2016965636788938 0 -0.34937276963816682 0.2073367508919568 0 -0.36139756198660361 0.2170986586604266 0 -0.34682956183757307 0.2137907504506219 0 -0.34937276963816682 0.2073367508919568 0 -0.36139756198660361 0.2170986586604266 0 -0.36139756198660361 0.2170986586604266 0 -0.3695893614186066 0.21089801379188039 0 -0.36071698716871309 0.20547351948890619 0 -0.37107359238792242 0.2240824917220271 0 -0.36139756198660361 0.2170986586604266 0 -0.3695893614186066 0.21089801379188039 0 -0.37812105176782512 0.21661334823991241 0 -0.37107359238792242 0.2240824917220271 0 -0.3695893614186066 0.21089801379188039 0 -0.3778695026521719 0.20501424373228569 0 -0.3695893614186066 0.21089801379188039 0 -0.36857735997020119 0.19907379860550259 0 -0.3695893614186066 0.21089801379188039 0 -0.36071698716871309 0.20547351948890619 0 -0.36857735997020119 0.19907379860550259 0 -0.36071698716871309 0.20547351948890619 0 -0.36089772008590232 0.19635628467810179 0 -0.36857735997020119 0.19907379860550259 0 -0.37673806501982621 0.192659408328269 0 -0.3778695026521719 0.20501424373228569 0 -0.36857735997020119 0.19907379860550259 0 -0.37673806501982621 0.192659408328269 0 -0.36857735997020119 0.19907379860550259 0 -0.36453519763255049 0.18939363985745339 0 -0.37673806501982621 0.192659408328269 0 -0.37167215183682772 0.18466049976717461 0 -0.36453519763255049 0.18939363985745339 0 -0.36089772008590232 0.19635628467810179 0 -0.36453519763255049 0.18939363985745339 0 -0.35651818076427272 0.18880092524782741 0 -0.36089772008590232 0.19635628467810179 0 -0.36857735997020119 0.19907379860550259 0 -0.36453519763255049 0.18939363985745339 0 -0.34857890993890173 0.18371014312158529 0 -0.35651818076427272 0.18880092524782741 0 -0.34965976455848857 0.19245837474873309 0 -0.35651818076427272 0.18880092524782741 0 -0.35410850319370968 0.195960685241375 0 -0.34965976455848857 0.19245837474873309 0 -0.36089772008590232 0.19635628467810179 0 -0.35651818076427272 0.18880092524782741 0 -0.35410850319370968 0.195960685241375 0 -0.36089772008590232 0.19635628467810179 0 -0.35423459864768392 0.2016965636788938 0 -0.35410850319370968 0.195960685241375 0 -0.36071698716871309 0.20547351948890619 0 -0.36089772008590232 0.19635628467810179 0 -0.35423459864768392 0.2016965636788938 0 -0.35423459864768392 0.2016965636788938 0 -0.35410850319370968 0.195960685241375 0 -0.34764635723520282 0.19964278748361489 0 -0.34937276963816682 0.2073367508919568 0 -0.34764635723520282 0.19964278748361489 0 -0.33734797728972948 0.1975748431234875 0 -0.35410850319370968 0.195960685241375 0 -0.34764635723520282 0.19964278748361489 0 -0.34965976455848857 0.19245837474873309 0 -0.34764635723520282 0.19964278748361489 0 -0.34965976455848857 0.19245837474873309 0 -0.34180286529085108 0.19531778727188531 0 -0.34937276963816682 0.2073367508919568 0 -0.35423459864768392 0.2016965636788938 0 -0.34764635723520282 0.19964278748361489 0 -0.34857890993890173 0.18371014312158529 0 -0.34965976455848857 0.19245837474873309 0 -0.34180286529085108 0.19531778727188531 0 -0.34857890993890173 0.18371014312158529 0 -0.34180286529085108 0.19531778727188531 0 -0.33469563345458758 0.19542163039941679 0 -0.34937276963816682 0.2073367508919568 0 -0.33734797728972948 0.1975748431234875 0 -0.33378519856470401 0.19937991444453379 0 -0.34937276963816682 0.2073367508919568 0 -0.33734797728972948 0.1975748431234875 0 -0.34764635723520282 0.19964278748361489 0 -0.34180286529085108 0.19531778727188531 0 -0.33734797728972948 0.1975748431234875 0 -0.34180286529085108 0.19531778727188531 0 -0.33734797728972948 0.1975748431234875 0 -0.33469563345458758 0.19542163039941679 0 -0.34180286529085108 0.19531778727188531 0 -0.33734797728972948 0.1975748431234875 0 -0.33734797728972948 0.1975748431234875 0 -0.33469563345458758 0.19542163039941679 0 -0.33734797728972948 0.1975748431234875 0 -0.33469563345458758 0.19542163039941679 0 -0.33378519856470401 0.19937991444453379 0 -0.33469563345458758 0.19542163039941679 0 -0.33378519856470401 0.19937991444453379 0 -0.3299624118908363 0.19515666868765241 0 -0.33469563345458758 0.19542163039941679 0 -0.33378519856470401 0.19937991444453379 0 -0.33734797728972948 0.1975748431234875 0 -0.33378519856470401 0.19937991444453379 0 -0.33378519856470401 0.19937991444453379 0 -0.32725750825547179 0.20268714946507821 0 -0.33287828109718959 0.2063529314743843 0 -0.33378519856470401 0.19937991444453379 0 -0.32725750825547179 0.20268714946507821 0 -0.33378519856470401 0.19937991444453379 0 -0.3299624118908363 0.19515666868765241 0 -0.3299624118908363 0.19515666868765241 0 -0.32725750825547179 0.20268714946507821 0 -0.33378519856470401 0.19937991444453379 0 -0.3299624118908363 0.19515666868765241 0 -0.32725750825547179 0.20268714946507821 0 -0.3299624118908363 0.19515666868765241 0 -0.32842354654035338 0.1950380929686997 0 -0.32725750825547179 0.20268714946507821 0 -0.33469563345458758 0.19542163039941679 0 -0.3299624118908363 0.19515666868765241 0 -0.3309573263025688 0.19238681627782839 0 -0.3299624118908363 0.19515666868765241 0 -0.3309573263025688 0.19238681627782839 0 -0.33469563345458758 0.19542163039941679 0 -0.3309573263025688 0.19238681627782839 0 -0.31774991061168972 0.18166483704540079 0 -0.3299624118908363 0.19515666868765241 0 -0.32842354654035338 0.1950380929686997 0 -0.32842354654035338 0.1950380929686997 0 -0.31663233946602332 0.19441201103084441 0 -0.3064421673458893 0.18047957485936481 0 -0.31663233946602332 0.19441201103084441 0 -0.32179556803302978 0.20545442535104549 0 -0.29924290715537272 0.18840081251003279 0 -0.31774991061168972 0.18166483704540079 0 -0.3299624118908363 0.19515666868765241 0 -0.32842354654035338 0.1950380929686997 0 -0.3064421673458893 0.18047957485936481 0 -0.31774991061168972 0.18166483704540079 0 -0.3299624118908363 0.19515666868765241 0 -0.3309573263025688 0.19238681627782839 0 -0.31663233946602332 0.19441201103084441 0 -0.32725750825547179 0.20268714946507821 0 -0.32179556803302978 0.20545442535104549 0 -0.32842354654035338 0.1950380929686997 0 -0.31663233946602332 0.19441201103084441 0 -0.32725750825547179 0.20268714946507821 0 -0.32725750825547179 0.20268714946507821 0 -0.32530918227261191 0.20811130993063401 0 -0.32179556803302978 0.20545442535104549 0 -0.32725750825547179 0.20268714946507821 0 -0.32179556803302978 0.20545442535104549 0 -0.32530918227261191 0.20811130993063401 0 -0.31806568044115369 0.2282772968404439 0 -0.32725750825547179 0.20268714946507821 0 -0.32530918227261191 0.20811130993063401 0 -0.32530918227261191 0.20811130993063401 0 -0.32179556803302978 0.20545442535104549 0 -0.31756144525618529 0.21235342724457021 0 -0.32530918227261191 0.20811130993063401 0 -0.32179556803302978 0.20545442535104549 0 -0.32179556803302978 0.20545442535104549 0 -0.31756144525618529 0.21235342724457021 0 -0.30688660284010932 0.2130080085436129 0 -0.32179556803302978 0.20545442535104549 0 -0.30688660284010932 0.2130080085436129 0 -0.31756144525618529 0.21235342724457021 0 -0.31625442787899172 0.22283996515298701 0 -0.30688660284010932 0.2130080085436129 0 -0.32530918227261191 0.20811130993063401 0 -0.31756144525618529 0.21235342724457021 0 -0.31625442787899172 0.22283996515298701 0 -0.32530918227261191 0.20811130993063401 0 -0.33575882640487398 0.2160130021666285 0 -0.32530918227261191 0.20811130993063401 0 -0.33575882640487398 0.2160130021666285 0 -0.3255356317557479 0.22206444600792871 0 -0.32530918227261191 0.20811130993063401 0 -0.33575882640487398 0.2160130021666285 0 -0.33287828109718959 0.2063529314743843 0 -0.33378519856470401 0.19937991444453379 0 -0.33287828109718959 0.2063529314743843 0 -0.33921332007495758 0.20900128204246671 0 -0.32725750825547179 0.20268714946507821 0 -0.32530918227261191 0.20811130993063401 0 -0.33287828109718959 0.2063529314743843 0 -0.34682956183757307 0.2137907504506219 0 -0.33378519856470401 0.19937991444453379 0 -0.33575882640487398 0.2160130021666285 0 -0.33287828109718959 0.2063529314743843 0 -0.33921332007495758 0.20900128204246671 0 -0.34682956183757307 0.2137907504506219 0 -0.34937276963816682 0.2073367508919568 0 -0.33378519856470401 0.19937991444453379 0 -0.34682956183757307 0.2137907504506219 0 -0.33378519856470401 0.19937991444453379 0 -0.33921332007495758 0.20900128204246671 0 -0.34682956183757307 0.2137907504506219 0 -0.33575882640487398 0.2160130021666285 0 -0.33921332007495758 0.20900128204246671 0 -0.33575882640487398 0.2160130021666285 0 -0.33921332007495758 0.20900128204246671 0 -0.33575882640487398 0.2160130021666285 0 -0.32386919994669783 0.24014583929624589 0 -0.33575882640487398 0.2160130021666285 0 -0.33978862411279592 0.2329936542908696 0 -0.32386919994669783 0.24014583929624589 0 -0.33575882640487398 0.2160130021666285 0 -0.3255356317557479 0.22206444600792871 0 -0.32386919994669783 0.24014583929624589 0 -0.32530918227261191 0.20811130993063401 0 -0.3255356317557479 0.22206444600792871 0 -0.31806568044115369 0.2282772968404439 0 -0.3255356317557479 0.22206444600792871 0 -0.31806568044115369 0.2282772968404439 0 -0.32386919994669783 0.24014583929624589 0 -0.32530918227261191 0.20811130993063401 0 -0.31625442787899172 0.22283996515298701 0 -0.31806568044115369 0.2282772968404439 0 -0.31625442787899172 0.22283996515298701 0 -0.31806568044115369 0.2282772968404439 0 -0.31014840991159709 0.2268874741068925 0 -0.31806568044115369 0.2282772968404439 0 -0.31082668059436669 0.23680387223071631 0 -0.31014840991159709 0.2268874741068925 0 -0.31806568044115369 0.2282772968404439 0 -0.32386919994669783 0.24014583929624589 0 -0.31082668059436669 0.23680387223071631 0 -0.32386919994669783 0.24014583929624589 0 -0.31183092242521693 0.24988072727625629 0 -0.31082668059436669 0.23680387223071631 0 -0.33978862411279592 0.2329936542908696 0 -0.32386919994669783 0.24014583929624589 0 -0.33601509611822311 0.25957077895831432 0 -0.34916208045610958 0.24571638332980941 0 -0.33978862411279592 0.2329936542908696 0 -0.33601509611822311 0.25957077895831432 0 -0.30046819213951759 0.24249110290727899 0 -0.28370263650776401 0.22475409662946991 0 -0.28466639004046312 0.25579092269198822 0 -0.30046819213951759 0.24249110290727899 0 -0.31183092242521693 0.24988072727625629 0 -0.28466639004046312 0.25579092269198822 0 -0.30046819213951759 0.24249110290727899 0 -0.31183092242521693 0.24988072727625629 0 -0.31082668059436669 0.23680387223071631 0 -0.30046819213951759 0.24249110290727899 0 -0.31082668059436669 0.23680387223071631 0 -0.30099394214177239 0.23073329629308709 0 -0.30099394214177239 0.23073329629308709 0 -0.28370263650776401 0.22475409662946991 0 -0.30688660284010932 0.2130080085436129 0 -0.30099394214177239 0.23073329629308709 0 -0.31014840991159709 0.2268874741068925 0 -0.30688660284010932 0.2130080085436129 0 -0.31082668059436669 0.23680387223071631 0 -0.30099394214177239 0.23073329629308709 0 -0.31014840991159709 0.2268874741068925 0 -0.31625442787899172 0.22283996515298701 0 -0.31014840991159709 0.2268874741068925 0 -0.30688660284010932 0.2130080085436129 0 -0.28370263650776401 0.22475409662946991 0 -0.30688660284010932 0.2130080085436129 0 -0.30046819213951759 0.24249110290727899 0 -0.30099394214177239 0.23073329629308709 0 -0.28370263650776401 0.22475409662946991 0 -0.28370263650776401 0.22475409662946991 0 -0.28854001749986979 0.21076083715582239 0 -0.30688660284010932 0.2130080085436129 0 -0.28854001749986979 0.21076083715582239 0 -0.30688660284010932 0.2130080085436129 0 -0.28850603645563438 0.19371677174128621 0 -0.30688660284010932 0.2130080085436129 0 -0.28850603645563438 0.19371677174128621 0 -0.31625442787899172 0.22283996515298701 0 -0.30688660284010932 0.2130080085436129 0 -0.32179556803302978 0.20545442535104549 0 -0.29924290715537272 0.18840081251003279 0 -0.31663233946602332 0.19441201103084441 0 -0.29924290715537272 0.18840081251003279 0 -0.3064421673458893 0.18047957485936481 0 -0.30688660284010932 0.2130080085436129 0 -0.29924290715537272 0.18840081251003279 0 -0.28850603645563438 0.19371677174128621 0 -0.32179556803302978 0.20545442535104549 0 -0.30688660284010932 0.2130080085436129 0 -0.29924290715537272 0.18840081251003279 0 -0.28850603645563438 0.19371677174128621 0 -0.2568718313610715 0.19166486629454979 0 -0.26648695695160962 0.21464700369211159 0 -0.2568718313610715 0.19166486629454979 0 -0.26648695695160962 0.21464700369211159 0 -0.24168673079045119 0.2142140283152463 0 -0.28370263650776401 0.22475409662946991 0 -0.28854001749986979 0.21076083715582239 0 -0.26648695695160962 0.21464700369211159 0 -0.28854001749986979 0.21076083715582239 0 -0.28850603645563438 0.19371677174128621 0 -0.26648695695160962 0.21464700369211159 0 -0.28370263650776401 0.22475409662946991 0 -0.26051867017541969 0.23650018471532899 0 -0.28370263650776401 0.22475409662946991 0 -0.26648695695160962 0.21464700369211159 0 -0.26051867017541969 0.23650018471532899 0 -0.26648695695160962 0.21464700369211159 0 -0.26051867017541969 0.23650018471532899 0 -0.24449939204326501 0.2311208205319209 0 -0.26648695695160962 0.21464700369211159 0 -0.24449939204326501 0.2311208205319209 0 -0.24168673079045119 0.2142140283152463 0 -0.28370263650776401 0.22475409662946991 0 -0.26051867017541969 0.23650018471532899 0 -0.28466639004046312 0.25579092269198822 0 -0.29637641302874862 0.16431350938431211 0 -0.27500291544580679 0.14696218172322431 0 -0.28571212241316912 0.14319931123632251 0 -0.30739392374180519 0.1603147186065384 0 -0.28571212241316912 0.14319931123632251 0 -0.29841133436757361 0.16030043274175551 0 -0.29637641302874862 0.16431350938431211 0 -0.28571212241316912 0.14319931123632251 0 -0.29637641302874862 0.16431350938431211 0 -0.27500291544580679 0.14696218172322431 0 -0.28571212241316912 0.14319931123632251 0 -0.30724080944409649 0.13563482384734959 0 -0.28571212241316912 0.14319931123632251 0 -0.29387890782956477 0.12891030745789281 0 -0.30724080944409649 0.13563482384734959 0 -0.28571212241316912 0.14319931123632251 0 -0.28133549857905199 0.12717373695176459 0 -0.29387890782956477 0.12891030745789281 0 -0.29387890782956477 0.12891030745789281 0 -0.30724080944409649 0.13563482384734959 0 -0.30822054705628632 0.1162359202591448 0 -0.28571212241316912 0.14319931123632251 0 -0.30327358340173388 0.1468363066953679 0 -0.30739392374180519 0.1603147186065384 0 -0.31523652757330739 0.14575041187509941 0 -0.30724080944409649 0.13563482384734959 0 -0.30327358340173388 0.1468363066953679 0 -0.28571212241316912 0.14319931123632251 0 -0.29841133436757361 0.16030043274175551 0 -0.30739392374180519 0.1603147186065384 0 -0.28571212241316912 0.14319931123632251 0 -0.30724080944409649 0.13563482384734959 0 -0.30327358340173388 0.1468363066953679 0 -0.31523652757330739 0.14575041187509941 0 -0.30327358340173388 0.1468363066953679 0 -0.30739392374180519 0.1603147186065384 0 -0.31774991061168972 0.18166483704540079 0 -0.31463461700644019 0.16558291409065579 0 -0.29841133436757361 0.16030043274175551 0 -0.31774991061168972 0.18166483704540079 0 -0.29841133436757361 0.16030043274175551 0 -0.29637641302874862 0.16431350938431211 0 -0.31774991061168972 0.18166483704540079 0 -0.29841133436757361 0.16030043274175551 0 -0.31463461700644019 0.16558291409065579 0 -0.29841133436757361 0.16030043274175551 0 -0.30739392374180519 0.1603147186065384 0 -0.31774991061168972 0.18166483704540079 0 -0.29637641302874862 0.16431350938431211 0 -0.31774991061168972 0.18166483704540079 0 -0.3064421673458893 0.18047957485936481 0 -0.29637641302874862 0.16431350938431211 0 -0.29924290715537272 0.18840081251003279 0 -0.3064421673458893 0.18047957485936481 0 -0.28446078815142523 0.16592105675002999 0 -0.3064421673458893 0.18047957485936481 0 -0.28446078815142523 0.16592105675002999 0 -0.29924290715537272 0.18840081251003279 0 -0.28850603645563438 0.19371677174128621 0 -0.27669024627771632 0.17134719966901921 0 -0.29924290715537272 0.18840081251003279 0 -0.27669024627771632 0.17134719966901921 0 -0.29924290715537272 0.18840081251003279 0 -0.28446078815142523 0.16592105675002999 0 -0.27669024627771632 0.17134719966901921 0 -0.28446078815142523 0.16592105675002999 0 -0.29637641302874862 0.16431350938431211 0 -0.27500291544580679 0.14696218172322431 0 -0.3064421673458893 0.18047957485936481 0 -0.28446078815142523 0.16592105675002999 0 -0.29637641302874862 0.16431350938431211 0 -0.28446078815142523 0.16592105675002999 0 -0.27669024627771632 0.17134719966901921 0 -0.26247940895696081 0.15136253864069579 0 -0.28446078815142523 0.16592105675002999 0 -0.26247940895696081 0.15136253864069579 0 -0.27669024627771632 0.17134719966901921 0 -0.27012547007116 0.17442553493895879 0 -0.25413758540005887 0.15429358682800659 0 -0.28850603645563438 0.19371677174128621 0 -0.2568718313610715 0.19166486629454979 0 -0.27012547007116 0.17442553493895879 0 -0.28850603645563438 0.19371677174128621 0 -0.27669024627771632 0.17134719966901921 0 -0.27012547007116 0.17442553493895879 0 -0.28850603645563438 0.19371677174128621 0 -0.27012547007116 0.17442553493895879 0 -0.2568718313610715 0.19166486629454979 0 -0.27012547007116 0.17442553493895879 0 -0.24748315133092821 0.1734738972539549 0 -0.27669024627771632 0.17134719966901921 0 -0.25413758540005887 0.15429358682800659 0 -0.27669024627771632 0.17134719966901921 0 -0.25413758540005887 0.15429358682800659 0 -0.26247940895696081 0.15136253864069579 0 -0.27012547007116 0.17442553493895879 0 -0.25174490368668612 0.1551342981366309 0 -0.24748315133092821 0.1734738972539549 0 -0.27012547007116 0.17442553493895879 0 -0.25174490368668612 0.1551342981366309 0 -0.27012547007116 0.17442553493895879 0 -0.25174490368668612 0.1551342981366309 0 -0.25413758540005887 0.15429358682800659 0 -0.25413758540005887 0.15429358682800659 0 -0.26247940895696081 0.15136253864069579 0 -0.2486440826603166 0.14219924426065081 0 -0.25174490368668612 0.1551342981366309 0 -0.25413758540005887 0.15429358682800659 0 -0.24971364218158221 0.15300239719937289 0 -0.25174490368668612 0.1551342981366309 0 -0.25413758540005887 0.15429358682800659 0 -0.25174490368668612 0.1551342981366309 0 -0.24971364218158221 0.15300239719937289 0 -0.26247940895696081 0.15136253864069579 0 -0.2486440826603166 0.14219924426065081 0 -0.26247940895696081 0.15136253864069579 0 -0.26127970442641862 0.13582147206465359 0 -0.2486440826603166 0.14219924426065081 0 -0.25413758540005887 0.15429358682800659 0 -0.26247940895696081 0.15136253864069579 0 -0.28446078815142523 0.16592105675002999 0 -0.26247940895696081 0.15136253864069579 0 -0.27500291544580679 0.14696218172322431 0 -0.26247940895696081 0.15136253864069579 0 -0.27500291544580679 0.14696218172322431 0 -0.26247940895696081 0.15136253864069579 0 -0.27500291544580679 0.14696218172322431 0 -0.26127970442641862 0.13582147206465359 0 -0.27500291544580679 0.14696218172322431 0 -0.26127970442641862 0.13582147206465359 0 -0.28571212241316912 0.14319931123632251 0 -0.27500291544580679 0.14696218172322431 0 -0.28571212241316912 0.14319931123632251 0 -0.2654823702893841 0.12723013767232749 0 -0.28571212241316912 0.14319931123632251 0 -0.28133549857905199 0.12717373695176459 0 -0.2654823702893841 0.12723013767232749 0 -0.28571212241316912 0.14319931123632251 0 -0.27500291544580679 0.14696218172322431 0 -0.2654823702893841 0.12723013767232749 0 -0.27500291544580679 0.14696218172322431 0 -0.2654823702893841 0.12723013767232749 0 -0.26127970442641862 0.13582147206465359 0 -0.2654823702893841 0.12723013767232749 0 -0.26127970442641862 0.13582147206465359 0 -0.25439717260920541 0.12888327988199599 0 -0.26127970442641862 0.13582147206465359 0 -0.25439717260920541 0.12888327988199599 0 -0.2486440826603166 0.14219924426065081 0 -0.2654823702893841 0.12723013767232749 0 -0.26226498551467847 0.1104202523005192 0 -0.24525261816559929 0.11126096410833219 0 -0.2654823702893841 0.12723013767232749 0 -0.25439717260920541 0.12888327988199599 0 -0.24525261816559929 0.11126096410833219 0 -0.2654823702893841 0.12723013767232749 0 -0.24525261816559929 0.11126096410833219 0 -0.26226498551467847 0.1104202523005192 0 -0.25375111804555178 0.094527748401868408 0 -0.27311838560270768 0.1016697336008771 0 -0.26226498551467847 0.1104202523005192 0 -0.25375111804555178 0.094527748401868408 0 -0.24525261816559929 0.11126096410833219 0 -0.27311838560270768 0.1016697336008771 0 -0.27372043547014979 0.1174126777191906 0 -0.28704386686040889 0.1164919423174135 0 -0.2654823702893841 0.12723013767232749 0 -0.26226498551467847 0.1104202523005192 0 -0.27372043547014979 0.1174126777191906 0 -0.26226498551467847 0.1104202523005192 0 -0.27311838560270768 0.1016697336008771 0 -0.27372043547014979 0.1174126777191906 0 -0.28133549857905199 0.12717373695176459 0 -0.2654823702893841 0.12723013767232749 0 -0.27372043547014979 0.1174126777191906 0 -0.28133549857905199 0.12717373695176459 0 -0.27372043547014979 0.1174126777191906 0 -0.28704386686040889 0.1164919423174135 0 -0.28704386686040889 0.1164919423174135 0 -0.29524873837600962 0.099688464138939725 0 -0.30822054705628632 0.1162359202591448 0 -0.28133549857905199 0.12717373695176459 0 -0.29387890782956477 0.12891030745789281 0 -0.28704386686040889 0.1164919423174135 0 -0.29387890782956477 0.12891030745789281 0 -0.28704386686040889 0.1164919423174135 0 -0.30822054705628632 0.1162359202591448 0 -0.27311838560270768 0.1016697336008771 0 -0.29524873837600962 0.099688464138939725 0 -0.28272631838532242 0.084587387216851564 0 -0.27311838560270768 0.1016697336008771 0 -0.28704386686040889 0.1164919423174135 0 -0.29524873837600962 0.099688464138939725 0 -0.29524873837600962 0.099688464138939725 0 -0.30822054705628632 0.1162359202591448 0 -0.31301222874775209 0.097501926860358315 0 -0.30525737468040243 0.080941851234507284 0 -0.29527944280174889 0.062801265902696066 0 -0.32179802152448272 0.060314770420372157 0 -0.29524873837600962 0.099688464138939725 0 -0.30525737468040243 0.080941851234507284 0 -0.31301222874775209 0.097501926860358315 0 -0.29524873837600962 0.099688464138939725 0 -0.30525737468040243 0.080941851234507284 0 -0.28272631838532242 0.084587387216851564 0 -0.28272631838532242 0.084587387216851564 0 -0.29527944280174889 0.062801265902696066 0 -0.27404268767909262 0.060070958948593753 0 -0.30525737468040243 0.080941851234507284 0 -0.28272631838532242 0.084587387216851564 0 -0.29527944280174889 0.062801265902696066 0 -0.28272631838532242 0.084587387216851564 0 -0.26462211094171012 0.077918563537391905 0 -0.27404268767909262 0.060070958948593753 0 -0.27311838560270768 0.1016697336008771 0 -0.28272631838532242 0.084587387216851564 0 -0.26462211094171012 0.077918563537391905 0 -0.25375111804555178 0.094527748401868408 0 -0.26462211094171012 0.077918563537391905 0 -0.2453757526417468 0.076572001760675037 0 -0.25375111804555178 0.094527748401868408 0 -0.27311838560270768 0.1016697336008771 0 -0.26462211094171012 0.077918563537391905 0 -0.26462211094171012 0.077918563537391905 0 -0.24903984103050511 0.052907275765899001 0 -0.2453757526417468 0.076572001760675037 0 -0.26462211094171012 0.077918563537391905 0 -0.27404268767909262 0.060070958948593753 0 -0.24903984103050511 0.052907275765899001 0 -0.26430077929969908 0.035955488428566322 0 -0.27404268767909262 0.060070958948593753 0 -0.24903984103050511 0.052907275765899001 0 -0.26430077929969908 0.035955488428566322 0 -0.24903984103050511 0.052907275765899001 0 -0.26430077929969908 0.035955488428566322 0 -0.2411478713000007 0.037489183257708301 0 -0.24903984103050511 0.052907275765899001 0 -0.26430077929969908 0.035955488428566322 0 -0.25129116539870022 0.020561246150236911 0 -0.2411478713000007 0.037489183257708301 0 -0.26430077929969908 0.035955488428566322 0 -0.27956171756888581 0.019003701091227041 0 -0.28197796272784748 0.042839900952749678 0 -0.26430077929969908 0.035955488428566322 0 -0.27404268767909262 0.060070958948593753 0 -0.28197796272784748 0.042839900952749678 0 -0.2607855049462805 0.00063880291721445104 0 -0.25129116539870022 0.020561246150236911 0 -0.27956171756888581 0.019003701091227041 0 -0.26430077929969908 0.035955488428566322 0 -0.25129116539870022 0.020561246150236911 0 -0.27956171756888581 0.019003701091227041 0 -0.26430077929969908 0.035955488428566322 0 -0.27956171756888581 0.019003701091227041 0 -0.2607855049462805 0.00063880291721445104 0 -0.27956171756888581 0.019003701091227041 0 -0.2607855049462805 0.00063880291721445104 0 -0.27956171756888581 0.019003701091227041 0 -0.27919270882625968 0.00053425038285558806 0 -0.27956171756888581 0.019003701091227041 0 -0.27919270882625968 0.00053425038285558806 0 -0.29112012326521658 0.0061646716772815616 0 -0.27956171756888581 0.019003701091227041 0 -0.29112012326521658 0.0061646716772815616 0 -0.27956171756888581 0.019003701091227041 0 -0.30067986954668408 0.039659235755799778 0 -0.27956171756888581 0.019003701091227041 0 -0.29714380000426821 0.021748113214595539 0 -0.30067986954668408 0.039659235755799778 0 -0.27956171756888581 0.019003701091227041 0 -0.29112012326521658 0.0061646716772815616 0 -0.29714380000426821 0.021748113214595539 0 -0.29714380000426821 0.021748113214595539 0 -0.30067986954668408 0.039659235755799778 0 -0.3129442524795179 0.01418968874355204 0 -0.30267852896154013 -0.0066743577366705394 0 -0.29112012326521658 0.0061646716772815616 0 -0.3129442524795179 0.01418968874355204 0 -0.29112012326521658 0.0061646716772815616 0 -0.29714380000426821 0.021748113214595539 0 -0.3129442524795179 0.01418968874355204 0 -0.30267852896154013 -0.0066743577366705394 0 -0.31884765557223532 -0.0027971671293464469 0 -0.3129442524795179 0.01418968874355204 0 -0.29527944280174889 0.062801265902696066 0 -0.28197796272784748 0.042839900952749678 0 -0.30067986954668408 0.039659235755799778 0 -0.29527944280174889 0.062801265902696066 0 -0.27404268767909262 0.060070958948593753 0 -0.28197796272784748 0.042839900952749678 0 -0.27956171756888581 0.019003701091227041 0 -0.28197796272784748 0.042839900952749678 0 -0.30067986954668408 0.039659235755799778 0 -0.30067986954668408 0.039659235755799778 0 -0.32179802152448272 0.060314770420372157 0 -0.29527944280174889 0.062801265902696066 0 -0.30067986954668408 0.039659235755799778 0 -0.32179802152448272 0.060314770420372157 0 -0.30067986954668408 0.039659235755799778 0 -0.32179802152448272 0.060314770420372157 0 -0.32708846578902689 0.045633177444684647 0 -0.30067986954668408 0.039659235755799778 0 -0.32708846578902689 0.045633177444684647 0 -0.32994189395422618 0.03005706720294872 0 -0.32994189395422618 0.03005706720294872 0 -0.34778558846347529 0.0294726716213271 0 -0.34496489709182598 0.04611596072906779 0 -0.32708846578902689 0.045633177444684647 0 -0.32994189395422618 0.03005706720294872 0 -0.34496489709182598 0.04611596072906779 0 -0.32708846578902689 0.045633177444684647 0 -0.33622881006675992 0.059162493685319291 0 -0.34496489709182598 0.04611596072906779 0 -0.33622881006675992 0.059162493685319291 0 -0.348711290301432 0.059574537310709517 0 -0.34496489709182598 0.04611596072906779 0 -0.33622881006675992 0.059162493685319291 0 -0.348711290301432 0.059574537310709517 0 -0.34542889168772128 0.068217376551685222 0 -0.32179802152448272 0.060314770420372157 0 -0.32708846578902689 0.045633177444684647 0 -0.33622881006675992 0.059162493685319291 0 -0.31884765557223532 -0.0027971671293464469 0 -0.3129442524795179 0.01418968874355204 0 -0.34099450962819489 0.0075674060049263012 0 -0.3129442524795179 0.01418968874355204 0 -0.32994189395422618 0.03005706720294872 0 -0.34099450962819489 0.0075674060049263012 0 -0.30067986954668408 0.039659235755799778 0 -0.3129442524795179 0.01418968874355204 0 -0.32994189395422618 0.03005706720294872 0 -0.32994189395422618 0.03005706720294872 0 -0.34099450962819489 0.0075674060049263012 0 -0.34778558846347529 0.0294726716213271 0 -0.32994189395422618 0.03005706720294872 0 -0.34099450962819489 0.0075674060049263012 0 -0.34099450962819489 0.0075674060049263012 0 -0.35650028279266027 0.0036910959581561401 0 -0.35890942455418862 0.018222733645385319 0 -0.35890942455418862 0.018222733645385319 0 -0.34778558846347529 0.0294726716213271 0 -0.36198338103928379 0.041144587366063842 0 -0.34099450962819489 0.0075674060049263012 0 -0.35890942455418862 0.018222733645385319 0 -0.34778558846347529 0.0294726716213271 0 -0.3801605458460946 0.032746825862793157 0 -0.35890942455418862 0.018222733645385319 0 -0.37405007168609422 0.0038964993754090939 0 -0.3801605458460946 0.032746825862793157 0 -0.35890942455418862 0.018222733645385319 0 -0.36198338103928379 0.041144587366063842 0 -0.35650028279266027 0.0036910959581561401 0 -0.35890942455418862 0.018222733645385319 0 -0.37405007168609422 0.0038964993754090939 0 -0.348711290301432 0.059574537310709517 0 -0.34496489709182598 0.04611596072906779 0 -0.36126444743280101 0.05737343629865873 0 -0.34496489709182598 0.04611596072906779 0 -0.36198338103928379 0.041144587366063842 0 -0.36126444743280101 0.05737343629865873 0 -0.348711290301432 0.059574537310709517 0 -0.36126444743280101 0.05737343629865873 0 -0.35646325842673188 0.067346604198113461 0 -0.34778558846347529 0.0294726716213271 0 -0.34496489709182598 0.04611596072906779 0 -0.36198338103928379 0.041144587366063842 0 -0.37688779552557522 0.05495176422339032 0 -0.3801605458460946 0.032746825862793157 0 -0.36198338103928379 0.041144587366063842 0 -0.37688779552557522 0.05495176422339032 0 -0.36126444743280101 0.05737343629865873 0 -0.37316665922047931 0.0724297711955708 0 -0.37688779552557522 0.05495176422339032 0 -0.36198338103928379 0.041144587366063842 0 -0.36126444743280101 0.05737343629865873 0 -0.36126444743280101 0.05737343629865873 0 -0.37316665922047931 0.0724297711955708 0 -0.35646325842673188 0.067346604198113461 0 -0.37316665922047931 0.0724297711955708 0 -0.35646325842673188 0.067346604198113461 0 -0.35676805845111897 0.078411078463430137 0 -0.35646325842673188 0.067346604198113461 0 -0.34542889168772128 0.068217376551685222 0 -0.35676805845111897 0.078411078463430137 0 -0.34542889168772128 0.068217376551685222 0 -0.35676805845111897 0.078411078463430137 0 -0.34291617350228137 0.080970305084944683 0 -0.34542889168772128 0.068217376551685222 0 -0.35676805845111897 0.078411078463430137 0 -0.348711290301432 0.059574537310709517 0 -0.35646325842673188 0.067346604198113461 0 -0.34542889168772128 0.068217376551685222 0 -0.3640343254800808 0.1016258397495166 0 -0.34291617350228137 0.080970305084944683 0 -0.35676805845111897 0.078411078463430137 0 -0.3640343254800808 0.1016258397495166 0 -0.34291617350228137 0.080970305084944683 0 -0.35676805845111897 0.078411078463430137 0 -0.36810722521451761 0.088604780375174205 0 -0.3640343254800808 0.1016258397495166 0 -0.38136269478661089 0.083660651903409627 0 -0.37316665922047931 0.0724297711955708 0 -0.36810722521451761 0.088604780375174205 0 -0.37316665922047931 0.0724297711955708 0 -0.36810722521451761 0.088604780375174205 0 -0.37316665922047931 0.0724297711955708 0 -0.35676805845111897 0.078411078463430137 0 -0.36810722521451761 0.088604780375174205 0 -0.35676805845111897 0.078411078463430137 0 -0.36810722521451761 0.088604780375174205 0 -0.38511909746425521 0.1038981399573173 0 -0.36810722521451761 0.088604780375174205 0 -0.3640343254800808 0.1016258397495166 0 -0.36810722521451761 0.088604780375174205 0 -0.3640343254800808 0.1016258397495166 0 -0.38077851961252179 0.1180032331263893 0 -0.3640343254800808 0.1016258397495166 0 -0.38077851961252179 0.1180032331263893 0 -0.35669965247370788 0.12507478741199179 0 -0.3640343254800808 0.1016258397495166 0 -0.35669965247370788 0.12507478741199179 0 -0.3640343254800808 0.1016258397495166 0 -0.35669965247370788 0.12507478741199179 0 -0.3640343254800808 0.1016258397495166 0 -0.35029818350595188 0.1205058490694053 0 -0.3640343254800808 0.1016258397495166 0 -0.35029818350595188 0.1205058490694053 0 -0.34722294871542952 0.1020749213042423 0 -0.3640343254800808 0.1016258397495166 0 -0.34722294871542952 0.1020749213042423 0 -0.34291617350228137 0.080970305084944683 0 -0.34722294871542952 0.1020749213042423 0 -0.33164311237340338 0.1051976913131026 0 -0.34291617350228137 0.080970305084944683 0 -0.35029818350595188 0.1205058490694053 0 -0.34722294871542952 0.1020749213042423 0 -0.33164311237340338 0.1051976913131026 0 -0.32876949647502418 0.12807033645837751 0 -0.35029818350595188 0.1205058490694053 0 -0.32876949647502418 0.12807033645837751 0 -0.35029818350595188 0.1205058490694053 0 -0.33164311237340338 0.1051976913131026 0 -0.32876949647502418 0.12807033645837751 0 -0.30822054705628632 0.1162359202591448 0 -0.33164311237340338 0.1051976913131026 0 -0.30822054705628632 0.1162359202591448 0 -0.33164311237340338 0.1051976913131026 0 -0.31301222874775209 0.097501926860358315 0 -0.33164311237340338 0.1051976913131026 0 -0.31301222874775209 0.097501926860358315 0 -0.32319678596065271 0.082914443946821362 0 -0.30525737468040243 0.080941851234507284 0 -0.31301222874775209 0.097501926860358315 0 -0.32319678596065271 0.082914443946821362 0 -0.30525737468040243 0.080941851234507284 0 -0.32179802152448272 0.060314770420372157 0 -0.32319678596065271 0.082914443946821362 0 -0.32179802152448272 0.060314770420372157 0 -0.34291617350228137 0.080970305084944683 0 -0.32179802152448272 0.060314770420372157 0 -0.33622881006675992 0.059162493685319291 0 -0.34291617350228137 0.080970305084944683 0 -0.33622881006675992 0.059162493685319291 0 -0.34542889168772128 0.068217376551685222 0 -0.34291617350228137 0.080970305084944683 0 -0.32179802152448272 0.060314770420372157 0 -0.32319678596065271 0.082914443946821362 0 -0.34291617350228137 0.080970305084944683 0 -0.33164311237340338 0.1051976913131026 0 -0.32319678596065271 0.082914443946821362 0 -0.34291617350228137 0.080970305084944683 0 -0.39131848999564728 0.49041650177784868 0 -0.44369523380618148 0.5 0 -0.37118578511397149 0.50000000000000377 0 -0.39131848999564728 0.49041650177784868 0 -0.40061797909777019 0.46745561164628302 0 -0.4200390101982468 0.48757819080546982 0 -0.39131848999564728 0.49041650177784868 0 -0.4200390101982468 0.48757819080546982 0 -0.39131848999564728 0.49041650177784868 0 -0.37314454094397631 0.48282983552261149 0 -0.36259796979304798 0.49325481275022792 0 -0.39131848999564728 0.49041650177784868 0 -0.37118578511397149 0.50000000000000377 0 -0.36259796979304798 0.49325481275022792 0 -0.39131848999564728 0.49041650177784868 0 -0.36259796979304798 0.49325481275022792 0 -0.39131848999564728 0.49041650177784868 0 -0.37746907098051269 0.46930677346176097 0 -0.40061797909777019 0.46745561164628302 0 -0.39131848999564728 0.49041650177784868 0 -0.37746907098051269 0.46930677346176097 0 -0.37314454094397631 0.48282983552261149 0 -0.37746907098051269 0.46930677346176097 0 -0.3896923959816791 0.45289667862344613 0 -0.37117916830981812 0.44896766552950063 0 -0.37746907098051269 0.46930677346176097 0 -0.3896923959816791 0.45289667862344613 0 -0.40061797909777019 0.46745561164628302 0 -0.3896923959816791 0.45289667862344613 0 -0.38719407409080908 0.43578255220946199 0 -0.37117916830981812 0.44896766552950063 0 -0.3896923959816791 0.45289667862344613 0 -0.41200168742948529 0.44297079027022418 0 -0.38719407409080908 0.43578255220946199 0 -0.3896923959816791 0.45289667862344613 0 -0.40061797909777019 0.46745561164628302 0 -0.41200168742948529 0.44297079027022418 0 -0.41200168742948529 0.44297079027022418 0 -0.4322481819289114 0.46020120920089358 0 -0.44349590747180168 0.44616116723866789 0 -0.41200168742948529 0.44297079027022418 0 -0.44349590747180168 0.44616116723866789 0 -0.43400126557211338 0.43086831486076371 0 -0.41200168742948529 0.44297079027022418 0 -0.4322481819289114 0.46020120920089358 0 -0.41771511968983188 0.46975132164087119 0 -0.40061797909777019 0.46745561164628302 0 -0.41200168742948529 0.44297079027022418 0 -0.41771511968983188 0.46975132164087119 0 -0.4322481819289114 0.46020120920089358 0 -0.43362370507996201 0.47365991730910628 0 -0.41771511968983188 0.46975132164087119 0 -0.39131848999564728 0.49041650177784868 0 -0.4200390101982468 0.48757819080546982 0 -0.44369523380618148 0.5 0 -0.43362370507996201 0.47365991730910628 0 -0.41771511968983188 0.46975132164087119 0 -0.4200390101982468 0.48757819080546982 0 -0.43362370507996201 0.47365991730910628 0 -0.4200390101982468 0.48757819080546982 0 -0.44875953040084621 0.48473987983309091 0 -0.40061797909777019 0.46745561164628302 0 -0.41771511968983188 0.46975132164087119 0 -0.4200390101982468 0.48757819080546982 0 -0.4200390101982468 0.48757819080546982 0 -0.44875953040084621 0.48473987983309091 0 -0.44369523380618148 0.5 0 -0.4200390101982468 0.48757819080546982 0 -0.44875953040084621 0.48473987983309091 0 -0.43362370507996201 0.47365991730910628 0 -0.44875953040084621 0.48473987983309091 0 -0.4493566831819733 0.46602898506520612 0 -0.44875953040084621 0.48473987983309091 0 -0.46778070081821538 0.4763766942698201 0 -0.4493566831819733 0.46602898506520612 0 -0.44875953040084621 0.48473987983309091 0 -0.44369523380618148 0.5 0 -0.46778070081821538 0.4763766942698201 0 -0.44369523380618148 0.5 0 -0.46778070081821538 0.4763766942698201 0 -0.5 0.5 0 -0.46778070081821538 0.4763766942698201 0 -0.5 0.5 0 -0.5 0.45531966259423318 0 -0.5 0.45531966259423318 0 -0.46409398481952069 0.4510977882942015 0 -0.47874226943784542 0.43027890575908512 0 -0.46778070081821538 0.4763766942698201 0 -0.5 0.45531966259423318 0 -0.46409398481952069 0.4510977882942015 0 -0.46409398481952069 0.4510977882942015 0 -0.44349590747180168 0.44616116723866789 0 -0.45600084371474148 0.41876583945130319 0 -0.46778070081821538 0.4763766942698201 0 -0.46409398481952069 0.4510977882942015 0 -0.4493566831819733 0.46602898506520612 0 -0.4322481819289114 0.46020120920089358 0 -0.43362370507996201 0.47365991730910628 0 -0.4493566831819733 0.46602898506520612 0 -0.4322481819289114 0.46020120920089358 0 -0.4493566831819733 0.46602898506520612 0 -0.44349590747180168 0.44616116723866789 0 -0.46409398481952069 0.4510977882942015 0 -0.4493566831819733 0.46602898506520612 0 -0.44349590747180168 0.44616116723866789 0 -0.44349590747180168 0.44616116723866789 0 -0.45600084371474148 0.41876583945130319 0 -0.43400126557211338 0.43086831486076371 0 -0.45600084371474148 0.41876583945130319 0 -0.43400126557211338 0.43086831486076371 0 -0.46409398481952069 0.4510977882942015 0 -0.45600084371474148 0.41876583945130319 0 -0.47874226943784542 0.43027890575908512 0 -0.45600084371474148 0.41876583945130319 0 -0.44161485642063808 0.4010455711047185 0 -0.43400126557211338 0.43086831486076371 0 -0.45600084371474148 0.41876583945130319 0 -0.46073656154320097 0.39978536379449131 0 -0.44161485642063808 0.4010455711047185 0 -0.45600084371474148 0.41876583945130319 0 -0.47800042185736957 0.40666336404184272 0 -0.46073656154320097 0.39978536379449131 0 -0.45600084371474148 0.41876583945130319 0 -0.47800042185736957 0.40666336404184272 0 -0.5 0.45531966259423318 0 -0.47874226943784542 0.43027890575908512 0 -0.499999999999998 0.39456088863238309 0 -0.47874226943784542 0.43027890575908512 0 -0.47800042185736957 0.40666336404184272 0 -0.499999999999998 0.39456088863238309 0 -0.45600084371474148 0.41876583945130319 0 -0.47874226943784542 0.43027890575908512 0 -0.47800042185736957 0.40666336404184272 0 -0.499999999999998 0.39456088863238309 0 -0.47852673611292579 0.38668967357195311 0 -0.5 0.37338789238315162 0 -0.47800042185736957 0.40666336404184272 0 -0.499999999999998 0.39456088863238309 0 -0.47800042185736957 0.40666336404184272 0 -0.499999999999998 0.39456088863238309 0 -0.47852673611292579 0.38668967357195311 0 -0.47800042185736957 0.40666336404184272 0 -0.47852673611292579 0.38668967357195311 0 -0.46073656154320097 0.39978536379449131 0 -0.47852673611292579 0.38668967357195311 0 -0.45716318178987292 0.38049195382563872 0 -0.47684842485784962 0.36415057521733651 0 -0.47852673611292579 0.38668967357195311 0 -0.45716318178987292 0.38049195382563872 0 -0.46073656154320097 0.39978536379449131 0 -0.45716318178987292 0.38049195382563872 0 -0.46073656154320097 0.39978536379449131 0 -0.44161485642063808 0.4010455711047185 0 -0.45716318178987292 0.38049195382563872 0 -0.44161485642063808 0.4010455711047185 0 -0.43813524633865458 0.37638922877564113 0 -0.44161485642063808 0.4010455711047185 0 -0.43813524633865458 0.37638922877564113 0 -0.42385083793994027 0.39081016092405407 0 -0.43813524633865458 0.37638922877564113 0 -0.42037665750327841 0.37713124981627422 0 -0.42385083793994027 0.39081016092405407 0 -0.42037665750327841 0.37713124981627422 0 -0.40732272008209991 0.38667249106358897 0 -0.42385083793994027 0.39081016092405407 0 -0.42037665750327841 0.37713124981627422 0 -0.40732272008209991 0.38667249106358897 0 -0.40371722294435042 0.37121207402135709 0 -0.41247899104697461 0.39879209951686739 0 -0.42193488841359872 0.40970736875472308 0 -0.40584548041329099 0.41017976303674458 0 -0.40732272008209991 0.38667249106358897 0 -0.41247899104697461 0.39879209951686739 0 -0.42385083793994027 0.39081016092405407 0 -0.41247899104697461 0.39879209951686739 0 -0.42385083793994027 0.39081016092405407 0 -0.42193488841359872 0.40970736875472308 0 -0.41247899104697461 0.39879209951686739 0 -0.40584548041329099 0.41017976303674458 0 -0.40232794905318447 0.39832539326980509 0 -0.40732272008209991 0.38667249106358897 0 -0.41247899104697461 0.39879209951686739 0 -0.40232794905318447 0.39832539326980509 0 -0.44161485642063808 0.4010455711047185 0 -0.42385083793994027 0.39081016092405407 0 -0.42193488841359872 0.40970736875472308 0 -0.44161485642063808 0.4010455711047185 0 -0.42193488841359872 0.40970736875472308 0 -0.43400126557211338 0.43086831486076371 0 -0.42193488841359872 0.40970736875472308 0 -0.43400126557211338 0.43086831486076371 0 -0.41499396883770118 0.42571258186439631 0 -0.41200168742948529 0.44297079027022418 0 -0.43400126557211338 0.43086831486076371 0 -0.41200168742948529 0.44297079027022418 0 -0.41499396883770118 0.42571258186439631 0 -0.39893070965446947 0.42267609033070908 0 -0.41200168742948529 0.44297079027022418 0 -0.43400126557211338 0.43086831486076371 0 -0.41499396883770118 0.42571258186439631 0 -0.42193488841359872 0.40970736875472308 0 -0.41499396883770118 0.42571258186439631 0 -0.40584548041329099 0.41017976303674458 0 -0.41499396883770118 0.42571258186439631 0 -0.40584548041329099 0.41017976303674458 0 -0.39893070965446947 0.42267609033070908 0 -0.40584548041329099 0.41017976303674458 0 -0.39893070965446947 0.42267609033070908 0 -0.39052760692306088 0.40600254173047717 0 -0.39893070965446947 0.42267609033070908 0 -0.38377386237003219 0.42104182938739387 0 -0.39052760692306088 0.40600254173047717 0 -0.41200168742948529 0.44297079027022418 0 -0.39893070965446947 0.42267609033070908 0 -0.38719407409080908 0.43578255220946199 0 -0.38719407409080908 0.43578255220946199 0 -0.38377386237003219 0.42104182938739387 0 -0.36642722313095188 0.42817284779017439 0 -0.39893070965446947 0.42267609033070908 0 -0.38719407409080908 0.43578255220946199 0 -0.38377386237003219 0.42104182938739387 0 -0.38377386237003219 0.42104182938739387 0 -0.37578969805086948 0.41257511487614651 0 -0.36642722313095188 0.42817284779017439 0 -0.38377386237003219 0.42104182938739387 0 -0.37578969805086948 0.41257511487614651 0 -0.39052760692306088 0.40600254173047717 0 -0.37578969805086948 0.41257511487614651 0 -0.37838712000066149 0.40151076223832399 0 -0.39052760692306088 0.40600254173047717 0 -0.37838712000066149 0.40151076223832399 0 -0.39052760692306088 0.40600254173047717 0 -0.38480178732622999 0.39316486315256449 0 -0.39052760692306088 0.40600254173047717 0 -0.38480178732622999 0.39316486315256449 0 -0.39454943424930877 0.39244786409435578 0 -0.37838712000066149 0.40151076223832399 0 -0.38480178732622999 0.39316486315256449 0 -0.37127902826168457 0.39506724945364052 0 -0.38480178732622999 0.39316486315256449 0 -0.37964652868043708 0.38125461755552392 0 -0.37127902826168457 0.39506724945364052 0 -0.37964652868043708 0.38125461755552392 0 -0.39514664866793647 0.36878147959565982 0 -0.37360815323465768 0.38054427448517503 0 -0.38480178732622999 0.39316486315256449 0 -0.37964652868043708 0.38125461755552392 0 -0.39462847594242001 0.38329596997389342 0 -0.37964652868043708 0.38125461755552392 0 -0.39462847594242001 0.38329596997389342 0 -0.40371722294435042 0.37121207402135709 0 -0.38480178732622999 0.39316486315256449 0 -0.39462847594242001 0.38329596997389342 0 -0.39454943424930877 0.39244786409435578 0 -0.37964652868043708 0.38125461755552392 0 -0.40371722294435042 0.37121207402135709 0 -0.40732272008209991 0.38667249106358897 0 -0.39462847594242001 0.38329596997389342 0 -0.40371722294435042 0.37121207402135709 0 -0.40732272008209991 0.38667249106358897 0 -0.39462847594242001 0.38329596997389342 0 -0.39454943424930877 0.39244786409435578 0 -0.40732272008209991 0.38667249106358897 0 -0.40232794905318447 0.39832539326980509 0 -0.39454943424930877 0.39244786409435578 0 -0.40584548041329099 0.41017976303674458 0 -0.39052760692306088 0.40600254173047717 0 -0.40232794905318447 0.39832539326980509 0 -0.39052760692306088 0.40600254173047717 0 -0.40232794905318447 0.39832539326980509 0 -0.39454943424930877 0.39244786409435578 0 -0.39289718984049232 0.35065990381543771 0 -0.39621235688873152 0.36009936815875437 0 -0.38825827587616679 0.35861264209960392 0 -0.39289718984049232 0.35065990381543771 0 -0.4041414542846512 0.35518832561616959 0 -0.39621235688873152 0.36009936815875437 0 -0.39289718984049232 0.35065990381543771 0 -0.38798605861306379 0.33975095152028001 0 -0.39915024554393919 0.34084016132751083 0 -0.4041414542846512 0.35518832561616959 0 -0.39915024554393919 0.34084016132751083 0 -0.41402123133190127 0.3445368717525934 0 -0.39289718984049232 0.35065990381543771 0 -0.4041414542846512 0.35518832561616959 0 -0.39915024554393919 0.34084016132751083 0 -0.37964652868043708 0.38125461755552392 0 -0.40371722294435042 0.37121207402135709 0 -0.39514664866793647 0.36878147959565982 0 -0.4041414542846512 0.35518832561616959 0 -0.40371722294435042 0.37121207402135709 0 -0.39621235688873152 0.36009936815875437 0 -0.40371722294435042 0.37121207402135709 0 -0.39514664866793647 0.36878147959565982 0 -0.39621235688873152 0.36009936815875437 0 -0.39514664866793647 0.36878147959565982 0 -0.39621235688873152 0.36009936815875437 0 -0.38825827587616679 0.35861264209960392 0 -0.39514664866793647 0.36878147959565982 0 -0.37360815323465768 0.38054427448517503 0 -0.39514664866793647 0.36878147959565982 0 -0.38100661423177928 0.36843142910325011 0 -0.38825827587616679 0.35861264209960392 0 -0.39514664866793647 0.36878147959565982 0 -0.38100661423177928 0.36843142910325011 0 -0.37360815323465768 0.38054427448517503 0 -0.38100661423177928 0.36843142910325011 0 -0.3798279540066043 0.35986499408594202 0 -0.38825827587616679 0.35861264209960392 0 -0.38100661423177928 0.36843142910325011 0 -0.37405347163594183 0.36525892780187891 0 -0.37236608092882117 0.37138299179299272 0 -0.38100661423177928 0.36843142910325011 0 -0.37236608092882117 0.37138299179299272 0 -0.37360815323465768 0.38054427448517503 0 -0.38100661423177928 0.36843142910325011 0 -0.3798279540066043 0.35986499408594202 0 -0.37405347163594183 0.36525892780187891 0 -0.3798279540066043 0.35986499408594202 0 -0.37330523469167032 0.35544388153247441 0 -0.37405347163594183 0.36525892780187891 0 -0.3798279540066043 0.35986499408594202 0 -0.38163474783640128 0.349467974170308 0 -0.37330523469167032 0.35544388153247441 0 -0.3798279540066043 0.35986499408594202 0 -0.38825827587616679 0.35861264209960392 0 -0.38163474783640128 0.349467974170308 0 -0.39289718984049232 0.35065990381543771 0 -0.38825827587616679 0.35861264209960392 0 -0.38163474783640128 0.349467974170308 0 -0.39289718984049232 0.35065990381543771 0 -0.38163474783640128 0.349467974170308 0 -0.38798605861306379 0.33975095152028001 0 -0.38163474783640128 0.349467974170308 0 -0.37742794796382367 0.33609617904562961 0 -0.36871065983843121 0.34459196092451139 0 -0.38163474783640128 0.349467974170308 0 -0.37742794796382367 0.33609617904562961 0 -0.38798605861306379 0.33975095152028001 0 -0.37742794796382367 0.33609617904562961 0 -0.39033977378681339 0.32865864218116209 0 -0.37802582392502798 0.32654380345770012 0 -0.37742794796382367 0.33609617904562961 0 -0.39033977378681339 0.32865864218116209 0 -0.38798605861306379 0.33975095152028001 0 -0.38028698059176769 0.31676288222363252 0 -0.37802582392502798 0.32654380345770012 0 -0.3680281799526105 0.32563475744160741 0 -0.39033977378681339 0.32865864218116209 0 -0.38028698059176769 0.31676288222363252 0 -0.37802582392502798 0.32654380345770012 0 -0.39033977378681339 0.32865864218116209 0 -0.38028698059176769 0.31676288222363252 0 -0.40422958447341317 0.31292364765730712 0 -0.38028698059176769 0.31676288222363252 0 -0.40422958447341317 0.31292364765730712 0 -0.39033977378681339 0.32865864218116209 0 -0.40422958447341317 0.31292364765730712 0 -0.41043321407126482 0.32866790870784568 0 -0.39033977378681339 0.32865864218116209 0 -0.39915024554393919 0.34084016132751083 0 -0.41043321407126482 0.32866790870784568 0 -0.39033977378681339 0.32865864218116209 0 -0.38798605861306379 0.33975095152028001 0 -0.39915024554393919 0.34084016132751083 0 -0.39915024554393919 0.34084016132751083 0 -0.41043321407126482 0.32866790870784568 0 -0.41402123133190127 0.3445368717525934 0 -0.41043321407126482 0.32866790870784568 0 -0.42859332555138763 0.33681843262425037 0 -0.41402123133190127 0.3445368717525934 0 -0.40422958447341317 0.31292364765730712 0 -0.41043321407126482 0.32866790870784568 0 -0.42817218835505882 0.30908441309098161 0 -0.42859332555138763 0.33681843262425037 0 -0.44635529415919051 0.32815463981236948 0 -0.42817218835505882 0.30908441309098161 0 -0.41043321407126482 0.32866790870784568 0 -0.42859332555138763 0.33681843262425037 0 -0.42817218835505882 0.30908441309098161 0 -0.42859332555138763 0.33681843262425037 0 -0.41402123133190127 0.3445368717525934 0 -0.42778791720826359 0.36116953048719042 0 -0.42859332555138763 0.33681843262425037 0 -0.42778791720826359 0.36116953048719042 0 -0.45185861147217699 0.35112698695302369 0 -0.4041414542846512 0.35518832561616959 0 -0.41402123133190127 0.3445368717525934 0 -0.42778791720826359 0.36116953048719042 0 -0.40371722294435042 0.37121207402135709 0 -0.42778791720826359 0.36116953048719042 0 -0.42037665750327841 0.37713124981627422 0 -0.40371722294435042 0.37121207402135709 0 -0.42778791720826359 0.36116953048719042 0 -0.4041414542846512 0.35518832561616959 0 -0.40371722294435042 0.37121207402135709 0 -0.42778791720826359 0.36116953048719042 0 -0.43813524633865458 0.37638922877564113 0 -0.42037665750327841 0.37713124981627422 0 -0.42778791720826359 0.36116953048719042 0 -0.45716318178987292 0.38049195382563872 0 -0.43813524633865458 0.37638922877564113 0 -0.45185861147217699 0.35112698695302369 0 -0.43813524633865458 0.37638922877564113 0 -0.42778791720826359 0.36116953048719042 0 -0.45185861147217699 0.35112698695302369 0 -0.42778791720826359 0.36116953048719042 0 -0.45185861147217699 0.35112698695302369 0 -0.45185861147217699 0.35112698695302369 0 -0.47684842485784962 0.36415057521733651 0 -0.47592930573609032 0.34108444341885691 0 -0.45185861147217699 0.35112698695302369 0 -0.47592930573609032 0.34108444341885691 0 -0.45716318178987292 0.38049195382563872 0 -0.45185861147217699 0.35112698695302369 0 -0.47684842485784962 0.36415057521733651 0 -0.47684842485784962 0.36415057521733651 0 -0.5 0.35221489613392021 0 -0.47592930573609032 0.34108444341885691 0 -0.47684842485784962 0.36415057521733651 0 -0.5 0.35221489613392021 0 -0.5 0.37338789238315162 0 -0.47852673611292579 0.38668967357195311 0 -0.47684842485784962 0.36415057521733651 0 -0.5 0.37338789238315162 0 -0.5 0.31430430463834741 0 -0.50000000000000322 0.33104189988468891 0 -0.48237817691089813 0.32267310226151841 0 -0.5 0.31430430463834741 0 -0.48237817691089813 0.32267310226151841 0 -0.47605739611834991 0.30140594395833059 0 -0.5 0.35221489613392021 0 -0.50000000000000322 0.33104189988468891 0 -0.47592930573609032 0.34108444341885691 0 -0.50000000000000322 0.33104189988468891 0 -0.47592930573609032 0.34108444341885691 0 -0.50000000000000322 0.33104189988468891 0 -0.47592930573609032 0.34108444341885691 0 -0.48237817691089813 0.32267310226151841 0 -0.48237817691089813 0.32267310226151841 0 -0.46656699303224658 0.31971266159514627 0 -0.47605739611834991 0.30140594395833059 0 -0.47592930573609032 0.34108444341885691 0 -0.48237817691089813 0.32267310226151841 0 -0.46656699303224658 0.31971266159514627 0 -0.46656699303224658 0.31971266159514627 0 -0.44635529415919051 0.32815463981236948 0 -0.45211479223670431 0.3052451785246561 0 -0.45185861147217699 0.35112698695302369 0 -0.47592930573609032 0.34108444341885691 0 -0.44635529415919051 0.32815463981236948 0 -0.47592930573609032 0.34108444341885691 0 -0.46656699303224658 0.31971266159514627 0 -0.44635529415919051 0.32815463981236948 0 -0.42859332555138763 0.33681843262425037 0 -0.45185861147217699 0.35112698695302369 0 -0.44635529415919051 0.32815463981236948 0 -0.44635529415919051 0.32815463981236948 0 -0.45211479223670431 0.3052451785246561 0 -0.42817218835505882 0.30908441309098161 0 -0.45211479223670431 0.3052451785246561 0 -0.43464894961265838 0.28611991162511557 0 -0.42817218835505882 0.30908441309098161 0 -0.45211479223670431 0.3052451785246561 0 -0.42817218835505882 0.30908441309098161 0 -0.45211479223670431 0.3052451785246561 0 -0.45811866550226699 0.28559330792540721 0 -0.43464894961265838 0.28611991162511557 0 -0.45211479223670431 0.3052451785246561 0 -0.47605739611834991 0.30140594395833059 0 -0.45211479223670431 0.3052451785246561 0 -0.45811866550226699 0.28559330792540721 0 -0.47605739611834991 0.30140594395833059 0 -0.46656699303224658 0.31971266159514627 0 -0.45211479223670431 0.3052451785246561 0 -0.47605739611834991 0.30140594395833059 0 -0.47605739611834991 0.30140594395833059 0 -0.48783111095739118 0.28551938386754111 0 -0.47526704771121508 0.27537958785271621 0 -0.45811866550226699 0.28559330792540721 0 -0.47605739611834991 0.30140594395833059 0 -0.47526704771121508 0.27537958785271621 0 -0.47605739611834991 0.30140594395833059 0 -0.48783111095739118 0.28551938386754111 0 -0.49999999999999539 0.29756670939200591 0 -0.48783111095739118 0.28551938386754111 0 -0.49999999999999539 0.29756670939200591 0 -0.5 0.26772529426711161 0 -0.47605739611834991 0.30140594395833059 0 -0.49999999999999539 0.29756670939200591 0 -0.5 0.31430430463834741 0 -0.47605739611834991 0.30140594395833059 0 -0.49999999999999539 0.29756670939200591 0 -0.48009569721831502 0.24875800001989709 0 -0.5 0.23788387914221731 0 -0.5 0.26772529426711161 0 -0.48009569721831502 0.24875800001989709 0 -0.5 0.26772529426711161 0 -0.47526704771121508 0.27537958785271621 0 -0.48783111095739118 0.28551938386754111 0 -0.5 0.26772529426711161 0 -0.47526704771121508 0.27537958785271621 0 -0.48009569721831502 0.24875800001989709 0 -0.47526704771121508 0.27537958785271621 0 -0.45443708739589561 0.26040746066243919 0 -0.45811866550226699 0.28559330792540721 0 -0.47526704771121508 0.27537958785271621 0 -0.45443708739589561 0.26040746066243919 0 -0.45443708739589561 0.26040746066243919 0 -0.42367523380313798 0.26134256429042541 0 -0.43464894961265838 0.28611991162511557 0 -0.45811866550226699 0.28559330792540721 0 -0.45443708739589561 0.26040746066243919 0 -0.43464894961265838 0.28611991162511557 0 -0.44197025293690589 0.23676466157854231 0 -0.45443708739589561 0.26040746066243919 0 -0.42367523380313798 0.26134256429042541 0 -0.41485217225382642 0.23680558511097921 0 -0.42367523380313798 0.26134256429042541 0 -0.3958781359901703 0.25751658644756398 0 -0.42367523380313798 0.26134256429042541 0 -0.3958781359901703 0.25751658644756398 0 -0.40167637836691539 0.2723696656631846 0 -0.42367523380313798 0.26134256429042541 0 -0.41142699013771528 0.2836956038940186 0 -0.40167637836691539 0.2723696656631846 0 -0.42367523380313798 0.26134256429042541 0 -0.43464894961265838 0.28611991162511557 0 -0.41142699013771528 0.2836956038940186 0 -0.43464894961265838 0.28611991162511557 0 -0.42817218835505882 0.30908441309098161 0 -0.41579087199908982 0.29785224506954511 0 -0.40422958447341317 0.31292364765730712 0 -0.42817218835505882 0.30908441309098161 0 -0.41579087199908982 0.29785224506954511 0 -0.40422958447341317 0.31292364765730712 0 -0.42817218835505882 0.30908441309098161 0 -0.40422958447341317 0.31292364765730712 0 -0.41579087199908982 0.29785224506954511 0 -0.40047664741660349 0.2974376490803029 0 -0.43464894961265838 0.28611991162511557 0 -0.41579087199908982 0.29785224506954511 0 -0.41142699013771528 0.2836956038940186 0 -0.41579087199908982 0.29785224506954511 0 -0.41142699013771528 0.2836956038940186 0 -0.40047664741660349 0.2974376490803029 0 -0.41142699013771528 0.2836956038940186 0 -0.38844668690154571 0.28875564989301411 0 -0.40167637836691539 0.2723696656631846 0 -0.41142699013771528 0.2836956038940186 0 -0.40047664741660349 0.2974376490803029 0 -0.38844668690154571 0.28875564989301411 0 -0.40047664741660349 0.2974376490803029 0 -0.38407676319754402 0.30369736729867458 0 -0.38844668690154571 0.28875564989301411 0 -0.40422958447341317 0.31292364765730712 0 -0.40047664741660349 0.2974376490803029 0 -0.38407676319754402 0.30369736729867458 0 -0.38407676319754402 0.30369736729867458 0 -0.38844668690154571 0.28875564989301411 0 -0.35793006346285677 0.29893858912073251 0 -0.38028698059176769 0.31676288222363252 0 -0.40422958447341317 0.31292364765730712 0 -0.38407676319754402 0.30369736729867458 0 -0.38028698059176769 0.31676288222363252 0 -0.38407676319754402 0.30369736729867458 0 -0.36892925594974751 0.31219131368581848 0 -0.37690409972651417 0.27822758778414869 0 -0.3958781359901703 0.25751658644756398 0 -0.36848531884267782 0.26228330300944208 0 -0.38844668690154571 0.28875564989301411 0 -0.37690409972651417 0.27822758778414869 0 -0.40167637836691539 0.2723696656631846 0 -0.37690409972651417 0.27822758778414869 0 -0.3958781359901703 0.25751658644756398 0 -0.37869082978814 0.24847683284980271 0 -0.3958781359901703 0.25751658644756398 0 -0.36848531884267782 0.26228330300944208 0 -0.37690409972651417 0.27822758778414869 0 -0.3958781359901703 0.25751658644756398 0 -0.40167637836691539 0.2723696656631846 0 -0.35133230074271998 0.27707411341532068 0 -0.35218865153029849 0.25837056627684302 0 -0.36848531884267782 0.26228330300944208 0 -0.34916208045610958 0.24571638332980941 0 -0.35218865153029849 0.25837056627684302 0 -0.33601509611822311 0.25957077895831432 0 -0.35133230074271998 0.27707411341532068 0 -0.35218865153029849 0.25837056627684302 0 -0.33601509611822311 0.25957077895831432 0 -0.34916208045610958 0.24571638332980941 0 -0.36114265797441369 0.24929296294783351 0 -0.35218865153029849 0.25837056627684302 0 -0.37869082978814 0.24847683284980271 0 -0.36114265797441369 0.24929296294783351 0 -0.36848531884267782 0.26228330300944208 0 -0.36114265797441369 0.24929296294783351 0 -0.35218865153029849 0.25837056627684302 0 -0.36848531884267782 0.26228330300944208 0 -0.37690409972651417 0.27822758778414869 0 -0.35133230074271998 0.27707411341532068 0 -0.36848531884267782 0.26228330300944208 0 -0.38844668690154571 0.28875564989301411 0 -0.37690409972651417 0.27822758778414869 0 -0.35793006346285677 0.29893858912073251 0 -0.37690409972651417 0.27822758778414869 0 -0.35133230074271998 0.27707411341532068 0 -0.35793006346285677 0.29893858912073251 0 -0.37690409972651417 0.27822758778414869 0 -0.35793006346285677 0.29893858912073251 0 -0.38407676319754402 0.30369736729867458 0 -0.35793006346285677 0.29893858912073251 0 -0.38407676319754402 0.30369736729867458 0 -0.36892925594974751 0.31219131368581848 0 -0.35793006346285677 0.29893858912073251 0 -0.36892925594974751 0.31219131368581848 0 -0.35793006346285677 0.29893858912073251 0 -0.3578533833286105 0.31667442929966533 0 -0.35793006346285677 0.29893858912073251 0 -0.34104761967382141 0.31736652459112702 0 -0.3578533833286105 0.31667442929966533 0 -0.35793006346285677 0.29893858912073251 0 -0.34104761967382141 0.31736652459112702 0 -0.35133230074271998 0.27707411341532068 0 -0.35793006346285677 0.29893858912073251 0 -0.32901000524660468 0.29367505133810629 0 -0.35793006346285677 0.29893858912073251 0 -0.32901000524660468 0.29367505133810629 0 -0.35793006346285677 0.29893858912073251 0 -0.32901000524660468 0.29367505133810629 0 -0.34104761967382141 0.31736652459112702 0 -0.32901000524660468 0.29367505133810629 0 -0.30008994703035169 0.28841151355548378 0 -0.31306540100204799 0.31423618194170277 0 -0.32901000524660468 0.29367505133810629 0 -0.31306540100204799 0.31423618194170277 0 -0.34104761967382141 0.31736652459112702 0 -0.32901000524660468 0.29367505133810629 0 -0.30008994703035169 0.28841151355548378 0 -0.32901000524660468 0.29367505133810629 0 -0.31197957348852517 0.26427867642586511 0 -0.30008994703035169 0.28841151355548378 0 -0.35133230074271998 0.27707411341532068 0 -0.32901000524660468 0.29367505133810629 0 -0.33601509611822311 0.25957077895831432 0 -0.32901000524660468 0.29367505133810629 0 -0.33601509611822311 0.25957077895831432 0 -0.31197957348852517 0.26427867642586511 0 -0.32386919994669783 0.24014583929624589 0 -0.33601509611822311 0.25957077895831432 0 -0.31197957348852517 0.26427867642586511 0 -0.32386919994669783 0.24014583929624589 0 -0.31197957348852517 0.26427867642586511 0 -0.32386919994669783 0.24014583929624589 0 -0.31183092242521693 0.24988072727625629 0 -0.31197957348852517 0.26427867642586511 0 -0.31183092242521693 0.24988072727625629 0 -0.28466639004046312 0.25579092269198822 0 -0.31183092242521693 0.24988072727625629 0 -0.29689217666340978 0.26847392547221038 0 -0.28466639004046312 0.25579092269198822 0 -0.31183092242521693 0.24988072727625629 0 -0.31197957348852517 0.26427867642586511 0 -0.29689217666340978 0.26847392547221038 0 -0.31197957348852517 0.26427867642586511 0 -0.30008994703035169 0.28841151355548378 0 -0.31197957348852517 0.26427867642586511 0 -0.29689217666340978 0.26847392547221038 0 -0.30008994703035169 0.28841151355548378 0 -0.29689217666340978 0.26847392547221038 0 -0.2758940503324922 0.28400778741145899 0 -0.30008994703035169 0.28841151355548378 0 -0.29689217666340978 0.26847392547221038 0 -0.28466639004046312 0.25579092269198822 0 -0.2758940503324922 0.28400778741145899 0 -0.26051867017541969 0.23650018471532899 0 -0.28466639004046312 0.25579092269198822 0 -0.25750185765570921 0.26170111810772012 0 -0.28466639004046312 0.25579092269198822 0 -0.25750185765570921 0.26170111810772012 0 -0.28466639004046312 0.25579092269198822 0 -0.25750185765570921 0.26170111810772012 0 -0.2758940503324922 0.28400778741145899 0 -0.25169815363463272 0.27960406126743448 0 -0.25750185765570921 0.26170111810772012 0 -0.2758940503324922 0.28400778741145899 0 -0.26051867017541969 0.23650018471532899 0 -0.25750185765570921 0.26170111810772012 0 -0.24757807892987871 0.25415496751057792 0 -0.25290472241496392 0.2981478293982755 0 -0.27247636647012929 0.30191722719921082 0 -0.2594567319109316 0.31350049272118691 0 -0.25290472241496392 0.2981478293982755 0 -0.2594567319109316 0.31350049272118691 0 -0.24683152731007971 0.30917203920803937 0 -0.25169815363463272 0.27960406126743448 0 -0.25290472241496392 0.2981478293982755 0 -0.2758940503324922 0.28400778741145899 0 -0.25169815363463272 0.27960406126743448 0 -0.2758940503324922 0.28400778741145899 0 -0.25290472241496392 0.2981478293982755 0 -0.2758940503324922 0.28400778741145899 0 -0.27247636647012929 0.30191722719921082 0 -0.27247636647012929 0.30191722719921082 0 -0.28726146558355492 0.31444998116126122 0 -0.2594567319109316 0.31350049272118691 0 -0.27247636647012929 0.30191722719921082 0 -0.30008994703035169 0.28841151355548378 0 -0.28726146558355492 0.31444998116126122 0 -0.30008994703035169 0.28841151355548378 0 -0.28726146558355492 0.31444998116126122 0 -0.2758940503324922 0.28400778741145899 0 -0.27247636647012929 0.30191722719921082 0 -0.30008994703035169 0.28841151355548378 0 -0.2758940503324922 0.28400778741145899 0 -0.30008994703035169 0.28841151355548378 0 -0.30008994703035169 0.28841151355548378 0 -0.28726146558355492 0.31444998116126122 0 -0.31306540100204799 0.31423618194170277 0 -0.29681819259317083 0.33571956094271832 0 -0.28726146558355492 0.31444998116126122 0 -0.31306540100204799 0.31423618194170277 0 -0.29681819259317083 0.33571956094271832 0 -0.30728273209574802 0.35422239553191359 0 -0.32416517588478472 0.33579446006152031 0 -0.29681819259317083 0.33571956094271832 0 -0.32416517588478472 0.33579446006152031 0 -0.31306540100204799 0.31423618194170277 0 -0.29681819259317083 0.33571956094271832 0 -0.27815425602981048 0.33402265847670942 0 -0.28063268349644011 0.34565507035545401 0 -0.29681819259317083 0.33571956094271832 0 -0.28726146558355492 0.31444998116126122 0 -0.27815425602981048 0.33402265847670942 0 -0.28726146558355492 0.31444998116126122 0 -0.27815425602981048 0.33402265847670942 0 -0.26310241967519532 0.32928483853619772 0 -0.28726146558355492 0.31444998116126122 0 -0.26310241967519532 0.32928483853619772 0 -0.2594567319109316 0.31350049272118691 0 -0.27815425602981048 0.33402265847670942 0 -0.26702569654714592 0.34374967502913772 0 -0.28063268349644011 0.34565507035545401 0 -0.27815425602981048 0.33402265847670942 0 -0.26702569654714592 0.34374967502913772 0 -0.26310241967519532 0.32928483853619772 0 -0.26702569654714592 0.34374967502913772 0 -0.25046536089570698 0.34138420960703297 0 -0.26310241967519532 0.32928483853619772 0 -0.25046536089570698 0.34138420960703297 0 -0.26310241967519532 0.32928483853619772 0 -0.24212626546677121 0.32120351729610003 0 -0.26310241967519532 0.32928483853619772 0 -0.2594567319109316 0.31350049272118691 0 -0.24212626546677121 0.32120351729610003 0 -0.2613864709237872 0.35833304641875657 0 -0.27047838608146169 0.35954353190210842 0 -0.24852329785757149 0.3738146096550965 0 -0.25971562829495509 0.37034016738375602 0 -0.27047838608146169 0.35954353190210842 0 -0.24852329785757149 0.3738146096550965 0 -0.27047838608146169 0.35954353190210842 0 -0.24852329785757149 0.3738146096550965 0 -0.25971562829495509 0.37034016738375602 0 -0.25371371781949448 0.37884160431483682 0 -0.24852329785757149 0.3738146096550965 0 -0.25273353586154462 0.35858757422778748 0 -0.2613864709237872 0.35833304641875657 0 -0.24852329785757149 0.3738146096550965 0 -0.26702569654714592 0.34374967502913772 0 -0.25046536089570698 0.34138420960703297 0 -0.27043282460120999 0.35701727030466862 0 -0.25046536089570698 0.34138420960703297 0 -0.2613864709237872 0.35833304641875657 0 -0.27043282460120999 0.35701727030466862 0 -0.25046536089570698 0.34138420960703297 0 -0.27043282460120999 0.35701727030466862 0 -0.25046536089570698 0.34138420960703297 0 -0.25273353586154462 0.35858757422778748 0 -0.2613864709237872 0.35833304641875657 0 -0.27043282460120999 0.35701727030466862 0 -0.27823895522774639 0.35656675135314719 0 -0.28627471276798322 0.36371561952504933 0 -0.2613864709237872 0.35833304641875657 0 -0.27043282460120999 0.35701727030466862 0 -0.27047838608146169 0.35954353190210842 0 -0.26702569654714592 0.34374967502913772 0 -0.27043282460120999 0.35701727030466862 0 -0.2749064206916278 0.35150844272452081 0 -0.26702569654714592 0.34374967502913772 0 -0.28063268349644011 0.34565507035545401 0 -0.2749064206916278 0.35150844272452081 0 -0.28063268349644011 0.34565507035545401 0 -0.2749064206916278 0.35150844272452081 0 -0.28134186285016483 0.35402567285835018 0 -0.27043282460120999 0.35701727030466862 0 -0.2749064206916278 0.35150844272452081 0 -0.27823895522774639 0.35656675135314719 0 -0.2749064206916278 0.35150844272452081 0 -0.27823895522774639 0.35656675135314719 0 -0.28134186285016483 0.35402567285835018 0 -0.27439770762487092 0.36460902870646961 0 -0.27745531941020762 0.37251196331221897 0 -0.29040028830671089 0.37265033100230688 0 -0.27043282460120999 0.35701727030466862 0 -0.29040028830671089 0.37265033100230688 0 -0.27043282460120999 0.35701727030466862 0 -0.27439770762487092 0.36460902870646961 0 -0.29040028830671089 0.37265033100230688 0 -0.27043282460120999 0.35701727030466862 0 -0.27439770762487092 0.36460902870646961 0 -0.27158059386456251 0.36173704652703798 0 -0.27158059386456251 0.36173704652703798 0 -0.27047838608146169 0.35954353190210842 0 -0.26947307723711972 0.36536591976422872 0 -0.27043282460120999 0.35701727030466862 0 -0.27158059386456251 0.36173704652703798 0 -0.27047838608146169 0.35954353190210842 0 -0.25971562829495509 0.37034016738375602 0 -0.27047838608146169 0.35954353190210842 0 -0.26947307723711972 0.36536591976422872 0 -0.27439770762487092 0.36460902870646961 0 -0.26947307723711972 0.36536591976422872 0 -0.27023033287375592 0.37034205215759869 0 -0.27439770762487092 0.36460902870646961 0 -0.27158059386456251 0.36173704652703798 0 -0.26947307723711972 0.36536591976422872 0 -0.25971562829495509 0.37034016738375602 0 -0.26947307723711972 0.36536591976422872 0 -0.27023033287375592 0.37034205215759869 0 -0.25971562829495509 0.37034016738375602 0 -0.27023033287375592 0.37034205215759869 0 -0.26714575893245918 0.37694709550833821 0 -0.27023033287375592 0.37034205215759869 0 -0.27327656958586177 0.37475262543972948 0 -0.26714575893245918 0.37694709550833821 0 -0.27439770762487092 0.36460902870646961 0 -0.27023033287375592 0.37034205215759869 0 -0.27745531941020762 0.37251196331221897 0 -0.27023033287375592 0.37034205215759869 0 -0.27327656958586177 0.37475262543972948 0 -0.27745531941020762 0.37251196331221897 0 -0.27043282460120999 0.35701727030466862 0 -0.28627471276798322 0.36371561952504933 0 -0.29040028830671089 0.37265033100230688 0 -0.28627471276798322 0.36371561952504933 0 -0.29040028830671089 0.37265033100230688 0 -0.30728273209574802 0.35422239553191359 0 -0.29681819259317083 0.33571956094271832 0 -0.28063268349644011 0.34565507035545401 0 -0.28992224913322628 0.35122460066338079 0 -0.28627471276798322 0.36371561952504933 0 -0.28992224913322628 0.35122460066338079 0 -0.30728273209574802 0.35422239553191359 0 -0.28063268349644011 0.34565507035545401 0 -0.28134186285016483 0.35402567285835018 0 -0.28992224913322628 0.35122460066338079 0 -0.28627471276798322 0.36371561952504933 0 -0.28134186285016483 0.35402567285835018 0 -0.28992224913322628 0.35122460066338079 0 -0.27823895522774639 0.35656675135314719 0 -0.28627471276798322 0.36371561952504933 0 -0.28134186285016483 0.35402567285835018 0 -0.29681819259317083 0.33571956094271832 0 -0.28992224913322628 0.35122460066338079 0 -0.30728273209574802 0.35422239553191359 0 -0.31969176545041261 0.36469003455572468 0 -0.30287174937361022 0.38241457100406651 0 -0.29040028830671089 0.37265033100230688 0 -0.30728273209574802 0.35422239553191359 0 -0.29040028830671089 0.37265033100230688 0 -0.30728273209574802 0.35422239553191359 0 -0.30506163380662049 0.36849433302350298 0 -0.30506163380662049 0.36849433302350298 0 -0.31969176545041261 0.36469003455572468 0 -0.30287174937361022 0.38241457100406651 0 -0.29040028830671089 0.37265033100230688 0 -0.30506163380662049 0.36849433302350298 0 -0.30287174937361022 0.38241457100406651 0 -0.30728273209574802 0.35422239553191359 0 -0.30506163380662049 0.36849433302350298 0 -0.31969176545041261 0.36469003455572468 0 -0.31969176545041261 0.36469003455572468 0 -0.32760510041107088 0.38011649160120953 0 -0.31671751777648721 0.38011582869878391 0 -0.31969176545041261 0.36469003455572468 0 -0.3350307516716784 0.36571271368944158 0 -0.32760510041107088 0.38011649160120953 0 -0.3350307516716784 0.36571271368944158 0 -0.33766437660926019 0.3757204607939662 0 -0.32760510041107088 0.38011649160120953 0 -0.3350307516716784 0.36571271368944158 0 -0.34418180387897318 0.36975703770772289 0 -0.34727057991841292 0.35921520629483022 0 -0.3350307516716784 0.36571271368944158 0 -0.34418180387897318 0.36975703770772289 0 -0.33766437660926019 0.3757204607939662 0 -0.31969176545041261 0.36469003455572468 0 -0.3350307516716784 0.36571271368944158 0 -0.33651178152721389 0.34696549810738209 0 -0.3350307516716784 0.36571271368944158 0 -0.33651178152721389 0.34696549810738209 0 -0.34727057991841292 0.35921520629483022 0 -0.31969176545041261 0.36469003455572468 0 -0.33651178152721389 0.34696549810738209 0 -0.32191286373953981 0.35041809706413513 0 -0.30728273209574802 0.35422239553191359 0 -0.32191286373953981 0.35041809706413513 0 -0.32416517588478472 0.33579446006152031 0 -0.33651178152721389 0.34696549810738209 0 -0.32191286373953981 0.35041809706413513 0 -0.32416517588478472 0.33579446006152031 0 -0.31969176545041261 0.36469003455572468 0 -0.33651178152721389 0.34696549810738209 0 -0.30728273209574802 0.35422239553191359 0 -0.32416517588478472 0.33579446006152031 0 -0.30728273209574802 0.35422239553191359 0 -0.31969176545041261 0.36469003455572468 0 -0.32191286373953981 0.35041809706413513 0 -0.32416517588478472 0.33579446006152031 0 -0.31306540100204799 0.31423618194170277 0 -0.34104761967382141 0.31736652459112702 0 -0.32416517588478472 0.33579446006152031 0 -0.34104761967382141 0.31736652459112702 0 -0.33651178152721389 0.34696549810738209 0 -0.33876409367245869 0.33234186110476721 0 -0.35333179760401517 0.32924096165903938 0 -0.32416517588478472 0.33579446006152031 0 -0.34104761967382141 0.31736652459112702 0 -0.33876409367245869 0.33234186110476721 0 -0.33651178152721389 0.34696549810738209 0 -0.32416517588478472 0.33579446006152031 0 -0.33876409367245869 0.33234186110476721 0 -0.35333179760401517 0.32924096165903938 0 -0.36337231978759288 0.33683025977713849 0 -0.35590116471830818 0.34657573538713032 0 -0.33651178152721389 0.34696549810738209 0 -0.35333179760401517 0.32924096165903938 0 -0.35590116471830818 0.34657573538713032 0 -0.33651178152721389 0.34696549810738209 0 -0.35333179760401517 0.32924096165903938 0 -0.34104761967382141 0.31736652459112702 0 -0.35333179760401517 0.32924096165903938 0 -0.3578533833286105 0.31667442929966533 0 -0.34104761967382141 0.31736652459112702 0 -0.33876409367245869 0.33234186110476721 0 -0.35333179760401517 0.32924096165903938 0 -0.36892925594974751 0.31219131368581848 0 -0.3578533833286105 0.31667442929966533 0 -0.3680281799526105 0.32563475744160741 0 -0.35333179760401517 0.32924096165903938 0 -0.3578533833286105 0.31667442929966533 0 -0.3680281799526105 0.32563475744160741 0 -0.38028698059176769 0.31676288222363252 0 -0.36892925594974751 0.31219131368581848 0 -0.3680281799526105 0.32563475744160741 0 -0.36337231978759288 0.33683025977713849 0 -0.36871065983843121 0.34459196092451139 0 -0.35590116471830818 0.34657573538713032 0 -0.35333179760401517 0.32924096165903938 0 -0.3680281799526105 0.32563475744160741 0 -0.36337231978759288 0.33683025977713849 0 -0.37742794796382367 0.33609617904562961 0 -0.3680281799526105 0.32563475744160741 0 -0.36337231978759288 0.33683025977713849 0 -0.37742794796382367 0.33609617904562961 0 -0.37802582392502798 0.32654380345770012 0 -0.3680281799526105 0.32563475744160741 0 -0.37742794796382367 0.33609617904562961 0 -0.36337231978759288 0.33683025977713849 0 -0.36871065983843121 0.34459196092451139 0 -0.38163474783640128 0.349467974170308 0 -0.36871065983843121 0.34459196092451139 0 -0.37330523469167032 0.35544388153247441 0 -0.36871065983843121 0.34459196092451139 0 -0.36584051028168579 0.35301507718895281 0 -0.37330523469167032 0.35544388153247441 0 -0.36871065983843121 0.34459196092451139 0 -0.36584051028168579 0.35301507718895281 0 -0.35590116471830818 0.34657573538713032 0 -0.36584051028168579 0.35301507718895281 0 -0.36800202201066412 0.36020734084830291 0 -0.35961897613161531 0.35984964742016229 0 -0.36584051028168579 0.35301507718895281 0 -0.35961897613161531 0.35984964742016229 0 -0.35590116471830818 0.34657573538713032 0 -0.36584051028168579 0.35301507718895281 0 -0.37330523469167032 0.35544388153247441 0 -0.36800202201066412 0.36020734084830291 0 -0.37330523469167032 0.35544388153247441 0 -0.37405347163594183 0.36525892780187891 0 -0.36800202201066412 0.36020734084830291 0 -0.37405347163594183 0.36525892780187891 0 -0.36800202201066412 0.36020734084830291 0 -0.36677167717275788 0.36765187444573139 0 -0.37405347163594183 0.36525892780187891 0 -0.37236608092882117 0.37138299179299272 0 -0.36677167717275788 0.36765187444573139 0 -0.37236608092882117 0.37138299179299272 0 -0.36621807269548728 0.37438331332785779 0 -0.36677167717275788 0.36765187444573139 0 -0.36621807269548728 0.37438331332785779 0 -0.35914410365456739 0.37074479497388851 0 -0.35898279572568759 0.37980915861616737 0 -0.36621807269548728 0.37438331332785779 0 -0.36677167717275788 0.36765187444573139 0 -0.35914410365456739 0.37074479497388851 0 -0.36800202201066412 0.36020734084830291 0 -0.36677167717275788 0.36765187444573139 0 -0.35961897613161531 0.35984964742016229 0 -0.36677167717275788 0.36765187444573139 0 -0.35961897613161531 0.35984964742016229 0 -0.35914410365456739 0.37074479497388851 0 -0.35961897613161531 0.35984964742016229 0 -0.35237900158268859 0.36643060545714162 0 -0.34727057991841292 0.35921520629483022 0 -0.35961897613161531 0.35984964742016229 0 -0.35237900158268859 0.36643060545714162 0 -0.35914410365456739 0.37074479497388851 0 -0.35237900158268859 0.36643060545714162 0 -0.35914410365456739 0.37074479497388851 0 -0.35159037820901562 0.37519202555376568 0 -0.35237900158268859 0.36643060545714162 0 -0.34418180387897318 0.36975703770772289 0 -0.35159037820901562 0.37519202555376568 0 -0.34418180387897318 0.36975703770772289 0 -0.3441446928194144 0.37957880478277528 0 -0.35159037820901562 0.37519202555376568 0 -0.35237900158268859 0.36643060545714162 0 -0.34418180387897318 0.36975703770772289 0 -0.34727057991841292 0.35921520629483022 0 -0.33651178152721389 0.34696549810738209 0 -0.34727057991841292 0.35921520629483022 0 -0.35590116471830818 0.34657573538713032 0 -0.35961897613161531 0.35984964742016229 0 -0.34727057991841292 0.35921520629483022 0 -0.35590116471830818 0.34657573538713032 0 -0.35206965780137878 0.39230706937469029 0 -0.34867152502657822 0.39917596933576682 0 -0.33053116236809948 0.40406986426420449 0 -0.3552068704817325 0.39731654908916508 0 -0.35206965780137878 0.39230706937469029 0 -0.34867152502657822 0.39917596933576682 0 -0.3552068704817325 0.39731654908916508 0 -0.35206965780137878 0.39230706937469029 0 -0.35557583441652357 0.39129716108969081 0 -0.3552068704817325 0.39731654908916508 0 -0.35557583441652357 0.39129716108969081 0 -0.36156818386393369 0.39878485426273769 0 -0.3552068704817325 0.39731654908916508 0 -0.35638580795010349 0.40459817077540289 0 -0.36156818386393369 0.39878485426273769 0 -0.3552068704817325 0.39731654908916508 0 -0.35638580795010349 0.40459817077540289 0 -0.34867152502657822 0.39917596933576682 0 -0.35638580795010349 0.40459817077540289 0 -0.34867152502657822 0.39917596933576682 0 -0.34502230732055461 0.40377331169057062 0 -0.35206965780137878 0.39230706937469029 0 -0.34494311657888771 0.38607481753194711 0 -0.33958644628261869 0.39077125135616703 0 -0.35206965780137878 0.39230706937469029 0 -0.34494311657888771 0.38607481753194711 0 -0.35043644464523083 0.38308406411213253 0 -0.34494311657888771 0.38607481753194711 0 -0.35043644464523083 0.38308406411213253 0 -0.3441446928194144 0.37957880478277528 0 -0.35043644464523083 0.38308406411213253 0 -0.3441446928194144 0.37957880478277528 0 -0.35159037820901562 0.37519202555376568 0 -0.35914410365456739 0.37074479497388851 0 -0.35159037820901562 0.37519202555376568 0 -0.35898279572568759 0.37980915861616737 0 -0.35043644464523083 0.38308406411213253 0 -0.35159037820901562 0.37519202555376568 0 -0.35898279572568759 0.37980915861616737 0 -0.35206965780137878 0.39230706937469029 0 -0.35043644464523083 0.38308406411213253 0 -0.35898279572568759 0.37980915861616737 0 -0.35206965780137878 0.39230706937469029 0 -0.35557583441652357 0.39129716108969081 0 -0.37360815323465768 0.38054427448517503 0 -0.37964652868043708 0.38125461755552392 0 -0.35557583441652357 0.39129716108969081 0 -0.37964652868043708 0.38125461755552392 0 -0.35557583441652357 0.39129716108969081 0 -0.37360815323465768 0.38054427448517503 0 -0.35206965780137878 0.39230706937469029 0 -0.37360815323465768 0.38054427448517503 0 -0.35206965780137878 0.39230706937469029 0 -0.35898279572568759 0.37980915861616737 0 -0.37360815323465768 0.38054427448517503 0 -0.37964652868043708 0.38125461755552392 0 -0.35557583441652357 0.39129716108969081 0 -0.37127902826168457 0.39506724945364052 0 -0.36621807269548728 0.37438331332785779 0 -0.35898279572568759 0.37980915861616737 0 -0.37360815323465768 0.38054427448517503 0 -0.37236608092882117 0.37138299179299272 0 -0.36621807269548728 0.37438331332785779 0 -0.37360815323465768 0.38054427448517503 0 -0.35557583441652357 0.39129716108969081 0 -0.37127902826168457 0.39506724945364052 0 -0.36156818386393369 0.39878485426273769 0 -0.35638580795010349 0.40459817077540289 0 -0.36156818386393369 0.39878485426273769 0 -0.36783355290025449 0.40462192403560471 0 -0.37127902826168457 0.39506724945364052 0 -0.36156818386393369 0.39878485426273769 0 -0.36783355290025449 0.40462192403560471 0 -0.37838712000066149 0.40151076223832399 0 -0.37127902826168457 0.39506724945364052 0 -0.36783355290025449 0.40462192403560471 0 -0.37578969805086948 0.41257511487614651 0 -0.37838712000066149 0.40151076223832399 0 -0.36783355290025449 0.40462192403560471 0 -0.36313723979178009 0.41310807330744959 0 -0.36642722313095188 0.42817284779017439 0 -0.34924991692672103 0.41557230905991982 0 -0.37578969805086948 0.41257511487614651 0 -0.36783355290025449 0.40462192403560471 0 -0.36313723979178009 0.41310807330744959 0 -0.37578969805086948 0.41257511487614651 0 -0.36313723979178009 0.41310807330744959 0 -0.36642722313095188 0.42817284779017439 0 -0.35638580795010349 0.40459817077540289 0 -0.36783355290025449 0.40462192403560471 0 -0.36313723979178009 0.41310807330744959 0 -0.36642722313095188 0.42817284779017439 0 -0.3450472437772405 0.43259498346758168 0 -0.34924991692672103 0.41557230905991982 0 -0.36642722313095188 0.42817284779017439 0 -0.3450472437772405 0.43259498346758168 0 -0.3574971945799772 0.44281810600923288 0 -0.35638580795010349 0.40459817077540289 0 -0.36313723979178009 0.41310807330744959 0 -0.34924991692672103 0.41557230905991982 0 -0.35638580795010349 0.40459817077540289 0 -0.34502230732055461 0.40377331169057062 0 -0.34924991692672103 0.41557230905991982 0 -0.34924991692672103 0.41557230905991982 0 -0.32787875075838452 0.40551842290769657 0 -0.34924991692672103 0.41557230905991982 0 -0.33429402734549268 0.40701591176709151 0 -0.32787875075838452 0.40551842290769657 0 -0.34502230732055461 0.40377331169057062 0 -0.34924991692672103 0.41557230905991982 0 -0.33429402734549268 0.40701591176709151 0 -0.34924991692672103 0.41557230905991982 0 -0.33414070818898223 0.42049408200457622 0 -0.32787875075838452 0.40551842290769657 0 -0.3450472437772405 0.43259498346758168 0 -0.32819427591501937 0.43136507142923541 0 -0.32886570464148901 0.44731875094243601 0 -0.3450472437772405 0.43259498346758168 0 -0.34924991692672103 0.41557230905991982 0 -0.33414070818898223 0.42049408200457622 0 -0.3450472437772405 0.43259498346758168 0 -0.33414070818898223 0.42049408200457622 0 -0.32819427591501937 0.43136507142923541 0 -0.31327220623244478 0.4345542185694326 0 -0.32135116785337731 0.4218485493119376 0 -0.30545171156958312 0.4177664772239405 0 -0.32819427591501937 0.43136507142923541 0 -0.31327220623244478 0.4345542185694326 0 -0.32135116785337731 0.4218485493119376 0 -0.33414070818898223 0.42049408200457622 0 -0.32819427591501937 0.43136507142923541 0 -0.32135116785337731 0.4218485493119376 0 -0.32787875075838452 0.40551842290769657 0 -0.31165546814214629 0.39788631546188929 0 -0.30545171156958312 0.4177664772239405 0 -0.33414070818898223 0.42049408200457622 0 -0.32135116785337731 0.4218485493119376 0 -0.32787875075838452 0.40551842290769657 0 -0.32135116785337731 0.4218485493119376 0 -0.32787875075838452 0.40551842290769657 0 -0.30545171156958312 0.4177664772239405 0 -0.32787875075838452 0.40551842290769657 0 -0.30545171156958312 0.4177664772239405 0 -0.31670145587085508 0.39324221763413519 0 -0.32787875075838452 0.40551842290769657 0 -0.31165546814214629 0.39788631546188929 0 -0.32787875075838452 0.40551842290769657 0 -0.31165546814214629 0.39788631546188929 0 -0.31670145587085508 0.39324221763413519 0 -0.32742080130665269 0.3937967199796818 0 -0.33053116236809948 0.40406986426420449 0 -0.31670145587085508 0.39324221763413519 0 -0.33053116236809948 0.40406986426420449 0 -0.31670145587085508 0.39324221763413519 0 -0.32787875075838452 0.40551842290769657 0 -0.33053116236809948 0.40406986426420449 0 -0.35206965780137878 0.39230706937469029 0 -0.33053116236809948 0.40406986426420449 0 -0.33500685076590281 0.39576723532513619 0 -0.34867152502657822 0.39917596933576682 0 -0.34502230732055461 0.40377331169057062 0 -0.33053116236809948 0.40406986426420449 0 -0.35206965780137878 0.39230706937469029 0 -0.33053116236809948 0.40406986426420449 0 -0.33429402734549268 0.40701591176709151 0 -0.32787875075838452 0.40551842290769657 0 -0.33053116236809948 0.40406986426420449 0 -0.32787875075838452 0.40551842290769657 0 -0.33053116236809948 0.40406986426420449 0 -0.35206965780137878 0.39230706937469029 0 -0.33500685076590281 0.39576723532513619 0 -0.33958644628261869 0.39077125135616703 0 -0.33429402734549268 0.40701591176709151 0 -0.33053116236809948 0.40406986426420449 0 -0.32742080130665269 0.3937967199796818 0 -0.33053116236809948 0.40406986426420449 0 -0.33500685076590281 0.39576723532513619 0 -0.32742080130665269 0.3937967199796818 0 -0.33500685076590281 0.39576723532513619 0 -0.33307696418486121 0.38914233012060578 0 -0.33500685076590281 0.39576723532513619 0 -0.33958644628261869 0.39077125135616703 0 -0.33307696418486121 0.38914233012060578 0 -0.34502230732055461 0.40377331169057062 0 -0.33429402734549268 0.40701591176709151 0 -0.33053116236809948 0.40406986426420449 0 -0.34418180387897318 0.36975703770772289 0 -0.3441446928194144 0.37957880478277528 0 -0.33766437660926019 0.3757204607939662 0 -0.3441446928194144 0.37957880478277528 0 -0.33766437660926019 0.3757204607939662 0 -0.33735953426516407 0.38343725618868191 0 -0.34494311657888771 0.38607481753194711 0 -0.3441446928194144 0.37957880478277528 0 -0.33735953426516407 0.38343725618868191 0 -0.34494311657888771 0.38607481753194711 0 -0.33958644628261869 0.39077125135616703 0 -0.33735953426516407 0.38343725618868191 0 -0.33958644628261869 0.39077125135616703 0 -0.33735953426516407 0.38343725618868191 0 -0.33307696418486121 0.38914233012060578 0 -0.33735953426516407 0.38343725618868191 0 -0.33307696418486121 0.38914233012060578 0 -0.32760510041107088 0.38011649160120953 0 -0.32742080130665269 0.3937967199796818 0 -0.33307696418486121 0.38914233012060578 0 -0.32760510041107088 0.38011649160120953 0 -0.33766437660926019 0.3757204607939662 0 -0.33735953426516407 0.38343725618868191 0 -0.32760510041107088 0.38011649160120953 0 -0.31969176545041261 0.36469003455572468 0 -0.31671751777648721 0.38011582869878391 0 -0.30287174937361022 0.38241457100406651 0 -0.31670145587085508 0.39324221763413519 0 -0.32760510041107088 0.38011649160120953 0 -0.31671751777648721 0.38011582869878391 0 -0.31670145587085508 0.39324221763413519 0 -0.32742080130665269 0.3937967199796818 0 -0.32760510041107088 0.38011649160120953 0 -0.30287174937361022 0.38241457100406651 0 -0.31165546814214629 0.39788631546188929 0 -0.29543218552590839 0.39025420801608113 0 -0.31670145587085508 0.39324221763413519 0 -0.31671751777648721 0.38011582869878391 0 -0.30287174937361022 0.38241457100406651 0 -0.31670145587085508 0.39324221763413519 0 -0.30287174937361022 0.38241457100406651 0 -0.30287174937361022 0.38241457100406651 0 -0.29543218552590839 0.39025420801608113 0 -0.31165546814214629 0.39788631546188929 0 -0.29938390678047427 0.40291284672208749 0 -0.29543218552590839 0.39025420801608113 0 -0.31165546814214629 0.39788631546188929 0 -0.29543218552590839 0.39025420801608113 0 -0.31165546814214629 0.39788631546188929 0 -0.29938390678047427 0.40291284672208749 0 -0.30545171156958312 0.4177664772239405 0 -0.31670145587085508 0.39324221763413519 0 -0.30287174937361022 0.38241457100406651 0 -0.31165546814214629 0.39788631546188929 0 -0.2865358106962449 0.39962899809990238 0 -0.29543218552590839 0.39025420801608113 0 -0.28064561462387372 0.38329798956455768 0 -0.29938390678047427 0.40291284672208749 0 -0.2865358106962449 0.39962899809990238 0 -0.29275737911322608 0.41463937794004418 0 -0.29938390678047427 0.40291284672208749 0 -0.2865358106962449 0.39962899809990238 0 -0.29543218552590839 0.39025420801608113 0 -0.2865358106962449 0.39962899809990238 0 -0.29543218552590839 0.39025420801608113 0 -0.29040028830671089 0.37265033100230688 0 -0.30287174937361022 0.38241457100406651 0 -0.29543218552590839 0.39025420801608113 0 -0.29040028830671089 0.37265033100230688 0 -0.29543218552590839 0.39025420801608113 0 -0.28064561462387372 0.38329798956455768 0 -0.29040028830671089 0.37265033100230688 0 -0.30287174937361022 0.38241457100406651 0 -0.29543218552590839 0.39025420801608113 0 -0.28064561462387372 0.38329798956455768 0 -0.29040028830671089 0.37265033100230688 0 -0.28064561462387372 0.38329798956455768 0 -0.27745531941020762 0.37251196331221897 0 -0.29040028830671089 0.37265033100230688 0 -0.28064561462387372 0.38329798956455768 0 -0.26714575893245918 0.37694709550833821 0 -0.28064561462387372 0.38329798956455768 0 -0.26714575893245918 0.37694709550833821 0 -0.28064561462387372 0.38329798956455768 0 -0.27087186141568559 0.39396647427415848 0 -0.27327656958586177 0.37475262543972948 0 -0.27745531941020762 0.37251196331221897 0 -0.28064561462387372 0.38329798956455768 0 -0.27327656958586177 0.37475262543972948 0 -0.26714575893245918 0.37694709550833821 0 -0.28064561462387372 0.38329798956455768 0 -0.25971562829495509 0.37034016738375602 0 -0.26714575893245918 0.37694709550833821 0 -0.27087186141568559 0.39396647427415848 0 -0.28064561462387372 0.38329798956455768 0 -0.27087186141568559 0.39396647427415848 0 -0.27087186141568559 0.39396647427415848 0 -0.28109577597850371 0.41561834730948333 0 -0.2865358106962449 0.39962899809990238 0 -0.27087186141568559 0.39396647427415848 0 -0.28109577597850371 0.41561834730948333 0 -0.27087186141568559 0.39396647427415848 0 -0.26025300152301761 0.40555743037722802 0 -0.2681333998588083 0.41005242204450387 0 -0.2865358106962449 0.39962899809990238 0 -0.28064561462387372 0.38329798956455768 0 -0.27087186141568559 0.39396647427415848 0 -0.27087186141568559 0.39396647427415848 0 -0.26025300152301761 0.40555743037722802 0 -0.25242180130994241 0.3961855939437226 0 -0.27087186141568559 0.39396647427415848 0 -0.25242180130994241 0.3961855939437226 0 -0.25827602588540532 0.38546705535239889 0 -0.27087186141568559 0.39396647427415848 0 -0.26025300152301761 0.40555743037722802 0 -0.25371371781949448 0.37884160431483682 0 -0.25827602588540532 0.38546705535239889 0 -0.24494632906272229 0.3877267150850453 0 -0.25971562829495509 0.37034016738375602 0 -0.27087186141568559 0.39396647427415848 0 -0.25242180130994241 0.3961855939437226 0 -0.25827602588540532 0.38546705535239889 0 -0.24494632906272229 0.3877267150850453 0 -0.25971562829495509 0.37034016738375602 0 -0.27087186141568559 0.39396647427415848 0 -0.25827602588540532 0.38546705535239889 0 -0.25971562829495509 0.37034016738375602 0 -0.25371371781949448 0.37884160431483682 0 -0.25827602588540532 0.38546705535239889 0 -0.26066701783776791 0.42635155335938241 0 -0.26974765558647329 0.42032674756486249 0 -0.26493876001074818 0.43784569329624412 0 -0.26066701783776791 0.42635155335938241 0 -0.25434665560925768 0.4230860774291143 0 -0.26025661490988788 0.41662065726773501 0 -0.26066701783776791 0.42635155335938241 0 -0.25404540307247192 0.43387859123895589 0 -0.26493876001074818 0.43784569329624412 0 -0.26066701783776791 0.42635155335938241 0 -0.25404540307247192 0.43387859123895589 0 -0.25434665560925768 0.4230860774291143 0 -0.25404540307247192 0.43387859123895589 0 -0.25434665560925768 0.4230860774291143 0 -0.24775712901684049 0.42528566511710603 0 -0.25434665560925768 0.4230860774291143 0 -0.24814934753678239 0.41876910502584458 0 -0.24775712901684049 0.42528566511710603 0 -0.25434665560925768 0.4230860774291143 0 -0.24963414163034869 0.41714838648029651 0 -0.24814934753678239 0.41876910502584458 0 -0.26025300152301761 0.40555743037722802 0 -0.25242180130994241 0.3961855939437226 0 -0.24963414163034869 0.41714838648029651 0 -0.25434665560925768 0.4230860774291143 0 -0.24963414163034869 0.41714838648029651 0 -0.25434665560925768 0.4230860774291143 0 -0.26025661490988788 0.41662065726773501 0 -0.24963414163034869 0.41714838648029651 0 -0.26025300152301761 0.40555743037722802 0 -0.26025661490988788 0.41662065726773501 0 -0.24963414163034869 0.41714838648029651 0 -0.26025300152301761 0.40555743037722802 0 -0.24963414163034869 0.41714838648029651 0 -0.26025300152301761 0.40555743037722802 0 -0.26025661490988788 0.41662065726773501 0 -0.2681333998588083 0.41005242204450387 0 -0.26066701783776791 0.42635155335938241 0 -0.26025661490988788 0.41662065726773501 0 -0.26974765558647329 0.42032674756486249 0 -0.27087186141568559 0.39396647427415848 0 -0.2681333998588083 0.41005242204450387 0 -0.28109577597850371 0.41561834730948333 0 -0.26974765558647329 0.42032674756486249 0 -0.2681333998588083 0.41005242204450387 0 -0.28109577597850371 0.41561834730948333 0 -0.26025661490988788 0.41662065726773501 0 -0.26974765558647329 0.42032674756486249 0 -0.2681333998588083 0.41005242204450387 0 -0.26974765558647329 0.42032674756486249 0 -0.27831941475727151 0.4462766559002585 0 -0.26493876001074818 0.43784569329624412 0 -0.26974765558647329 0.42032674756486249 0 -0.29131969054132439 0.43727022034480689 0 -0.26974765558647329 0.42032674756486249 0 -0.28109577597850371 0.41561834730948333 0 -0.29131969054132439 0.43727022034480689 0 -0.26974765558647329 0.42032674756486249 0 -0.29131969054132439 0.43727022034480689 0 -0.27831941475727151 0.4462766559002585 0 -0.28109577597850371 0.41561834730948333 0 -0.29131969054132439 0.43727022034480689 0 -0.29275737911322608 0.41463937794004418 0 -0.28109577597850371 0.41561834730948333 0 -0.29131969054132439 0.43727022034480689 0 -0.29131969054132439 0.43727022034480689 0 -0.29275737911322608 0.41463937794004418 0 -0.30545171156958312 0.4177664772239405 0 -0.2865358106962449 0.39962899809990238 0 -0.28109577597850371 0.41561834730948333 0 -0.29275737911322608 0.41463937794004418 0 -0.29938390678047427 0.40291284672208749 0 -0.29275737911322608 0.41463937794004418 0 -0.30545171156958312 0.4177664772239405 0 -0.31327220623244478 0.4345542185694326 0 -0.29131969054132439 0.43727022034480689 0 -0.30545171156958312 0.4177664772239405 0 -0.31327220623244478 0.4345542185694326 0 -0.29131969054132439 0.43727022034480689 0 -0.30913926035425532 0.45126636844616208 0 -0.29131969054132439 0.43727022034480689 0 -0.30913926035425532 0.45126636844616208 0 -0.29131969054132439 0.43727022034480689 0 -0.30913926035425532 0.45126636844616208 0 -0.30119326139734059 0.45818014689653569 0 -0.30119326139734059 0.45818014689653569 0 -0.3110668322533568 0.47909007344826482 0 -0.30119326139734059 0.45818014689653569 0 -0.3110668322533568 0.47909007344826482 0 -0.31339884931182471 0.46418496368274642 0 -0.30119326139734059 0.45818014689653569 0 -0.28785737859836108 0.46542101318672607 0 -0.3110668322533568 0.47909007344826482 0 -0.30913926035425532 0.45126636844616208 0 -0.30119326139734059 0.45818014689653569 0 -0.31339884931182471 0.46418496368274642 0 -0.30119326139734059 0.45818014689653569 0 -0.28785737859836108 0.46542101318672607 0 -0.27831941475727151 0.4462766559002585 0 -0.29131969054132439 0.43727022034480689 0 -0.30119326139734059 0.45818014689653569 0 -0.29131969054132439 0.43727022034480689 0 -0.30119326139734059 0.45818014689653569 0 -0.27831941475727151 0.4462766559002585 0 -0.25989869599414311 0.47401000649008701 0 -0.24064369679309239 0.48001488269389853 0 -0.24988810702934861 0.44802001298017402 0 -0.27831941475727151 0.4462766559002585 0 -0.27175346152647428 0.46066454351612879 0 -0.26493876001074818 0.43784569329624412 0 -0.28785737859836108 0.46542101318672607 0 -0.27831941475727151 0.4462766559002585 0 -0.27175346152647428 0.46066454351612879 0 -0.27175346152647428 0.46066454351612879 0 -0.25989869599414311 0.47401000649008701 0 -0.24988810702934861 0.44802001298017402 0 -0.25989869599414311 0.47401000649008701 0 -0.24988810702934861 0.44802001298017402 0 -0.27175346152647428 0.46066454351612879 0 -0.24988810702934861 0.44802001298017402 0 -0.27175346152647428 0.46066454351612879 0 -0.26493876001074818 0.43784569329624412 0 -0.24988810702934861 0.44802001298017402 0 -0.25404540307247192 0.43387859123895589 0 -0.26493876001074818 0.43784569329624412 0 -0.24988810702934861 0.44802001298017402 0 -0.25989869599414311 0.47401000649008701 0 -0.26990928495893679 0.49999999999999989 0 -0.25989869599414311 0.47401000649008701 0 -0.26990928495893679 0.49999999999999989 0 -0.2433655745855208 0.5 0 -0.28785737859836108 0.46542101318672607 0 -0.27175346152647428 0.46066454351612879 0 -0.28099138586993522 0.4808086068228602 0 -0.27175346152647428 0.46066454351612879 0 -0.25989869599414311 0.47401000649008701 0 -0.28099138586993522 0.4808086068228602 0 -0.25989869599414311 0.47401000649008701 0 -0.28099138586993522 0.4808086068228602 0 -0.26990928495893679 0.49999999999999989 0 -0.28099138586993522 0.4808086068228602 0 -0.29542484403415392 0.5 0 -0.3110668322533568 0.47909007344826482 0 -0.28099138586993522 0.4808086068228602 0 -0.26990928495893679 0.49999999999999989 0 -0.29542484403415392 0.5 0 -0.28785737859836108 0.46542101318672607 0 -0.28099138586993522 0.4808086068228602 0 -0.3110668322533568 0.47909007344826482 0 -0.29542484403415392 0.5 0 -0.3110668322533568 0.47909007344826482 0 -0.320940403109371 0.49999999999999473 0 -0.3110668322533568 0.47909007344826482 0 -0.320940403109371 0.49999999999999473 0 -0.32996151192434042 0.48472225092893101 0 -0.3110668322533568 0.47909007344826482 0 -0.320940403109371 0.49999999999999473 0 -0.32996151192434042 0.48472225092893101 0 -0.34606309411167119 0.5 0 -0.34477839998011689 0.47925866464887268 0 -0.320940403109371 0.49999999999999473 0 -0.32996151192434042 0.48472225092893101 0 -0.34606309411167119 0.5 0 -0.32996151192434042 0.48472225092893101 0 -0.32695883016718608 0.46526251654751738 0 -0.34477839998011689 0.47925866464887268 0 -0.32695883016718608 0.46526251654751738 0 -0.34477839998011689 0.47925866464887268 0 -0.3110668322533568 0.47909007344826482 0 -0.32695883016718608 0.46526251654751738 0 -0.31339884931182471 0.46418496368274642 0 -0.3110668322533568 0.47909007344826482 0 -0.32996151192434042 0.48472225092893101 0 -0.32695883016718608 0.46526251654751738 0 -0.30913926035425532 0.45126636844616208 0 -0.32695883016718608 0.46526251654751738 0 -0.30913926035425532 0.45126636844616208 0 -0.32695883016718608 0.46526251654751738 0 -0.32886570464148901 0.44731875094243601 0 -0.30913926035425532 0.45126636844616208 0 -0.32695883016718608 0.46526251654751738 0 -0.31339884931182471 0.46418496368274642 0 -0.32819427591501937 0.43136507142923541 0 -0.31327220623244478 0.4345542185694326 0 -0.32886570464148901 0.44731875094243601 0 -0.31327220623244478 0.4345542185694326 0 -0.30913926035425532 0.45126636844616208 0 -0.32886570464148901 0.44731875094243601 0 -0.3450472437772405 0.43259498346758168 0 -0.32886570464148901 0.44731875094243601 0 -0.34485045536133752 0.4523034215235664 0 -0.32695883016718608 0.46526251654751738 0 -0.34485045536133752 0.4523034215235664 0 -0.34477839998011689 0.47925866464887268 0 -0.32695883016718608 0.46526251654751738 0 -0.32886570464148901 0.44731875094243601 0 -0.34485045536133752 0.4523034215235664 0 -0.35854661608568489 0.46359717740749462 0 -0.34485045536133752 0.4523034215235664 0 -0.34477839998011689 0.47925866464887268 0 -0.3450472437772405 0.43259498346758168 0 -0.3574971945799772 0.44281810600923288 0 -0.34485045536133752 0.4523034215235664 0 -0.35854661608568489 0.46359717740749462 0 -0.3574971945799772 0.44281810600923288 0 -0.34485045536133752 0.4523034215235664 0 -0.36642722313095188 0.42817284779017439 0 -0.3574971945799772 0.44281810600923288 0 -0.37117916830981812 0.44896766552950063 0 -0.35854661608568489 0.46359717740749462 0 -0.3574971945799772 0.44281810600923288 0 -0.37117916830981812 0.44896766552950063 0 -0.38719407409080908 0.43578255220946199 0 -0.36642722313095188 0.42817284779017439 0 -0.37117916830981812 0.44896766552950063 0 -0.37746907098051269 0.46930677346176097 0 -0.35854661608568489 0.46359717740749462 0 -0.37117916830981812 0.44896766552950063 0 -0.37746907098051269 0.46930677346176097 0 -0.35854661608568489 0.46359717740749462 0 -0.36119263300669702 0.47834125410060829 0 -0.37746907098051269 0.46930677346176097 0 -0.36119263300669702 0.47834125410060829 0 -0.37314454094397631 0.48282983552261149 0 -0.37118578511397149 0.50000000000000377 0 -0.36259796979304798 0.49325481275022792 0 -0.34606309411167119 0.5 0 -0.37118578511397149 0.50000000000000377 0 -0.36259796979304798 0.49325481275022792 0 -0.36119263300669702 0.47834125410060829 0 -0.37314454094397631 0.48282983552261149 0 -0.36259796979304798 0.49325481275022792 0 -0.36259796979304798 0.49325481275022792 0 -0.34477839998011689 0.47925866464887268 0 -0.36259796979304798 0.49325481275022792 0 -0.34606309411167119 0.5 0 -0.34477839998011689 0.47925866464887268 0 -0.36119263300669702 0.47834125410060829 0 -0.36259796979304798 0.49325481275022792 0 -0.34477839998011689 0.47925866464887268 0 -0.35854661608568489 0.46359717740749462 0 -0.36119263300669702 0.47834125410060829 0 -0.34477839998011689 0.47925866464887268 0 -0.15088089232204599 0.48696854021950919 0 -0.13533371513301129 0.48097429171116729 0 -0.14935503645173959 0.468242930810639 0 -0.15088089232204599 0.48696854021950919 0 -0.1371907330918567 0.5 0 -0.1637344434652728 0.5 0 -0.15088089232204599 0.48696854021950919 0 -0.1371907330918567 0.5 0 -0.13533371513301129 0.48097429171116729 0 -0.1371907330918567 0.5 0 -0.13533371513301129 0.48097429171116729 0 -0.12391887790514861 0.48996963611126892 0 -0.13533371513301129 0.48097429171116729 0 -0.1319871521463932 0.46648093142699482 0 -0.1186695988808837 0.47418371169859269 0 -0.13533371513301129 0.48097429171116729 0 -0.1186695988808837 0.47418371169859269 0 -0.12391887790514861 0.48996963611126892 0 -0.13533371513301129 0.48097429171116729 0 -0.1319871521463932 0.46648093142699482 0 -0.14935503645173959 0.468242930810639 0 -0.1319871521463932 0.46648093142699482 0 -0.12669217504332569 0.44836742339718549 0 -0.14935503645173959 0.468242930810639 0 -0.12669217504332569 0.44836742339718549 0 -0.14935503645173959 0.468242930810639 0 -0.12669217504332569 0.44836742339718549 0 -0.14317263067947439 0.44837388614916768 0 -0.14935503645173959 0.468242930810639 0 -0.1319871521463932 0.46648093142699482 0 -0.12669217504332569 0.44836742339718549 0 -0.1186695988808837 0.47418371169859269 0 -0.1295541656026418 0.43915766684279101 0 -0.14922143489672679 0.439604687220991 0 -0.1295541656026418 0.43915766684279101 0 -0.12669217504332569 0.44836742339718549 0 -0.14317263067947439 0.44837388614916768 0 -0.1295541656026418 0.43915766684279101 0 -0.12669217504332569 0.44836742339718549 0 -0.14317263067947439 0.44837388614916768 0 -0.14922143489672679 0.439604687220991 0 -0.15902846412209601 0.44686999554879803 0 -0.1295541656026418 0.43915766684279101 0 -0.14317263067947439 0.44837388614916768 0 -0.14922143489672679 0.439604687220991 0 -0.14317263067947439 0.44837388614916768 0 -0.14935503645173959 0.468242930810639 0 -0.15902846412209601 0.44686999554879803 0 -0.14935503645173959 0.468242930810639 0 -0.1729705770326401 0.45350381909864518 0 -0.17510971569156131 0.470296068266572 0 -0.14935503645173959 0.468242930810639 0 -0.15902846412209601 0.44686999554879803 0 -0.1729705770326401 0.45350381909864518 0 -0.14922143489672679 0.439604687220991 0 -0.15902846412209601 0.44686999554879803 0 -0.16554200172157121 0.43357690222354472 0 -0.15902846412209601 0.44686999554879803 0 -0.173909103950424 0.43791774778980053 0 -0.1729705770326401 0.45350381909864518 0 -0.15902846412209601 0.44686999554879803 0 -0.173909103950424 0.43791774778980053 0 -0.16554200172157121 0.43357690222354472 0 -0.18650085334255029 0.44060966103009103 0 -0.1729705770326401 0.45350381909864518 0 -0.1895738618221984 0.45884699545631069 0 -0.173909103950424 0.43791774778980053 0 -0.18650085334255029 0.44060966103009103 0 -0.1729705770326401 0.45350381909864518 0 -0.1729705770326401 0.45350381909864518 0 -0.17510971569156131 0.470296068266572 0 -0.1895738618221984 0.45884699545631069 0 -0.17510971569156131 0.470296068266572 0 -0.18992817093560249 0.47911736156679952 0 -0.1895738618221984 0.45884699545631069 0 -0.17510971569156131 0.470296068266572 0 -0.17201789786015531 0.48811843822409012 0 -0.18992817093560249 0.47911736156679952 0 -0.14935503645173959 0.468242930810639 0 -0.17201789786015531 0.48811843822409012 0 -0.14935503645173959 0.468242930810639 0 -0.17510971569156131 0.470296068266572 0 -0.17201789786015531 0.48811843822409012 0 -0.15088089232204599 0.48696854021950919 0 -0.14935503645173959 0.468242930810639 0 -0.17201789786015531 0.48811843822409012 0 -0.15088089232204599 0.48696854021950919 0 -0.1637344434652728 0.5 0 -0.17201789786015531 0.48811843822409012 0 -0.17201789786015531 0.48811843822409012 0 -0.19027815383868879 0.5 0 -0.18992817093560249 0.47911736156679952 0 -0.1637344434652728 0.5 0 -0.17201789786015531 0.48811843822409012 0 -0.19027815383868879 0.5 0 -0.19027815383868879 0.5 0 -0.18992817093560249 0.47911736156679952 0 -0.20537682406998001 0.48307128090816082 0 -0.18992817093560249 0.47911736156679952 0 -0.20537682406998001 0.48307128090816082 0 -0.2059615431808989 0.46631589966812292 0 -0.20537682406998001 0.48307128090816082 0 -0.21682186421210481 0.5 0 -0.22389438818260521 0.46992314330588109 0 -0.20537682406998001 0.48307128090816082 0 -0.22389438818260521 0.46992314330588109 0 -0.2059615431808989 0.46631589966812292 0 -0.19027815383868879 0.5 0 -0.20537682406998001 0.48307128090816082 0 -0.21682186421210481 0.5 0 -0.21682186421210481 0.5 0 -0.24064369679309239 0.48001488269389853 0 -0.2433655745855208 0.5 0 -0.21682186421210481 0.5 0 -0.22389438818260521 0.46992314330588109 0 -0.24064369679309239 0.48001488269389853 0 -0.25989869599414311 0.47401000649008701 0 -0.24064369679309239 0.48001488269389853 0 -0.2433655745855208 0.5 0 -0.22389438818260521 0.46992314330588109 0 -0.24064369679309239 0.48001488269389853 0 -0.24988810702934861 0.44802001298017402 0 -0.24988810702934861 0.44802001298017402 0 -0.24329091248690071 0.43089204539056702 0 -0.24988810702934861 0.44802001298017402 0 -0.22950970777088789 0.43623537478776159 0 -0.24329091248690071 0.43089204539056702 0 -0.24988810702934861 0.44802001298017402 0 -0.22950970777088789 0.43623537478776159 0 -0.25404540307247192 0.43387859123895589 0 -0.24988810702934861 0.44802001298017402 0 -0.24329091248690071 0.43089204539056702 0 -0.22389438818260521 0.46992314330588109 0 -0.24988810702934861 0.44802001298017402 0 -0.22034518687826679 0.45120388454029431 0 -0.24988810702934861 0.44802001298017402 0 -0.22034518687826679 0.45120388454029431 0 -0.22950970777088789 0.43623537478776159 0 -0.22034518687826679 0.45120388454029431 0 -0.204886306299808 0.44289318428917851 0 -0.22950970777088789 0.43623537478776159 0 -0.22034518687826679 0.45120388454029431 0 -0.204886306299808 0.44289318428917851 0 -0.2059615431808989 0.46631589966812292 0 -0.22389438818260521 0.46992314330588109 0 -0.22034518687826679 0.45120388454029431 0 -0.2059615431808989 0.46631589966812292 0 -0.204886306299808 0.44289318428917851 0 -0.2059615431808989 0.46631589966812292 0 -0.1895738618221984 0.45884699545631069 0 -0.18992817093560249 0.47911736156679952 0 -0.2059615431808989 0.46631589966812292 0 -0.1895738618221984 0.45884699545631069 0 -0.18650085334255029 0.44060966103009103 0 -0.204886306299808 0.44289318428917851 0 -0.1895738618221984 0.45884699545631069 0 -0.18650085334255029 0.44060966103009103 0 -0.204886306299808 0.44289318428917851 0 -0.19337308223176661 0.42547280512364632 0 -0.18650085334255029 0.44060966103009103 0 -0.19337308223176661 0.42547280512364632 0 -0.18274983626486849 0.42839644467262861 0 -0.204886306299808 0.44289318428917851 0 -0.19337308223176661 0.42547280512364632 0 -0.20913130851242759 0.42445073659534888 0 -0.19337308223176661 0.42547280512364632 0 -0.1887529092539669 0.41266609840293678 0 -0.20913130851242759 0.42445073659534888 0 -0.1887529092539669 0.41266609840293678 0 -0.2076605594438245 0.40037589290551129 0 -0.1887529092539669 0.41266609840293678 0 -0.20913130851242759 0.42445073659534888 0 -0.1887529092539669 0.41266609840293678 0 -0.20913130851242759 0.42445073659534888 0 -0.2076605594438245 0.40037589290551129 0 -0.19337308223176661 0.42547280512364632 0 -0.1887529092539669 0.41266609840293678 0 -0.18588723459310649 0.42118825738553189 0 -0.20913130851242759 0.42445073659534888 0 -0.22295605502330701 0.40713474744680728 0 -0.2076605594438245 0.40037589290551129 0 -0.204886306299808 0.44289318428917851 0 -0.20913130851242759 0.42445073659534888 0 -0.22950970777088789 0.43623537478776159 0 -0.20913130851242759 0.42445073659534888 0 -0.22950970777088789 0.43623537478776159 0 -0.20913130851242759 0.42445073659534888 0 -0.22950970777088789 0.43623537478776159 0 -0.22499340720233801 0.42177938527791031 0 -0.22950970777088789 0.43623537478776159 0 -0.2336219363511447 0.42566772081429971 0 -0.22499340720233801 0.42177938527791031 0 -0.20913130851242759 0.42445073659534888 0 -0.22499340720233801 0.42177938527791031 0 -0.22295605502330701 0.40713474744680728 0 -0.22295605502330701 0.40713474744680728 0 -0.23669371794445229 0.41376407780095997 0 -0.2381011756320148 0.40261703694419071 0 -0.22499340720233801 0.42177938527791031 0 -0.22295605502330701 0.40713474744680728 0 -0.23669371794445229 0.41376407780095997 0 -0.2336219363511447 0.42566772081429971 0 -0.22499340720233801 0.42177938527791031 0 -0.23669371794445229 0.41376407780095997 0 -0.23669371794445229 0.41376407780095997 0 -0.24963414163034869 0.41714838648029651 0 -0.2381011756320148 0.40261703694419071 0 -0.24963414163034869 0.41714838648029651 0 -0.2381011756320148 0.40261703694419071 0 -0.23669371794445229 0.41376407780095997 0 -0.24963414163034869 0.41714838648029651 0 -0.24814934753678239 0.41876910502584458 0 -0.23669371794445229 0.41376407780095997 0 -0.24814934753678239 0.41876910502584458 0 -0.24775712901684049 0.42528566511710603 0 -0.24963414163034869 0.41714838648029651 0 -0.24814934753678239 0.41876910502584458 0 -0.2336219363511447 0.42566772081429971 0 -0.23669371794445229 0.41376407780095997 0 -0.24329091248690071 0.43089204539056702 0 -0.23669371794445229 0.41376407780095997 0 -0.24775712901684049 0.42528566511710603 0 -0.24329091248690071 0.43089204539056702 0 -0.23669371794445229 0.41376407780095997 0 -0.24329091248690071 0.43089204539056702 0 -0.25404540307247192 0.43387859123895589 0 -0.24775712901684049 0.42528566511710603 0 -0.24329091248690071 0.43089204539056702 0 -0.22950970777088789 0.43623537478776159 0 -0.2336219363511447 0.42566772081429971 0 -0.24329091248690071 0.43089204539056702 0 -0.22656820963368141 0.38808568740808452 0 -0.2281728115036056 0.37516202809190852 0 -0.24852329785757149 0.3738146096550965 0 -0.24494632906272229 0.3877267150850453 0 -0.22656820963368141 0.38808568740808452 0 -0.24852329785757149 0.3738146096550965 0 -0.22656820963368141 0.38808568740808452 0 -0.24852329785757149 0.3738146096550965 0 -0.25371371781949448 0.37884160431483682 0 -0.24494632906272229 0.3877267150850453 0 -0.24852329785757149 0.3738146096550965 0 -0.25242180130994241 0.3961855939437226 0 -0.24494632906272229 0.3877267150850453 0 -0.2381011756320148 0.40261703694419071 0 -0.24494632906272229 0.3877267150850453 0 -0.2381011756320148 0.40261703694419071 0 -0.22656820963368141 0.38808568740808452 0 -0.25242180130994241 0.3961855939437226 0 -0.24963414163034869 0.41714838648029651 0 -0.2381011756320148 0.40261703694419071 0 -0.22295605502330701 0.40713474744680728 0 -0.2381011756320148 0.40261703694419071 0 -0.22656820963368141 0.38808568740808452 0 -0.2381011756320148 0.40261703694419071 0 -0.22656820963368141 0.38808568740808452 0 -0.22295605502330701 0.40713474744680728 0 -0.22656820963368141 0.38808568740808452 0 -0.2076605594438245 0.40037589290551129 0 -0.22656820963368141 0.38808568740808452 0 -0.2281728115036056 0.37516202809190852 0 -0.21522238246687209 0.37379012975526721 0 -0.22656820963368141 0.38808568740808452 0 -0.21522238246687209 0.37379012975526721 0 -0.22656820963368141 0.38808568740808452 0 -0.20862384329431549 0.38520262946041678 0 -0.21522238246687209 0.37379012975526721 0 -0.20862384329431549 0.38520262946041678 0 -0.19764735151398741 0.37921964757324628 0 -0.2036924142248499 0.37254433409016657 0 -0.20862384329431549 0.38520262946041678 0 -0.2036924142248499 0.37254433409016657 0 -0.21522238246687209 0.37379012975526721 0 -0.22656820963368141 0.38808568740808452 0 -0.2076605594438245 0.40037589290551129 0 -0.22656820963368141 0.38808568740808452 0 -0.20862384329431549 0.38520262946041678 0 -0.2076605594438245 0.40037589290551129 0 -0.20862384329431549 0.38520262946041678 0 -0.2076605594438245 0.40037589290551129 0 -0.19605880166538109 0.39005261120670143 0 -0.2076605594438245 0.40037589290551129 0 -0.1906409438344687 0.399212247824136 0 -0.19605880166538109 0.39005261120670143 0 -0.1887529092539669 0.41266609840293678 0 -0.2076605594438245 0.40037589290551129 0 -0.1906409438344687 0.399212247824136 0 -0.1906409438344687 0.399212247824136 0 -0.19605880166538109 0.39005261120670143 0 -0.18432588460403199 0.39173550470372931 0 -0.20862384329431549 0.38520262946041678 0 -0.19764735151398741 0.37921964757324628 0 -0.19605880166538109 0.39005261120670143 0 -0.19764735151398741 0.37921964757324628 0 -0.19605880166538109 0.39005261120670143 0 -0.18661680090460131 0.38205828403233733 0 -0.19605880166538109 0.39005261120670143 0 -0.18661680090460131 0.38205828403233733 0 -0.18432588460403199 0.39173550470372931 0 -0.19764735151398741 0.37921964757324628 0 -0.18661680090460131 0.38205828403233733 0 -0.1929124328025327 0.3692633940813434 0 -0.18661680090460131 0.38205828403233733 0 -0.17255393580078521 0.38666092585586759 0 -0.18432588460403199 0.39173550470372931 0 -0.18661680090460131 0.38205828403233733 0 -0.17255393580078521 0.38666092585586759 0 -0.1788117973989525 0.37366653582704401 0 -0.17255393580078521 0.38666092585586759 0 -0.15468232685187569 0.3893781651368966 0 -0.1640406744913796 0.37465415246760259 0 -0.17255393580078521 0.38666092585586759 0 -0.1640406744913796 0.37465415246760259 0 -0.1788117973989525 0.37366653582704401 0 -0.16011216428672351 0.41147753368022072 0 -0.15468232685187569 0.3893781651368966 0 -0.16504682346191221 0.39895709013028291 0 -0.16011216428672351 0.41147753368022072 0 -0.15468232685187569 0.3893781651368966 0 -0.17255393580078521 0.38666092585586759 0 -0.16504682346191221 0.39895709013028291 0 -0.15468232685187569 0.3893781651368966 0 -0.1887529092539669 0.41266609840293678 0 -0.16504682346191221 0.39895709013028291 0 -0.18026409939103319 0.39784637338339068 0 -0.1887529092539669 0.41266609840293678 0 -0.16504682346191221 0.39895709013028291 0 -0.17255393580078521 0.38666092585586759 0 -0.18432588460403199 0.39173550470372931 0 -0.18026409939103319 0.39784637338339068 0 -0.17255393580078521 0.38666092585586759 0 -0.16504682346191221 0.39895709013028291 0 -0.18026409939103319 0.39784637338339068 0 -0.1906409438344687 0.399212247824136 0 -0.18432588460403199 0.39173550470372931 0 -0.18026409939103319 0.39784637338339068 0 -0.1887529092539669 0.41266609840293678 0 -0.1906409438344687 0.399212247824136 0 -0.18026409939103319 0.39784637338339068 0 -0.1887529092539669 0.41266609840293678 0 -0.18354475118301319 0.41605146529477172 0 -0.17319581850301211 0.4105162615752348 0 -0.1887529092539669 0.41266609840293678 0 -0.16504682346191221 0.39895709013028291 0 -0.17319581850301211 0.4105162615752348 0 -0.1887529092539669 0.41266609840293678 0 -0.18588723459310649 0.42118825738553189 0 -0.18354475118301319 0.41605146529477172 0 -0.1887529092539669 0.41266609840293678 0 -0.18354475118301319 0.41605146529477172 0 -0.18588723459310649 0.42118825738553189 0 -0.1803548539015673 0.42164249311579999 0 -0.18354475118301319 0.41605146529477172 0 -0.1803548539015673 0.42164249311579999 0 -0.18354475118301319 0.41605146529477172 0 -0.17590454718929671 0.41764805739874761 0 -0.17590454718929671 0.41764805739874761 0 -0.17319581850301211 0.4105162615752348 0 -0.16988110912771609 0.41962833842348157 0 -0.18354475118301319 0.41605146529477172 0 -0.17590454718929671 0.41764805739874761 0 -0.17319581850301211 0.4105162615752348 0 -0.1803548539015673 0.42164249311579999 0 -0.17590454718929671 0.41764805739874761 0 -0.174651013937977 0.42492293723966001 0 -0.17590454718929671 0.41764805739874761 0 -0.174651013937977 0.42492293723966001 0 -0.16988110912771609 0.41962833842348157 0 -0.173909103950424 0.43791774778980053 0 -0.18650085334255029 0.44060966103009103 0 -0.18274983626486849 0.42839644467262861 0 -0.19337308223176661 0.42547280512364632 0 -0.18588723459310649 0.42118825738553189 0 -0.18274983626486849 0.42839644467262861 0 -0.18588723459310649 0.42118825738553189 0 -0.1803548539015673 0.42164249311579999 0 -0.18274983626486849 0.42839644467262861 0 -0.1803548539015673 0.42164249311579999 0 -0.18274983626486849 0.42839644467262861 0 -0.174651013937977 0.42492293723966001 0 -0.173909103950424 0.43791774778980053 0 -0.18274983626486849 0.42839644467262861 0 -0.174651013937977 0.42492293723966001 0 -0.16554200172157121 0.43357690222354472 0 -0.16011216428672351 0.41147753368022072 0 -0.16554200172157121 0.43357690222354472 0 -0.16011216428672351 0.41147753368022072 0 -0.1506035484485197 0.42453041177132622 0 -0.173909103950424 0.43791774778980053 0 -0.174651013937977 0.42492293723966001 0 -0.16554200172157121 0.43357690222354472 0 -0.174651013937977 0.42492293723966001 0 -0.16554200172157121 0.43357690222354472 0 -0.16988110912771609 0.41962833842348157 0 -0.16554200172157121 0.43357690222354472 0 -0.16988110912771609 0.41962833842348157 0 -0.16011216428672351 0.41147753368022072 0 -0.16504682346191221 0.39895709013028291 0 -0.17319581850301211 0.4105162615752348 0 -0.16011216428672351 0.41147753368022072 0 -0.17319581850301211 0.4105162615752348 0 -0.16988110912771609 0.41962833842348157 0 -0.16011216428672351 0.41147753368022072 0 -0.16011216428672351 0.41147753368022072 0 -0.14910238626393291 0.41426932424524548 0 -0.14350702145093519 0.40428139117903999 0 -0.16011216428672351 0.41147753368022072 0 -0.14910238626393291 0.41426932424524548 0 -0.1506035484485197 0.42453041177132622 0 -0.14910238626393291 0.41426932424524548 0 -0.14080986541212989 0.41904403690316328 0 -0.1506035484485197 0.42453041177132622 0 -0.14910238626393291 0.41426932424524548 0 -0.14080986541212989 0.41904403690316328 0 -0.14350702145093519 0.40428139117903999 0 -0.14922143489672679 0.439604687220991 0 -0.16554200172157121 0.43357690222354472 0 -0.1506035484485197 0.42453041177132622 0 -0.14080986541212989 0.41904403690316328 0 -0.1506035484485197 0.42453041177132622 0 -0.14110807121521679 0.43081497535943331 0 -0.14922143489672679 0.439604687220991 0 -0.1506035484485197 0.42453041177132622 0 -0.14110807121521679 0.43081497535943331 0 -0.1295541656026418 0.43915766684279101 0 -0.14922143489672679 0.439604687220991 0 -0.14110807121521679 0.43081497535943331 0 -0.13244487301580751 0.42985550074773538 0 -0.1257794668173487 0.41098137930609879 0 -0.1172751471057842 0.43887857514936057 0 -0.1295541656026418 0.43915766684279101 0 -0.14110807121521679 0.43081497535943331 0 -0.13244487301580751 0.42985550074773538 0 -0.14080986541212989 0.41904403690316328 0 -0.14110807121521679 0.43081497535943331 0 -0.13244487301580751 0.42985550074773538 0 -0.1295541656026418 0.43915766684279101 0 -0.13244487301580751 0.42985550074773538 0 -0.1295541656026418 0.43915766684279101 0 -0.13244487301580751 0.42985550074773538 0 -0.1172751471057842 0.43887857514936057 0 -0.14080986541212989 0.41904403690316328 0 -0.1257794668173487 0.41098137930609879 0 -0.14350702145093519 0.40428139117903999 0 -0.14080986541212989 0.41904403690316328 0 -0.13244487301580751 0.42985550074773538 0 -0.1257794668173487 0.41098137930609879 0 -0.1257794668173487 0.41098137930609879 0 -0.13428378652891271 0.38308418346283701 0 -0.1178627936561807 0.38611406414123373 0 -0.1257794668173487 0.41098137930609879 0 -0.13428378652891271 0.38308418346283701 0 -0.1257794668173487 0.41098137930609879 0 -0.13428378652891271 0.38308418346283701 0 -0.14350702145093519 0.40428139117903999 0 -0.13428378652891271 0.38308418346283701 0 -0.1283991830727704 0.37068327457407307 0 -0.1178627936561807 0.38611406414123373 0 -0.15468232685187569 0.3893781651368966 0 -0.1492524894170279 0.36727879659357238 0 -0.1640406744913796 0.37465415246760259 0 -0.15468232685187569 0.3893781651368966 0 -0.1492524894170279 0.36727879659357238 0 -0.13428378652891271 0.38308418346283701 0 -0.15468232685187569 0.3893781651368966 0 -0.1492524894170279 0.36727879659357238 0 -0.13428378652891271 0.38308418346283701 0 -0.15468232685187569 0.3893781651368966 0 -0.14350702145093519 0.40428139117903999 0 -0.16011216428672351 0.41147753368022072 0 -0.15468232685187569 0.3893781651368966 0 -0.14350702145093519 0.40428139117903999 0 -0.14382265198218011 0.34517942805024832 0 -0.15485534384768329 0.3556740100642603 0 -0.1492524894170279 0.36727879659357238 0 -0.1427881062404768 0.35518698761957512 0 -0.14382265198218011 0.34517942805024832 0 -0.1492524894170279 0.36727879659357238 0 -0.14382265198218011 0.34517942805024832 0 -0.1492524894170279 0.36727879659357238 0 -0.14382265198218011 0.34517942805024832 0 -0.15607672495013139 0.34673882338084228 0 -0.15485534384768329 0.3556740100642603 0 -0.15485534384768329 0.3556740100642603 0 -0.1492524894170279 0.36727879659357238 0 -0.1617637574063841 0.36284309820414851 0 -0.13428378652891271 0.38308418346283701 0 -0.1427881062404768 0.35518698761957512 0 -0.1492524894170279 0.36727879659357238 0 -0.13428378652891271 0.38308418346283701 0 -0.1427881062404768 0.35518698761957512 0 -0.1427881062404768 0.35518698761957512 0 -0.1283991830727704 0.37068327457407307 0 -0.12846322934269069 0.3604998615717443 0 -0.13428378652891271 0.38308418346283701 0 -0.1427881062404768 0.35518698761957512 0 -0.1283991830727704 0.37068327457407307 0 -0.1283991830727704 0.37068327457407307 0 -0.12846322934269069 0.3604998615717443 0 -0.1186366303267905 0.36507467351373762 0 -0.14382265198218011 0.34517942805024832 0 -0.14961127848330111 0.33720502938806002 0 -0.12404831309632459 0.34932620929897251 0 -0.1427881062404768 0.35518698761957512 0 -0.14382265198218011 0.34517942805024832 0 -0.12404831309632459 0.34932620929897251 0 -0.1427881062404768 0.35518698761957512 0 -0.12846322934269069 0.3604998615717443 0 -0.12404831309632459 0.34932620929897251 0 -0.13222722190459121 0.33370704469361778 0 -0.119702346626612 0.33427095359743619 0 -0.12404831309632459 0.34932620929897251 0 -0.13222722190459121 0.33370704469361778 0 -0.14961127848330111 0.33720502938806002 0 -0.12404831309632459 0.34932620929897251 0 -0.14961127848330111 0.33720502938806002 0 -0.12404831309632459 0.34932620929897251 0 -0.13222722190459121 0.33370704469361778 0 -0.13992317198704829 0.32369200123268232 0 -0.14961127848330111 0.33720502938806002 0 -0.13222722190459121 0.33370704469361778 0 -0.127024793533425 0.32288423120810439 0 -0.119702346626612 0.33427095359743619 0 -0.127024793533425 0.32288423120810439 0 -0.13509489912183681 0.3124567538665543 0 -0.12256205949218241 0.31049755730441969 0 -0.13222722190459121 0.33370704469361778 0 -0.127024793533425 0.32288423120810439 0 -0.13992317198704829 0.32369200123268232 0 -0.127024793533425 0.32288423120810439 0 -0.13992317198704829 0.32369200123268232 0 -0.13509489912183681 0.3124567538665543 0 -0.13992317198704829 0.32369200123268232 0 -0.15301953110619729 0.31059503159192381 0 -0.13509489912183681 0.3124567538665543 0 -0.13992317198704829 0.32369200123268232 0 -0.14961127848330111 0.33720502938806002 0 -0.15301953110619729 0.31059503159192381 0 -0.14382265198218011 0.34517942805024832 0 -0.15607672495013139 0.34673882338084228 0 -0.14961127848330111 0.33720502938806002 0 -0.14961127848330111 0.33720502938806002 0 -0.16549216785051341 0.34072187696041029 0 -0.1751742438702775 0.32508384947714741 0 -0.15607672495013139 0.34673882338084228 0 -0.14961127848330111 0.33720502938806002 0 -0.16549216785051341 0.34072187696041029 0 -0.14961127848330111 0.33720502938806002 0 -0.1751742438702775 0.32508384947714741 0 -0.14961127848330111 0.33720502938806002 0 -0.1751742438702775 0.32508384947714741 0 -0.15301953110619729 0.31059503159192381 0 -0.1751742438702775 0.32508384947714741 0 -0.16719273542415641 0.30265701128909839 0 -0.15301953110619729 0.31059503159192381 0 -0.1751742438702775 0.32508384947714741 0 -0.15301953110619729 0.31059503159192381 0 -0.1751742438702775 0.32508384947714741 0 -0.20042024607039349 0.31311296385936271 0 -0.183181887810836 0.29978666411110211 0 -0.1751742438702775 0.32508384947714741 0 -0.17867447488176749 0.34211915167558199 0 -0.19568526909889439 0.33849772273929418 0 -0.1751742438702775 0.32508384947714741 0 -0.19568526909889439 0.33849772273929418 0 -0.16549216785051341 0.34072187696041029 0 -0.1751742438702775 0.32508384947714741 0 -0.17867447488176749 0.34211915167558199 0 -0.18575880122095251 0.35670217168091639 0 -0.16792411706708929 0.3524625308804204 0 -0.1750276730009383 0.36221231440885199 0 -0.17867447488176749 0.34211915167558199 0 -0.18575880122095251 0.35670217168091639 0 -0.16792411706708929 0.3524625308804204 0 -0.17867447488176749 0.34211915167558199 0 -0.18575880122095251 0.35670217168091639 0 -0.19568526909889439 0.33849772273929418 0 -0.16549216785051341 0.34072187696041029 0 -0.17867447488176749 0.34211915167558199 0 -0.16792411706708929 0.3524625308804204 0 -0.16792411706708929 0.3524625308804204 0 -0.1617637574063841 0.36284309820414851 0 -0.1750276730009383 0.36221231440885199 0 -0.15485534384768329 0.3556740100642603 0 -0.16792411706708929 0.3524625308804204 0 -0.1617637574063841 0.36284309820414851 0 -0.15607672495013139 0.34673882338084228 0 -0.15485534384768329 0.3556740100642603 0 -0.16792411706708929 0.3524625308804204 0 -0.15607672495013139 0.34673882338084228 0 -0.16549216785051341 0.34072187696041029 0 -0.16792411706708929 0.3524625308804204 0 -0.1492524894170279 0.36727879659357238 0 -0.1640406744913796 0.37465415246760259 0 -0.1617637574063841 0.36284309820414851 0 -0.1640406744913796 0.37465415246760259 0 -0.1617637574063841 0.36284309820414851 0 -0.1750276730009383 0.36221231440885199 0 -0.1640406744913796 0.37465415246760259 0 -0.1788117973989525 0.37366653582704401 0 -0.1750276730009383 0.36221231440885199 0 -0.18575880122095251 0.35670217168091639 0 -0.1788117973989525 0.37366653582704401 0 -0.1750276730009383 0.36221231440885199 0 -0.18575880122095251 0.35670217168091639 0 -0.1788117973989525 0.37366653582704401 0 -0.1929124328025327 0.3692633940813434 0 -0.18661680090460131 0.38205828403233733 0 -0.1788117973989525 0.37366653582704401 0 -0.1929124328025327 0.3692633940813434 0 -0.18575880122095251 0.35670217168091639 0 -0.1929124328025327 0.3692633940813434 0 -0.2038765553000628 0.35949457210244978 0 -0.1929124328025327 0.3692633940813434 0 -0.2036924142248499 0.37254433409016657 0 -0.2038765553000628 0.35949457210244978 0 -0.19764735151398741 0.37921964757324628 0 -0.1929124328025327 0.3692633940813434 0 -0.2036924142248499 0.37254433409016657 0 -0.18575880122095251 0.35670217168091639 0 -0.2038765553000628 0.35949457210244978 0 -0.19568526909889439 0.33849772273929418 0 -0.216196294327511 0.3519115960014414 0 -0.2038765553000628 0.35949457210244978 0 -0.19568526909889439 0.33849772273929418 0 -0.216196294327511 0.3519115960014414 0 -0.19568526909889439 0.33849772273929418 0 -0.216196294327511 0.3519115960014414 0 -0.2038765553000628 0.35949457210244978 0 -0.21522238246687209 0.37379012975526721 0 -0.2036924142248499 0.37254433409016657 0 -0.2038765553000628 0.35949457210244978 0 -0.21522238246687209 0.37379012975526721 0 -0.2038765553000628 0.35949457210244978 0 -0.21522238246687209 0.37379012975526721 0 -0.2281728115036056 0.37516202809190852 0 -0.216196294327511 0.3519115960014414 0 -0.21522238246687209 0.37379012975526721 0 -0.2281728115036056 0.37516202809190852 0 -0.216196294327511 0.3519115960014414 0 -0.2367073195561277 0.36532546926358861 0 -0.216196294327511 0.3519115960014414 0 -0.2367073195561277 0.36532546926358861 0 -0.216196294327511 0.3519115960014414 0 -0.2320747369918596 0.3500205641068555 0 -0.22812010034119881 0.33452663652110132 0 -0.216196294327511 0.3519115960014414 0 -0.2320747369918596 0.3500205641068555 0 -0.2367073195561277 0.36532546926358861 0 -0.25046536089570698 0.34138420960703297 0 -0.25273353586154462 0.35858757422778748 0 -0.24283682741389831 0.35511659039991322 0 -0.2320747369918596 0.3500205641068555 0 -0.24283682741389831 0.35511659039991322 0 -0.2367073195561277 0.36532546926358861 0 -0.25046536089570698 0.34138420960703297 0 -0.2320747369918596 0.3500205641068555 0 -0.24283682741389831 0.35511659039991322 0 -0.25273353586154462 0.35858757422778748 0 -0.24283682741389831 0.35511659039991322 0 -0.2452002451722855 0.36321106088659638 0 -0.25273353586154462 0.35858757422778748 0 -0.2452002451722855 0.36321106088659638 0 -0.24852329785757149 0.3738146096550965 0 -0.2281728115036056 0.37516202809190852 0 -0.24852329785757149 0.3738146096550965 0 -0.2367073195561277 0.36532546926358861 0 -0.2452002451722855 0.36321106088659638 0 -0.24852329785757149 0.3738146096550965 0 -0.2367073195561277 0.36532546926358861 0 -0.24283682741389831 0.35511659039991322 0 -0.2452002451722855 0.36321106088659638 0 -0.2367073195561277 0.36532546926358861 0 -0.2594567319109316 0.31350049272118691 0 -0.24212626546677121 0.32120351729610003 0 -0.24683152731007971 0.30917203920803937 0 -0.24212626546677121 0.32120351729610003 0 -0.22664218175437009 0.31963470995416238 0 -0.23506983523398839 0.30358117641543592 0 -0.25046536089570698 0.34138420960703297 0 -0.2320747369918596 0.3500205641068555 0 -0.22812010034119881 0.33452663652110132 0 -0.25046536089570698 0.34138420960703297 0 -0.24212626546677121 0.32120351729610003 0 -0.22812010034119881 0.33452663652110132 0 -0.216196294327511 0.3519115960014414 0 -0.22812010034119881 0.33452663652110132 0 -0.21205047110838349 0.3358560309417522 0 -0.22812010034119881 0.33452663652110132 0 -0.21427017320579589 0.32381980019023238 0 -0.22812010034119881 0.33452663652110132 0 -0.22664218175437009 0.31963470995416238 0 -0.21427017320579589 0.32381980019023238 0 -0.24212626546677121 0.32120351729610003 0 -0.22812010034119881 0.33452663652110132 0 -0.22664218175437009 0.31963470995416238 0 -0.22664218175437009 0.31963470995416238 0 -0.21460399364517491 0.31444922738772929 0 -0.22218907362353379 0.30838454069250387 0 -0.22664218175437009 0.31963470995416238 0 -0.21460399364517491 0.31444922738772929 0 -0.21427017320579589 0.32381980019023238 0 -0.21427017320579589 0.32381980019023238 0 -0.20042024607039349 0.31311296385936271 0 -0.2003505696287716 0.32684366098140838 0 -0.21460399364517491 0.31444922738772929 0 -0.20042024607039349 0.31311296385936271 0 -0.20709193063639519 0.30994945416050063 0 -0.21427017320579589 0.32381980019023238 0 -0.20042024607039349 0.31311296385936271 0 -0.21460399364517491 0.31444922738772929 0 -0.21427017320579589 0.32381980019023238 0 -0.20042024607039349 0.31311296385936271 0 -0.216196294327511 0.3519115960014414 0 -0.21205047110838349 0.3358560309417522 0 -0.19568526909889439 0.33849772273929418 0 -0.22812010034119881 0.33452663652110132 0 -0.21427017320579589 0.32381980019023238 0 -0.21205047110838349 0.3358560309417522 0 -0.21427017320579589 0.32381980019023238 0 -0.21205047110838349 0.3358560309417522 0 -0.2003505696287716 0.32684366098140838 0 -0.21205047110838349 0.3358560309417522 0 -0.19568526909889439 0.33849772273929418 0 -0.2003505696287716 0.32684366098140838 0 -0.1751742438702775 0.32508384947714741 0 -0.19568526909889439 0.33849772273929418 0 -0.2003505696287716 0.32684366098140838 0 -0.1751742438702775 0.32508384947714741 0 -0.20042024607039349 0.31311296385936271 0 -0.1751742438702775 0.32508384947714741 0 -0.20042024607039349 0.31311296385936271 0 -0.2003505696287716 0.32684366098140838 0 -0.20042024607039349 0.31311296385936271 0 -0.20085354996504179 0.3032565816790973 0 -0.183181887810836 0.29978666411110211 0 -0.20042024607039349 0.31311296385936271 0 -0.183181887810836 0.29978666411110211 0 -0.20085354996504179 0.3032565816790973 0 -0.20116609276151909 0.29411249875879247 0 -0.183181887810836 0.29978666411110211 0 -0.20042024607039349 0.31311296385936271 0 -0.20085354996504179 0.3032565816790973 0 -0.20709193063639519 0.30994945416050063 0 -0.19642347269831739 0.28267210779923319 0 -0.18409764347148239 0.28146839510828198 0 -0.183181887810836 0.29978666411110211 0 -0.20116609276151909 0.29411249875879247 0 -0.19642347269831739 0.28267210779923319 0 -0.183181887810836 0.29978666411110211 0 -0.20116609276151909 0.29411249875879247 0 -0.19642347269831739 0.28267210779923319 0 -0.21003095893982809 0.28814256536385152 0 -0.19642347269831739 0.28267210779923319 0 -0.21003095893982809 0.28814256536385152 0 -0.20767517027442839 0.27823291266266198 0 -0.20116609276151909 0.29411249875879247 0 -0.21003095893982809 0.28814256536385152 0 -0.20884410469743381 0.29981826324828931 0 -0.21003095893982809 0.28814256536385152 0 -0.22002238025145129 0.29645799454534921 0 -0.2209827855710817 0.28520421253908362 0 -0.21003095893982809 0.28814256536385152 0 -0.20884410469743381 0.29981826324828931 0 -0.22002238025145129 0.29645799454534921 0 -0.21003095893982809 0.28814256536385152 0 -0.2209827855710817 0.28520421253908362 0 -0.21659500970603909 0.27640164791701222 0 -0.20709193063639519 0.30994945416050063 0 -0.20884410469743381 0.29981826324828931 0 -0.2141217845859438 0.30638061592313642 0 -0.20042024607039349 0.31311296385936271 0 -0.20709193063639519 0.30994945416050063 0 -0.20085354996504179 0.3032565816790973 0 -0.20709193063639519 0.30994945416050063 0 -0.20884410469743381 0.29981826324828931 0 -0.20085354996504179 0.3032565816790973 0 -0.20116609276151909 0.29411249875879247 0 -0.20884410469743381 0.29981826324828931 0 -0.20884410469743381 0.29981826324828931 0 -0.2141217845859438 0.30638061592313642 0 -0.22002238025145129 0.29645799454534921 0 -0.21460399364517491 0.31444922738772929 0 -0.2141217845859438 0.30638061592313642 0 -0.22218907362353379 0.30838454069250387 0 -0.21460399364517491 0.31444922738772929 0 -0.20709193063639519 0.30994945416050063 0 -0.2141217845859438 0.30638061592313642 0 -0.22664218175437009 0.31963470995416238 0 -0.22218907362353379 0.30838454069250387 0 -0.23506983523398839 0.30358117641543592 0 -0.2141217845859438 0.30638061592313642 0 -0.22218907362353379 0.30838454069250387 0 -0.22002238025145129 0.29645799454534921 0 -0.22218907362353379 0.30838454069250387 0 -0.22002238025145129 0.29645799454534921 0 -0.23506983523398839 0.30358117641543592 0 -0.22002238025145129 0.29645799454534921 0 -0.2209827855710817 0.28520421253908362 0 -0.23098539097689341 0.28920865068678647 0 -0.2209827855710817 0.28520421253908362 0 -0.23098539097689341 0.28920865068678647 0 -0.2275022569367732 0.27520033512341008 0 -0.23098539097689341 0.28920865068678647 0 -0.2427501549621314 0.28935375028108179 0 -0.2275022569367732 0.27520033512341008 0 -0.22002238025145129 0.29645799454534921 0 -0.23098539097689341 0.28920865068678647 0 -0.23506983523398839 0.30358117641543592 0 -0.23098539097689341 0.28920865068678647 0 -0.2427501549621314 0.28935375028108179 0 -0.23506983523398839 0.30358117641543592 0 -0.25169815363463272 0.27960406126743448 0 -0.2427501549621314 0.28935375028108179 0 -0.2275022569367732 0.27520033512341008 0 -0.25169815363463272 0.27960406126743448 0 -0.25290472241496392 0.2981478293982755 0 -0.2427501549621314 0.28935375028108179 0 -0.24212626546677121 0.32120351729610003 0 -0.24683152731007971 0.30917203920803937 0 -0.23506983523398839 0.30358117641543592 0 -0.25290472241496392 0.2981478293982755 0 -0.24683152731007971 0.30917203920803937 0 -0.23506983523398839 0.30358117641543592 0 -0.25290472241496392 0.2981478293982755 0 -0.2427501549621314 0.28935375028108179 0 -0.23506983523398839 0.30358117641543592 0 -0.25750185765570921 0.26170111810772012 0 -0.23841176838072259 0.25841061407397897 0 -0.24757807892987871 0.25415496751057792 0 -0.25750185765570921 0.26170111810772012 0 -0.2303373252709553 0.26761131352345202 0 -0.25750185765570921 0.26170111810772012 0 -0.23841176838072259 0.25841061407397897 0 -0.2303373252709553 0.26761131352345202 0 -0.23841176838072259 0.25841061407397897 0 -0.24757807892987871 0.25415496751057792 0 -0.2373347038430757 0.24824627280118811 0 -0.25169815363463272 0.27960406126743448 0 -0.2275022569367732 0.27520033512341008 0 -0.25169815363463272 0.27960406126743448 0 -0.25750185765570921 0.26170111810772012 0 -0.2303373252709553 0.26761131352345202 0 -0.25169815363463272 0.27960406126743448 0 -0.2303373252709553 0.26761131352345202 0 -0.2275022569367732 0.27520033512341008 0 -0.2275022569367732 0.27520033512341008 0 -0.22159042111457131 0.26943028840845101 0 -0.21659500970603909 0.27640164791701222 0 -0.2209827855710817 0.28520421253908362 0 -0.2275022569367732 0.27520033512341008 0 -0.21659500970603909 0.27640164791701222 0 -0.2303373252709553 0.26761131352345202 0 -0.22159042111457131 0.26943028840845101 0 -0.2223890267628105 0.26419271710409781 0 -0.2303373252709553 0.26761131352345202 0 -0.2275022569367732 0.27520033512341008 0 -0.22159042111457131 0.26943028840845101 0 -0.22159042111457131 0.26943028840845101 0 -0.2223890267628105 0.26419271710409781 0 -0.2166685444244216 0.26436690012302311 0 -0.21959433206923551 0.26188045886512978 0 -0.2251690195789785 0.25896985734635158 0 -0.21415073751073169 0.25999236088704708 0 -0.21415073751073169 0.25999236088704708 0 -0.2373347038430757 0.24824627280118811 0 -0.2251690195789785 0.25896985734635158 0 -0.21415073751073169 0.25999236088704708 0 -0.2373347038430757 0.24824627280118811 0 -0.22232590030571209 0.25107854409520441 0 -0.21415073751073169 0.25999236088704708 0 -0.2373347038430757 0.24824627280118811 0 -0.21959433206923551 0.26188045886512978 0 -0.2223890267628105 0.26419271710409781 0 -0.2166685444244216 0.26436690012302311 0 -0.2303373252709553 0.26761131352345202 0 -0.2223890267628105 0.26419271710409781 0 -0.2251690195789785 0.25896985734635158 0 -0.21959433206923551 0.26188045886512978 0 -0.2223890267628105 0.26419271710409781 0 -0.2251690195789785 0.25896985734635158 0 -0.23841176838072259 0.25841061407397897 0 -0.2303373252709553 0.26761131352345202 0 -0.2251690195789785 0.25896985734635158 0 -0.23841176838072259 0.25841061407397897 0 -0.2251690195789785 0.25896985734635158 0 -0.2373347038430757 0.24824627280118811 0 -0.22232590030571209 0.25107854409520441 0 -0.21131652964921041 0.25931235235663941 0 -0.21415073751073169 0.25999236088704708 0 -0.21959433206923551 0.26188045886512978 0 -0.2166685444244216 0.26436690012302311 0 -0.21415073751073169 0.25999236088704708 0 -0.2166685444244216 0.26436690012302311 0 -0.2119623043280745 0.26426500375180662 0 -0.21415073751073169 0.25999236088704708 0 -0.2119623043280745 0.26426500375180662 0 -0.21131652964921041 0.25931235235663941 0 -0.21415073751073169 0.25999236088704708 0 -0.2119623043280745 0.26426500375180662 0 -0.2056141616293469 0.26153882318309102 0 -0.2097563994229116 0.27038876828366137 0 -0.2119623043280745 0.26426500375180662 0 -0.21131652964921041 0.25931235235663941 0 -0.2056141616293469 0.26153882318309102 0 -0.21131652964921041 0.25931235235663941 0 -0.2056141616293469 0.26153882318309102 0 -0.20742225156553509 0.25453345896405272 0 -0.20742225156553509 0.25453345896405272 0 -0.20152908807961509 0.25111309972324219 0 -0.2112292269039682 0.2461695605932385 0 -0.2056141616293469 0.26153882318309102 0 -0.20742225156553509 0.25453345896405272 0 -0.20152908807961509 0.25111309972324219 0 -0.21131652964921041 0.25931235235663941 0 -0.20742225156553509 0.25453345896405272 0 -0.2112292269039682 0.2461695605932385 0 -0.21003095893982809 0.28814256536385152 0 -0.21659500970603909 0.27640164791701222 0 -0.20767517027442839 0.27823291266266198 0 -0.21659500970603909 0.27640164791701222 0 -0.2097563994229116 0.27038876828366137 0 -0.20767517027442839 0.27823291266266198 0 -0.21659500970603909 0.27640164791701222 0 -0.21551677050191459 0.26929427164636338 0 -0.2097563994229116 0.27038876828366137 0 -0.22159042111457131 0.26943028840845101 0 -0.21659500970603909 0.27640164791701222 0 -0.21551677050191459 0.26929427164636338 0 -0.22159042111457131 0.26943028840845101 0 -0.2166685444244216 0.26436690012302311 0 -0.21551677050191459 0.26929427164636338 0 -0.2119623043280745 0.26426500375180662 0 -0.21551677050191459 0.26929427164636338 0 -0.2097563994229116 0.27038876828366137 0 -0.2166685444244216 0.26436690012302311 0 -0.2119623043280745 0.26426500375180662 0 -0.21551677050191459 0.26929427164636338 0 -0.2056141616293469 0.26153882318309102 0 -0.2097563994229116 0.27038876828366137 0 -0.201459596294044 0.2709436233231115 0 -0.2097563994229116 0.27038876828366137 0 -0.20767517027442839 0.27823291266266198 0 -0.201459596294044 0.2709436233231115 0 -0.201459596294044 0.2709436233231115 0 -0.19517672055024421 0.26153645176566159 0 -0.1842462002944123 0.2679250547080298 0 -0.19642347269831739 0.28267210779923319 0 -0.201459596294044 0.2709436233231115 0 -0.1842462002944123 0.2679250547080298 0 -0.19642347269831739 0.28267210779923319 0 -0.20767517027442839 0.27823291266266198 0 -0.201459596294044 0.2709436233231115 0 -0.19642347269831739 0.28267210779923319 0 -0.1842462002944123 0.2679250547080298 0 -0.18409764347148239 0.28146839510828198 0 -0.20152908807961509 0.25111309972324219 0 -0.19517672055024421 0.26153645176566159 0 -0.18428387362389259 0.25546511185981913 0 -0.2056141616293469 0.26153882318309102 0 -0.20152908807961509 0.25111309972324219 0 -0.19517672055024421 0.26153645176566159 0 -0.2056141616293469 0.26153882318309102 0 -0.201459596294044 0.2709436233231115 0 -0.19517672055024421 0.26153645176566159 0 -0.19517672055024421 0.26153645176566159 0 -0.18428387362389259 0.25546511185981913 0 -0.1842462002944123 0.2679250547080298 0 -0.18428387362389259 0.25546511185981913 0 -0.17021222135103009 0.26606126477349712 0 -0.17236532857787029 0.2442872540511461 0 -0.18428387362389259 0.25546511185981913 0 -0.17021222135103009 0.26606126477349712 0 -0.1842462002944123 0.2679250547080298 0 -0.17021222135103009 0.26606126477349712 0 -0.15419829829953699 0.25502015400401928 0 -0.1462675361276963 0.27124962432255212 0 -0.17021222135103009 0.26606126477349712 0 -0.15419829829953699 0.25502015400401928 0 -0.17236532857787029 0.2442872540511461 0 -0.17021222135103009 0.26606126477349712 0 -0.16594352955127981 0.28646036436283973 0 -0.1462675361276963 0.27124962432255212 0 -0.17021222135103009 0.26606126477349712 0 -0.18409764347148239 0.28146839510828198 0 -0.16594352955127981 0.28646036436283973 0 -0.17021222135103009 0.26606126477349712 0 -0.1842462002944123 0.2679250547080298 0 -0.18409764347148239 0.28146839510828198 0 -0.18409764347148239 0.28146839510828198 0 -0.16594352955127981 0.28646036436283973 0 -0.183181887810836 0.29978666411110211 0 -0.16719273542415641 0.30265701128909839 0 -0.16594352955127981 0.28646036436283973 0 -0.183181887810836 0.29978666411110211 0 -0.16594352955127981 0.28646036436283973 0 -0.18409764347148239 0.28146839510828198 0 -0.183181887810836 0.29978666411110211 0 -0.16594352955127981 0.28646036436283973 0 -0.1751742438702775 0.32508384947714741 0 -0.183181887810836 0.29978666411110211 0 -0.16719273542415641 0.30265701128909839 0 -0.16594352955127981 0.28646036436283973 0 -0.1484041739466983 0.29128328903476841 0 -0.16719273542415641 0.30265701128909839 0 -0.16594352955127981 0.28646036436283973 0 -0.1484041739466983 0.29128328903476841 0 -0.1484041739466983 0.29128328903476841 0 -0.1334158622493391 0.28252862201352391 0 -0.1462675361276963 0.27124962432255212 0 -0.16594352955127981 0.28646036436283973 0 -0.1484041739466983 0.29128328903476841 0 -0.1462675361276963 0.27124962432255212 0 -0.1484041739466983 0.29128328903476841 0 -0.15301953110619729 0.31059503159192381 0 -0.13086481834211761 0.29610621370669971 0 -0.15301953110619729 0.31059503159192381 0 -0.13086481834211761 0.29610621370669971 0 -0.16719273542415641 0.30265701128909839 0 -0.1484041739466983 0.29128328903476841 0 -0.15301953110619729 0.31059503159192381 0 -0.13509489912183681 0.3124567538665543 0 -0.13086481834211761 0.29610621370669971 0 -0.12256205949218241 0.31049755730441969 0 -0.15301953110619729 0.31059503159192381 0 -0.13509489912183681 0.3124567538665543 0 -0.13086481834211761 0.29610621370669971 0 -0.1484041739466983 0.29128328903476841 0 -0.13086481834211761 0.29610621370669971 0 -0.1484041739466983 0.29128328903476841 0 -0.13086481834211761 0.29610621370669971 0 -0.1334158622493391 0.28252862201352391 0 -0.13086481834211761 0.29610621370669971 0 -0.1334158622493391 0.28252862201352391 0 -0.1140063077723249 0.28508102497765281 0 -0.12753647505785881 0.26892295802594562 0 -0.13991409989992359 0.25879883735818843 0 -0.1462675361276963 0.27124962432255212 0 -0.1334158622493391 0.28252862201352391 0 -0.12753647505785881 0.26892295802594562 0 -0.1462675361276963 0.27124962432255212 0 -0.12753647505785881 0.26892295802594562 0 -0.12899091796523199 0.25262675709639998 0 -0.13991409989992359 0.25879883735818843 0 -0.12899091796523199 0.25262675709639998 0 -0.13991409989992359 0.25879883735818843 0 -0.14119158743107549 0.24725542626603969 0 -0.13991409989992359 0.25879883735818843 0 -0.15419829829953699 0.25502015400401928 0 -0.1462675361276963 0.27124962432255212 0 -0.13991409989992359 0.25879883735818843 0 -0.15419829829953699 0.25502015400401928 0 -0.14119158743107549 0.24725542626603969 0 -0.16594352955127981 0.28646036436283973 0 -0.1462675361276963 0.27124962432255212 0 -0.097147797202533859 0.27405583624860352 0 -0.1140063077723249 0.28508102497765281 0 -0.097147797202533859 0.27405583624860352 0 -0.1027298083814062 0.25507771984051508 0 -0.1116988861045299 0.26975499951673221 0 -0.097147797202533859 0.27405583624860352 0 -0.1116988861045299 0.26975499951673221 0 -0.1140063077723249 0.28508102497765281 0 -0.097147797202533859 0.27405583624860352 0 -0.1027298083814062 0.25507771984051508 0 -0.097147797202533859 0.27405583624860352 0 -0.1027298083814062 0.25507771984051508 0 -0.0929127908132895 0.26149639585308387 0 -0.1027298083814062 0.25507771984051508 0 -0.0929127908132895 0.26149639585308387 0 -0.094857943620296925 0.24992964971406839 0 -0.1027298083814062 0.25507771984051508 0 -0.117639708077223 0.25834204992552118 0 -0.1116988861045299 0.26975499951673221 0 -0.12753647505785881 0.26892295802594562 0 -0.12899091796523199 0.25262675709639998 0 -0.117639708077223 0.25834204992552118 0 -0.1027298083814062 0.25507771984051508 0 -0.117639708077223 0.25834204992552118 0 -0.1172822660787136 0.24481434326137 0 -0.12899091796523199 0.25262675709639998 0 -0.117639708077223 0.25834204992552118 0 -0.1172822660787136 0.24481434326137 0 -0.1334158622493391 0.28252862201352391 0 -0.12753647505785881 0.26892295802594562 0 -0.1140063077723249 0.28508102497765281 0 -0.12753647505785881 0.26892295802594562 0 -0.1116988861045299 0.26975499951673221 0 -0.1140063077723249 0.28508102497765281 0 -0.12753647505785881 0.26892295802594562 0 -0.117639708077223 0.25834204992552118 0 -0.1116988861045299 0.26975499951673221 0 -0.13086481834211761 0.29610621370669971 0 -0.1140063077723249 0.28508102497765281 0 -0.10939490236985849 0.30200995326140878 0 -0.13086481834211761 0.29610621370669971 0 -0.1140063077723249 0.28508102497765281 0 -0.13086481834211761 0.29610621370669971 0 -0.10939490236985849 0.30200995326140878 0 -0.12256205949218241 0.31049755730441969 0 -0.13086481834211761 0.29610621370669971 0 -0.10939490236985849 0.30200995326140878 0 -0.10939490236985849 0.30200995326140878 0 -0.12256205949218241 0.31049755730441969 0 -0.1101067380970233 0.32304059095905863 0 -0.10939490236985849 0.30200995326140878 0 -0.092586610763371768 0.28956328050616209 0 -0.088025424324209178 0.30507072476372038 0 -0.10939490236985849 0.30200995326140878 0 -0.088025424324209178 0.30507072476372038 0 -0.096082990880295371 0.31691138375495059 0 -0.1140063077723249 0.28508102497765281 0 -0.10939490236985849 0.30200995326140878 0 -0.092586610763371768 0.28956328050616209 0 -0.097147797202533859 0.27405583624860352 0 -0.1140063077723249 0.28508102497765281 0 -0.092586610763371768 0.28956328050616209 0 -0.097147797202533859 0.27405583624860352 0 -0.092586610763371768 0.28956328050616209 0 -0.081251241492069956 0.28165125836809901 0 -0.092586610763371768 0.28956328050616209 0 -0.074008972931766143 0.29625501750705158 0 -0.097147797202533859 0.27405583624860352 0 -0.081251241492069956 0.28165125836809901 0 -0.092586610763371768 0.28956328050616209 0 -0.092586610763371768 0.28956328050616209 0 -0.088025424324209178 0.30507072476372038 0 -0.074008972931766143 0.29625501750705158 0 -0.088025424324209178 0.30507072476372038 0 -0.076106693462395902 0.30947722334722261 0 -0.081760790202467015 0.32157280536937299 0 -0.092586610763371768 0.28956328050616209 0 -0.088025424324209178 0.30507072476372038 0 -0.088025424324209178 0.30507072476372038 0 -0.076106693462395902 0.30947722334722261 0 -0.074008972931766143 0.29625501750705158 0 -0.076106693462395902 0.30947722334722261 0 -0.064212896910612299 0.30991013879685242 0 -0.074008972931766143 0.29625501750705158 0 -0.064212896910612299 0.30991013879685242 0 -0.074008972931766143 0.29625501750705158 0 -0.059959090274196929 0.29950569190569221 0 -0.081251241492069956 0.28165125836809901 0 -0.074008972931766143 0.29625501750705158 0 -0.06110875888236289 0.28462246158296811 0 -0.074008972931766143 0.29625501750705158 0 -0.06110875888236289 0.28462246158296811 0 -0.059959090274196929 0.29950569190569221 0 -0.081404067680315106 0.2637596959957097 0 -0.059641246559034647 0.26593765532822711 0 -0.06110875888236289 0.28462246158296811 0 -0.081404067680315106 0.2637596959957097 0 -0.06110875888236289 0.28462246158296811 0 -0.081251241492069956 0.28165125836809901 0 -0.081404067680315106 0.2637596959957097 0 -0.06110875888236289 0.28462246158296811 0 -0.097147797202533859 0.27405583624860352 0 -0.081251241492069956 0.28165125836809901 0 -0.081404067680315106 0.2637596959957097 0 -0.097147797202533859 0.27405583624860352 0 -0.081404067680315106 0.2637596959957097 0 -0.097147797202533859 0.27405583624860352 0 -0.0929127908132895 0.26149639585308387 0 -0.081404067680315106 0.2637596959957097 0 -0.081404067680315106 0.2637596959957097 0 -0.094857943620296925 0.24992964971406839 0 -0.078058318393383508 0.24360280257351549 0 -0.081404067680315106 0.2637596959957097 0 -0.094857943620296925 0.24992964971406839 0 -0.0929127908132895 0.26149639585308387 0 -0.081404067680315106 0.2637596959957097 0 -0.094857943620296925 0.24992964971406839 0 -0.081404067680315106 0.2637596959957097 0 -0.064426353371261583 0.25265654998110221 0 -0.078058318393383508 0.24360280257351549 0 -0.081404067680315106 0.2637596959957097 0 -0.064426353371261583 0.25265654998110221 0 -0.081404067680315106 0.2637596959957097 0 -0.064426353371261583 0.25265654998110221 0 -0.059641246559034647 0.26593765532822711 0 -0.059641246559034647 0.26593765532822711 0 -0.043066352844534951 0.26771480666316111 0 -0.049049525272567708 0.24961140908110199 0 -0.064426353371261583 0.25265654998110221 0 -0.059641246559034647 0.26593765532822711 0 -0.049049525272567708 0.24961140908110199 0 -0.059641246559034647 0.26593765532822711 0 -0.043066352844534951 0.26771480666316111 0 -0.06110875888236289 0.28462246158296811 0 -0.043066352844534951 0.26771480666316111 0 -0.040220803996161077 0.28349750600339252 0 -0.06110875888236289 0.28462246158296811 0 -0.043066352844534951 0.26771480666316111 0 -0.02872036908420467 0.26647715178162928 0 -0.040220803996161077 0.28349750600339252 0 -0.043066352844534951 0.26771480666316111 0 -0.039190605180454148 0.25174799438979628 0 -0.028312989969666091 0.249723101879823 0 -0.043066352844534951 0.26771480666316111 0 -0.028312989969666091 0.249723101879823 0 -0.043066352844534951 0.26771480666316111 0 -0.02872036908420467 0.26647715178162928 0 -0.028312989969666091 0.249723101879823 0 -0.043066352844534951 0.26771480666316111 0 -0.039190605180454148 0.25174799438979628 0 -0.049049525272567708 0.24961140908110199 0 -0.02872036908420467 0.26647715178162928 0 -0.01362945603619121 0.26762851041176677 0 -0.028312989969666091 0.249723101879823 0 -0.01362945603619121 0.26762851041176677 0 -0.028312989969666091 0.249723101879823 0 -0.01362945603619121 0.26762851041176677 0 -0.01244804027924465 0.25069078022226182 0 -0.028312989969666091 0.249723101879823 0 -0.02872036908420467 0.26647715178162928 0 -0.02354178693388002 0.28861404769340609 0 -0.040220803996161077 0.28349750600339252 0 -0.02872036908420467 0.26647715178162928 0 -0.01362945603619121 0.26762851041176677 0 -0.02354178693388002 0.28861404769340609 0 -0.011144563465132059 0.26941615377109318 0 -0.01362945603619121 0.26762851041176677 0 0.0010540778972834479 0.28553391894371088 0 -0.01362945603619121 0.26762851041176677 0 -0.02354178693388002 0.28861404769340609 0 0.0010540778972834479 0.28553391894371088 0 -0.01362945603619121 0.26762851041176677 0 0.0010540778972834479 0.28553391894371088 0 -0.011144563465132059 0.26941615377109318 0 -0.0027316692861841479 0.27192902358842908 0 0.0010540778972834479 0.28553391894371088 0 -0.011144563465132059 0.26941615377109318 0 -0.0027316692861841479 0.27192902358842908 0 -0.0041751326731876244 0.26251454664574853 0 -0.0027316692861841479 0.27192902358842908 0 -0.0041751326731876244 0.26251454664574853 0 0.0033389410962996421 0.27025147499316371 0 -0.011144563465132059 0.26941615377109318 0 -0.01244804027924465 0.25069078022226182 0 -0.011144563465132059 0.26941615377109318 0 -0.0041751326731876244 0.26251454664574853 0 -0.01244804027924465 0.25069078022226182 0 -0.011144563465132059 0.26941615377109318 0 -0.01362945603619121 0.26762851041176677 0 -0.01244804027924465 0.25069078022226182 0 -0.0041751326731876244 0.26251454664574853 0 -0.001075236980814549 0.25381653425611589 0 0.0042115267198120651 0.26033580195898348 0 -0.0041751326731876244 0.26251454664574853 0 -0.001075236980814549 0.25381653425611589 0 -0.01244804027924465 0.25069078022226182 0 -0.0087736991501637662 0.30187886595607483 0 -0.01847049003262204 0.31337289975648253 0 -0.00604253315440011 0.31767135503429572 0 -0.0087736991501637662 0.30187886595607483 0 -0.02354178693388002 0.28861404769340609 0 0.0010540778972834479 0.28553391894371088 0 -0.02354178693388002 0.28861404769340609 0 -0.020370187450446331 0.30338712957517011 0 -0.030694773685119511 0.30968270489471711 0 -0.02354178693388002 0.28861404769340609 0 -0.030694773685119511 0.30968270489471711 0 -0.0087736991501637662 0.30187886595607483 0 -0.02354178693388002 0.28861404769340609 0 -0.020370187450446331 0.30338712957517011 0 -0.020370187450446331 0.30338712957517011 0 -0.030694773685119511 0.30968270489471711 0 -0.01847049003262204 0.31337289975648253 0 -0.0087736991501637662 0.30187886595607483 0 -0.020370187450446331 0.30338712957517011 0 -0.01847049003262204 0.31337289975648253 0 -0.02354178693388002 0.28861404769340609 0 -0.030694773685119511 0.30968270489471711 0 -0.040813450084410549 0.30548522717022619 0 -0.030694773685119511 0.30968270489471711 0 -0.040813450084410549 0.30548522717022619 0 -0.050291529258754498 0.31940486651800409 0 -0.02354178693388002 0.28861404769340609 0 -0.040813450084410549 0.30548522717022619 0 -0.040220803996161077 0.28349750600339252 0 -0.040813450084410549 0.30548522717022619 0 -0.06110875888236289 0.28462246158296811 0 -0.040813450084410549 0.30548522717022619 0 -0.040220803996161077 0.28349750600339252 0 -0.06110875888236289 0.28462246158296811 0 -0.040813450084410549 0.30548522717022619 0 -0.06110875888236289 0.28462246158296811 0 -0.059959090274196929 0.29950569190569221 0 -0.040813450084410549 0.30548522717022619 0 -0.054107960984955912 0.30821406195777629 0 -0.059959090274196929 0.29950569190569221 0 -0.040813450084410549 0.30548522717022619 0 -0.054107960984955912 0.30821406195777629 0 -0.050291529258754498 0.31940486651800409 0 -0.064212896910612299 0.30991013879685242 0 -0.054107960984955912 0.30821406195777629 0 -0.059959090274196929 0.29950569190569221 0 -0.064212896910612299 0.30991013879685242 0 -0.054107960984955912 0.30821406195777629 0 -0.050291529258754498 0.31940486651800409 0 -0.050291529258754498 0.31940486651800409 0 -0.060996942724034588 0.3362078205742452 0 -0.066722135173545125 0.32267862786173152 0 -0.064212896910612299 0.30991013879685242 0 -0.050291529258754498 0.31940486651800409 0 -0.066722135173545125 0.32267862786173152 0 -0.050291529258754498 0.31940486651800409 0 -0.060996942724034588 0.3362078205742452 0 -0.048987734412915727 0.33871782526440553 0 -0.060996942724034588 0.3362078205742452 0 -0.053612849399228127 0.34373254959146943 0 -0.059465973272362943 0.34818453322988813 0 -0.060996942724034588 0.3362078205742452 0 -0.053612849399228127 0.34373254959146943 0 -0.048987734412915727 0.33871782526440553 0 -0.048987734412915727 0.33871782526440553 0 -0.037847760436359033 0.33075136209602812 0 -0.045000747187599263 0.35182001929733892 0 -0.037847760436359033 0.33075136209602812 0 -0.045000747187599263 0.35182001929733892 0 -0.037847760436359033 0.33075136209602812 0 -0.029477204187654642 0.346562586739387 0 -0.040359322205137722 0.35098455049339022 0 -0.050291529258754498 0.31940486651800409 0 -0.048987734412915727 0.33871782526440553 0 -0.037847760436359033 0.33075136209602812 0 -0.030694773685119511 0.30968270489471711 0 -0.037847760436359033 0.33075136209602812 0 -0.030694773685119511 0.30968270489471711 0 -0.037847760436359033 0.33075136209602812 0 -0.025240519734343062 0.32297982634759831 0 -0.030694773685119511 0.30968270489471711 0 -0.050291529258754498 0.31940486651800409 0 -0.037847760436359033 0.33075136209602812 0 -0.030694773685119511 0.30968270489471711 0 -0.01847049003262204 0.31337289975648253 0 -0.025240519734343062 0.32297982634759831 0 -0.01847049003262204 0.31337289975648253 0 -0.0164730602444015 0.32588760653873861 0 -0.025240519734343062 0.32297982634759831 0 -0.0164730602444015 0.32588760653873861 0 -0.025240519734343062 0.32297982634759831 0 -0.022716514273213199 0.33520455845202501 0 -0.037847760436359033 0.33075136209602812 0 -0.025240519734343062 0.32297982634759831 0 -0.022716514273213199 0.33520455845202501 0 -0.037847760436359033 0.33075136209602812 0 -0.022716514273213199 0.33520455845202501 0 -0.029477204187654642 0.346562586739387 0 -0.022716514273213199 0.33520455845202501 0 -0.016139069819297081 0.34767799553095557 0 -0.029477204187654642 0.346562586739387 0 -0.022716514273213199 0.33520455845202501 0 -0.0088158761325046672 0.33259550619870809 0 -0.016139069819297081 0.34767799553095557 0 -0.0164730602444015 0.32588760653873861 0 -0.022716514273213199 0.33520455845202501 0 -0.0088158761325046672 0.33259550619870809 0 -0.0088158761325046672 0.33259550619870809 0 0.00040474318727079338 0.34494123859893733 0 0.0080711775090130961 0.32419028303729658 0 -0.0088158761325046672 0.33259550619870809 0 -0.016139069819297081 0.34767799553095557 0 0.00040474318727079338 0.34494123859893733 0 -0.0088158761325046672 0.33259550619870809 0 -0.00604253315440011 0.31767135503429572 0 0.0080711775090130961 0.32419028303729658 0 -0.01847049003262204 0.31337289975648253 0 -0.0164730602444015 0.32588760653873861 0 -0.00604253315440011 0.31767135503429572 0 -0.0164730602444015 0.32588760653873861 0 -0.0088158761325046672 0.33259550619870809 0 -0.00604253315440011 0.31767135503429572 0 -0.0072616911344711311 0.36569219416057808 0 -0.010794222868953049 0.37525379815611748 0 -0.0072616911344711311 0.36569219416057808 0 -0.010794222868953049 0.37525379815611748 0 0.0012734071493996 0.37563546231701261 0 -0.0072616911344711311 0.36569219416057808 0 -0.016139069819297081 0.34767799553095557 0 0.00040474318727079338 0.34494123859893733 0 -0.0072616911344711311 0.36569219416057808 0 0.00040474318727079338 0.34494123859893733 0 -0.0072616911344711311 0.36569219416057808 0 -0.016139069819297081 0.34767799553095557 0 -0.02573280161027117 0.35741934470647141 0 -0.016139069819297081 0.34767799553095557 0 -0.029477204187654642 0.346562586739387 0 -0.02573280161027117 0.35741934470647141 0 -0.029477204187654642 0.346562586739387 0 -0.02573280161027117 0.35741934470647141 0 -0.034015050047716197 0.35467140455591312 0 -0.0072616911344711311 0.36569219416057808 0 -0.029740211961022549 0.36938616027012833 0 -0.010794222868953049 0.37525379815611748 0 -0.0072616911344711311 0.36569219416057808 0 -0.029740211961022549 0.36938616027012833 0 -0.0072616911344711311 0.36569219416057808 0 -0.02573280161027117 0.35741934470647141 0 -0.029740211961022549 0.36938616027012833 0 -0.02573280161027117 0.35741934470647141 0 -0.029740211961022549 0.36938616027012833 0 -0.034875313523319629 0.36148798540759081 0 -0.042057241818529101 0.36467470121149498 0 -0.045000747187599263 0.35182001929733892 0 -0.052218732787574197 0.37308012637967691 0 -0.029740211961022549 0.36938616027012833 0 -0.052218732787574197 0.37308012637967691 0 -0.029740211961022549 0.36938616027012833 0 -0.042057241818529101 0.36467470121149498 0 -0.052218732787574197 0.37308012637967691 0 -0.029740211961022549 0.36938616027012833 0 -0.052218732787574197 0.37308012637967691 0 -0.044929949282909207 0.37852941071467111 0 -0.029740211961022549 0.36938616027012833 0 -0.034875313523319629 0.36148798540759081 0 -0.042057241818529101 0.36467470121149498 0 -0.034875313523319629 0.36148798540759081 0 -0.042057241818529101 0.36467470121149498 0 -0.039630608712197847 0.35690255543272631 0 -0.037847760436359033 0.33075136209602812 0 -0.045000747187599263 0.35182001929733892 0 -0.040359322205137722 0.35098455049339022 0 -0.029477204187654642 0.346562586739387 0 -0.034015050047716197 0.35467140455591312 0 -0.040359322205137722 0.35098455049339022 0 -0.02573280161027117 0.35741934470647141 0 -0.034875313523319629 0.36148798540759081 0 -0.034015050047716197 0.35467140455591312 0 -0.034015050047716197 0.35467140455591312 0 -0.039630608712197847 0.35690255543272631 0 -0.040359322205137722 0.35098455049339022 0 -0.034875313523319629 0.36148798540759081 0 -0.034015050047716197 0.35467140455591312 0 -0.039630608712197847 0.35690255543272631 0 -0.042057241818529101 0.36467470121149498 0 -0.039630608712197847 0.35690255543272631 0 -0.045000747187599263 0.35182001929733892 0 -0.039630608712197847 0.35690255543272631 0 -0.045000747187599263 0.35182001929733892 0 -0.040359322205137722 0.35098455049339022 0 -0.045000747187599263 0.35182001929733892 0 -0.040359322205137722 0.35098455049339022 0 -0.045000747187599263 0.35182001929733892 0 -0.059465973272362943 0.34818453322988813 0 -0.07174304744847379 0.35663370425361091 0 -0.045000747187599263 0.35182001929733892 0 -0.061805576367463637 0.36293778606747362 0 -0.07174304744847379 0.35663370425361091 0 -0.045000747187599263 0.35182001929733892 0 -0.07174304744847379 0.35663370425361091 0 -0.045000747187599263 0.35182001929733892 0 -0.052428584100246908 0.36318084748539792 0 -0.061805576367463637 0.36293778606747362 0 -0.053612849399228127 0.34373254959146943 0 -0.045000747187599263 0.35182001929733892 0 -0.059465973272362943 0.34818453322988813 0 -0.053612849399228127 0.34373254959146943 0 -0.048987734412915727 0.33871782526440553 0 -0.045000747187599263 0.35182001929733892 0 -0.045000747187599263 0.35182001929733892 0 -0.052218732787574197 0.37308012637967691 0 -0.045000747187599263 0.35182001929733892 0 -0.052218732787574197 0.37308012637967691 0 -0.052428584100246908 0.36318084748539792 0 -0.052218732787574197 0.37308012637967691 0 -0.061805576367463637 0.36293778606747362 0 -0.054480902345132233 0.37974319966597131 0 -0.061805576367463637 0.36293778606747362 0 -0.063468801530469562 0.3787462519434055 0 -0.054480902345132233 0.37974319966597131 0 -0.061805576367463637 0.36293778606747362 0 -0.054480902345132233 0.37974319966597131 0 -0.052218732787574197 0.37308012637967691 0 -0.052428584100246908 0.36318084748539792 0 -0.054971514316936518 0.368119614404877 0 -0.052428584100246908 0.36318084748539792 0 -0.061805576367463637 0.36293778606747362 0 -0.054971514316936518 0.368119614404877 0 -0.052218732787574197 0.37308012637967691 0 -0.061805576367463637 0.36293778606747362 0 -0.054971514316936518 0.368119614404877 0 -0.061805576367463637 0.36293778606747362 0 -0.071683420894781358 0.3741560469090417 0 -0.063468801530469562 0.3787462519434055 0 -0.061805576367463637 0.36293778606747362 0 -0.071683420894781358 0.3741560469090417 0 -0.07174304744847379 0.35663370425361091 0 -0.071683420894781358 0.3741560469090417 0 -0.098485347709347984 0.36144738920988467 0 -0.071683420894781358 0.3741560469090417 0 -0.098485347709347984 0.36144738920988467 0 -0.090439534046919373 0.38121075549525901 0 -0.071683420894781358 0.3741560469090417 0 -0.07174304744847379 0.35663370425361091 0 -0.098485347709347984 0.36144738920988467 0 -0.088356113747920975 0.3470200857279932 0 -0.07174304744847379 0.35663370425361091 0 -0.075320407672168146 0.34175979892785058 0 -0.07174304744847379 0.35663370425361091 0 -0.098485347709347984 0.36144738920988467 0 -0.088356113747920975 0.3470200857279932 0 -0.07174304744847379 0.35663370425361091 0 -0.098485347709347984 0.36144738920988467 0 -0.07174304744847379 0.35663370425361091 0 -0.068491915586746235 0.34798461379004531 0 -0.075320407672168146 0.34175979892785058 0 -0.060996942724034588 0.3362078205742452 0 -0.059465973272362943 0.34818453322988813 0 -0.068491915586746235 0.34798461379004531 0 -0.059465973272362943 0.34818453322988813 0 -0.07174304744847379 0.35663370425361091 0 -0.068491915586746235 0.34798461379004531 0 -0.075320407672168146 0.34175979892785058 0 -0.066722135173545125 0.32267862786173152 0 -0.081760790202467015 0.32157280536937299 0 -0.060996942724034588 0.3362078205742452 0 -0.075320407672168146 0.34175979892785058 0 -0.066722135173545125 0.32267862786173152 0 -0.060996942724034588 0.3362078205742452 0 -0.068491915586746235 0.34798461379004531 0 -0.075320407672168146 0.34175979892785058 0 -0.076106693462395902 0.30947722334722261 0 -0.064212896910612299 0.30991013879685242 0 -0.066722135173545125 0.32267862786173152 0 -0.076106693462395902 0.30947722334722261 0 -0.066722135173545125 0.32267862786173152 0 -0.081760790202467015 0.32157280536937299 0 -0.081760790202467015 0.32157280536937299 0 -0.091127099407918827 0.33286284442119218 0 -0.096082990880295371 0.31691138375495059 0 -0.088025424324209178 0.30507072476372038 0 -0.081760790202467015 0.32157280536937299 0 -0.096082990880295371 0.31691138375495059 0 -0.088356113747920975 0.3470200857279932 0 -0.075320407672168146 0.34175979892785058 0 -0.091127099407918827 0.33286284442119218 0 -0.075320407672168146 0.34175979892785058 0 -0.081760790202467015 0.32157280536937299 0 -0.091127099407918827 0.33286284442119218 0 -0.091127099407918827 0.33286284442119218 0 -0.1051046665016961 0.34239669182742749 0 -0.1101067380970233 0.32304059095905863 0 -0.088356113747920975 0.3470200857279932 0 -0.091127099407918827 0.33286284442119218 0 -0.1051046665016961 0.34239669182742749 0 -0.091127099407918827 0.33286284442119218 0 -0.096082990880295371 0.31691138375495059 0 -0.1101067380970233 0.32304059095905863 0 -0.10939490236985849 0.30200995326140878 0 -0.096082990880295371 0.31691138375495059 0 -0.1101067380970233 0.32304059095905863 0 -0.127024793533425 0.32288423120810439 0 -0.12256205949218241 0.31049755730441969 0 -0.1101067380970233 0.32304059095905863 0 -0.127024793533425 0.32288423120810439 0 -0.1101067380970233 0.32304059095905863 0 -0.119702346626612 0.33427095359743619 0 -0.1051046665016961 0.34239669182742749 0 -0.1101067380970233 0.32304059095905863 0 -0.119702346626612 0.33427095359743619 0 -0.1051046665016961 0.34239669182742749 0 -0.119702346626612 0.33427095359743619 0 -0.12404831309632459 0.34932620929897251 0 -0.12846322934269069 0.3604998615717443 0 -0.12404831309632459 0.34932620929897251 0 -0.1186366303267905 0.36507467351373762 0 -0.12404831309632459 0.34932620929897251 0 -0.1186366303267905 0.36507467351373762 0 -0.098485347709347984 0.36144738920988467 0 -0.12404831309632459 0.34932620929897251 0 -0.098485347709347984 0.36144738920988467 0 -0.1283991830727704 0.37068327457407307 0 -0.1186366303267905 0.36507467351373762 0 -0.1178627936561807 0.38611406414123373 0 -0.1186366303267905 0.36507467351373762 0 -0.098485347709347984 0.36144738920988467 0 -0.1186366303267905 0.36507467351373762 0 -0.098485347709347984 0.36144738920988467 0 -0.1053877009588831 0.37629716779054728 0 -0.098485347709347984 0.36144738920988467 0 -0.1053877009588831 0.37629716779054728 0 -0.090439534046919373 0.38121075549525901 0 -0.088356113747920975 0.3470200857279932 0 -0.1051046665016961 0.34239669182742749 0 -0.098485347709347984 0.36144738920988467 0 -0.1051046665016961 0.34239669182742749 0 -0.12404831309632459 0.34932620929897251 0 -0.098485347709347984 0.36144738920988467 0 -0.10340840488673669 0.39023665681903458 0 -0.093419004851594628 0.40428075910771599 0 -0.090439534046919373 0.38121075549525901 0 -0.1082923745211775 0.40609099651250918 0 -0.10340840488673669 0.39023665681903458 0 -0.093419004851594628 0.40428075910771599 0 -0.1053877009588831 0.37629716779054728 0 -0.10340840488673669 0.39023665681903458 0 -0.090439534046919373 0.38121075549525901 0 -0.1053877009588831 0.37629716779054728 0 -0.10340840488673669 0.39023665681903458 0 -0.1178627936561807 0.38611406414123373 0 -0.1186366303267905 0.36507467351373762 0 -0.1053877009588831 0.37629716779054728 0 -0.1178627936561807 0.38611406414123373 0 -0.1082923745211775 0.40609099651250918 0 -0.10340840488673669 0.39023665681903458 0 -0.1178627936561807 0.38611406414123373 0 -0.1257794668173487 0.41098137930609879 0 -0.1082923745211775 0.40609099651250918 0 -0.1178627936561807 0.38611406414123373 0 -0.1257794668173487 0.41098137930609879 0 -0.1082923745211775 0.40609099651250918 0 -0.11304754671885631 0.42327509748112291 0 -0.1257794668173487 0.41098137930609879 0 -0.11304754671885631 0.42327509748112291 0 -0.1172751471057842 0.43887857514936057 0 -0.1257794668173487 0.41098137930609879 0 -0.1172751471057842 0.43887857514936057 0 -0.11304754671885631 0.42327509748112291 0 -0.11583528819159809 0.43884584837540841 0 -0.1172751471057842 0.43887857514936057 0 -0.11304754671885631 0.42327509748112291 0 -0.096237030196348064 0.42165802221984983 0 -0.11583528819159809 0.43884584837540841 0 -0.096237030196348064 0.42165802221984983 0 -0.087082001794283645 0.43819231052184832 0 -0.11583528819159809 0.43884584837540841 0 -0.096237030196348064 0.42165802221984983 0 -0.11583528819159809 0.43884584837540841 0 -0.1082923745211775 0.40609099651250918 0 -0.11304754671885631 0.42327509748112291 0 -0.096237030196348064 0.42165802221984983 0 -0.1082923745211775 0.40609099651250918 0 -0.096237030196348064 0.42165802221984983 0 -0.093419004851594628 0.40428075910771599 0 -0.096237030196348064 0.42165802221984983 0 -0.076638772201096939 0.40447019606429241 0 -0.093419004851594628 0.40428075910771599 0 -0.096237030196348064 0.42165802221984983 0 -0.076638772201096939 0.40447019606429241 0 -0.096237030196348064 0.42165802221984983 0 -0.078865241461716223 0.41637206934865151 0 -0.076638772201096939 0.40447019606429241 0 -0.096237030196348064 0.42165802221984983 0 -0.078865241461716223 0.41637206934865151 0 -0.077117316532937102 0.42759727277002318 0 -0.096237030196348064 0.42165802221984983 0 -0.077117316532937102 0.42759727277002318 0 -0.087082001794283645 0.43819231052184832 0 -0.077117316532937102 0.42759727277002318 0 -0.065073593815368397 0.42422518909148049 0 -0.058328715396969183 0.437538772668286 0 -0.077117316532937102 0.42759727277002318 0 -0.058328715396969183 0.437538772668286 0 -0.087082001794283645 0.43819231052184832 0 -0.078865241461716223 0.41637206934865151 0 -0.077117316532937102 0.42759727277002318 0 -0.065073593815368397 0.42422518909148049 0 -0.078865241461716223 0.41637206934865151 0 -0.059836672458720361 0.41374277214518229 0 -0.078865241461716223 0.41637206934865151 0 -0.065540936892508714 0.40534681881748269 0 -0.059836672458720361 0.41374277214518229 0 -0.078865241461716223 0.41637206934865151 0 -0.065073593815368397 0.42422518909148049 0 -0.059836672458720361 0.41374277214518229 0 -0.078865241461716223 0.41637206934865151 0 -0.065540936892508714 0.40534681881748269 0 -0.076638772201096939 0.40447019606429241 0 -0.065540936892508714 0.40534681881748269 0 -0.076638772201096939 0.40447019606429241 0 -0.059747127033492241 0.39525452193773869 0 -0.076638772201096939 0.40447019606429241 0 -0.057040514205846091 0.38728236990873449 0 -0.059747127033492241 0.39525452193773869 0 -0.076638772201096939 0.40447019606429241 0 -0.057040514205846091 0.38728236990873449 0 -0.076638772201096939 0.40447019606429241 0 -0.074558413445786398 0.38871605197933151 0 -0.057040514205846091 0.38728236990873449 0 -0.076638772201096939 0.40447019606429241 0 -0.093419004851594628 0.40428075910771599 0 -0.074558413445786398 0.38871605197933151 0 -0.093419004851594628 0.40428075910771599 0 -0.090439534046919373 0.38121075549525901 0 -0.074558413445786398 0.38871605197933151 0 -0.071683420894781358 0.3741560469090417 0 -0.090439534046919373 0.38121075549525901 0 -0.074558413445786398 0.38871605197933151 0 -0.074558413445786398 0.38871605197933151 0 -0.063468801530469562 0.3787462519434055 0 -0.057040514205846091 0.38728236990873449 0 -0.071683420894781358 0.3741560469090417 0 -0.074558413445786398 0.38871605197933151 0 -0.063468801530469562 0.3787462519434055 0 -0.057040514205846091 0.38728236990873449 0 -0.05281147243409362 0.38357346706670309 0 -0.055964137746730848 0.3993855708029258 0 -0.063468801530469562 0.3787462519434055 0 -0.057040514205846091 0.38728236990873449 0 -0.054480902345132233 0.37974319966597131 0 -0.057040514205846091 0.38728236990873449 0 -0.054480902345132233 0.37974319966597131 0 -0.057040514205846091 0.38728236990873449 0 -0.05281147243409362 0.38357346706670309 0 -0.054480902345132233 0.37974319966597131 0 -0.057040514205846091 0.38728236990873449 0 -0.05281147243409362 0.38357346706670309 0 -0.05281147243409362 0.38357346706670309 0 -0.047996143602135957 0.38401824548831609 0 -0.044384888815410438 0.38702176981293429 0 -0.05281147243409362 0.38357346706670309 0 -0.047996143602135957 0.38401824548831609 0 -0.050046395672248008 0.38239116076913449 0 -0.047996143602135957 0.38401824548831609 0 -0.050046395672248008 0.38239116076913449 0 -0.044929949282909207 0.37852941071467111 0 -0.050046395672248008 0.38239116076913449 0 -0.050657552162827087 0.38000136049256761 0 -0.044929949282909207 0.37852941071467111 0 -0.050657552162827087 0.38000136049256761 0 -0.049851763351915108 0.37747538344269338 0 -0.044929949282909207 0.37852941071467111 0 -0.052218732787574197 0.37308012637967691 0 -0.049851763351915108 0.37747538344269338 0 -0.044929949282909207 0.37852941071467111 0 -0.052218732787574197 0.37308012637967691 0 -0.049851763351915108 0.37747538344269338 0 -0.051909938346282887 0.37739304445744581 0 -0.052218732787574197 0.37308012637967691 0 -0.051909938346282887 0.37739304445744581 0 -0.054480902345132233 0.37974319966597131 0 -0.052218732787574197 0.37308012637967691 0 -0.054480902345132233 0.37974319966597131 0 -0.050657552162827087 0.38000136049256761 0 -0.049851763351915108 0.37747538344269338 0 -0.051909938346282887 0.37739304445744581 0 -0.05281147243409362 0.38357346706670309 0 -0.054480902345132233 0.37974319966597131 0 -0.051926529760086812 0.3814813152691463 0 -0.05281147243409362 0.38357346706670309 0 -0.054480902345132233 0.37974319966597131 0 -0.050046395672248008 0.38239116076913449 0 -0.050657552162827087 0.38000136049256761 0 -0.051926529760086812 0.3814813152691463 0 -0.05281147243409362 0.38357346706670309 0 -0.050046395672248008 0.38239116076913449 0 -0.051926529760086812 0.3814813152691463 0 -0.050657552162827087 0.38000136049256761 0 -0.054480902345132233 0.37974319966597131 0 -0.051926529760086812 0.3814813152691463 0 -0.050657552162827087 0.38000136049256761 0 -0.051909938346282887 0.37739304445744581 0 -0.054480902345132233 0.37974319966597131 0 -0.05281147243409362 0.38357346706670309 0 -0.055964137746730848 0.3993855708029258 0 -0.040808103455724463 0.41111347494171341 0 -0.065540936892508714 0.40534681881748269 0 -0.055964137746730848 0.3993855708029258 0 -0.059836672458720361 0.41374277214518229 0 -0.065540936892508714 0.40534681881748269 0 -0.055964137746730848 0.3993855708029258 0 -0.059747127033492241 0.39525452193773869 0 -0.057040514205846091 0.38728236990873449 0 -0.055964137746730848 0.3993855708029258 0 -0.059747127033492241 0.39525452193773869 0 -0.057040514205846091 0.38728236990873449 0 -0.059747127033492241 0.39525452193773869 0 -0.05281147243409362 0.38357346706670309 0 -0.044384888815410438 0.38702176981293429 0 -0.040808103455724463 0.41111347494171341 0 -0.035872886737324257 0.39632575417785842 0 -0.044384888815410438 0.38702176981293429 0 -0.040808103455724463 0.41111347494171341 0 -0.05281147243409362 0.38357346706670309 0 -0.040808103455724463 0.41111347494171341 0 -0.035872886737324257 0.39632575417785842 0 -0.03063314043153112 0.38801345889084687 0 -0.02803274052351146 0.399454793638501 0 -0.035872886737324257 0.39632575417785842 0 -0.02803274052351146 0.399454793638501 0 -0.040808103455724463 0.41111347494171341 0 -0.044929949282909207 0.37852941071467111 0 -0.043132730648344622 0.38184351245750681 0 -0.035716647140296258 0.37964235204596353 0 -0.047996143602135957 0.38401824548831609 0 -0.044929949282909207 0.37852941071467111 0 -0.043132730648344622 0.38184351245750681 0 -0.047996143602135957 0.38401824548831609 0 -0.043132730648344622 0.38184351245750681 0 -0.044384888815410438 0.38702176981293429 0 -0.043132730648344622 0.38184351245750681 0 -0.044384888815410438 0.38702176981293429 0 -0.035716647140296258 0.37964235204596353 0 -0.035872886737324257 0.39632575417785842 0 -0.044384888815410438 0.38702176981293429 0 -0.03063314043153112 0.38801345889084687 0 -0.044384888815410438 0.38702176981293429 0 -0.035716647140296258 0.37964235204596353 0 -0.03063314043153112 0.38801345889084687 0 -0.029740211961022549 0.36938616027012833 0 -0.044929949282909207 0.37852941071467111 0 -0.035716647140296258 0.37964235204596353 0 -0.035716647140296258 0.37964235204596353 0 -0.02542855693131138 0.38045907433837789 0 -0.03063314043153112 0.38801345889084687 0 -0.029740211961022549 0.36938616027012833 0 -0.02542855693131138 0.38045907433837789 0 -0.010794222868953049 0.37525379815611748 0 -0.029740211961022549 0.36938616027012833 0 -0.035716647140296258 0.37964235204596353 0 -0.02542855693131138 0.38045907433837789 0 -0.02542855693131138 0.38045907433837789 0 -0.020625888531634402 0.39030008290139528 0 -0.010794222868953049 0.37525379815611748 0 -0.02542855693131138 0.38045907433837789 0 -0.020625888531634402 0.39030008290139528 0 -0.03063314043153112 0.38801345889084687 0 -0.020625888531634402 0.39030008290139528 0 -0.0064271344534248352 0.38996151369641441 0 -0.020224053382566581 0.40826924712379897 0 -0.020625888531634402 0.39030008290139528 0 -0.03063314043153112 0.38801345889084687 0 -0.02803274052351146 0.399454793638501 0 -0.020625888531634402 0.39030008290139528 0 -0.02803274052351146 0.399454793638501 0 -0.020224053382566581 0.40826924712379897 0 -0.0064271344534248352 0.38996151369641441 0 -0.020224053382566581 0.40826924712379897 0 0.00035999669059131462 0.4054250193058847 0 -0.0064271344534248352 0.38996151369641441 0 -0.010794222868953049 0.37525379815611748 0 0.0012734071493996 0.37563546231701261 0 -0.020625888531634402 0.39030008290139528 0 -0.0064271344534248352 0.38996151369641441 0 -0.010794222868953049 0.37525379815611748 0 -0.01131042698175623 0.42242386279059629 0 -0.0057271874249656416 0.43674594677932538 0 -0.018948513657370061 0.43664369402711378 0 -0.01131042698175623 0.42242386279059629 0 -0.0057271874249656416 0.43674594677932538 0 0.0012592712859812729 0.42477821901238588 0 -0.01131042698175623 0.42242386279059629 0 -0.020224053382566581 0.40826924712379897 0 0.00035999669059131462 0.4054250193058847 0 -0.01131042698175623 0.42242386279059629 0 0.0012592712859812729 0.42477821901238588 0 0.00035999669059131462 0.4054250193058847 0 -0.020224053382566581 0.40826924712379897 0 0.00035999669059131462 0.4054250193058847 0 -0.020224053382566581 0.40826924712379897 0 -0.02458207540220772 0.4226810504950696 0 -0.040808103455724463 0.41111347494171341 0 -0.020224053382566581 0.40826924712379897 0 -0.040808103455724463 0.41111347494171341 0 -0.01131042698175623 0.42242386279059629 0 -0.020224053382566581 0.40826924712379897 0 -0.02458207540220772 0.4226810504950696 0 -0.02803274052351146 0.399454793638501 0 -0.020224053382566581 0.40826924712379897 0 -0.040808103455724463 0.41111347494171341 0 -0.01131042698175623 0.42242386279059629 0 -0.02458207540220772 0.4226810504950696 0 -0.018948513657370061 0.43664369402711378 0 -0.018948513657370061 0.43664369402711378 0 -0.0295754289996547 0.4368852348147203 0 -0.02458207540220772 0.4226810504950696 0 -0.018948513657370061 0.43664369402711378 0 -0.0295754289996547 0.4368852348147203 0 -0.0295754289996547 0.4368852348147203 0 -0.040808103455724463 0.41111347494171341 0 -0.048588602040106607 0.42497575981550367 0 -0.0295754289996547 0.4368852348147203 0 -0.048588602040106607 0.42497575981550367 0 -0.058328715396969183 0.437538772668286 0 -0.0295754289996547 0.4368852348147203 0 -0.040808103455724463 0.41111347494171341 0 -0.02458207540220772 0.4226810504950696 0 -0.0295754289996547 0.4368852348147203 0 -0.040808103455724463 0.41111347494171341 0 -0.0295754289996547 0.4368852348147203 0 -0.058328715396969183 0.437538772668286 0 -0.040808103455724463 0.41111347494171341 0 -0.059836672458720361 0.41374277214518229 0 -0.040808103455724463 0.41111347494171341 0 -0.059836672458720361 0.41374277214518229 0 -0.048588602040106607 0.42497575981550367 0 -0.055964137746730848 0.3993855708029258 0 -0.040808103455724463 0.41111347494171341 0 -0.059836672458720361 0.41374277214518229 0 -0.065073593815368397 0.42422518909148049 0 -0.059836672458720361 0.41374277214518229 0 -0.048588602040106607 0.42497575981550367 0 -0.065073593815368397 0.42422518909148049 0 -0.048588602040106607 0.42497575981550367 0 -0.058328715396969183 0.437538772668286 0 -0.058328715396969183 0.437538772668286 0 -0.041793171705390077 0.45543415071152188 0 -0.06929627979464105 0.45836298426166933 0 -0.041793171705390077 0.45543415071152188 0 -0.051880071265657399 0.47234591083545069 0 -0.06929627979464105 0.45836298426166933 0 -0.041793171705390077 0.45543415071152188 0 -0.033904034586456723 0.46977868005168549 0 -0.051880071265657399 0.47234591083545069 0 -0.041793171705390077 0.45543415071152188 0 -0.019888412569274989 0.45911070411910709 0 -0.033904034586456723 0.46977868005168549 0 -0.0295754289996547 0.4368852348147203 0 -0.058328715396969183 0.437538772668286 0 -0.041793171705390077 0.45543415071152188 0 -0.018948513657370061 0.43664369402711378 0 -0.0295754289996547 0.4368852348147203 0 -0.013657073061990569 0.44587632089656698 0 -0.0295754289996547 0.4368852348147203 0 -0.041793171705390077 0.45543415071152188 0 -0.019888412569274989 0.45911070411910709 0 -0.0295754289996547 0.4368852348147203 0 -0.019888412569274989 0.45911070411910709 0 -0.0295754289996547 0.4368852348147203 0 -0.019888412569274989 0.45911070411910709 0 -0.013657073061990569 0.44587632089656698 0 -0.019888412569274989 0.45911070411910709 0 -0.0020075228541637348 0.44976175751563191 0 0.0012645026175754309 0.46647247731765568 0 -0.019888412569274989 0.45911070411910709 0 -0.0020075228541637348 0.44976175751563191 0 -0.013657073061990569 0.44587632089656698 0 -0.0057271874249656416 0.43674594677932538 0 -0.0020075228541637348 0.44976175751563191 0 -0.013657073061990569 0.44587632089656698 0 -0.0057271874249656416 0.43674594677932538 0 -0.018948513657370061 0.43664369402711378 0 -0.013657073061990569 0.44587632089656698 0 -0.00090420101598420732 0.5 0 -0.01020139613889649 0.4813361734234945 0 -0.016193870009621841 0.5 0 -0.00090420101598420732 0.5 0 -0.01020139613889649 0.4813361734234945 0 0.0085449540768192771 0.48364543480893779 0 -0.019888412569274989 0.45911070411910709 0 -0.01020139613889649 0.4813361734234945 0 -0.019888412569274989 0.45911070411910709 0 -0.01020139613889649 0.4813361734234945 0 0.0012645026175754309 0.46647247731765568 0 -0.01020139613889649 0.4813361734234945 0 0.0085449540768192771 0.48364543480893779 0 0.0012645026175754309 0.46647247731765568 0 -0.019888412569274989 0.45911070411910709 0 -0.01020139613889649 0.4813361734234945 0 -0.033904034586456723 0.46977868005168549 0 -0.01020139613889649 0.4813361734234945 0 -0.029394884532125871 0.48634851180970018 0 -0.033904034586456723 0.46977868005168549 0 -0.016193870009621841 0.5 0 -0.043482444589403063 0.49771297836548611 0 -0.01020139613889649 0.4813361734234945 0 -0.029394884532125871 0.48634851180970018 0 -0.016193870009621841 0.5 0 -0.029394884532125871 0.48634851180970018 0 -0.016193870009621841 0.5 0 -0.043482444589403063 0.49771297836548611 0 -0.016193870009621841 0.5 0 -0.028339906441598232 0.5 0 -0.043482444589403063 0.49771297836548611 0 -0.028339906441598232 0.5 0 -0.043482444589403063 0.49771297836548611 0 -0.055775611867212138 0.5 0 -0.029394884532125871 0.48634851180970018 0 -0.043482444589403063 0.49771297836548611 0 -0.043192677336251213 0.48325922612144218 0 -0.029394884532125871 0.48634851180970018 0 -0.033904034586456723 0.46977868005168549 0 -0.043192677336251213 0.48325922612144218 0 -0.033904034586456723 0.46977868005168549 0 -0.043192677336251213 0.48325922612144218 0 -0.051880071265657399 0.47234591083545069 0 -0.051880071265657399 0.47234591083545069 0 -0.055728734858035811 0.48597740226207531 0 -0.068647030145374002 0.4774329238530709 0 -0.043192677336251213 0.48325922612144218 0 -0.051880071265657399 0.47234591083545069 0 -0.055728734858035811 0.48597740226207531 0 -0.043482444589403063 0.49771297836548611 0 -0.055728734858035811 0.48597740226207531 0 -0.070771019169184296 0.49577045564457972 0 -0.043482444589403063 0.49771297836548611 0 -0.055775611867212138 0.5 0 -0.070771019169184296 0.49577045564457972 0 -0.043482444589403063 0.49771297836548611 0 -0.070771019169184296 0.49577045564457972 0 -0.043482444589403063 0.49771297836548611 0 -0.043192677336251213 0.48325922612144218 0 -0.055728734858035811 0.48597740226207531 0 -0.055775611867212138 0.5 0 -0.070771019169184296 0.49577045564457972 0 -0.08321131729282627 0.5 0 -0.070771019169184296 0.49577045564457972 0 -0.084175833611548886 0.48367328617311339 0 -0.068647030145374002 0.4774329238530709 0 -0.055728734858035811 0.48597740226207531 0 -0.070771019169184296 0.49577045564457972 0 -0.068647030145374002 0.4774329238530709 0 -0.070771019169184296 0.49577045564457972 0 -0.084175833611548886 0.48367328617311339 0 -0.098059593748965626 0.49382793292367327 0 -0.070771019169184296 0.49577045564457972 0 -0.098059593748965626 0.49382793292367327 0 -0.070771019169184296 0.49577045564457972 0 -0.08321131729282627 0.5 0 -0.098059593748965626 0.49382793292367327 0 -0.084175833611548886 0.48367328617311339 0 -0.082812491787910225 0.47079246396051799 0 -0.099918601422001152 0.47717713799337858 0 -0.084175833611548886 0.48367328617311339 0 -0.082812491787910225 0.47079246396051799 0 -0.068647030145374002 0.4774329238530709 0 -0.082812491787910225 0.47079246396051799 0 -0.068647030145374002 0.4774329238530709 0 -0.06929627979464105 0.45836298426166933 0 -0.051880071265657399 0.47234591083545069 0 -0.068647030145374002 0.4774329238530709 0 -0.06929627979464105 0.45836298426166933 0 -0.058328715396969183 0.437538772668286 0 -0.06929627979464105 0.45836298426166933 0 -0.087082001794283645 0.43819231052184832 0 -0.058328715396969183 0.437538772668286 0 -0.087082001794283645 0.43819231052184832 0 -0.06929627979464105 0.45836298426166933 0 -0.087082001794283645 0.43819231052184832 0 -0.094530476466902852 0.45680435728098928 0 -0.082812491787910225 0.47079246396051799 0 -0.094530476466902852 0.45680435728098928 0 -0.099918601422001152 0.47717713799337858 0 -0.082812491787910225 0.47079246396051799 0 -0.06929627979464105 0.45836298426166933 0 -0.094530476466902852 0.45680435728098928 0 -0.094530476466902852 0.45680435728098928 0 -0.1109848371723008 0.45951303082376282 0 -0.099918601422001152 0.47717713799337858 0 -0.094530476466902852 0.45680435728098928 0 -0.1087448236248936 0.44808453885072469 0 -0.1109848371723008 0.45951303082376282 0 -0.087082001794283645 0.43819231052184832 0 -0.11583528819159809 0.43884584837540841 0 -0.087082001794283645 0.43819231052184832 0 -0.1087448236248936 0.44808453885072469 0 -0.11583528819159809 0.43884584837540841 0 -0.087082001794283645 0.43819231052184832 0 -0.094530476466902852 0.45680435728098928 0 -0.1087448236248936 0.44808453885072469 0 -0.12669217504332569 0.44836742339718549 0 -0.1172751471057842 0.43887857514936057 0 -0.1109848371723008 0.45951303082376282 0 -0.1087448236248936 0.44808453885072469 0 -0.1172751471057842 0.43887857514936057 0 -0.1109848371723008 0.45951303082376282 0 -0.1172751471057842 0.43887857514936057 0 -0.1109848371723008 0.45951303082376282 0 -0.1087448236248936 0.44808453885072469 0 -0.11583528819159809 0.43884584837540841 0 -0.1172751471057842 0.43887857514936057 0 -0.11583528819159809 0.43884584837540841 0 -0.1172751471057842 0.43887857514936057 0 -0.1295541656026418 0.43915766684279101 0 -0.12669217504332569 0.44836742339718549 0 -0.1172751471057842 0.43887857514936057 0 -0.1295541656026418 0.43915766684279101 0 -0.1172751471057842 0.43887857514936057 0 -0.12669217504332569 0.44836742339718549 0 -0.1172751471057842 0.43887857514936057 0 -0.12669217504332569 0.44836742339718549 0 -0.1109848371723008 0.45951303082376282 0 -0.1186695988808837 0.47418371169859269 0 -0.12669217504332569 0.44836742339718549 0 -0.1186695988808837 0.47418371169859269 0 -0.1109848371723008 0.45951303082376282 0 -0.1186695988808837 0.47418371169859269 0 -0.099918601422001152 0.47717713799337858 0 -0.1186695988808837 0.47418371169859269 0 -0.1106470227184406 0.4999999999999995 0 -0.099918601422001152 0.47717713799337858 0 -0.1186695988808837 0.47418371169859269 0 -0.1106470227184406 0.4999999999999995 0 -0.1186695988808837 0.47418371169859269 0 -0.1106470227184406 0.4999999999999995 0 -0.12391887790514861 0.48996963611126892 0 -0.1371907330918567 0.5 0 -0.1106470227184406 0.4999999999999995 0 -0.12391887790514861 0.48996963611126892 0 -0.1106470227184406 0.4999999999999995 0 -0.098059593748965626 0.49382793292367327 0 -0.099918601422001152 0.47717713799337858 0 -0.08321131729282627 0.5 0 -0.1106470227184406 0.4999999999999995 0 -0.098059593748965626 0.49382793292367327 0 -0.084175833611548886 0.48367328617311339 0 -0.098059593748965626 0.49382793292367327 0 -0.099918601422001152 0.47717713799337858 0 -0.1716433671520681 0.080827404656954038 0 -0.16299292804922799 0.069976256275766341 0 -0.16329874672812719 0.095479581984799847 0 -0.16299292804922799 0.069976256275766341 0 -0.16329874672812719 0.095479581984799847 0 -0.15327258813418779 0.083238802468347819 0 -0.16299292804922799 0.069976256275766341 0 -0.16329874672812719 0.095479581984799847 0 -0.1716433671520681 0.080827404656954038 0 -0.16800731235407701 0.095101116780575257 0 -0.16329874672812719 0.095479581984799847 0 -0.16299292804922799 0.069976256275766341 0 -0.15327258813418779 0.083238802468347819 0 -0.16076604956317281 0.057762002307668037 0 -0.15327258813418779 0.083238802468347819 0 -0.16076604956317281 0.057762002307668037 0 -0.16299292804922799 0.069976256275766341 0 -0.1767389695861725 0.067255989766509344 0 -0.17127316311625271 0.057123004355680677 0 -0.1716433671520681 0.080827404656954038 0 -0.16299292804922799 0.069976256275766341 0 -0.1767389695861725 0.067255989766509344 0 -0.1716433671520681 0.080827404656954038 0 -0.1767389695861725 0.067255989766509344 0 -0.1874493620589934 0.074993807718737329 0 -0.1767389695861725 0.067255989766509344 0 -0.1873059970245477 0.06262653709490526 0 -0.1874493620589934 0.074993807718737329 0 -0.1874493620589934 0.074993807718737329 0 -0.17902966424744859 0.089958418547154154 0 -0.16800731235407701 0.095101116780575257 0 -0.1874493620589934 0.074993807718737329 0 -0.17902966424744859 0.089958418547154154 0 -0.19116823412197889 0.087169343760437071 0 -0.1874493620589934 0.074993807718737329 0 -0.16800731235407701 0.095101116780575257 0 -0.1716433671520681 0.080827404656954038 0 -0.1874493620589934 0.074993807718737329 0 -0.16800731235407701 0.095101116780575257 0 -0.17902966424744859 0.089958418547154154 0 -0.17832247442691271 0.095376469633872016 0 -0.19116823412197889 0.087169343760437071 0 -0.17437110074111731 0.1044620724001173 0 -0.19116823412197889 0.087169343760437071 0 -0.1892931508311958 0.10215223385679829 0 -0.17437110074111731 0.1044620724001173 0 -0.17832247442691271 0.095376469633872016 0 -0.19116823412197889 0.087169343760437071 0 -0.17437110074111731 0.1044620724001173 0 -0.19116823412197889 0.087169343760437071 0 -0.17437110074111731 0.1044620724001173 0 -0.18428503948925509 0.1152421967958225 0 -0.1892931508311958 0.10215223385679829 0 -0.17419925096374669 0.10286449089446401 0 -0.17437110074111731 0.1044620724001173 0 -0.17478125307374159 0.099783047047790951 0 -0.17419925096374669 0.10286449089446401 0 -0.17437110074111731 0.1044620724001173 0 -0.17419925096374669 0.10286449089446401 0 -0.17437110074111731 0.1044620724001173 0 -0.17149249157085261 0.1039094564900121 0 -0.17419925096374669 0.10286449089446401 0 -0.17233350381617421 0.10176817446270441 0 -0.17149249157085261 0.1039094564900121 0 -0.17233350381617421 0.10176817446270441 0 -0.17478125307374159 0.099783047047790951 0 -0.17130772316376389 0.099326005779186377 0 -0.17437110074111731 0.1044620724001173 0 -0.17478125307374159 0.099783047047790951 0 -0.17832247442691271 0.095376469633872016 0 -0.17902966424744859 0.089958418547154154 0 -0.17320301347856629 0.096282436097821347 0 -0.16800731235407701 0.095101116780575257 0 -0.17419925096374669 0.10286449089446401 0 -0.17233350381617421 0.10176817446270441 0 -0.17478125307374159 0.099783047047790951 0 -0.17478125307374159 0.099783047047790951 0 -0.17320301347856629 0.096282436097821347 0 -0.17130772316376389 0.099326005779186377 0 -0.17478125307374159 0.099783047047790951 0 -0.17320301347856629 0.096282436097821347 0 -0.17832247442691271 0.095376469633872016 0 -0.17902966424744859 0.089958418547154154 0 -0.17320301347856629 0.096282436097821347 0 -0.17832247442691271 0.095376469633872016 0 -0.18428503948925509 0.1152421967958225 0 -0.19392973621946949 0.12243907129303599 0 -0.1770172249014115 0.12906145847321571 0 -0.17437110074111731 0.1044620724001173 0 -0.18428503948925509 0.1152421967958225 0 -0.1770172249014115 0.12906145847321571 0 -0.17437110074111731 0.1044620724001173 0 -0.1770172249014115 0.12906145847321571 0 -0.17437110074111731 0.1044620724001173 0 -0.1574130965215077 0.121920418332784 0 -0.1770172249014115 0.12906145847321571 0 -0.17437110074111731 0.1044620724001173 0 -0.1574130965215077 0.121920418332784 0 -0.17437110074111731 0.1044620724001173 0 -0.1574130965215077 0.121920418332784 0 -0.1665346597227636 0.1076116553179821 0 -0.16060800247001331 0.1127408073942172 0 -0.1574130965215077 0.121920418332784 0 -0.1665346597227636 0.1076116553179821 0 -0.16060800247001331 0.1127408073942172 0 -0.15721413278136059 0.1133143143187558 0 -0.1574130965215077 0.121920418332784 0 -0.16060800247001331 0.1127408073942172 0 -0.1665346597227636 0.1076116553179821 0 -0.16127012085442119 0.108116841607347 0 -0.16060800247001331 0.1127408073942172 0 -0.15721413278136059 0.1133143143187558 0 -0.16127012085442119 0.108116841607347 0 -0.16800731235407701 0.095101116780575257 0 -0.1635956272001588 0.10363839165714731 0 -0.1485652626491604 0.1152084258424133 0 -0.16800731235407701 0.095101116780575257 0 -0.16329874672812719 0.095479581984799847 0 -0.1485652626491604 0.1152084258424133 0 -0.16800731235407701 0.095101116780575257 0 -0.1485652626491604 0.1152084258424133 0 -0.16800731235407701 0.095101116780575257 0 -0.1689788300225108 0.099281984680655355 0 -0.1635956272001588 0.10363839165714731 0 -0.17320301347856629 0.096282436097821347 0 -0.16800731235407701 0.095101116780575257 0 -0.1689788300225108 0.099281984680655355 0 -0.17320301347856629 0.096282436097821347 0 -0.17130772316376389 0.099326005779186377 0 -0.1689788300225108 0.099281984680655355 0 -0.17130772316376389 0.099326005779186377 0 -0.1689788300225108 0.099281984680655355 0 -0.16878047391598799 0.10206197308854641 0 -0.17233350381617421 0.10176817446270441 0 -0.17130772316376389 0.099326005779186377 0 -0.16878047391598799 0.10206197308854641 0 -0.17149249157085261 0.1039094564900121 0 -0.16861876896499059 0.1041504853639655 0 -0.1665346597227636 0.1076116553179821 0 -0.17437110074111731 0.1044620724001173 0 -0.17149249157085261 0.1039094564900121 0 -0.1665346597227636 0.1076116553179821 0 -0.17233350381617421 0.10176817446270441 0 -0.17149249157085261 0.1039094564900121 0 -0.16878047391598799 0.10206197308854641 0 -0.17149249157085261 0.1039094564900121 0 -0.16861876896499059 0.1041504853639655 0 -0.16878047391598799 0.10206197308854641 0 -0.1665346597227636 0.1076116553179821 0 -0.1658064296575138 0.1050757726089584 0 -0.16127012085442119 0.108116841607347 0 -0.16861876896499059 0.1041504853639655 0 -0.1665346597227636 0.1076116553179821 0 -0.1658064296575138 0.1050757726089584 0 -0.16878047391598799 0.10206197308854641 0 -0.1658064296575138 0.1050757726089584 0 -0.1635956272001588 0.10363839165714731 0 -0.1689788300225108 0.099281984680655355 0 -0.16878047391598799 0.10206197308854641 0 -0.1635956272001588 0.10363839165714731 0 -0.16861876896499059 0.1041504853639655 0 -0.16878047391598799 0.10206197308854641 0 -0.1658064296575138 0.1050757726089584 0 -0.1635956272001588 0.10363839165714731 0 -0.16127012085442119 0.108116841607347 0 -0.1485652626491604 0.1152084258424133 0 -0.1658064296575138 0.1050757726089584 0 -0.1635956272001588 0.10363839165714731 0 -0.16127012085442119 0.108116841607347 0 -0.16329874672812719 0.095479581984799847 0 -0.1457791267052029 0.1087156026290276 0 -0.15327258813418779 0.083238802468347819 0 -0.1457791267052029 0.1087156026290276 0 -0.15327258813418779 0.083238802468347819 0 -0.1457791267052029 0.1087156026290276 0 -0.14239627400127561 0.094551341715879547 0 -0.15327258813418779 0.083238802468347819 0 -0.16329874672812719 0.095479581984799847 0 -0.1457791267052029 0.1087156026290276 0 -0.1485652626491604 0.1152084258424133 0 -0.1457791267052029 0.1087156026290276 0 -0.14239627400127561 0.094551341715879547 0 -0.13851391958771031 0.1042916113411311 0 -0.1457791267052029 0.1087156026290276 0 -0.1485652626491604 0.1152084258424133 0 -0.13828566527621791 0.13419240278970729 0 -0.1457791267052029 0.1087156026290276 0 -0.13828566527621791 0.13419240278970729 0 -0.15087270655579649 0.1213543837550943 0 -0.1485652626491604 0.1152084258424133 0 -0.14690506633994299 0.12658457755305799 0 -0.1574130965215077 0.121920418332784 0 -0.15087270655579649 0.1213543837550943 0 -0.14690506633994299 0.12658457755305799 0 -0.15721413278136059 0.1133143143187558 0 -0.1574130965215077 0.121920418332784 0 -0.15351629962695629 0.11794938556226189 0 -0.1574130965215077 0.121920418332784 0 -0.15087270655579649 0.1213543837550943 0 -0.15351629962695629 0.11794938556226189 0 -0.15087270655579649 0.1213543837550943 0 -0.15351629962695629 0.11794938556226189 0 -0.1485652626491604 0.1152084258424133 0 -0.15721413278136059 0.1133143143187558 0 -0.15351629962695629 0.11794938556226189 0 -0.1485652626491604 0.1152084258424133 0 -0.15721413278136059 0.1133143143187558 0 -0.16127012085442119 0.108116841607347 0 -0.1485652626491604 0.1152084258424133 0 -0.1457791267052029 0.1087156026290276 0 -0.1369463827969768 0.1141807591132523 0 -0.13828566527621791 0.13419240278970729 0 -0.1369463827969768 0.1141807591132523 0 -0.13160861736707621 0.1201988918887333 0 -0.13828566527621791 0.13419240278970729 0 -0.1369463827969768 0.1141807591132523 0 -0.13210526373019191 0.1132577001482358 0 -0.13323112300786241 0.1063400426225599 0 -0.1369463827969768 0.1141807591132523 0 -0.13210526373019191 0.1132577001482358 0 -0.13160861736707621 0.1201988918887333 0 -0.13210526373019191 0.1132577001482358 0 -0.1266349317488524 0.1123111069683977 0 -0.13160861736707621 0.1201988918887333 0 -0.13210526373019191 0.1132577001482358 0 -0.1266349317488524 0.1123111069683977 0 -0.13323112300786241 0.1063400426225599 0 -0.13160861736707621 0.1201988918887333 0 -0.12877609504977919 0.12916642634389611 0 -0.12368957019981459 0.1215474108703499 0 -0.1266349317488524 0.1123111069683977 0 -0.13160861736707621 0.1201988918887333 0 -0.12368957019981459 0.1215474108703499 0 -0.14239627400127561 0.094551341715879547 0 -0.13402781353824861 0.097811838058926959 0 -0.13851391958771031 0.1042916113411311 0 -0.13402781353824861 0.097811838058926959 0 -0.13851391958771031 0.1042916113411311 0 -0.13323112300786241 0.1063400426225599 0 -0.1457791267052029 0.1087156026290276 0 -0.1369463827969768 0.1141807591132523 0 -0.13851391958771031 0.1042916113411311 0 -0.1369463827969768 0.1141807591132523 0 -0.13851391958771031 0.1042916113411311 0 -0.13323112300786241 0.1063400426225599 0 -0.13402781353824861 0.097811838058926959 0 -0.13323112300786241 0.1063400426225599 0 -0.12726139386797611 0.1009622544427643 0 -0.1266349317488524 0.1123111069683977 0 -0.13323112300786241 0.1063400426225599 0 -0.12726139386797611 0.1009622544427643 0 -0.13402781353824861 0.097811838058926959 0 -0.12726139386797611 0.1009622544427643 0 -0.1265203217474849 0.091935109557198635 0 -0.1265203217474849 0.091935109557198635 0 -0.13464989665046051 0.087477688498304312 0 -0.1237059149391172 0.079148552915918685 0 -0.13402781353824861 0.097811838058926959 0 -0.1265203217474849 0.091935109557198635 0 -0.13464989665046051 0.087477688498304312 0 -0.13464989665046051 0.087477688498304312 0 -0.13701982804435989 0.07597713312588647 0 -0.1237059149391172 0.079148552915918685 0 -0.13464989665046051 0.087477688498304312 0 -0.143519872236721 0.08288921612809215 0 -0.13701982804435989 0.07597713312588647 0 -0.14239627400127561 0.094551341715879547 0 -0.13402781353824861 0.097811838058926959 0 -0.13464989665046051 0.087477688498304312 0 -0.14239627400127561 0.094551341715879547 0 -0.13464989665046051 0.087477688498304312 0 -0.143519872236721 0.08288921612809215 0 -0.14239627400127561 0.094551341715879547 0 -0.143519872236721 0.08288921612809215 0 -0.15327258813418779 0.083238802468347819 0 -0.15327258813418779 0.083238802468347819 0 -0.1488420635622093 0.068095235856195771 0 -0.16076604956317281 0.057762002307668037 0 -0.143519872236721 0.08288921612809215 0 -0.15327258813418779 0.083238802468347819 0 -0.1488420635622093 0.068095235856195771 0 -0.143519872236721 0.08288921612809215 0 -0.1488420635622093 0.068095235856195771 0 -0.13701982804435989 0.07597713312588647 0 -0.1488420635622093 0.068095235856195771 0 -0.13701982804435989 0.07597713312588647 0 -0.13372311917392221 0.057690773893278223 0 -0.13701982804435989 0.07597713312588647 0 -0.13372311917392221 0.057690773893278223 0 -0.1237059149391172 0.079148552915918685 0 -0.13372311917392221 0.057690773893278223 0 -0.13083989668649121 0.039716850651291588 0 -0.1121436190003918 0.044301575940527693 0 -0.13372311917392221 0.057690773893278223 0 -0.13083989668649121 0.039716850651291588 0 -0.14692938183480991 0.048286365788322551 0 -0.13083989668649121 0.039716850651291588 0 -0.14327915363745741 0.032547047696729198 0 -0.14692938183480991 0.048286365788322551 0 -0.13083989668649121 0.039716850651291588 0 -0.13121986641453701 0.0257466930006502 0 -0.1177442400578288 0.02972864758824174 0 -0.13083989668649121 0.039716850651291588 0 -0.14327915363745741 0.032547047696729198 0 -0.13121986641453701 0.0257466930006502 0 -0.14327915363745741 0.032547047696729198 0 -0.15360274908336971 0.036795677406822727 0 -0.14692938183480991 0.048286365788322551 0 -0.14327915363745741 0.032547047696729198 0 -0.15360274908336971 0.036795677406822727 0 -0.15075955315659281 0.026929430079526369 0 -0.15360274908336971 0.036795677406822727 0 -0.1560306201733492 0.046515504313904582 0 -0.14692938183480991 0.048286365788322551 0 -0.1488420635622093 0.068095235856195771 0 -0.13372311917392221 0.057690773893278223 0 -0.16076604956317281 0.057762002307668037 0 -0.13372311917392221 0.057690773893278223 0 -0.16076604956317281 0.057762002307668037 0 -0.1560306201733492 0.046515504313904582 0 -0.14692938183480991 0.048286365788322551 0 -0.16076604956317281 0.057762002307668037 0 -0.13372311917392221 0.057690773893278223 0 -0.14692938183480991 0.048286365788322551 0 -0.16076604956317281 0.057762002307668037 0 -0.13432522243980111 0.0022323207627066429 0 -0.13468658866957189 0.0122705962358826 0 -0.145022832915331 0.0071889894444541807 0 -0.14216720601109231 -0.0015998198185955201 0 -0.13432522243980111 0.0022323207627066429 0 -0.145022832915331 0.0071889894444541807 0 -0.13432522243980111 0.0022323207627066429 0 -0.12525354795531621 0.0057775578500688027 0 -0.13468658866957189 0.0122705962358826 0 -0.1267066811508025 -0.0058059763640995986 0 -0.13432522243980111 0.0022323207627066429 0 -0.12525354795531621 0.0057775578500688027 0 -0.13468658866957189 0.0122705962358826 0 -0.13121986641453701 0.0257466930006502 0 -0.1190554231487936 0.019094651450380501 0 -0.13468658866957189 0.0122705962358826 0 -0.13121986641453701 0.0257466930006502 0 -0.14156991204350991 0.02113037692565891 0 -0.14327915363745741 0.032547047696729198 0 -0.13121986641453701 0.0257466930006502 0 -0.14156991204350991 0.02113037692565891 0 -0.15075955315659281 0.026929430079526369 0 -0.14156991204350991 0.02113037692565891 0 -0.16238129069142901 0.018969604857699589 0 -0.15360274908336971 0.036795677406822727 0 -0.15075955315659281 0.026929430079526369 0 -0.16238129069142901 0.018969604857699589 0 -0.13468658866957189 0.0122705962358826 0 -0.14156991204350991 0.02113037692565891 0 -0.16238129069142901 0.018969604857699589 0 -0.14327915363745741 0.032547047696729198 0 -0.15075955315659281 0.026929430079526369 0 -0.14156991204350991 0.02113037692565891 0 -0.13468658866957189 0.0122705962358826 0 -0.145022832915331 0.0071889894444541807 0 -0.16238129069142901 0.018969604857699589 0 -0.13468658866957189 0.0122705962358826 0 -0.16238129069142901 0.018969604857699589 0 -0.15155385676476049 0.0040722451845775819 0 -0.145022832915331 0.0071889894444541807 0 -0.16238129069142901 0.018969604857699589 0 -0.14216720601109231 -0.0015998198185955201 0 -0.15155385676476049 0.0040722451845775819 0 -0.145022832915331 0.0071889894444541807 0 -0.16213180396831009 -0.001835995319171498 0 -0.15155385676476049 0.0040722451845775819 0 -0.16238129069142901 0.018969604857699589 0 -0.16213180396831009 -0.001835995319171498 0 -0.16238129069142901 0.018969604857699589 0 -0.16213180396831009 -0.001835995319171498 0 -0.16769453395594561 0.0087250954582283671 0 -0.16238129069142901 0.018969604857699589 0 -0.16213180396831009 -0.001835995319171498 0 -0.16769453395594561 0.0087250954582283671 0 -0.17688534875143 0.003201102554937572 0 -0.16769453395594561 0.0087250954582283671 0 -0.16937969241261319 0.01456566973944781 0 -0.17688534875143 0.003201102554937572 0 -0.16769453395594561 0.0087250954582283671 0 -0.16937969241261319 0.01456566973944781 0 -0.16238129069142901 0.018969604857699589 0 -0.16992791570159779 0.019964304099619971 0 -0.16712552354367771 0.024290533091749479 0 -0.17321982275142209 0.025265935541438949 0 -0.1645596854315548 0.019496531817748141 0 -0.16238129069142901 0.018969604857699589 0 -0.16712552354367771 0.024290533091749479 0 -0.16992791570159779 0.019964304099619971 0 -0.1645596854315548 0.019496531817748141 0 -0.16712552354367771 0.024290533091749479 0 -0.16937969241261319 0.01456566973944781 0 -0.16992791570159779 0.019964304099619971 0 -0.1645596854315548 0.019496531817748141 0 -0.16937969241261319 0.01456566973944781 0 -0.1645596854315548 0.019496531817748141 0 -0.16238129069142901 0.018969604857699589 0 -0.1645596854315548 0.019496531817748141 0 -0.16238129069142901 0.018969604857699589 0 -0.16238129069142901 0.018969604857699589 0 -0.16712552354367771 0.024290533091749479 0 -0.16849333829192251 0.031432929198512233 0 -0.16712552354367771 0.024290533091749479 0 -0.17321982275142209 0.025265935541438949 0 -0.16849333829192251 0.031432929198512233 0 -0.17688534875143 0.003201102554937572 0 -0.19188838025766899 0.029043800605917831 0 -0.17655335929085569 0.016925206264544988 0 -0.17688534875143 0.003201102554937572 0 -0.19188838025766899 0.029043800605917831 0 -0.17321982275142209 0.025265935541438949 0 -0.18021709448393239 0.028470618704342299 0 -0.17655335929085569 0.016925206264544988 0 -0.17321982275142209 0.025265935541438949 0 -0.16849333829192251 0.031432929198512233 0 -0.17522508045002119 0.032854553706125569 0 -0.17321982275142209 0.025265935541438949 0 -0.18021709448393239 0.028470618704342299 0 -0.17522508045002119 0.032854553706125569 0 -0.18021709448393239 0.028470618704342299 0 -0.17655335929085569 0.016925206264544988 0 -0.19188838025766899 0.029043800605917831 0 -0.16992791570159779 0.019964304099619971 0 -0.17321982275142209 0.025265935541438949 0 -0.17655335929085569 0.016925206264544988 0 -0.16937969241261319 0.01456566973944781 0 -0.16992791570159779 0.019964304099619971 0 -0.17655335929085569 0.016925206264544988 0 -0.16937969241261319 0.01456566973944781 0 -0.17655335929085569 0.016925206264544988 0 -0.17688534875143 0.003201102554937572 0 -0.16299292804922799 0.069976256275766341 0 -0.16268710937032879 0.044472930566732967 0 -0.16299292804922799 0.069976256275766341 0 -0.16076604956317281 0.057762002307668037 0 -0.16268710937032879 0.044472930566732967 0 -0.16299292804922799 0.069976256275766341 0 -0.17127316311625271 0.057123004355680677 0 -0.16268710937032879 0.044472930566732967 0 -0.17127316311625271 0.057123004355680677 0 -0.16268710937032879 0.044472930566732967 0 -0.1753715200658241 0.045661443585132411 0 -0.1560306201733492 0.046515504313904582 0 -0.16076604956317281 0.057762002307668037 0 -0.16268710937032879 0.044472930566732967 0 -0.15360274908336971 0.036795677406822727 0 -0.16238129069142901 0.018969604857699589 0 -0.16268710937032879 0.044472930566732967 0 -0.15360274908336971 0.036795677406822727 0 -0.1560306201733492 0.046515504313904582 0 -0.16268710937032879 0.044472930566732967 0 -0.16238129069142901 0.018969604857699589 0 -0.16268710937032879 0.044472930566732967 0 -0.16238129069142901 0.018969604857699589 0 -0.16268710937032879 0.044472930566732967 0 -0.16849333829192251 0.031432929198512233 0 -0.16268710937032879 0.044472930566732967 0 -0.17044426204452409 0.038605464264125797 0 -0.16849333829192251 0.031432929198512233 0 -0.17044426204452409 0.038605464264125797 0 -0.16849333829192251 0.031432929198512233 0 -0.17522508045002119 0.032854553706125569 0 -0.16268710937032879 0.044472930566732967 0 -0.17044426204452409 0.038605464264125797 0 -0.1753715200658241 0.045661443585132411 0 -0.17044426204452409 0.038605464264125797 0 -0.1753715200658241 0.045661443585132411 0 -0.17522508045002119 0.032854553706125569 0 -0.1753715200658241 0.045661443585132411 0 -0.17522508045002119 0.032854553706125569 0 -0.18419882966969409 0.038263597403684117 0 -0.18021709448393239 0.028470618704342299 0 -0.18419882966969409 0.038263597403684117 0 -0.19188838025766899 0.029043800605917831 0 -0.18021709448393239 0.028470618704342299 0 -0.17522508045002119 0.032854553706125569 0 -0.18419882966969409 0.038263597403684117 0 -0.18419882966969409 0.038263597403684117 0 -0.18581750256679361 0.050615302120315182 0 -0.19239113845853961 0.045228297422683313 0 -0.1753715200658241 0.045661443585132411 0 -0.18419882966969409 0.038263597403684117 0 -0.18581750256679361 0.050615302120315182 0 -0.1753715200658241 0.045661443585132411 0 -0.18581750256679361 0.050615302120315182 0 -0.17930143047191821 0.056656455384508579 0 -0.17127316311625271 0.057123004355680677 0 -0.1753715200658241 0.045661443585132411 0 -0.17930143047191821 0.056656455384508579 0 -0.1767389695861725 0.067255989766509344 0 -0.17127316311625271 0.057123004355680677 0 -0.17930143047191821 0.056656455384508579 0 -0.1873059970245477 0.06262653709490526 0 -0.18581750256679361 0.050615302120315182 0 -0.17930143047191821 0.056656455384508579 0 -0.1767389695861725 0.067255989766509344 0 -0.1873059970245477 0.06262653709490526 0 -0.17930143047191821 0.056656455384508579 0 -0.1873059970245477 0.06262653709490526 0 -0.18581750256679361 0.050615302120315182 0 -0.19315956803463261 0.053332288326601307 0 -0.1873059970245477 0.06262653709490526 0 -0.19315956803463261 0.053332288326601307 0 -0.2068914117639086 0.054886498656898097 0 -0.19315956803463261 0.053332288326601307 0 -0.19239113845853961 0.045228297422683313 0 -0.2068914117639086 0.054886498656898097 0 -0.18581750256679361 0.050615302120315182 0 -0.19315956803463261 0.053332288326601307 0 -0.19239113845853961 0.045228297422683313 0 -0.20299785552204691 0.03791277291679699 0 -0.2068914117639086 0.054886498656898097 0 -0.19188838025766899 0.029043800605917831 0 -0.18419882966969409 0.038263597403684117 0 -0.19239113845853961 0.045228297422683313 0 -0.19188838025766899 0.029043800605917831 0 -0.2068914117639086 0.054886498656898097 0 -0.19188838025766899 0.029043800605917831 0 -0.19239113845853961 0.045228297422683313 0 -0.2068914117639086 0.054886498656898097 0 -0.19188838025766899 0.029043800605917831 0 -0.21413557932453059 0.036117146015252913 0 -0.21194536748129039 0.04560708167716019 0 -0.20126626258531971 0.022113710727211851 0 -0.21194536748129039 0.04560708167716019 0 -0.20126626258531971 0.022113710727211851 0 -0.20299785552204691 0.03791277291679699 0 -0.21194536748129039 0.04560708167716019 0 -0.20126626258531971 0.022113710727211851 0 -0.20299785552204691 0.03791277291679699 0 -0.21194536748129039 0.04560708167716019 0 -0.2068914117639086 0.054886498656898097 0 -0.21413557932453059 0.036117146015252913 0 -0.21586129079063299 0.02922273651805361 0 -0.22398589969579211 0.039704323924128523 0 -0.21413557932453059 0.036117146015252913 0 -0.2176865756804641 0.043759821886785649 0 -0.22398589969579211 0.039704323924128523 0 -0.21413557932453059 0.036117146015252913 0 -0.2176865756804641 0.043759821886785649 0 -0.21194536748129039 0.04560708167716019 0 -0.2176865756804641 0.043759821886785649 0 -0.21194536748129039 0.04560708167716019 0 -0.2198049161315784 0.052769124813519717 0 -0.21194536748129039 0.04560708167716019 0 -0.21323874007785801 0.048452421477045843 0 -0.2198049161315784 0.052769124813519717 0 -0.21323874007785801 0.048452421477045843 0 -0.2068914117639086 0.054886498656898097 0 -0.22262447237726121 0.069100452627108538 0 -0.21323874007785801 0.048452421477045843 0 -0.22262447237726121 0.069100452627108538 0 -0.21323874007785801 0.048452421477045843 0 -0.2198049161315784 0.052769124813519717 0 -0.22262447237726121 0.069100452627108538 0 -0.21194536748129039 0.04560708167716019 0 -0.21323874007785801 0.048452421477045843 0 -0.21194536748129039 0.04560708167716019 0 -0.21323874007785801 0.048452421477045843 0 -0.2068914117639086 0.054886498656898097 0 -0.21323874007785801 0.048452421477045843 0 -0.2068914117639086 0.054886498656898097 0 -0.190587157689349 -0.00137966022273641 0 -0.20126626258531971 0.022113710727211851 0 -0.190587157689349 -0.00137966022273641 0 -0.20126626258531971 0.022113710727211851 0 -0.2051230715147683 0.0065562007059215416 0 -0.190587157689349 -0.00137966022273641 0 -0.17688534875143 0.003201102554937572 0 -0.20126626258531971 0.022113710727211851 0 -0.20299785552204691 0.03791277291679699 0 -0.20126626258531971 0.022113710727211851 0 -0.19188838025766899 0.029043800605917831 0 -0.17688534875143 0.003201102554937572 0 -0.20126626258531971 0.022113710727211851 0 -0.19188838025766899 0.029043800605917831 0 -0.21413557932453059 0.036117146015252913 0 -0.20126626258531971 0.022113710727211851 0 -0.21586129079063299 0.02922273651805361 0 -0.20126626258531971 0.022113710727211851 0 -0.21586129079063299 0.02922273651805361 0 -0.21296871191865049 0.019219766645078119 0 -0.20126626258531971 0.022113710727211851 0 -0.21296871191865049 0.019219766645078119 0 -0.2051230715147683 0.0065562007059215416 0 -0.21296871191865049 0.019219766645078119 0 -0.2051230715147683 0.0065562007059215416 0 -0.21932443626563111 0.0093483204176848488 0 -0.2130566491954711 -0.002830905124650721 0 -0.2051230715147683 0.0065562007059215416 0 -0.21932443626563111 0.0093483204176848488 0 -0.22597886193081909 -0.0040648513555040719 0 -0.21932443626563111 0.0093483204176848488 0 -0.23782537117294611 0.0055356417309746766 0 -0.21932443626563111 0.0093483204176848488 0 -0.22756296617256999 0.024456427513014321 0 -0.23782537117294611 0.0055356417309746766 0 -0.2130566491954711 -0.002830905124650721 0 -0.22597886193081909 -0.0040648513555040719 0 -0.21932443626563111 0.0093483204176848488 0 -0.21296871191865049 0.019219766645078119 0 -0.21932443626563111 0.0093483204176848488 0 -0.22756296617256999 0.024456427513014321 0 -0.21586129079063299 0.02922273651805361 0 -0.22756296617256999 0.024456427513014321 0 -0.22398589969579211 0.039704323924128523 0 -0.21586129079063299 0.02922273651805361 0 -0.21296871191865049 0.019219766645078119 0 -0.22756296617256999 0.024456427513014321 0 -0.25129116539870022 0.020561246150236911 0 -0.22756296617256999 0.024456427513014321 0 -0.23782537117294611 0.0055356417309746766 0 -0.25129116539870022 0.020561246150236911 0 -0.22756296617256999 0.024456427513014321 0 -0.2411478713000007 0.037489183257708301 0 -0.2607855049462805 0.00063880291721445104 0 -0.25129116539870022 0.020561246150236911 0 -0.23782537117294611 0.0055356417309746766 0 -0.2243189841249188 0.056636850125158553 0 -0.2198049161315784 0.052769124813519717 0 -0.22262447237726121 0.069100452627108538 0 -0.23181472955739721 0.052554491251766242 0 -0.23725476655805131 0.064769176427640379 0 -0.22878968678922851 0.064158748929531342 0 -0.23181472955739721 0.052554491251766242 0 -0.2243189841249188 0.056636850125158553 0 -0.22878968678922851 0.064158748929531342 0 -0.2243189841249188 0.056636850125158553 0 -0.2198049161315784 0.052769124813519717 0 -0.22244918099395741 0.048741417751385713 0 -0.23181472955739721 0.052554491251766242 0 -0.22244918099395741 0.048741417751385713 0 -0.22398589969579211 0.039704323924128523 0 -0.23181472955739721 0.052554491251766242 0 -0.2243189841249188 0.056636850125158553 0 -0.22244918099395741 0.048741417751385713 0 -0.2176865756804641 0.043759821886785649 0 -0.2198049161315784 0.052769124813519717 0 -0.22244918099395741 0.048741417751385713 0 -0.23181472955739721 0.052554491251766242 0 -0.22398589969579211 0.039704323924128523 0 -0.2411478713000007 0.037489183257708301 0 -0.2176865756804641 0.043759821886785649 0 -0.22244918099395741 0.048741417751385713 0 -0.22398589969579211 0.039704323924128523 0 -0.22756296617256999 0.024456427513014321 0 -0.22398589969579211 0.039704323924128523 0 -0.2411478713000007 0.037489183257708301 0 -0.23181472955739721 0.052554491251766242 0 -0.2411478713000007 0.037489183257708301 0 -0.24903984103050511 0.052907275765899001 0 -0.23181472955739721 0.052554491251766242 0 -0.24903984103050511 0.052907275765899001 0 -0.23725476655805131 0.064769176427640379 0 -0.24903984103050511 0.052907275765899001 0 -0.2453757526417468 0.076572001760675037 0 -0.23725476655805131 0.064769176427640379 0 -0.2453757526417468 0.076572001760675037 0 -0.23725476655805131 0.064769176427640379 0 -0.23125382277137899 0.077653364430330288 0 -0.25375111804555178 0.094527748401868408 0 -0.2453757526417468 0.076572001760675037 0 -0.23026683637533391 0.095150630595521479 0 -0.2453757526417468 0.076572001760675037 0 -0.23125382277137899 0.077653364430330288 0 -0.23026683637533391 0.095150630595521479 0 -0.2185791240696211 0.075018564626209927 0 -0.23026683637533391 0.095150630595521479 0 -0.23125382277137899 0.077653364430330288 0 -0.2185791240696211 0.075018564626209927 0 -0.23026683637533391 0.095150630595521479 0 -0.2185791240696211 0.075018564626209927 0 -0.21649923078458511 0.085893075037664551 0 -0.23026683637533391 0.095150630595521479 0 -0.21649923078458511 0.085893075037664551 0 -0.21616894218930779 0.095693110152545002 0 -0.23026683637533391 0.095150630595521479 0 -0.23725476655805131 0.064769176427640379 0 -0.22878968678922851 0.064158748929531342 0 -0.23125382277137899 0.077653364430330288 0 -0.22878968678922851 0.064158748929531342 0 -0.23125382277137899 0.077653364430330288 0 -0.22262447237726121 0.069100452627108538 0 -0.23125382277137899 0.077653364430330288 0 -0.22262447237726121 0.069100452627108538 0 -0.2185791240696211 0.075018564626209927 0 -0.2243189841249188 0.056636850125158553 0 -0.22878968678922851 0.064158748929531342 0 -0.22262447237726121 0.069100452627108538 0 -0.2068914117639086 0.054886498656898097 0 -0.2185791240696211 0.075018564626209927 0 -0.2068914117639086 0.054886498656898097 0 -0.20796536750284089 0.069876615120757393 0 -0.2185791240696211 0.075018564626209927 0 -0.2068914117639086 0.054886498656898097 0 -0.22262447237726121 0.069100452627108538 0 -0.2185791240696211 0.075018564626209927 0 -0.20796536750284089 0.069876615120757393 0 -0.2185791240696211 0.075018564626209927 0 -0.21248221188654831 0.079104955373935304 0 -0.21248221188654831 0.079104955373935304 0 -0.21649923078458511 0.085893075037664551 0 -0.20688512518914601 0.0856315667111094 0 -0.2185791240696211 0.075018564626209927 0 -0.21248221188654831 0.079104955373935304 0 -0.21649923078458511 0.085893075037664551 0 -0.20796536750284089 0.069876615120757393 0 -0.21248221188654831 0.079104955373935304 0 -0.20688512518914601 0.0856315667111094 0 -0.21649923078458511 0.085893075037664551 0 -0.20688512518914601 0.0856315667111094 0 -0.21616894218930779 0.095693110152545002 0 -0.20796536750284089 0.069876615120757393 0 -0.20688512518914601 0.0856315667111094 0 -0.19116823412197889 0.087169343760437071 0 -0.20796536750284089 0.069876615120757393 0 -0.19116823412197889 0.087169343760437071 0 -0.20688512518914601 0.0856315667111094 0 -0.19116823412197889 0.087169343760437071 0 -0.19714778042614339 0.095829544310876716 0 -0.1874493620589934 0.074993807718737329 0 -0.2068914117639086 0.054886498656898097 0 -0.1874493620589934 0.074993807718737329 0 -0.20796536750284089 0.069876615120757393 0 -0.19116823412197889 0.087169343760437071 0 -0.1873059970245477 0.06262653709490526 0 -0.1874493620589934 0.074993807718737329 0 -0.2068914117639086 0.054886498656898097 0 -0.1874493620589934 0.074993807718737329 0 -0.2068914117639086 0.054886498656898097 0 -0.20796536750284089 0.069876615120757393 0 -0.20240144381454689 0.1114562188959974 0 -0.19392973621946949 0.12243907129303599 0 -0.1927919076273682 0.1111646418125876 0 -0.20240144381454689 0.1114562188959974 0 -0.19392973621946949 0.12243907129303599 0 -0.20836958148757109 0.1218355256302312 0 -0.18428503948925509 0.1152421967958225 0 -0.1927919076273682 0.1111646418125876 0 -0.1892931508311958 0.10215223385679829 0 -0.18428503948925509 0.1152421967958225 0 -0.19392973621946949 0.12243907129303599 0 -0.1927919076273682 0.1111646418125876 0 -0.1927919076273682 0.1111646418125876 0 -0.1892931508311958 0.10215223385679829 0 -0.19751471751863781 0.10419524893450061 0 -0.19116823412197889 0.087169343760437071 0 -0.1892931508311958 0.10215223385679829 0 -0.19714778042614339 0.095829544310876716 0 -0.1892931508311958 0.10215223385679829 0 -0.19714778042614339 0.095829544310876716 0 -0.19751471751863781 0.10419524893450061 0 -0.19714778042614339 0.095829544310876716 0 -0.19751471751863781 0.10419524893450061 0 -0.20593930489393469 0.1003736057962427 0 -0.20240144381454689 0.1114562188959974 0 -0.1927919076273682 0.1111646418125876 0 -0.19751471751863781 0.10419524893450061 0 -0.20240144381454689 0.1114562188959974 0 -0.19751471751863781 0.10419524893450061 0 -0.20593930489393469 0.1003736057962427 0 -0.20240144381454689 0.1114562188959974 0 -0.20593930489393469 0.1003736057962427 0 -0.21828104994897071 0.10921948865264471 0 -0.20688512518914601 0.0856315667111094 0 -0.19714778042614339 0.095829544310876716 0 -0.20593930489393469 0.1003736057962427 0 -0.20688512518914601 0.0856315667111094 0 -0.20593930489393469 0.1003736057962427 0 -0.21616894218930779 0.095693110152545002 0 -0.20593930489393469 0.1003736057962427 0 -0.21616894218930779 0.095693110152545002 0 -0.21828104994897071 0.10921948865264471 0 -0.21828104994897071 0.10921948865264471 0 -0.20836958148757109 0.1218355256302312 0 -0.22130512408205841 0.12946671220899 0 -0.20240144381454689 0.1114562188959974 0 -0.21828104994897071 0.10921948865264471 0 -0.20836958148757109 0.1218355256302312 0 -0.21828104994897071 0.10921948865264471 0 -0.23092181210988949 0.1146491146058823 0 -0.22130512408205841 0.12946671220899 0 -0.23092181210988949 0.1146491146058823 0 -0.23502707778407769 0.12838161955613839 0 -0.22130512408205841 0.12946671220899 0 -0.21828104994897071 0.10921948865264471 0 -0.23092181210988949 0.1146491146058823 0 -0.23026683637533391 0.095150630595521479 0 -0.21616894218930779 0.095693110152545002 0 -0.21828104994897071 0.10921948865264471 0 -0.23026683637533391 0.095150630595521479 0 -0.25375111804555178 0.094527748401868408 0 -0.23026683637533391 0.095150630595521479 0 -0.24525261816559929 0.11126096410833219 0 -0.23092181210988949 0.1146491146058823 0 -0.23026683637533391 0.095150630595521479 0 -0.24525261816559929 0.11126096410833219 0 -0.23092181210988949 0.1146491146058823 0 -0.24525261816559929 0.11126096410833219 0 -0.23502707778407769 0.12838161955613839 0 -0.24525261816559929 0.11126096410833219 0 -0.24617302204085631 0.1258717905653147 0 -0.23502707778407769 0.12838161955613839 0 -0.25439717260920541 0.12888327988199599 0 -0.24525261816559929 0.11126096410833219 0 -0.24617302204085631 0.1258717905653147 0 -0.25439717260920541 0.12888327988199599 0 -0.24617302204085631 0.1258717905653147 0 -0.24448463580397289 0.13363828948423859 0 -0.24448463580397289 0.13363828948423859 0 -0.2377213547410591 0.1418801495184977 0 -0.2486440826603166 0.14219924426065081 0 -0.25439717260920541 0.12888327988199599 0 -0.24448463580397289 0.13363828948423859 0 -0.2486440826603166 0.14219924426065081 0 -0.24448463580397289 0.13363828948423859 0 -0.23502707778407769 0.12838161955613839 0 -0.2377213547410591 0.1418801495184977 0 -0.24617302204085631 0.1258717905653147 0 -0.24448463580397289 0.13363828948423859 0 -0.23502707778407769 0.12838161955613839 0 -0.23502707778407769 0.12838161955613839 0 -0.22130512408205841 0.12946671220899 0 -0.2377213547410591 0.1418801495184977 0 -0.22130512408205841 0.12946671220899 0 -0.2377213547410591 0.1418801495184977 0 -0.22130512408205841 0.12946671220899 0 -0.2287504481564486 0.14944443016655781 0 -0.2377213547410591 0.1418801495184977 0 -0.2287504481564486 0.14944443016655781 0 -0.22162859829235959 0.16571619809320981 0 -0.2150366178970832 0.147862661141584 0 -0.22130512408205841 0.12946671220899 0 -0.2287504481564486 0.14944443016655781 0 -0.2150366178970832 0.147862661141584 0 -0.25413758540005887 0.15429358682800659 0 -0.2377213547410591 0.1418801495184977 0 -0.24971364218158221 0.15300239719937289 0 -0.25413758540005887 0.15429358682800659 0 -0.2377213547410591 0.1418801495184977 0 -0.2486440826603166 0.14219924426065081 0 -0.25413758540005887 0.15429358682800659 0 -0.2377213547410591 0.1418801495184977 0 -0.2287504481564486 0.14944443016655781 0 -0.24012424293660861 0.15131561192214599 0 -0.2366867509895226 0.16042524811491951 0 -0.24012424293660861 0.15131561192214599 0 -0.24971364218158221 0.15300239719937289 0 -0.2366867509895226 0.16042524811491951 0 -0.2287504481564486 0.14944443016655781 0 -0.24012424293660861 0.15131561192214599 0 -0.2377213547410591 0.1418801495184977 0 -0.24012424293660861 0.15131561192214599 0 -0.2377213547410591 0.1418801495184977 0 -0.24971364218158221 0.15300239719937289 0 -0.25174490368668612 0.1551342981366309 0 -0.24971364218158221 0.15300239719937289 0 -0.2366867509895226 0.16042524811491951 0 -0.25174490368668612 0.1551342981366309 0 -0.2366867509895226 0.16042524811491951 0 -0.24748315133092821 0.1734738972539549 0 -0.25174490368668612 0.1551342981366309 0 -0.2366867509895226 0.16042524811491951 0 -0.2366867509895226 0.16042524811491951 0 -0.24748315133092821 0.1734738972539549 0 -0.23280051779674379 0.17357357671027701 0 -0.2568718313610715 0.19166486629454979 0 -0.24748315133092821 0.1734738972539549 0 -0.2373260525479732 0.18762385591881861 0 -0.24748315133092821 0.1734738972539549 0 -0.23280051779674379 0.17357357671027701 0 -0.2373260525479732 0.18762385591881861 0 -0.23280051779674379 0.17357357671027701 0 -0.22087803582293539 0.18062868417048189 0 -0.2373260525479732 0.18762385591881861 0 -0.23280051779674379 0.17357357671027701 0 -0.22087803582293539 0.18062868417048189 0 -0.22162859829235959 0.16571619809320981 0 -0.2287504481564486 0.14944443016655781 0 -0.2366867509895226 0.16042524811491951 0 -0.22162859829235959 0.16571619809320981 0 -0.2366867509895226 0.16042524811491951 0 -0.22162859829235959 0.16571619809320981 0 -0.2366867509895226 0.16042524811491951 0 -0.23280051779674379 0.17357357671027701 0 -0.22162859829235959 0.16571619809320981 0 -0.22162859829235959 0.16571619809320981 0 -0.20665400705571491 0.17360880163893791 0 -0.20115862168678961 0.157903969633792 0 -0.22162859829235959 0.16571619809320981 0 -0.20115862168678961 0.157903969633792 0 -0.2150366178970832 0.147862661141584 0 -0.22087803582293539 0.18062868417048189 0 -0.20665400705571491 0.17360880163893791 0 -0.20478857954714591 0.18964321378043719 0 -0.22087803582293539 0.18062868417048189 0 -0.22162859829235959 0.16571619809320981 0 -0.20665400705571491 0.17360880163893791 0 -0.20665400705571491 0.17360880163893791 0 -0.20478857954714591 0.18964321378043719 0 -0.18230947322199739 0.17826023061941251 0 -0.20665400705571491 0.17360880163893791 0 -0.20115862168678961 0.157903969633792 0 -0.18230947322199739 0.17826023061941251 0 -0.20115862168678961 0.157903969633792 0 -0.17966334906170439 0.1536608445463141 0 -0.18230947322199739 0.17826023061941251 0 -0.20115862168678961 0.157903969633792 0 -0.20064876510850169 0.13746877186339049 0 -0.17966334906170439 0.1536608445463141 0 -0.19392973621946949 0.12243907129303599 0 -0.20836958148757109 0.1218355256302312 0 -0.20064876510850169 0.13746877186339049 0 -0.19392973621946949 0.12243907129303599 0 -0.20064876510850169 0.13746877186339049 0 -0.1770172249014115 0.12906145847321571 0 -0.20836958148757109 0.1218355256302312 0 -0.22130512408205841 0.12946671220899 0 -0.20064876510850169 0.13746877186339049 0 -0.22130512408205841 0.12946671220899 0 -0.20064876510850169 0.13746877186339049 0 -0.2150366178970832 0.147862661141584 0 -0.20115862168678961 0.157903969633792 0 -0.20064876510850169 0.13746877186339049 0 -0.2150366178970832 0.147862661141584 0 -0.22232590030571209 0.25107854409520441 0 -0.21131652964921041 0.25931235235663941 0 -0.22650163021983069 0.2367631903359429 0 -0.21131652964921041 0.25931235235663941 0 -0.22650163021983069 0.2367631903359429 0 -0.22232590030571209 0.25107854409520441 0 -0.22650163021983069 0.2367631903359429 0 -0.2373347038430757 0.24824627280118811 0 -0.26051867017541969 0.23650018471532899 0 -0.2373347038430757 0.24824627280118811 0 -0.24449939204326501 0.2311208205319209 0 -0.26051867017541969 0.23650018471532899 0 -0.2373347038430757 0.24824627280118811 0 -0.26051867017541969 0.23650018471532899 0 -0.24757807892987871 0.25415496751057792 0 -0.2373347038430757 0.24824627280118811 0 -0.22650163021983069 0.2367631903359429 0 -0.2373347038430757 0.24824627280118811 0 -0.24449939204326501 0.2311208205319209 0 -0.22650163021983069 0.2367631903359429 0 -0.24449939204326501 0.2311208205319209 0 -0.24168673079045119 0.2142140283152463 0 -0.22650163021983069 0.2367631903359429 0 -0.24168673079045119 0.2142140283152463 0 -0.21480580304456071 0.2267460989067229 0 -0.22650163021983069 0.2367631903359429 0 -0.24168673079045119 0.2142140283152463 0 -0.24168673079045119 0.2142140283152463 0 -0.20973384937971851 0.2089125225728348 0 -0.21480580304456071 0.2267460989067229 0 -0.24168673079045119 0.2142140283152463 0 -0.22272707816526249 0.19561045547163469 0 -0.20973384937971851 0.2089125225728348 0 -0.2568718313610715 0.19166486629454979 0 -0.24168673079045119 0.2142140283152463 0 -0.2568718313610715 0.19166486629454979 0 -0.24168673079045119 0.2142140283152463 0 -0.2373260525479732 0.18762385591881861 0 -0.22087803582293539 0.18062868417048189 0 -0.2373260525479732 0.18762385591881861 0 -0.22272707816526249 0.19561045547163469 0 -0.24168673079045119 0.2142140283152463 0 -0.2373260525479732 0.18762385591881861 0 -0.22272707816526249 0.19561045547163469 0 -0.22272707816526249 0.19561045547163469 0 -0.20478857954714591 0.18964321378043719 0 -0.20973384937971851 0.2089125225728348 0 -0.22087803582293539 0.18062868417048189 0 -0.22272707816526249 0.19561045547163469 0 -0.20478857954714591 0.18964321378043719 0 -0.20478857954714591 0.18964321378043719 0 -0.20973384937971851 0.2089125225728348 0 -0.18495559738229039 0.20285961669251101 0 -0.20478857954714591 0.18964321378043719 0 -0.18495559738229039 0.20285961669251101 0 -0.18230947322199739 0.17826023061941251 0 -0.20973384937971851 0.2089125225728348 0 -0.18760172154258331 0.2274590027656094 0 -0.18495559738229039 0.20285961669251101 0 -0.20973384937971851 0.2089125225728348 0 -0.21480580304456071 0.2267460989067229 0 -0.18760172154258331 0.2274590027656094 0 -0.22650163021983069 0.2367631903359429 0 -0.21480580304456071 0.2267460989067229 0 -0.21412583758549131 0.23709920405521981 0 -0.21480580304456071 0.2267460989067229 0 -0.2039666901736055 0.23871796638497489 0 -0.21412583758549131 0.23709920405521981 0 -0.21480580304456071 0.2267460989067229 0 -0.18760172154258331 0.2274590027656094 0 -0.2039666901736055 0.23871796638497489 0 -0.20152908807961509 0.25111309972324219 0 -0.18428387362389259 0.25546511185981913 0 -0.18994934039951339 0.24340848695695841 0 -0.18760172154258331 0.2274590027656094 0 -0.18994934039951339 0.24340848695695841 0 -0.2039666901736055 0.23871796638497489 0 -0.20152908807961509 0.25111309972324219 0 -0.18994934039951339 0.24340848695695841 0 -0.2039666901736055 0.23871796638497489 0 -0.21131652964921041 0.25931235235663941 0 -0.22650163021983069 0.2367631903359429 0 -0.2112292269039682 0.2461695605932385 0 -0.20152908807961509 0.25111309972324219 0 -0.2039666901736055 0.23871796638497489 0 -0.2112292269039682 0.2461695605932385 0 -0.2039666901736055 0.23871796638497489 0 -0.21412583758549131 0.23709920405521981 0 -0.2112292269039682 0.2461695605932385 0 -0.22650163021983069 0.2367631903359429 0 -0.21412583758549131 0.23709920405521981 0 -0.2112292269039682 0.2461695605932385 0 -0.15419829829953699 0.25502015400401928 0 -0.17236532857787029 0.2442872540511461 0 -0.15406729051692289 0.23982420852742201 0 -0.17236532857787029 0.2442872540511461 0 -0.1672179344623361 0.22352465025686871 0 -0.15406729051692289 0.23982420852742201 0 -0.18428387362389259 0.25546511185981913 0 -0.18994934039951339 0.24340848695695841 0 -0.17236532857787029 0.2442872540511461 0 -0.18760172154258331 0.2274590027656094 0 -0.18994934039951339 0.24340848695695841 0 -0.17236532857787029 0.2442872540511461 0 -0.18760172154258331 0.2274590027656094 0 -0.17236532857787029 0.2442872540511461 0 -0.1672179344623361 0.22352465025686871 0 -0.1672179344623361 0.22352465025686871 0 -0.14940271889340559 0.22885238006222389 0 -0.15406729051692289 0.23982420852742201 0 -0.1672179344623361 0.22352465025686871 0 -0.15659658944234631 0.20755425600100241 0 -0.14840553843431539 0.21669581724510489 0 -0.1672179344623361 0.22352465025686871 0 -0.15659658944234631 0.20755425600100241 0 -0.16868219350593369 0.19701430580272961 0 -0.18760172154258331 0.2274590027656094 0 -0.1672179344623361 0.22352465025686871 0 -0.18495559738229039 0.20285961669251101 0 -0.1672179344623361 0.22352465025686871 0 -0.18495559738229039 0.20285961669251101 0 -0.16868219350593369 0.19701430580272961 0 -0.18760172154258331 0.2274590027656094 0 -0.18495559738229039 0.20285961669251101 0 -0.18495559738229039 0.20285961669251101 0 -0.16868219350593369 0.19701430580272961 0 -0.18230947322199739 0.17826023061941251 0 -0.18495559738229039 0.20285961669251101 0 -0.18230947322199739 0.17826023061941251 0 -0.15659658944234631 0.20755425600100241 0 -0.16868219350593369 0.19701430580272961 0 -0.15509711204566851 0.19004338757181441 0 -0.15509711204566851 0.19004338757181441 0 -0.14394576787424371 0.20039792659850461 0 -0.14409418591065259 0.17716493739833011 0 -0.15659658944234631 0.20755425600100241 0 -0.15509711204566851 0.19004338757181441 0 -0.14394576787424371 0.20039792659850461 0 -0.14394576787424371 0.20039792659850461 0 -0.12894069462526389 0.20470962882936961 0 -0.12329874241824799 0.1851460031110668 0 -0.14394576787424371 0.20039792659850461 0 -0.14409418591065259 0.17716493739833011 0 -0.12329874241824799 0.1851460031110668 0 -0.14394576787424371 0.20039792659850461 0 -0.12894069462526389 0.20470962882936961 0 -0.13601000379895989 0.21346026529659889 0 -0.12894069462526389 0.20470962882936961 0 -0.12586000430989219 0.21422662681993571 0 -0.13601000379895989 0.21346026529659889 0 -0.12586000430989219 0.21422662681993571 0 -0.13601000379895989 0.21346026529659889 0 -0.12982440231429049 0.224410738225337 0 -0.15659658944234631 0.20755425600100241 0 -0.14394576787424371 0.20039792659850461 0 -0.14840553843431539 0.21669581724510489 0 -0.13601000379895989 0.21346026529659889 0 -0.14840553843431539 0.21669581724510489 0 -0.1390385233030213 0.22528425809453831 0 -0.14394576787424371 0.20039792659850461 0 -0.13601000379895989 0.21346026529659889 0 -0.14840553843431539 0.21669581724510489 0 -0.1672179344623361 0.22352465025686871 0 -0.14840553843431539 0.21669581724510489 0 -0.14940271889340559 0.22885238006222389 0 -0.14940271889340559 0.22885238006222389 0 -0.1390385233030213 0.22528425809453831 0 -0.14047601260271059 0.23615454446577491 0 -0.14840553843431539 0.21669581724510489 0 -0.14940271889340559 0.22885238006222389 0 -0.1390385233030213 0.22528425809453831 0 -0.13601000379895989 0.21346026529659889 0 -0.1390385233030213 0.22528425809453831 0 -0.12982440231429049 0.224410738225337 0 -0.12586000430989219 0.21422662681993571 0 -0.12982440231429049 0.224410738225337 0 -0.1217932033846835 0.22226997182849559 0 -0.12982440231429049 0.224410738225337 0 -0.13064122854224131 0.23314422492879711 0 -0.1217625776044898 0.23346719058130999 0 -0.1390385233030213 0.22528425809453831 0 -0.12982440231429049 0.224410738225337 0 -0.13064122854224131 0.23314422492879711 0 -0.1390385233030213 0.22528425809453831 0 -0.13064122854224131 0.23314422492879711 0 -0.14047601260271059 0.23615454446577491 0 -0.13064122854224131 0.23314422492879711 0 -0.14047601260271059 0.23615454446577491 0 -0.12851472692959731 0.2425667689156287 0 -0.14047601260271059 0.23615454446577491 0 -0.12851472692959731 0.2425667689156287 0 -0.14119158743107549 0.24725542626603969 0 -0.13064122854224131 0.23314422492879711 0 -0.12851472692959731 0.2425667689156287 0 -0.1217625776044898 0.23346719058130999 0 -0.12899091796523199 0.25262675709639998 0 -0.12851472692959731 0.2425667689156287 0 -0.14119158743107549 0.24725542626603969 0 -0.14940271889340559 0.22885238006222389 0 -0.14047601260271059 0.23615454446577491 0 -0.15406729051692289 0.23982420852742201 0 -0.14047601260271059 0.23615454446577491 0 -0.14119158743107549 0.24725542626603969 0 -0.15406729051692289 0.23982420852742201 0 -0.15419829829953699 0.25502015400401928 0 -0.14119158743107549 0.24725542626603969 0 -0.15406729051692289 0.23982420852742201 0 -0.16456542979172581 0.1433875603389097 0 -0.1623656450481388 0.15572684575604401 0 -0.17966334906170439 0.1536608445463141 0 -0.16456542979172581 0.1433875603389097 0 -0.1571749156246319 0.13510517297926081 0 -0.15390938109669469 0.14559232980249151 0 -0.16456542979172581 0.1433875603389097 0 -0.1623656450481388 0.15572684575604401 0 -0.15390938109669469 0.14559232980249151 0 -0.1574130965215077 0.121920418332784 0 -0.1571749156246319 0.13510517297926081 0 -0.1770172249014115 0.12906145847321571 0 -0.16456542979172581 0.1433875603389097 0 -0.1571749156246319 0.13510517297926081 0 -0.1770172249014115 0.12906145847321571 0 -0.20064876510850169 0.13746877186339049 0 -0.1770172249014115 0.12906145847321571 0 -0.17966334906170439 0.1536608445463141 0 -0.16456542979172581 0.1433875603389097 0 -0.1770172249014115 0.12906145847321571 0 -0.17966334906170439 0.1536608445463141 0 -0.1770172249014115 0.12906145847321571 0 -0.17966334906170439 0.1536608445463141 0 -0.17966334906170439 0.1536608445463141 0 -0.18230947322199739 0.17826023061941251 0 -0.16286162248391969 0.17204385538445491 0 -0.17966334906170439 0.1536608445463141 0 -0.18230947322199739 0.17826023061941251 0 -0.16868219350593369 0.19701430580272961 0 -0.18230947322199739 0.17826023061941251 0 -0.16286162248391969 0.17204385538445491 0 -0.16868219350593369 0.19701430580272961 0 -0.15509711204566851 0.19004338757181441 0 -0.16286162248391969 0.17204385538445491 0 -0.1623656450481388 0.15572684575604401 0 -0.16286162248391969 0.17204385538445491 0 -0.14856966679460279 0.1556892487737534 0 -0.1623656450481388 0.15572684575604401 0 -0.17966334906170439 0.1536608445463141 0 -0.16286162248391969 0.17204385538445491 0 -0.14409418591065259 0.17716493739833011 0 -0.130792203847233 0.159669202950387 0 -0.14856966679460279 0.1556892487737534 0 -0.16286162248391969 0.17204385538445491 0 -0.14409418591065259 0.17716493739833011 0 -0.14856966679460279 0.1556892487737534 0 -0.15509711204566851 0.19004338757181441 0 -0.16286162248391969 0.17204385538445491 0 -0.14409418591065259 0.17716493739833011 0 -0.130792203847233 0.159669202950387 0 -0.12329874241824799 0.1851460031110668 0 -0.14409418591065259 0.17716493739833011 0 -0.130792203847233 0.159669202950387 0 -0.12329874241824799 0.1851460031110668 0 -0.130792203847233 0.159669202950387 0 -0.14856966679460279 0.1556892487737534 0 -0.14045509230189859 0.13937876426545129 0 -0.130792203847233 0.159669202950387 0 -0.13828566527621791 0.13419240278970729 0 -0.130792203847233 0.159669202950387 0 -0.13828566527621791 0.13419240278970729 0 -0.14045509230189859 0.13937876426545129 0 -0.130792203847233 0.159669202950387 0 -0.12743240025892 0.13931597453112979 0 -0.1186923278931651 0.14405049917319709 0 -0.130792203847233 0.159669202950387 0 -0.13828566527621791 0.13419240278970729 0 -0.12743240025892 0.13931597453112979 0 -0.15390938109669469 0.14559232980249151 0 -0.14856966679460279 0.1556892487737534 0 -0.14045509230189859 0.13937876426545129 0 -0.1623656450481388 0.15572684575604401 0 -0.15390938109669469 0.14559232980249151 0 -0.14856966679460279 0.1556892487737534 0 -0.1485652626491604 0.1152084258424133 0 -0.14690506633994299 0.12658457755305799 0 -0.13828566527621791 0.13419240278970729 0 -0.1574130965215077 0.121920418332784 0 -0.14045509230189859 0.13937876426545129 0 -0.1571749156246319 0.13510517297926081 0 -0.15390938109669469 0.14559232980249151 0 -0.14045509230189859 0.13937876426545129 0 -0.1574130965215077 0.121920418332784 0 -0.1571749156246319 0.13510517297926081 0 -0.14045509230189859 0.13937876426545129 0 -0.1574130965215077 0.121920418332784 0 -0.14690506633994299 0.12658457755305799 0 -0.14045509230189859 0.13937876426545129 0 -0.14690506633994299 0.12658457755305799 0 -0.13828566527621791 0.13419240278970729 0 -0.14045509230189859 0.13937876426545129 0 -0.13160861736707621 0.1201988918887333 0 -0.13828566527621791 0.13419240278970729 0 -0.12877609504977919 0.12916642634389611 0 -0.13828566527621791 0.13419240278970729 0 -0.12743240025892 0.13931597453112979 0 -0.12877609504977919 0.12916642634389611 0 -0.12743240025892 0.13931597453112979 0 -0.12877609504977919 0.12916642634389611 0 -0.1213053689974585 0.13131229415246731 0 -0.1213053689974585 0.13131229415246731 0 -0.12368957019981459 0.1215474108703499 0 -0.1154609957625652 0.1226380427041541 0 -0.12877609504977919 0.12916642634389611 0 -0.1213053689974585 0.13131229415246731 0 -0.12368957019981459 0.1215474108703499 0 -0.12743240025892 0.13931597453112979 0 -0.1213053689974585 0.13131229415246731 0 -0.1186923278931651 0.14405049917319709 0 -0.1213053689974585 0.13131229415246731 0 -0.1114249296411582 0.13420452456421039 0 -0.1186923278931651 0.14405049917319709 0 -0.1114249296411582 0.13420452456421039 0 -0.1067718510813319 0.12578028684868481 0 -0.1154609957625652 0.1226380427041541 0 -0.1213053689974585 0.13131229415246731 0 -0.1114249296411582 0.13420452456421039 0 -0.1154609957625652 0.1226380427041541 0 -0.1114249296411582 0.13420452456421039 0 -0.1067718510813319 0.12578028684868481 0 -0.100810313157701 0.1337687775272885 0 -0.100810313157701 0.1337687775272885 0 -0.090026886846177073 0.15284436428102791 0 -0.090963503375098065 0.1249099654998229 0 -0.1067718510813319 0.12578028684868481 0 -0.100810313157701 0.1337687775272885 0 -0.10086787344784789 0.1219944755899523 0 -0.1114249296411582 0.13420452456421039 0 -0.100810313157701 0.1337687775272885 0 -0.1065920181557682 0.14395370731755319 0 -0.100810313157701 0.1337687775272885 0 -0.090963503375098065 0.1249099654998229 0 -0.10086787344784789 0.1219944755899523 0 -0.1065920181557682 0.14395370731755319 0 -0.1147105725671147 0.15549144866583631 0 -0.090026886846177073 0.15284436428102791 0 -0.100810313157701 0.1337687775272885 0 -0.1065920181557682 0.14395370731755319 0 -0.090026886846177073 0.15284436428102791 0 -0.130792203847233 0.159669202950387 0 -0.1147105725671147 0.15549144866583631 0 -0.1186923278931651 0.14405049917319709 0 -0.1065920181557682 0.14395370731755319 0 -0.1147105725671147 0.15549144866583631 0 -0.1186923278931651 0.14405049917319709 0 -0.1114249296411582 0.13420452456421039 0 -0.1065920181557682 0.14395370731755319 0 -0.1186923278931651 0.14405049917319709 0 -0.130792203847233 0.159669202950387 0 -0.12329874241824799 0.1851460031110668 0 -0.10894059177717939 0.1700951295750778 0 -0.130792203847233 0.159669202950387 0 -0.1147105725671147 0.15549144866583631 0 -0.10894059177717939 0.1700951295750778 0 -0.12329874241824799 0.1851460031110668 0 -0.10894059177717939 0.1700951295750778 0 -0.1069079510970186 0.18842846190194409 0 -0.10894059177717939 0.1700951295750778 0 -0.089090270317256082 0.18077876306223301 0 -0.1069079510970186 0.18842846190194409 0 -0.1147105725671147 0.15549144866583631 0 -0.10894059177717939 0.1700951295750778 0 -0.090026886846177073 0.15284436428102791 0 -0.10894059177717939 0.1700951295750778 0 -0.089090270317256082 0.18077876306223301 0 -0.090026886846177073 0.15284436428102791 0 -0.089090270317256082 0.18077876306223301 0 -0.090026886846177073 0.15284436428102791 0 -0.089090270317256082 0.18077876306223301 0 -0.076339318430040021 0.16606728425161851 0 -0.090026886846177073 0.15284436428102791 0 -0.089090270317256082 0.18077876306223301 0 -0.06755110841404538 0.1836278260537853 0 -0.076339318430040021 0.16606728425161851 0 -0.06755110841404538 0.1836278260537853 0 -0.076339318430040021 0.16606728425161851 0 -0.05996351048488175 0.16665465055662859 0 -0.076339318430040021 0.16606728425161851 0 -0.070539569470942851 0.14567699181227259 0 -0.05996351048488175 0.16665465055662859 0 -0.070539569470942851 0.14567699181227259 0 -0.067001042063841609 0.13000959117457589 0 -0.055044525791777509 0.14990691383680971 0 -0.067001042063841609 0.13000959117457589 0 -0.078536728051455756 0.13174738041815851 0 -0.084549653919369208 0.1161016266772671 0 -0.070539569470942851 0.14567699181227259 0 -0.067001042063841609 0.13000959117457589 0 -0.078536728051455756 0.13174738041815851 0 -0.090026886846177073 0.15284436428102791 0 -0.090963503375098065 0.1249099654998229 0 -0.078536728051455756 0.13174738041815851 0 -0.090026886846177073 0.15284436428102791 0 -0.090963503375098065 0.1249099654998229 0 -0.070539569470942851 0.14567699181227259 0 -0.078536728051455756 0.13174738041815851 0 -0.090026886846177073 0.15284436428102791 0 -0.076339318430040021 0.16606728425161851 0 -0.070539569470942851 0.14567699181227259 0 -0.090026886846177073 0.15284436428102791 0 -0.094857943620296925 0.24992964971406839 0 -0.1083118195602784 0.23609960343242661 0 -0.091016627331467065 0.23362038793509801 0 -0.1027298083814062 0.25507771984051508 0 -0.1083118195602784 0.23609960343242661 0 -0.1027298083814062 0.25507771984051508 0 -0.094857943620296925 0.24992964971406839 0 -0.1083118195602784 0.23609960343242661 0 -0.094857943620296925 0.24992964971406839 0 -0.1083118195602784 0.23609960343242661 0 -0.1027298083814062 0.25507771984051508 0 -0.1083118195602784 0.23609960343242661 0 -0.1172822660787136 0.24481434326137 0 -0.12899091796523199 0.25262675709639998 0 -0.12851472692959731 0.2425667689156287 0 -0.1172822660787136 0.24481434326137 0 -0.12851472692959731 0.2425667689156287 0 -0.1172822660787136 0.24481434326137 0 -0.1217625776044898 0.23346719058130999 0 -0.1172822660787136 0.24481434326137 0 -0.1155671452623076 0.23723759515705109 0 -0.1217625776044898 0.23346719058130999 0 -0.1155671452623076 0.23723759515705109 0 -0.11651870948490491 0.23252582368529739 0 -0.1217625776044898 0.23346719058130999 0 -0.1083118195602784 0.23609960343242661 0 -0.1172822660787136 0.24481434326137 0 -0.1155671452623076 0.23723759515705109 0 -0.1083118195602784 0.23609960343242661 0 -0.1155671452623076 0.23723759515705109 0 -0.1113963051273211 0.2329288756557211 0 -0.1083118195602784 0.23609960343242661 0 -0.1113963051273211 0.2329288756557211 0 -0.1217932033846835 0.22226997182849559 0 -0.11734880994550111 0.22646963334710729 0 -0.115805280989263 0.21062280327174671 0 -0.1083118195602784 0.23609960343242661 0 -0.1113963051273211 0.2329288756557211 0 -0.115805280989263 0.21062280327174671 0 -0.1083118195602784 0.23609960343242661 0 -0.115805280989263 0.21062280327174671 0 -0.1113963051273211 0.2329288756557211 0 -0.11734880994550111 0.22646963334710729 0 -0.115805280989263 0.21062280327174671 0 -0.1113963051273211 0.2329288756557211 0 -0.11651870948490491 0.23252582368529739 0 -0.11734880994550111 0.22646963334710729 0 -0.1155671452623076 0.23723759515705109 0 -0.1113963051273211 0.2329288756557211 0 -0.11651870948490491 0.23252582368529739 0 -0.1217625776044898 0.23346719058130999 0 -0.1217932033846835 0.22226997182849559 0 -0.11734880994550111 0.22646963334710729 0 -0.12982440231429049 0.224410738225337 0 -0.1217625776044898 0.23346719058130999 0 -0.1217932033846835 0.22226997182849559 0 -0.11651870948490491 0.23252582368529739 0 -0.1217625776044898 0.23346719058130999 0 -0.11734880994550111 0.22646963334710729 0 -0.1083118195602784 0.23609960343242661 0 -0.1001918947192591 0.2292358144929133 0 -0.091016627331467065 0.23362038793509801 0 -0.1083118195602784 0.23609960343242661 0 -0.1038002029012699 0.22092161536288141 0 -0.115805280989263 0.21062280327174671 0 -0.1083118195602784 0.23609960343242661 0 -0.1038002029012699 0.22092161536288141 0 -0.1001918947192591 0.2292358144929133 0 -0.1001918947192591 0.2292358144929133 0 -0.094209920740919537 0.22341445776807381 0 -0.091016627331467065 0.23362038793509801 0 -0.1038002029012699 0.22092161536288141 0 -0.094209920740919537 0.22341445776807381 0 -0.097197620676196556 0.2143176458902841 0 -0.1038002029012699 0.22092161536288141 0 -0.1001918947192591 0.2292358144929133 0 -0.094209920740919537 0.22341445776807381 0 -0.10308363684700669 0.20407944979533271 0 -0.08815365378833509 0.20871316184343811 0 -0.097197620676196556 0.2143176458902841 0 -0.10308363684700669 0.20407944979533271 0 -0.08815365378833509 0.20871316184343811 0 -0.097197620676196556 0.2143176458902841 0 -0.10308363684700669 0.20407944979533271 0 -0.104971685353434 0.2124853785800612 0 -0.10308363684700669 0.20407944979533271 0 -0.104971685353434 0.2124853785800612 0 -0.115805280989263 0.21062280327174671 0 -0.1038002029012699 0.22092161536288141 0 -0.104971685353434 0.2124853785800612 0 -0.115805280989263 0.21062280327174671 0 -0.1038002029012699 0.22092161536288141 0 -0.097197620676196556 0.2143176458902841 0 -0.104971685353434 0.2124853785800612 0 -0.12586000430989219 0.21422662681993571 0 -0.1217932033846835 0.22226997182849559 0 -0.115805280989263 0.21062280327174671 0 -0.12894069462526389 0.20470962882936961 0 -0.12586000430989219 0.21422662681993571 0 -0.115805280989263 0.21062280327174671 0 -0.12894069462526389 0.20470962882936961 0 -0.12329874241824799 0.1851460031110668 0 -0.115805280989263 0.21062280327174671 0 -0.12329874241824799 0.1851460031110668 0 -0.115805280989263 0.21062280327174671 0 -0.1069079510970186 0.18842846190194409 0 -0.12329874241824799 0.1851460031110668 0 -0.115805280989263 0.21062280327174671 0 -0.089090270317256082 0.18077876306223301 0 -0.10308363684700669 0.20407944979533271 0 -0.1069079510970186 0.18842846190194409 0 -0.10308363684700669 0.20407944979533271 0 -0.115805280989263 0.21062280327174671 0 -0.1069079510970186 0.18842846190194409 0 -0.089090270317256082 0.18077876306223301 0 -0.08815365378833509 0.20871316184343811 0 -0.089090270317256082 0.18077876306223301 0 -0.071924902111891426 0.1996794207838849 0 -0.08815365378833509 0.20871316184343811 0 -0.089090270317256082 0.18077876306223301 0 -0.10308363684700669 0.20407944979533271 0 -0.08815365378833509 0.20871316184343811 0 -0.089090270317256082 0.18077876306223301 0 -0.06755110841404538 0.1836278260537853 0 -0.071924902111891426 0.1996794207838849 0 -0.06755110841404538 0.1836278260537853 0 -0.071924902111891426 0.1996794207838849 0 -0.049706653044368929 0.19846551461700709 0 -0.071924902111891426 0.1996794207838849 0 -0.063356749972718188 0.2164091995090269 0 -0.08815365378833509 0.20871316184343811 0 -0.063356749972718188 0.2164091995090269 0 -0.08815365378833509 0.20871316184343811 0 -0.063356749972718188 0.2164091995090269 0 -0.08815365378833509 0.20871316184343811 0 -0.087906557874861152 0.21608274755012921 0 -0.097197620676196556 0.2143176458902841 0 -0.08815365378833509 0.20871316184343811 0 -0.087906557874861152 0.21608274755012921 0 -0.094209920740919537 0.22341445776807381 0 -0.097197620676196556 0.2143176458902841 0 -0.087906557874861152 0.21608274755012921 0 -0.08815365378833509 0.20871316184343811 0 -0.087906557874861152 0.21608274755012921 0 -0.094209920740919537 0.22341445776807381 0 -0.087906557874861152 0.21608274755012921 0 -0.087227573737548497 0.2250770203502849 0 -0.094209920740919537 0.22341445776807381 0 -0.087227573737548497 0.2250770203502849 0 -0.091016627331467065 0.23362038793509801 0 -0.087227573737548497 0.2250770203502849 0 -0.091016627331467065 0.23362038793509801 0 -0.075777189002946208 0.22719048814783871 0 -0.087906557874861152 0.21608274755012921 0 -0.087227573737548497 0.2250770203502849 0 -0.075777189002946208 0.22719048814783871 0 -0.063356749972718188 0.2164091995090269 0 -0.087906557874861152 0.21608274755012921 0 -0.075777189002946208 0.22719048814783871 0 -0.063356749972718188 0.2164091995090269 0 -0.075777189002946208 0.22719048814783871 0 -0.056388353266633148 0.23472867514359561 0 -0.064426353371261583 0.25265654998110221 0 -0.078058318393383508 0.24360280257351549 0 -0.056388353266633148 0.23472867514359561 0 -0.075777189002946208 0.22719048814783871 0 -0.078058318393383508 0.24360280257351549 0 -0.056388353266633148 0.23472867514359561 0 -0.091016627331467065 0.23362038793509801 0 -0.075777189002946208 0.22719048814783871 0 -0.078058318393383508 0.24360280257351549 0 -0.094857943620296925 0.24992964971406839 0 -0.091016627331467065 0.23362038793509801 0 -0.078058318393383508 0.24360280257351549 0 -0.039190605180454148 0.25174799438979628 0 -0.03633355263504813 0.2399426599350992 0 -0.028312989969666091 0.249723101879823 0 -0.03633355263504813 0.2399426599350992 0 -0.028312989969666091 0.249723101879823 0 -0.03633355263504813 0.2399426599350992 0 -0.043925908261314081 0.23515556467621559 0 -0.034656184915949621 0.23381457714710319 0 -0.03633355263504813 0.2399426599350992 0 -0.034656184915949621 0.23381457714710319 0 -0.0277910861090911 0.23907684227268619 0 -0.03633355263504813 0.2399426599350992 0 -0.043925908261314081 0.23515556467621559 0 -0.049049525272567708 0.24961140908110199 0 -0.039190605180454148 0.25174799438979628 0 -0.03633355263504813 0.2399426599350992 0 -0.049049525272567708 0.24961140908110199 0 -0.064426353371261583 0.25265654998110221 0 -0.049049525272567708 0.24961140908110199 0 -0.056388353266633148 0.23472867514359561 0 -0.043925908261314081 0.23515556467621559 0 -0.049049525272567708 0.24961140908110199 0 -0.056388353266633148 0.23472867514359561 0 -0.063356749972718188 0.2164091995090269 0 -0.038559846157101327 0.22410523717461561 0 -0.063356749972718188 0.2164091995090269 0 -0.056388353266633148 0.23472867514359561 0 -0.038559846157101327 0.22410523717461561 0 -0.043925908261314081 0.23515556467621559 0 -0.056388353266633148 0.23472867514359561 0 -0.038559846157101327 0.22410523717461561 0 -0.043925908261314081 0.23515556467621559 0 -0.034656184915949621 0.23381457714710319 0 -0.038559846157101327 0.22410523717461561 0 -0.034656184915949621 0.23381457714710319 0 -0.038559846157101327 0.22410523717461561 0 -0.02570343161317877 0.232131068156157 0 -0.038559846157101327 0.22410523717461561 0 -0.031862197674692477 0.21330320318022891 0 -0.0245506821195739 0.22433765173462511 0 -0.031862197674692477 0.21330320318022891 0 -0.049706653044368929 0.19846551461700709 0 -0.031862197674692477 0.21330320318022891 0 -0.049706653044368929 0.19846551461700709 0 -0.034182982336144849 0.2005351640766897 0 -0.031862197674692477 0.21330320318022891 0 -0.045921998912638401 0.21206303029923629 0 -0.049706653044368929 0.19846551461700709 0 -0.038559846157101327 0.22410523717461561 0 -0.031862197674692477 0.21330320318022891 0 -0.045921998912638401 0.21206303029923629 0 -0.063356749972718188 0.2164091995090269 0 -0.045921998912638401 0.21206303029923629 0 -0.049706653044368929 0.19846551461700709 0 -0.063356749972718188 0.2164091995090269 0 -0.038559846157101327 0.22410523717461561 0 -0.045921998912638401 0.21206303029923629 0 -0.071924902111891426 0.1996794207838849 0 -0.063356749972718188 0.2164091995090269 0 -0.049706653044368929 0.19846551461700709 0 -0.06755110841404538 0.1836278260537853 0 -0.049706653044368929 0.19846551461700709 0 -0.06755110841404538 0.1836278260537853 0 -0.049706653044368929 0.19846551461700709 0 -0.044955907974322883 0.18446773814017001 0 -0.049706653044368929 0.19846551461700709 0 -0.031131493247649151 0.18970155916127729 0 -0.044955907974322883 0.18446773814017001 0 -0.049706653044368929 0.19846551461700709 0 -0.034182982336144849 0.2005351640766897 0 -0.031131493247649151 0.18970155916127729 0 -0.02479492151978958 0.1992322592168648 0 -0.01544738322739788 0.20760308084997989 0 -0.016877024149778291 0.1870652699565083 0 -0.01544738322739788 0.20760308084997989 0 -0.016877024149778291 0.1870652699565083 0 -0.031131493247649151 0.18970155916127729 0 -0.02479492151978958 0.1992322592168648 0 -0.016877024149778291 0.1870652699565083 0 -0.034182982336144849 0.2005351640766897 0 -0.031131493247649151 0.18970155916127729 0 -0.02479492151978958 0.1992322592168648 0 -0.0092697762404246251 0.1895214788505139 0 -0.01544738322739788 0.20760308084997989 0 0.0026649293305802081 0.21194557389658619 0 -0.0092697762404246251 0.1895214788505139 0 0.0026649293305802081 0.21194557389658619 0 0.0029309145854395338 0.19475815837753441 0 -0.0092697762404246251 0.1895214788505139 0 0.0026649293305802081 0.21194557389658619 0 -0.0092697762404246251 0.1895214788505139 0 -0.01544738322739788 0.20760308084997989 0 -0.016877024149778291 0.1870652699565083 0 -0.0092697762404246251 0.1895214788505139 0 0.00017271318419879829 0.1845110916695607 0 0.0029309145854395338 0.19475815837753441 0 -0.01544738322739788 0.20760308084997989 0 -0.014017742305016749 0.22814089174345151 0 -0.01544738322739788 0.20760308084997989 0 -0.014017742305016749 0.22814089174345151 0 0.0026649293305802081 0.21194557389658619 0 -0.031862197674692477 0.21330320318022891 0 -0.02479492151978958 0.1992322592168648 0 -0.01544738322739788 0.20760308084997989 0 -0.031862197674692477 0.21330320318022891 0 -0.01544738322739788 0.20760308084997989 0 -0.014017742305016749 0.22814089174345151 0 -0.031862197674692477 0.21330320318022891 0 -0.034182982336144849 0.2005351640766897 0 -0.02479492151978958 0.1992322592168648 0 -0.038559846157101327 0.22410523717461561 0 -0.01376294234148436 0.23180127484020421 0 -0.038559846157101327 0.22410523717461561 0 -0.02570343161317877 0.232131068156157 0 -0.01376294234148436 0.23180127484020421 0 -0.031862197674692477 0.21330320318022891 0 -0.014017742305016749 0.22814089174345151 0 -0.031862197674692477 0.21330320318022891 0 -0.0245506821195739 0.22433765173462511 0 -0.014017742305016749 0.22814089174345151 0 -0.038559846157101327 0.22410523717461561 0 -0.0245506821195739 0.22433765173462511 0 -0.01376294234148436 0.23180127484020421 0 -0.0245506821195739 0.22433765173462511 0 -0.014017742305016749 0.22814089174345151 0 -0.01376294234148436 0.23180127484020421 0 -0.02570343161317877 0.232131068156157 0 -0.01376294234148436 0.23180127484020421 0 -0.0277910861090911 0.23907684227268619 0 -0.011994740650736999 0.22982302033114321 0 0.0026649293305802081 0.21194557389658619 0 -0.0071456676101167961 0.2338550310653702 0 -0.011994740650736999 0.22982302033114321 0 0.0026649293305802081 0.21194557389658619 0 -0.011994740650736999 0.22982302033114321 0 -0.014017742305016749 0.22814089174345151 0 0.0026649293305802081 0.21194557389658619 0 -0.0071456676101167961 0.2338550310653702 0 -0.01376294234148436 0.23180127484020421 0 -0.0071456676101167961 0.2338550310653702 0 -0.011994740650736999 0.22982302033114321 0 -0.0071456676101167961 0.2338550310653702 0 -0.011994740650736999 0.22982302033114321 0 -0.01376294234148436 0.23180127484020421 0 -0.011994740650736999 0.22982302033114321 0 -0.014017742305016749 0.22814089174345151 0 -0.011994740650736999 0.22982302033114321 0 -0.014017742305016749 0.22814089174345151 0 -0.01376294234148436 0.23180127484020421 0 -0.014017742305016749 0.22814089174345151 0 -0.01376294234148436 0.23180127484020421 0 -0.011994740650736999 0.22982302033114321 0 -0.01376294234148436 0.23180127484020421 0 -0.01244804027924465 0.25069078022226182 0 -0.0071456676101167961 0.2338550310653702 0 -0.01376294234148436 0.23180127484020421 0 -0.01244804027924465 0.25069078022226182 0 -0.01376294234148436 0.23180127484020421 0 -0.001075236980814549 0.25381653425611589 0 -0.01244804027924465 0.25069078022226182 0 0.0035012577501164969 0.2427079637763046 0 -0.01244804027924465 0.25069078022226182 0 -0.0071456676101167961 0.2338550310653702 0 0.0035012577501164969 0.2427079637763046 0 -0.0071456676101167961 0.2338550310653702 0 0.0035012577501164969 0.2427079637763046 0 -0.01244804027924465 0.25069078022226182 0 -0.01376294234148436 0.23180127484020421 0 -0.028312989969666091 0.249723101879823 0 -0.01376294234148436 0.23180127484020421 0 -0.0277910861090911 0.23907684227268619 0 -0.028312989969666091 0.249723101879823 0 -0.01376294234148436 0.23180127484020421 0 -0.028312989969666091 0.249723101879823 0 -0.034656184915949621 0.23381457714710319 0 -0.02570343161317877 0.232131068156157 0 -0.0277910861090911 0.23907684227268619 0 -0.03633355263504813 0.2399426599350992 0 -0.0277910861090911 0.23907684227268619 0 -0.028312989969666091 0.249723101879823 0 -0.036578959254133167 0.15570116786102031 0 -0.037217906969380203 0.1396478031372469 0 -0.055044525791777509 0.14990691383680971 0 -0.037217906969380203 0.1396478031372469 0 -0.039371632382044171 0.12758257264779341 0 -0.025058585011559349 0.13102280821652859 0 -0.037217906969380203 0.1396478031372469 0 -0.039371632382044171 0.12758257264779341 0 -0.052403165906986897 0.132417527268997 0 -0.067001042063841609 0.13000959117457589 0 -0.052403165906986897 0.132417527268997 0 -0.055044525791777509 0.14990691383680971 0 -0.067001042063841609 0.13000959117457589 0 -0.055044525791777509 0.14990691383680971 0 -0.052403165906986897 0.132417527268997 0 -0.05055587194004512 0.1239855308087016 0 -0.059402744593494622 0.1238736257392163 0 -0.039371632382044171 0.12758257264779341 0 -0.052403165906986897 0.132417527268997 0 -0.05055587194004512 0.1239855308087016 0 -0.067001042063841609 0.13000959117457589 0 -0.052403165906986897 0.132417527268997 0 -0.059402744593494622 0.1238736257392163 0 -0.037217906969380203 0.1396478031372469 0 -0.052403165906986897 0.132417527268997 0 -0.055044525791777509 0.14990691383680971 0 -0.070539569470942851 0.14567699181227259 0 -0.055044525791777509 0.14990691383680971 0 -0.05996351048488175 0.16665465055662859 0 -0.055044525791777509 0.14990691383680971 0 -0.05996351048488175 0.16665465055662859 0 -0.043088009519713359 0.16980423649904339 0 -0.055044525791777509 0.14990691383680971 0 -0.043088009519713359 0.16980423649904339 0 -0.06755110841404538 0.1836278260537853 0 -0.05996351048488175 0.16665465055662859 0 -0.044955907974322883 0.18446773814017001 0 -0.05996351048488175 0.16665465055662859 0 -0.044955907974322883 0.18446773814017001 0 -0.043088009519713359 0.16980423649904339 0 -0.031131493247649151 0.18970155916127729 0 -0.043088009519713359 0.16980423649904339 0 -0.029305611913520331 0.17291269079888169 0 -0.031131493247649151 0.18970155916127729 0 -0.043088009519713359 0.16980423649904339 0 -0.031131493247649151 0.18970155916127729 0 -0.044955907974322883 0.18446773814017001 0 -0.043088009519713359 0.16980423649904339 0 -0.036578959254133167 0.15570116786102031 0 -0.055044525791777509 0.14990691383680971 0 -0.043088009519713359 0.16980423649904339 0 -0.036578959254133167 0.15570116786102031 0 -0.043088009519713359 0.16980423649904339 0 -0.029305611913520331 0.17291269079888169 0 -0.036578959254133167 0.15570116786102031 0 -0.029305611913520331 0.17291269079888169 0 -0.018238742076274451 0.14623419503311999 0 -0.029305611913520331 0.17291269079888169 0 -0.018238742076274451 0.14623419503311999 0 -0.018306665072158699 0.1665274590630367 0 -0.029305611913520331 0.17291269079888169 0 -0.018238742076274451 0.14623419503311999 0 -0.018306665072158699 0.1665274590630367 0 -0.029305611913520331 0.17291269079888169 0 -0.016877024149778291 0.1870652699565083 0 -0.018306665072158699 0.1665274590630367 0 -0.016877024149778291 0.1870652699565083 0 -0.031131493247649151 0.18970155916127729 0 -0.029305611913520331 0.17291269079888169 0 -0.016877024149778291 0.1870652699565083 0 -0.018306665072158699 0.1665274590630367 0 -0.016877024149778291 0.1870652699565083 0 -0.01017893003957761 0.18040888946328409 0 -0.0092697762404246251 0.1895214788505139 0 -0.016877024149778291 0.1870652699565083 0 -0.01017893003957761 0.18040888946328409 0 -0.018306665072158699 0.1665274590630367 0 -0.01017893003957761 0.18040888946328409 0 -0.0066138979197252392 0.17441914777680101 0 -0.0092697762404246251 0.1895214788505139 0 -0.01017893003957761 0.18040888946328409 0 0.00017271318419879829 0.1845110916695607 0 -0.01017893003957761 0.18040888946328409 0 -0.0066138979197252392 0.17441914777680101 0 0.00017271318419879829 0.1845110916695607 0 -0.0084833690425915615 0.16641043449466311 0 -0.0042016335045788238 0.15756862583259459 0 0.0072149943495940869 0.16976998710142929 0 -0.0066138979197252392 0.17441914777680101 0 -0.0084833690425915615 0.16641043449466311 0 0.0072149943495940869 0.16976998710142929 0 -0.018306665072158699 0.1665274590630367 0 -0.0042016335045788238 0.15756862583259459 0 -0.018238742076274451 0.14623419503311999 0 -0.018306665072158699 0.1665274590630367 0 -0.0084833690425915615 0.16641043449466311 0 -0.0042016335045788238 0.15756862583259459 0 -0.018306665072158699 0.1665274590630367 0 -0.0066138979197252392 0.17441914777680101 0 -0.0084833690425915615 0.16641043449466311 0 -0.0042016335045788238 0.15756862583259459 0 -0.018238742076274451 0.14623419503311999 0 0.0090034019054878404 0.1449374421830304 0 -0.018238742076274451 0.14623419503311999 0 0.003017903001127233 0.13115607762078649 0 0.0090034019054878404 0.1449374421830304 0 -0.036578959254133167 0.15570116786102031 0 -0.037217906969380203 0.1396478031372469 0 -0.018238742076274451 0.14623419503311999 0 -0.037217906969380203 0.1396478031372469 0 -0.018238742076274451 0.14623419503311999 0 -0.025058585011559349 0.13102280821652859 0 -0.018238742076274451 0.14623419503311999 0 -0.025058585011559349 0.13102280821652859 0 -0.0071718722390274317 0.11955569926735859 0 -0.039371632382044171 0.12758257264779341 0 -0.025058585011559349 0.13102280821652859 0 -0.026624594975476541 0.118660332322427 0 -0.018238742076274451 0.14623419503311999 0 -0.0071718722390274317 0.11955569926735859 0 0.003017903001127233 0.13115607762078649 0 -0.018238742076274451 0.14623419503311999 0 -0.0071718722390274317 0.11955569926735859 0 -0.0071718722390274317 0.11955569926735859 0 -0.0170794063475736 0.1010451823047064 0 0.0022678925523651979 0.096799605744922884 0 -0.0071718722390274317 0.11955569926735859 0 0.0022678925523651979 0.096799605744922884 0 -0.0170794063475736 0.1010451823047064 0 -0.01051168387692415 0.086131093825806193 0 0.0022678925523651979 0.096799605744922884 0 -0.0170794063475736 0.1010451823047064 0 -0.023546922396322549 0.090241461245312043 0 -0.03471440283081606 0.10348416734715719 0 -0.0170794063475736 0.1010451823047064 0 -0.026624594975476541 0.118660332322427 0 -0.03471440283081606 0.10348416734715719 0 -0.0071718722390274317 0.11955569926735859 0 -0.026624594975476541 0.118660332322427 0 -0.025058585011559349 0.13102280821652859 0 -0.0071718722390274317 0.11955569926735859 0 -0.026624594975476541 0.118660332322427 0 -0.0071718722390274317 0.11955569926735859 0 -0.0170794063475736 0.1010451823047064 0 -0.026624594975476541 0.118660332322427 0 -0.01236908596492065 0.067328345758786864 0 -0.0050949491525419822 0.064574267692650539 0 -0.010816812974031359 0.057408660253370561 0 -0.01236908596492065 0.067328345758786864 0 -0.0050949491525419822 0.064574267692650539 0 -0.0075986603348887141 0.074429827196388229 0 -0.0050949491525419822 0.064574267692650539 0 -0.0075986603348887141 0.074429827196388229 0 0.0010595345373616469 0.069183840650855921 0 -0.0050949491525419822 0.064574267692650539 0 0.0027775871166603309 0.061015890287034837 0 0.0010595345373616469 0.069183840650855921 0 -0.0075986603348887141 0.074429827196388229 0 0.0020847749378083099 0.078230687096478249 0 0.0010595345373616469 0.069183840650855921 0 -0.01236908596492065 0.067328345758786864 0 -0.0075986603348887141 0.074429827196388229 0 -0.01827239199513735 0.077829377352479523 0 -0.01051168387692415 0.086131093825806193 0 0.0020847749378083099 0.078230687096478249 0 0.0022678925523651979 0.096799605744922884 0 -0.0075986603348887141 0.074429827196388229 0 -0.01051168387692415 0.086131093825806193 0 -0.01827239199513735 0.077829377352479523 0 -0.0075986603348887141 0.074429827196388229 0 -0.01051168387692415 0.086131093825806193 0 0.0020847749378083099 0.078230687096478249 0 -0.023546922396322549 0.090241461245312043 0 -0.035305947575569208 0.086296641367311397 0 -0.03471440283081606 0.10348416734715719 0 -0.023546922396322549 0.090241461245312043 0 -0.01827239199513735 0.077829377352479523 0 -0.035305947575569208 0.086296641367311397 0 -0.0170794063475736 0.1010451823047064 0 -0.01051168387692415 0.086131093825806193 0 -0.023546922396322549 0.090241461245312043 0 -0.01051168387692415 0.086131093825806193 0 -0.023546922396322549 0.090241461245312043 0 -0.01827239199513735 0.077829377352479523 0 -0.035305947575569208 0.086296641367311397 0 -0.020062615368003831 0.062399596299045387 0 -0.036774932561135468 0.071420998956360698 0 -0.020062615368003831 0.062399596299045387 0 -0.036774932561135468 0.071420998956360698 0 -0.031536308678277412 0.057899084391162009 0 -0.020062615368003831 0.062399596299045387 0 -0.01827239199513735 0.077829377352479523 0 -0.035305947575569208 0.086296641367311397 0 -0.020062615368003831 0.062399596299045387 0 -0.036774932561135468 0.071420998956360698 0 -0.035305947575569208 0.086296641367311397 0 -0.020062615368003831 0.062399596299045387 0 -0.01236908596492065 0.067328345758786864 0 -0.01827239199513735 0.077829377352479523 0 -0.020062615368003831 0.062399596299045387 0 -0.036774932561135468 0.071420998956360698 0 -0.053487249754267017 0.080442401613676051 0 -0.036774932561135468 0.071420998956360698 0 -0.053487249754267017 0.080442401613676051 0 -0.04732778017304326 0.067271650489367063 0 -0.036774932561135468 0.071420998956360698 0 -0.04732778017304326 0.067271650489367063 0 -0.041869656069312207 0.056198841678765023 0 -0.035305947575569208 0.086296641367311397 0 -0.053487249754267017 0.080442401613676051 0 -0.044879337717495443 0.093893179119396569 0 -0.036774932561135468 0.071420998956360698 0 -0.035305947575569208 0.086296641367311397 0 -0.053487249754267017 0.080442401613676051 0 -0.05732049031297963 0.092425375764329937 0 -0.053487249754267017 0.080442401613676051 0 -0.072024914770775231 0.090449137275025113 0 -0.05732049031297963 0.092425375764329937 0 -0.053487249754267017 0.080442401613676051 0 -0.044879337717495443 0.093893179119396569 0 -0.053487249754267017 0.080442401613676051 0 -0.044879337717495443 0.093893179119396569 0 -0.053487249754267017 0.080442401613676051 0 -0.066164374318303451 0.060633047011219562 0 -0.053487249754267017 0.080442401613676051 0 -0.066164374318303451 0.060633047011219562 0 -0.05717928230745762 0.061024359708667847 0 -0.053487249754267017 0.080442401613676051 0 -0.04732778017304326 0.067271650489367063 0 -0.05717928230745762 0.061024359708667847 0 -0.039371632382044171 0.12758257264779341 0 -0.026624594975476541 0.118660332322427 0 -0.046077317711925657 0.11776496537749501 0 -0.026624594975476541 0.118660332322427 0 -0.046077317711925657 0.11776496537749501 0 -0.026624594975476541 0.118660332322427 0 -0.040672168536855492 0.11083531222651311 0 -0.046077317711925657 0.11776496537749501 0 -0.040672168536855492 0.11083531222651311 0 -0.046077317711925657 0.11776496537749501 0 -0.050549279783133547 0.1101936864355782 0 -0.039371632382044171 0.12758257264779341 0 -0.046077317711925657 0.11776496537749501 0 -0.05055587194004512 0.1239855308087016 0 -0.026624594975476541 0.118660332322427 0 -0.040672168536855492 0.11083531222651311 0 -0.03471440283081606 0.10348416734715719 0 -0.040672168536855492 0.11083531222651311 0 -0.03471440283081606 0.10348416734715719 0 -0.050549279783133547 0.1101936864355782 0 -0.035305947575569208 0.086296641367311397 0 -0.044879337717495443 0.093893179119396569 0 -0.050549279783133547 0.1101936864355782 0 -0.035305947575569208 0.086296641367311397 0 -0.050549279783133547 0.1101936864355782 0 -0.035305947575569208 0.086296641367311397 0 -0.03471440283081606 0.10348416734715719 0 -0.050549279783133547 0.1101936864355782 0 -0.044879337717495443 0.093893179119396569 0 -0.054665457308011312 0.1006542061215084 0 -0.050549279783133547 0.1101936864355782 0 -0.05732049031297963 0.092425375764329937 0 -0.044879337717495443 0.093893179119396569 0 -0.054665457308011312 0.1006542061215084 0 -0.05732049031297963 0.092425375764329937 0 -0.054665457308011312 0.1006542061215084 0 -0.061834339044799437 0.099896664366825136 0 -0.054665457308011312 0.1006542061215084 0 -0.058888263196873999 0.1084664797588023 0 -0.050549279783133547 0.1101936864355782 0 -0.054665457308011312 0.1006542061215084 0 -0.061834339044799437 0.099896664366825136 0 -0.058888263196873999 0.1084664797588023 0 -0.058888263196873999 0.1084664797588023 0 -0.055607971967585587 0.11772946417397399 0 -0.065346910680580017 0.1165336292034822 0 -0.058888263196873999 0.1084664797588023 0 -0.050549279783133547 0.1101936864355782 0 -0.055607971967585587 0.11772946417397399 0 -0.046077317711925657 0.11776496537749501 0 -0.050549279783133547 0.1101936864355782 0 -0.055607971967585587 0.11772946417397399 0 -0.046077317711925657 0.11776496537749501 0 -0.05055587194004512 0.1239855308087016 0 -0.055607971967585587 0.11772946417397399 0 -0.059402744593494622 0.1238736257392163 0 -0.055607971967585587 0.11772946417397399 0 -0.065346910680580017 0.1165336292034822 0 -0.05055587194004512 0.1239855308087016 0 -0.059402744593494622 0.1238736257392163 0 -0.055607971967585587 0.11772946417397399 0 -0.067001042063841609 0.13000959117457589 0 -0.065346910680580017 0.1165336292034822 0 -0.078957558335905717 0.1101122685123422 0 -0.067001042063841609 0.13000959117457589 0 -0.084549653919369208 0.1161016266772671 0 -0.078957558335905717 0.1101122685123422 0 -0.067001042063841609 0.13000959117457589 0 -0.059402744593494622 0.1238736257392163 0 -0.065346910680580017 0.1165336292034822 0 -0.067001042063841609 0.13000959117457589 0 -0.078957558335905717 0.1101122685123422 0 -0.058888263196873999 0.1084664797588023 0 -0.065346910680580017 0.1165336292034822 0 -0.067980895267700681 0.10589627134148601 0 -0.065346910680580017 0.1165336292034822 0 -0.078957558335905717 0.1101122685123422 0 -0.067980895267700681 0.10589627134148601 0 -0.084549653919369208 0.1161016266772671 0 -0.090963503375098065 0.1249099654998229 0 -0.090562579787282688 0.10045587293637551 0 -0.078536728051455756 0.13174738041815851 0 -0.084549653919369208 0.1161016266772671 0 -0.090963503375098065 0.1249099654998229 0 -0.078536728051455756 0.13174738041815851 0 -0.084549653919369208 0.1161016266772671 0 -0.090963503375098065 0.1249099654998229 0 -0.09190011990401889 0.096975566718617859 0 -0.090963503375098065 0.1249099654998229 0 -0.09190011990401889 0.096975566718617859 0 -0.090562579787282688 0.10045587293637551 0 -0.090562579787282688 0.10045587293637551 0 -0.072024914770775231 0.090449137275025113 0 -0.084549653919369208 0.1161016266772671 0 -0.078957558335905717 0.1101122685123422 0 -0.090562579787282688 0.10045587293637551 0 -0.078957558335905717 0.1101122685123422 0 -0.090562579787282688 0.10045587293637551 0 -0.072024914770775231 0.090449137275025113 0 -0.084549653919369208 0.1161016266772671 0 -0.090562579787282688 0.10045587293637551 0 -0.09190011990401889 0.096975566718617859 0 -0.090562579787282688 0.10045587293637551 0 -0.072024914770775231 0.090449137275025113 0 -0.09190011990401889 0.096975566718617859 0 -0.090562579787282688 0.10045587293637551 0 -0.078957558335905717 0.1101122685123422 0 -0.067980895267700681 0.10589627134148601 0 -0.072024914770775231 0.090449137275025113 0 -0.061834339044799437 0.099896664366825136 0 -0.058888263196873999 0.1084664797588023 0 -0.067980895267700681 0.10589627134148601 0 -0.05732049031297963 0.092425375764329937 0 -0.061834339044799437 0.099896664366825136 0 -0.072024914770775231 0.090449137275025113 0 -0.061834339044799437 0.099896664366825136 0 -0.067980895267700681 0.10589627134148601 0 -0.072024914770775231 0.090449137275025113 0 -0.053487249754267017 0.080442401613676051 0 -0.072024914770775231 0.090449137275025113 0 -0.071970994567248495 0.07652332650857771 0 -0.053487249754267017 0.080442401613676051 0 -0.072024914770775231 0.090449137275025113 0 -0.072024914770775231 0.090449137275025113 0 -0.071970994567248495 0.07652332650857771 0 -0.082741939473555223 0.084363015185444298 0 -0.071970994567248495 0.07652332650857771 0 -0.085794431161195811 0.07283459853373557 0 -0.066164374318303451 0.060633047011219562 0 -0.053487249754267017 0.080442401613676051 0 -0.071970994567248495 0.07652332650857771 0 -0.066164374318303451 0.060633047011219562 0 -0.085794431161195811 0.07283459853373557 0 -0.095387868948367149 0.059360324984690307 0 -0.066164374318303451 0.060633047011219562 0 -0.085794431161195811 0.07283459853373557 0 -0.092198205285465601 0.088085230429370887 0 -0.102143179406252 0.070322920395398392 0 -0.071970994567248495 0.07652332650857771 0 -0.085794431161195811 0.07283459853373557 0 -0.082741939473555223 0.084363015185444298 0 -0.09190011990401889 0.096975566718617859 0 -0.072024914770775231 0.090449137275025113 0 -0.082741939473555223 0.084363015185444298 0 -0.085794431161195811 0.07283459853373557 0 -0.082741939473555223 0.084363015185444298 0 -0.092198205285465601 0.088085230429370887 0 -0.09190011990401889 0.096975566718617859 0 -0.082741939473555223 0.084363015185444298 0 -0.092198205285465601 0.088085230429370887 0 -0.09190011990401889 0.096975566718617859 0 -0.092198205285465601 0.088085230429370887 0 -0.1080157435175839 0.079852984894629525 0 -0.1036424809770123 0.089656579933593022 0 -0.102143179406252 0.070322920395398392 0 -0.09190011990401889 0.096975566718617859 0 -0.1036424809770123 0.089656579933593022 0 -0.102143179406252 0.070322920395398392 0 -0.09190011990401889 0.096975566718617859 0 -0.102143179406252 0.070322920395398392 0 -0.09190011990401889 0.096975566718617859 0 -0.092198205285465601 0.088085230429370887 0 -0.102143179406252 0.070322920395398392 0 -0.085794431161195811 0.07283459853373557 0 -0.102143179406252 0.070322920395398392 0 -0.095387868948367149 0.059360324984690307 0 -0.102143179406252 0.070322920395398392 0 -0.095387868948367149 0.059360324984690307 0 -0.102143179406252 0.070322920395398392 0 -0.1065429979429558 0.058874504292813962 0 -0.095387868948367149 0.059360324984690307 0 -0.1080157435175839 0.079852984894629525 0 -0.102143179406252 0.070322920395398392 0 -0.1080157435175839 0.079852984894629525 0 -0.102143179406252 0.070322920395398392 0 -0.114826190995966 0.069177947278407648 0 -0.102143179406252 0.070322920395398392 0 -0.1065429979429558 0.058874504292813962 0 -0.102143179406252 0.070322920395398392 0 -0.114826190995966 0.069177947278407648 0 -0.1065429979429558 0.058874504292813962 0 -0.13372311917392221 0.057690773893278223 0 -0.114826190995966 0.069177947278407648 0 -0.1237059149391172 0.079148552915918685 0 -0.1080157435175839 0.079852984894629525 0 -0.114826190995966 0.069177947278407648 0 -0.1237059149391172 0.079148552915918685 0 -0.1080157435175839 0.079852984894629525 0 -0.1237059149391172 0.079148552915918685 0 -0.11765203105249809 0.089185825841735178 0 -0.1080157435175839 0.079852984894629525 0 -0.1036424809770123 0.089656579933593022 0 -0.11765203105249809 0.089185825841735178 0 -0.1036424809770123 0.089656579933593022 0 -0.11765203105249809 0.089185825841735178 0 -0.1115555930597819 0.097806689452789558 0 -0.1265203217474849 0.091935109557198635 0 -0.1237059149391172 0.079148552915918685 0 -0.11765203105249809 0.089185825841735178 0 -0.1265203217474849 0.091935109557198635 0 -0.11765203105249809 0.089185825841735178 0 -0.1204307964152784 0.096914538221170493 0 -0.12726139386797611 0.1009622544427643 0 -0.1265203217474849 0.091935109557198635 0 -0.1204307964152784 0.096914538221170493 0 -0.12726139386797611 0.1009622544427643 0 -0.1204307964152784 0.096914538221170493 0 -0.1191646423486511 0.1046828118113647 0 -0.11765203105249809 0.089185825841735178 0 -0.1204307964152784 0.096914538221170493 0 -0.1115555930597819 0.097806689452789558 0 -0.1204307964152784 0.096914538221170493 0 -0.1115555930597819 0.097806689452789558 0 -0.1191646423486511 0.1046828118113647 0 -0.1102275814935091 0.10760806716351511 0 -0.1191646423486511 0.1046828118113647 0 -0.1176212696379767 0.1142739866709087 0 -0.1115555930597819 0.097806689452789558 0 -0.1102275814935091 0.10760806716351511 0 -0.1191646423486511 0.1046828118113647 0 -0.1266349317488524 0.1123111069683977 0 -0.12726139386797611 0.1009622544427643 0 -0.1191646423486511 0.1046828118113647 0 -0.1266349317488524 0.1123111069683977 0 -0.1191646423486511 0.1046828118113647 0 -0.1176212696379767 0.1142739866709087 0 -0.1266349317488524 0.1123111069683977 0 -0.1176212696379767 0.1142739866709087 0 -0.12368957019981459 0.1215474108703499 0 -0.1176212696379767 0.1142739866709087 0 -0.12368957019981459 0.1215474108703499 0 -0.1154609957625652 0.1226380427041541 0 -0.1176212696379767 0.1142739866709087 0 -0.1154609957625652 0.1226380427041541 0 -0.10851126825680241 0.1168993283086005 0 -0.1067718510813319 0.12578028684868481 0 -0.1154609957625652 0.1226380427041541 0 -0.10851126825680241 0.1168993283086005 0 -0.1102275814935091 0.10760806716351511 0 -0.1176212696379767 0.1142739866709087 0 -0.10851126825680241 0.1168993283086005 0 -0.10851126825680241 0.1168993283086005 0 -0.10086787344784789 0.1219944755899523 0 -0.1006457463533322 0.1114750233556043 0 -0.1102275814935091 0.10760806716351511 0 -0.10851126825680241 0.1168993283086005 0 -0.1006457463533322 0.1114750233556043 0 -0.090963503375098065 0.1249099654998229 0 -0.09190011990401889 0.096975566718617859 0 -0.1006457463533322 0.1114750233556043 0 -0.1067718510813319 0.12578028684868481 0 -0.10851126825680241 0.1168993283086005 0 -0.10086787344784789 0.1219944755899523 0 -0.090963503375098065 0.1249099654998229 0 -0.10086787344784789 0.1219944755899523 0 -0.1006457463533322 0.1114750233556043 0 -0.09190011990401889 0.096975566718617859 0 -0.1006457463533322 0.1114750233556043 0 -0.10359430435753079 0.1007043853248239 0 -0.09190011990401889 0.096975566718617859 0 -0.1036424809770123 0.089656579933593022 0 -0.10359430435753079 0.1007043853248239 0 -0.1036424809770123 0.089656579933593022 0 -0.1115555930597819 0.097806689452789558 0 -0.10359430435753079 0.1007043853248239 0 -0.1102275814935091 0.10760806716351511 0 -0.1006457463533322 0.1114750233556043 0 -0.10359430435753079 0.1007043853248239 0 -0.1115555930597819 0.097806689452789558 0 -0.1102275814935091 0.10760806716351511 0 -0.10359430435753079 0.1007043853248239 0 -0.1046345339543157 0.022155732813062299 0 -0.088627398179530664 0.025532184598554181 0 -0.092610891948542412 0.01506224023183883 0 -0.1046345339543157 0.022155732813062299 0 -0.10408587321566801 0.033574973216701241 0 -0.088627398179530664 0.025532184598554181 0 -0.1046345339543157 0.022155732813062299 0 -0.1177442400578288 0.02972864758824174 0 -0.10408587321566801 0.033574973216701241 0 -0.1046345339543157 0.022155732813062299 0 -0.10699188664771481 0.0055715876140656588 0 -0.092610891948542412 0.01506224023183883 0 -0.1169419519889832 -0.0037933915582639799 0 -0.12525354795531621 0.0057775578500688027 0 -0.10699188664771481 0.0055715876140656588 0 -0.13468658866957189 0.0122705962358826 0 -0.10699188664771481 0.0055715876140656588 0 -0.1190554231487936 0.019094651450380501 0 -0.12525354795531621 0.0057775578500688027 0 -0.10699188664771481 0.0055715876140656588 0 -0.13468658866957189 0.0122705962358826 0 -0.10699188664771481 0.0055715876140656588 0 -0.12525354795531621 0.0057775578500688027 0 -0.13468658866957189 0.0122705962358826 0 -0.10699188664771481 0.0055715876140656588 0 -0.1046345339543157 0.022155732813062299 0 -0.10699188664771481 0.0055715876140656588 0 -0.1190554231487936 0.019094651450380501 0 -0.1046345339543157 0.022155732813062299 0 -0.1190554231487936 0.019094651450380501 0 -0.1177442400578288 0.02972864758824174 0 -0.13121986641453701 0.0257466930006502 0 -0.1190554231487936 0.019094651450380501 0 -0.1177442400578288 0.02972864758824174 0 -0.13083989668649121 0.039716850651291588 0 -0.1177442400578288 0.02972864758824174 0 -0.1121436190003918 0.044301575940527693 0 -0.1177442400578288 0.02972864758824174 0 -0.1121436190003918 0.044301575940527693 0 -0.1177442400578288 0.02972864758824174 0 -0.1121436190003918 0.044301575940527693 0 -0.10408587321566801 0.033574973216701241 0 -0.13372311917392221 0.057690773893278223 0 -0.114826190995966 0.069177947278407648 0 -0.1065429979429558 0.058874504292813962 0 -0.13372311917392221 0.057690773893278223 0 -0.1065429979429558 0.058874504292813962 0 -0.13372311917392221 0.057690773893278223 0 -0.1121436190003918 0.044301575940527693 0 -0.1065429979429558 0.058874504292813962 0 -0.10133228200309451 0.051522506010788532 0 -0.095387868948367149 0.059360324984690307 0 -0.096110751622675725 0.043313301478676187 0 -0.1121436190003918 0.044301575940527693 0 -0.1065429979429558 0.058874504292813962 0 -0.10133228200309451 0.051522506010788532 0 -0.1121436190003918 0.044301575940527693 0 -0.1065429979429558 0.058874504292813962 0 -0.1065429979429558 0.058874504292813962 0 -0.095387868948367149 0.059360324984690307 0 -0.1065429979429558 0.058874504292813962 0 -0.10133228200309451 0.051522506010788532 0 -0.095387868948367149 0.059360324984690307 0 -0.096110751622675725 0.043313301478676187 0 -0.10408587321566801 0.033574973216701241 0 -0.088627398179530664 0.025532184598554181 0 -0.1121436190003918 0.044301575940527693 0 -0.096110751622675725 0.043313301478676187 0 -0.10408587321566801 0.033574973216701241 0 -0.1121436190003918 0.044301575940527693 0 -0.10133228200309451 0.051522506010788532 0 -0.096110751622675725 0.043313301478676187 0 -0.096110751622675725 0.043313301478676187 0 -0.081451833669278217 0.036744766847654681 0 -0.088627398179530664 0.025532184598554181 0 -0.095387868948367149 0.059360324984690307 0 -0.096110751622675725 0.043313301478676187 0 -0.081451833669278217 0.036744766847654681 0 -0.095387868948367149 0.059360324984690307 0 -0.081451833669278217 0.036744766847654681 0 -0.066164374318303451 0.060633047011219562 0 -0.095387868948367149 0.059360324984690307 0 -0.081451833669278217 0.036744766847654681 0 -0.095387868948367149 0.059360324984690307 0 -0.066164374318303451 0.060633047011219562 0 -0.081451833669278217 0.036744766847654681 0 -0.064471838876286713 0.047091363156526359 0 -0.066164374318303451 0.060633047011219562 0 -0.081451833669278217 0.036744766847654681 0 -0.066164374318303451 0.060633047011219562 0 -0.064471838876286713 0.047091363156526359 0 -0.066164374318303451 0.060633047011219562 0 -0.05717928230745762 0.061024359708667847 0 -0.081451833669278217 0.036744766847654681 0 -0.064471838876286713 0.047091363156526359 0 -0.067658721251843579 0.035139953731476672 0 -0.081451833669278217 0.036744766847654681 0 -0.067658721251843579 0.035139953731476672 0 -0.072923540610282667 0.022904954905246411 0 -0.064471838876286713 0.047091363156526359 0 -0.067658721251843579 0.035139953731476672 0 -0.059643024983338157 0.040220980424042922 0 -0.067658721251843579 0.035139953731476672 0 -0.072923540610282667 0.022904954905246411 0 -0.059803368120032729 0.028737703323912619 0 -0.072923540610282667 0.022904954905246411 0 -0.064395247551287713 0.0090651429628378077 0 -0.072923540610282667 0.022904954905246411 0 -0.057483875667231607 0.017313789872905438 0 -0.059803368120032729 0.028737703323912619 0 -0.072923540610282667 0.022904954905246411 0 -0.064395247551287713 0.0090651429628378077 0 -0.057483875667231607 0.017313789872905438 0 -0.072923540610282667 0.022904954905246411 0 -0.081635054149993946 0.016338575274480221 0 -0.074147953539118766 0.013095294854898489 0 -0.081451833669278217 0.036744766847654681 0 -0.072923540610282667 0.022904954905246411 0 -0.081451833669278217 0.036744766847654681 0 -0.088627398179530664 0.025532184598554181 0 -0.081451833669278217 0.036744766847654681 0 -0.072923540610282667 0.022904954905246411 0 -0.088627398179530664 0.025532184598554181 0 -0.072923540610282667 0.022904954905246411 0 -0.081635054149993946 0.016338575274480221 0 -0.088627398179530664 0.025532184598554181 0 -0.081635054149993946 0.016338575274480221 0 -0.088627398179530664 0.025532184598554181 0 -0.092610891948542412 0.01506224023183883 0 -0.079509947246398677 -0.0010759563403116689 0 -0.10699188664771481 0.0055715876140656588 0 -0.080238229884072268 0.0052698375758447446 0 -0.10699188664771481 0.0055715876140656588 0 -0.092610891948542412 0.01506224023183883 0 -0.080238229884072268 0.0052698375758447446 0 -0.10699188664771481 0.0055715876140656588 0 -0.080238229884072268 0.0052698375758447446 0 -0.079509947246398677 -0.0010759563403116689 0 -0.10699188664771481 0.0055715876140656588 0 -0.081635054149993946 0.016338575274480221 0 -0.080238229884072268 0.0052698375758447446 0 -0.074147953539118766 0.013095294854898489 0 -0.081635054149993946 0.016338575274480221 0 -0.092610891948542412 0.01506224023183883 0 -0.080238229884072268 0.0052698375758447446 0 -0.063144980984456769 -0.0010075260454264971 0 -0.080238229884072268 0.0052698375758447446 0 -0.053484573120429778 0.0049680875376236439 0 -0.063144980984456769 -0.0010075260454264971 0 -0.071726966427623579 -0.0042085193641821714 0 -0.080238229884072268 0.0052698375758447446 0 -0.080238229884072268 0.0052698375758447446 0 -0.064395247551287713 0.0090651429628378077 0 -0.053484573120429778 0.0049680875376236439 0 -0.080238229884072268 0.0052698375758447446 0 -0.074147953539118766 0.013095294854898489 0 -0.064395247551287713 0.0090651429628378077 0 -0.080238229884072268 0.0052698375758447446 0 -0.053484573120429778 0.0049680875376236439 0 -0.072923540610282667 0.022904954905246411 0 -0.074147953539118766 0.013095294854898489 0 -0.064395247551287713 0.0090651429628378077 0 -0.053484573120429778 0.0049680875376236439 0 -0.057483875667231607 0.017313789872905438 0 -0.044577843822865712 0.014823513606123081 0 -0.064395247551287713 0.0090651429628378077 0 -0.053484573120429778 0.0049680875376236439 0 -0.057483875667231607 0.017313789872905438 0 -0.057483875667231607 0.017313789872905438 0 -0.059803368120032729 0.028737703323912619 0 -0.049718680778491037 0.023383336901689089 0 -0.059803368120032729 0.028737703323912619 0 -0.049718680778491037 0.023383336901689089 0 -0.049626609337322693 0.035138022514023627 0 -0.057483875667231607 0.017313789872905438 0 -0.049718680778491037 0.023383336901689089 0 -0.044577843822865712 0.014823513606123081 0 -0.049718680778491037 0.023383336901689089 0 -0.03678526358247694 0.026706201877031391 0 -0.044577843822865712 0.014823513606123081 0 -0.049718680778491037 0.023383336901689089 0 -0.03678526358247694 0.026706201877031391 0 -0.049626609337322693 0.035138022514023627 0 -0.03678526358247694 0.026706201877031391 0 -0.044577843822865712 0.014823513606123081 0 -0.026730916356787399 0.0046663374994025432 0 -0.053484573120429778 0.0049680875376236439 0 -0.044577843822865712 0.014823513606123081 0 -0.026730916356787399 0.0046663374994025432 0 -0.053484573120429778 0.0049680875376236439 0 -0.026730916356787399 0.0046663374994025432 0 -0.05717928230745762 0.061024359708667847 0 -0.051653950244724557 0.047539703963967651 0 -0.041869656069312207 0.056198841678765023 0 -0.04732778017304326 0.067271650489367063 0 -0.05717928230745762 0.061024359708667847 0 -0.041869656069312207 0.056198841678765023 0 -0.066164374318303451 0.060633047011219562 0 -0.05717928230745762 0.061024359708667847 0 -0.064471838876286713 0.047091363156526359 0 -0.05717928230745762 0.061024359708667847 0 -0.051653950244724557 0.047539703963967651 0 -0.051653950244724557 0.047539703963967651 0 -0.059643024983338157 0.040220980424042922 0 -0.049626609337322693 0.035138022514023627 0 -0.064471838876286713 0.047091363156526359 0 -0.051653950244724557 0.047539703963967651 0 -0.059643024983338157 0.040220980424042922 0 -0.067658721251843579 0.035139953731476672 0 -0.059803368120032729 0.028737703323912619 0 -0.059643024983338157 0.040220980424042922 0 -0.059803368120032729 0.028737703323912619 0 -0.059643024983338157 0.040220980424042922 0 -0.049626609337322693 0.035138022514023627 0 -0.03678526358247694 0.026706201877031391 0 -0.049626609337322693 0.035138022514023627 0 -0.039151155349654278 0.041569108008365441 0 -0.03678526358247694 0.026706201877031391 0 -0.039151155349654278 0.041569108008365441 0 -0.02815367237455893 0.039215512802372537 0 -0.039151155349654278 0.041569108008365441 0 -0.032993239872676598 0.04886632779293168 0 -0.02815367237455893 0.039215512802372537 0 -0.051653950244724557 0.047539703963967651 0 -0.049626609337322693 0.035138022514023627 0 -0.039151155349654278 0.041569108008365441 0 -0.051653950244724557 0.047539703963967651 0 -0.039151155349654278 0.041569108008365441 0 -0.041869656069312207 0.056198841678765023 0 -0.039151155349654278 0.041569108008365441 0 -0.032993239872676598 0.04886632779293168 0 -0.041869656069312207 0.056198841678765023 0 -0.032993239872676598 0.04886632779293168 0 -0.031536308678277412 0.057899084391162009 0 -0.041869656069312207 0.056198841678765023 0 -0.036774932561135468 0.071420998956360698 0 -0.031536308678277412 0.057899084391162009 0 -0.041869656069312207 0.056198841678765023 0 -0.031536308678277412 0.057899084391162009 0 -0.020062615368003831 0.062399596299045387 0 -0.024255406891580171 0.049449092083993409 0 -0.032993239872676598 0.04886632779293168 0 -0.031536308678277412 0.057899084391162009 0 -0.024255406891580171 0.049449092083993409 0 -0.020062615368003831 0.062399596299045387 0 -0.024255406891580171 0.049449092083993409 0 -0.010633143351810131 0.047616967758734682 0 -0.03678526358247694 0.026706201877031391 0 -0.02815367237455893 0.039215512802372537 0 -0.020414151475592439 0.02864542666053084 0 -0.024255406891580171 0.049449092083993409 0 -0.016932009085831399 0.039552267704811232 0 -0.02815367237455893 0.039215512802372537 0 -0.024255406891580171 0.049449092083993409 0 -0.016932009085831399 0.039552267704811232 0 -0.010633143351810131 0.047616967758734682 0 -0.032993239872676598 0.04886632779293168 0 -0.024255406891580171 0.049449092083993409 0 -0.02815367237455893 0.039215512802372537 0 -0.016932009085831399 0.039552267704811232 0 -0.02815367237455893 0.039215512802372537 0 -0.020414151475592439 0.02864542666053084 0 -0.016932009085831399 0.039552267704811232 0 -0.001203671335615341 0.032834339218424678 0 -0.020414151475592439 0.02864542666053084 0 -0.016932009085831399 0.039552267704811232 0 -0.001203671335615341 0.032834339218424678 0 -0.010633143351810131 0.047616967758734682 0 -0.001203671335615341 0.032834339218424678 0 -0.010633143351810131 0.047616967758734682 0 0.0021565274958116618 0.042913402354031543 0 -0.001203671335615341 0.032834339218424678 0 -0.010633143351810131 0.047616967758734682 0 -0.010633143351810131 0.047616967758734682 0 -0.0006061144854569504 0.051073414227021753 0 -0.010816812974031359 0.057408660253370561 0 -0.010633143351810131 0.047616967758734682 0 -0.0006061144854569504 0.051073414227021753 0 0.0021565274958116618 0.042913402354031543 0 -0.0006061144854569504 0.051073414227021753 0 -0.0032772765586955941 0.05829598172045572 0 0.0027775871166603309 0.061015890287034837 0 -0.0050949491525419822 0.064574267692650539 0 -0.0032772765586955941 0.05829598172045572 0 0.0027775871166603309 0.061015890287034837 0 -0.0006061144854569504 0.051073414227021753 0 -0.0032772765586955941 0.05829598172045572 0 -0.010816812974031359 0.057408660253370561 0 -0.0050949491525419822 0.064574267692650539 0 -0.0032772765586955941 0.05829598172045572 0 -0.010816812974031359 0.057408660253370561 0 -0.01236908596492065 0.067328345758786864 0 -0.020062615368003831 0.062399596299045387 0 -0.010816812974031359 0.057408660253370561 0 -0.020062615368003831 0.062399596299045387 0 -0.010633143351810131 0.047616967758734682 0 -0.020062615368003831 0.062399596299045387 0 -0.010816812974031359 0.057408660253370561 0 -0.020062615368003831 0.062399596299045387 0 -0.010633143351810131 0.047616967758734682 0 -0.010816812974031359 0.057408660253370561 0 -0.03678526358247694 0.026706201877031391 0 -0.026730916356787399 0.0046663374994025432 0 -0.020414151475592439 0.02864542666053084 0 -0.026730916356787399 0.0046663374994025432 0 -0.020414151475592439 0.02864542666053084 0 -0.0089100969817144954 0.018185949071688481 0 -0.001203671335615341 0.032834339218424678 0 -0.020414151475592439 0.02864542666053084 0 -0.0089100969817144954 0.018185949071688481 0 -0.026730916356787399 0.0046663374994025432 0 2.2740406854876442e-05 0.0043645874611814451 0 -0.026730916356787399 0.0046663374994025432 0 -0.0089100969817144954 0.018185949071688481 0 2.2740406854876442e-05 0.0043645874611814451 0 2.2740406854876442e-05 0.0043645874611814451 0 0.02677639717049712 0.0040628374229603461 0 2.2740406854876442e-05 0.0043645874611814451 0 0.012840224124390009 0.02002634559664072 0 0.02677639717049712 0.0040628374229603461 0 -0.0089100969817144954 0.018185949071688481 0 2.2740406854876442e-05 0.0043645874611814451 0 0.012840224124390009 0.02002634559664072 0 -0.001203671335615341 0.032834339218424678 0 -0.0089100969817144954 0.018185949071688481 0 0.012840224124390009 0.02002634559664072 0 -0.001203671335615341 0.032834339218424678 0 0.012840224124390009 0.02002634559664072 0 0.014088607561745939 0.036377644826958537 0 0.012840224124390009 0.02002634559664072 0 0.02126982966014777 0.027581990578188172 0 0.014088607561745939 0.036377644826958537 0 0.012840224124390009 0.02002634559664072 0 0.02126982966014777 0.027581990578188172 0 0.02925424117774084 0.019062333417554731 0 0.02126982966014777 0.027581990578188172 0 0.02925424117774084 0.019062333417554731 0 0.031439304263288573 0.02788124191732216 0 0.02126982966014777 0.027581990578188172 0 0.02702376418999785 0.035045253154571278 0 0.031439304263288573 0.02788124191732216 0 0.012840224124390009 0.02002634559664072 0 0.02925424117774084 0.019062333417554731 0 0.02677639717049712 0.0040628374229603461 0 0.0087936884708714053 0.055682315638999953 0 0.01529230433809103 0.04982321221658266 0 0.017955414181849622 0.05898227478120658 0 0.0087936884708714053 0.055682315638999953 0 0.017955414181849622 0.05898227478120658 0 0.0085032657975456939 0.064782867351069695 0 -0.0006061144854569504 0.051073414227021753 0 0.0087936884708714053 0.055682315638999953 0 0.0027775871166603309 0.061015890287034837 0 0.0087936884708714053 0.055682315638999953 0 0.0027775871166603309 0.061015890287034837 0 0.0085032657975456939 0.064782867351069695 0 -0.0006061144854569504 0.051073414227021753 0 0.0091369590901947927 0.046664645739018018 0 0.0021565274958116618 0.042913402354031543 0 -0.0006061144854569504 0.051073414227021753 0 0.0087936884708714053 0.055682315638999953 0 0.0091369590901947927 0.046664645739018018 0 0.0087936884708714053 0.055682315638999953 0 0.01529230433809103 0.04982321221658266 0 0.0091369590901947927 0.046664645739018018 0 0.0091369590901947927 0.046664645739018018 0 0.0021565274958116618 0.042913402354031543 0 0.014088607561745939 0.036377644826958537 0 0.0091369590901947927 0.046664645739018018 0 0.014088607561745939 0.036377644826958537 0 0.016372288927599041 0.04386578758376318 0 0.01529230433809103 0.04982321221658266 0 0.0091369590901947927 0.046664645739018018 0 0.016372288927599041 0.04386578758376318 0 -0.001203671335615341 0.032834339218424678 0 0.0021565274958116618 0.042913402354031543 0 0.014088607561745939 0.036377644826958537 0 0.02702376418999785 0.035045253154571278 0 0.024203171019940298 0.043921037339925563 0 0.027706051050216771 0.054226260646968137 0 0.02702376418999785 0.035045253154571278 0 0.027706051050216771 0.054226260646968137 0 0.014088607561745939 0.036377644826958537 0 0.02702376418999785 0.035045253154571278 0 0.024203171019940298 0.043921037339925563 0 0.02126982966014777 0.027581990578188172 0 0.014088607561745939 0.036377644826958537 0 0.02702376418999785 0.035045253154571278 0 0.014088607561745939 0.036377644826958537 0 0.024203171019940298 0.043921037339925563 0 0.016372288927599041 0.04386578758376318 0 0.01529230433809103 0.04982321221658266 0 0.024203171019940298 0.043921037339925563 0 0.016372288927599041 0.04386578758376318 0 0.01529230433809103 0.04982321221658266 0 0.024203171019940298 0.043921037339925563 0 0.017955414181849622 0.05898227478120658 0 0.024203171019940298 0.043921037339925563 0 0.017955414181849622 0.05898227478120658 0 0.024203171019940298 0.043921037339925563 0 0.027706051050216771 0.054226260646968137 0 0.017955414181849622 0.05898227478120658 0 0.027706051050216771 0.054226260646968137 0 0.017955414181849622 0.05898227478120658 0 0.020265452516061409 0.06770257163074575 0 0.027706051050216771 0.054226260646968137 0 0.043066998520664923 0.057626317357539383 0 0.02838833791043523 0.073407268139365031 0 0.027706051050216771 0.054226260646968137 0 0.043066998520664923 0.057626317357539383 0 0.039523730896264112 0.043945198489164838 0 0.043066998520664923 0.057626317357539383 0 0.039523730896264112 0.043945198489164838 0 0.054831178181147432 0.043658755275049907 0 0.02702376418999785 0.035045253154571278 0 0.027706051050216771 0.054226260646968137 0 0.039523730896264112 0.043945198489164838 0 0.02702376418999785 0.035045253154571278 0 0.038285970304957458 0.032774422402459202 0 0.031439304263288573 0.02788124191732216 0 0.02702376418999785 0.035045253154571278 0 0.039523730896264112 0.043945198489164838 0 0.038285970304957458 0.032774422402459202 0 0.039523730896264112 0.043945198489164838 0 0.038285970304957458 0.032774422402459202 0 0.046741363393885342 0.03494412245151584 0 0.046741363393885342 0.03494412245151584 0 0.054831178181147432 0.043658755275049907 0 0.058223277056796453 0.03012072654794162 0 0.054831178181147432 0.043658755275049907 0 0.058223277056796453 0.03012072654794162 0 0.066781811518098089 0.036087207914277712 0 0.039523730896264112 0.043945198489164838 0 0.046741363393885342 0.03494412245151584 0 0.054831178181147432 0.043658755275049907 0 0.054831178181147432 0.043658755275049907 0 0.056783888171228009 0.05798205909045559 0 0.070520715737582312 0.053479873298418072 0 0.043066998520664923 0.057626317357539383 0 0.054831178181147432 0.043658755275049907 0 0.056783888171228009 0.05798205909045559 0 0.02677639717049712 0.0040628374229603461 0 0.053530053934139413 0.0037610873847392472 0 0.02677639717049712 0.0040628374229603461 0 0.040804558126329563 0.013152315864483399 0 0.053530053934139413 0.0037610873847392472 0 0.02677639717049712 0.0040628374229603461 0 0.053530053934139413 0.0037610873847392472 0 0.043586891165036501 -0.00080757657150902495 0 0.02925424117774084 0.019062333417554731 0 0.02677639717049712 0.0040628374229603461 0 0.040804558126329563 0.013152315864483399 0 0.02925424117774084 0.019062333417554731 0 0.040804558126329563 0.013152315864483399 0 0.042842660530261263 0.02422150954296361 0 0.038285970304957458 0.032774422402459202 0 0.031439304263288573 0.02788124191732216 0 0.042842660530261263 0.02422150954296361 0 0.02925424117774084 0.019062333417554731 0 0.031439304263288573 0.02788124191732216 0 0.042842660530261263 0.02422150954296361 0 0.038285970304957458 0.032774422402459202 0 0.046741363393885342 0.03494412245151584 0 0.042842660530261263 0.02422150954296361 0 0.040804558126329563 0.013152315864483399 0 0.042842660530261263 0.02422150954296361 0 0.053760985593060653 0.017433969567970081 0 0.046741363393885342 0.03494412245151584 0 0.042842660530261263 0.02422150954296361 0 0.058223277056796453 0.03012072654794162 0 0.042842660530261263 0.02422150954296361 0 0.053760985593060653 0.017433969567970081 0 0.058223277056796453 0.03012072654794162 0 0.053760985593060653 0.017433969567970081 0 0.061256267093866952 0.01341555237956329 0 0.065915345783848375 0.022619060124210669 0 0.053760985593060653 0.017433969567970081 0 0.058223277056796453 0.03012072654794162 0 0.065915345783848375 0.022619060124210669 0 0.061256267093866952 0.01341555237956329 0 0.053530053934139413 0.0037610873847392472 0 0.070820906316507948 0.011639069070643229 0 0.053760985593060653 0.017433969567970081 0 0.061256267093866952 0.01341555237956329 0 0.053530053934139413 0.0037610873847392472 0 0.040804558126329563 0.013152315864483399 0 0.053760985593060653 0.017433969567970081 0 0.053530053934139413 0.0037610873847392472 0 0.053530053934139413 0.0037610873847392472 0 0.080283710697781729 0.0034593373465184158 0 0.053530053934139413 0.0037610873847392472 0 0.070820906316507948 0.011639069070643229 0 0.080283710697781729 0.0034593373465184158 0 0.053530053934139413 0.0037610873847392472 0 0.080283710697781729 0.0034593373465184158 0 0.066490165548172497 -0.0053167695305632789 0 0.080283710697781729 0.0034593373465184158 0 0.091440396207303098 0.0033335029490501392 0 0.096399905044555562 0.015469484052593629 0 0.080283710697781729 0.0034593373465184158 0 0.091440396207303098 0.0033335029490501392 0 0.070820906316507948 0.011639069070643229 0 0.080283710697781729 0.0034593373465184158 0 0.084418540831115815 0.03055762432576823 0 0.080283710697781729 0.0034593373465184158 0 0.084418540831115815 0.03055762432576823 0 0.080283710697781729 0.0034593373465184158 0 0.084418540831115815 0.03055762432576823 0 0.096399905044555562 0.015469484052593629 0 0.070820906316507948 0.011639069070643229 0 0.084418540831115815 0.03055762432576823 0 0.065915345783848375 0.022619060124210669 0 0.084418540831115815 0.03055762432576823 0 0.065915345783848375 0.022619060124210669 0 0.066781811518098089 0.036087207914277712 0 0.061256267093866952 0.01341555237956329 0 0.070820906316507948 0.011639069070643229 0 0.065915345783848375 0.022619060124210669 0 0.058223277056796453 0.03012072654794162 0 0.065915345783848375 0.022619060124210669 0 0.066781811518098089 0.036087207914277712 0 0.084418540831115815 0.03055762432576823 0 0.066781811518098089 0.036087207914277712 0 0.070520715737582312 0.053479873298418072 0 0.054831178181147432 0.043658755275049907 0 0.066781811518098089 0.036087207914277712 0 0.070520715737582312 0.053479873298418072 0 0.056783888171228009 0.05798205909045559 0 0.070520715737582312 0.053479873298418072 0 0.073949271918960766 0.071669456869100451 0 0.070520715737582312 0.053479873298418072 0 0.088553370964451789 0.05765591130501764 0 0.073949271918960766 0.071669456869100451 0 0.084418540831115815 0.03055762432576823 0 0.070520715737582312 0.053479873298418072 0 0.088553370964451789 0.05765591130501764 0 0.084418540831115815 0.03055762432576823 0 0.088553370964451789 0.05765591130501764 0 0.097821461163122958 0.048159967861969577 0 0.084418540831115815 0.03055762432576823 0 0.088553370964451789 0.05765591130501764 0 0.084418540831115815 0.03055762432576823 0 0.1087368768762707 0.038127997723646813 0 0.097821461163122958 0.048159967861969577 0 0.1087368768762707 0.038127997723646813 0 0.1060505051524195 0.064727444070136905 0 0.0972276225429623 0.061375556994889328 0 0.097821461163122958 0.048159967861969577 0 0.1060505051524195 0.064727444070136905 0 0.1087368768762707 0.038127997723646813 0 0.097821461163122958 0.048159967861969577 0 0.1060505051524195 0.064727444070136905 0 0.088553370964451789 0.05765591130501764 0 0.0972276225429623 0.061375556994889328 0 0.097821461163122958 0.048159967861969577 0 0.1087368768762707 0.038127997723646813 0 0.1195094402637699 0.058798797955330932 0 0.1060505051524195 0.064727444070136905 0 0.1087368768762707 0.038127997723646813 0 0.1195094402637699 0.058798797955330932 0 0.1303577378970559 0.047232305208279327 0 0.1087368768762707 0.038127997723646813 0 0.12709100070137189 0.026086172122875138 0 0.1303577378970559 0.047232305208279327 0 0.1087368768762707 0.038127997723646813 0 0.1114232486001219 0.011528551377156729 0 0.12709100070137189 0.026086172122875138 0 0.1087368768762707 0.038127997723646813 0 0.1114232486001219 0.011528551377156729 0 0.12476049303783231 0.0027968485244255609 0 0.1114232486001219 0.011528551377156729 0 0.12709100070137189 0.026086172122875138 0 0.1114232486001219 0.011528551377156729 0 0.10064470134203141 0.0063939783348743373 0 0.1033152555161449 -0.0047556250393031539 0 0.1114232486001219 0.011528551377156729 0 0.10064470134203141 0.0063939783348743373 0 0.096399905044555562 0.015469484052593629 0 0.091440396207303098 0.0033335029490501392 0 0.10064470134203141 0.0063939783348743373 0 0.1033152555161449 -0.0047556250393031539 0 0.091440396207303098 0.0033335029490501392 0 0.10064470134203141 0.0063939783348743373 0 0.096399905044555562 0.015469484052593629 0 0.084418540831115815 0.03055762432576823 0 0.1087368768762707 0.038127997723646813 0 0.096399905044555562 0.015469484052593629 0 0.1087368768762707 0.038127997723646813 0 0.1114232486001219 0.011528551377156729 0 0.096399905044555562 0.015469484052593629 0 0.1034028927276691 0.099776966305095222 0 0.1115742583924318 0.1139428358451049 0 0.087692367089376388 0.1036681180449969 0 0.1034028927276691 0.099776966305095222 0 0.093931161688132453 0.087707301252488171 0 0.087692367089376388 0.1036681180449969 0 0.1034028927276691 0.099776966305095222 0 0.1138256920804032 0.098926352300852338 0 0.105646530318161 0.089707260492768073 0 0.1115742583924318 0.1139428358451049 0 0.087692367089376388 0.1036681180449969 0 0.093571338038818952 0.13028581703133199 0 0.1115742583924318 0.1139428358451049 0 0.124944045687717 0.12641920630367029 0 0.12609589304222479 0.1138041793199234 0 0.1115742583924318 0.1139428358451049 0 0.1219350760894693 0.1041850896555971 0 0.12609589304222479 0.1138041793199234 0 0.1034028927276691 0.099776966305095222 0 0.1115742583924318 0.1139428358451049 0 0.1138256920804032 0.098926352300852338 0 0.1115742583924318 0.1139428358451049 0 0.1219350760894693 0.1041850896555971 0 0.1138256920804032 0.098926352300852338 0 0.1219350760894693 0.1041850896555971 0 0.1138256920804032 0.098926352300852338 0 0.1231419713223879 0.095690801609799286 0 0.1138256920804032 0.098926352300852338 0 0.1231419713223879 0.095690801609799286 0 0.1158874211290855 0.090013882618541805 0 0.1219350760894693 0.1041850896555971 0 0.1231419713223879 0.095690801609799286 0 0.12839322637741121 0.10279013128812189 0 0.1231419713223879 0.095690801609799286 0 0.1158874211290855 0.090013882618541805 0 0.12614944224316199 0.084999279173944245 0 0.11799268673854781 0.079305503575821334 0 0.1158874211290855 0.090013882618541805 0 0.12614944224316199 0.084999279173944245 0 0.11799268673854781 0.079305503575821334 0 0.12575758491747441 0.0716176020917699 0 0.12614944224316199 0.084999279173944245 0 0.11799268673854781 0.079305503575821334 0 0.1158874211290855 0.090013882618541805 0 0.10707914161144259 0.079069601366389311 0 0.1138256920804032 0.098926352300852338 0 0.1158874211290855 0.090013882618541805 0 0.105646530318161 0.089707260492768073 0 0.1158874211290855 0.090013882618541805 0 0.105646530318161 0.089707260492768073 0 0.10707914161144259 0.079069601366389311 0 0.1195094402637699 0.058798797955330932 0 0.11508984379157421 0.070827152628461426 0 0.12575758491747441 0.0716176020917699 0 0.11799268673854781 0.079305503575821334 0 0.11508984379157421 0.070827152628461426 0 0.12575758491747441 0.0716176020917699 0 0.11508984379157421 0.070827152628461426 0 0.1060505051524195 0.064727444070136905 0 0.10707914161144259 0.079069601366389311 0 0.11799268673854781 0.079305503575821334 0 0.11508984379157421 0.070827152628461426 0 0.10707914161144259 0.079069601366389311 0 0.1195094402637699 0.058798797955330932 0 0.11508984379157421 0.070827152628461426 0 0.1060505051524195 0.064727444070136905 0 0.1060505051524195 0.064727444070136905 0 0.096729738923223507 0.070800551233968154 0 0.10707914161144259 0.079069601366389311 0 0.088553370964451789 0.05765591130501764 0 0.0972276225429623 0.061375556994889328 0 0.096729738923223507 0.070800551233968154 0 0.0972276225429623 0.061375556994889328 0 0.1060505051524195 0.064727444070136905 0 0.096729738923223507 0.070800551233968154 0 0.096729738923223507 0.070800551233968154 0 0.10707914161144259 0.079069601366389311 0 0.093931161688132453 0.087707301252488171 0 0.105646530318161 0.089707260492768073 0 0.10707914161144259 0.079069601366389311 0 0.093931161688132453 0.087707301252488171 0 0.1034028927276691 0.099776966305095222 0 0.105646530318161 0.089707260492768073 0 0.093931161688132453 0.087707301252488171 0 0.093931161688132453 0.087707301252488171 0 0.073949271918960766 0.071669456869100451 0 0.073053036664580961 0.091004970125465698 0 0.096729738923223507 0.070800551233968154 0 0.073949271918960766 0.071669456869100451 0 0.096729738923223507 0.070800551233968154 0 0.093931161688132453 0.087707301252488171 0 0.073949271918960766 0.071669456869100451 0 0.088553370964451789 0.05765591130501764 0 0.096729738923223507 0.070800551233968154 0 0.073949271918960766 0.071669456869100451 0 0.073949271918960766 0.071669456869100451 0 0.05116880491469801 0.072538362504232734 0 0.073053036664580961 0.091004970125465698 0 0.057853565326153752 0.10299001837528921 0 0.059527508928997247 0.085890364353827436 0 0.073949271918960766 0.071669456869100451 0 0.073053036664580961 0.091004970125465698 0 0.059527508928997247 0.085890364353827436 0 0.073053036664580961 0.091004970125465698 0 0.087692367089376388 0.1036681180449969 0 0.072239436496325873 0.1190979288429567 0 0.073053036664580961 0.091004970125465698 0 0.072239436496325873 0.1190979288429567 0 0.057853565326153752 0.10299001837528921 0 0.093931161688132453 0.087707301252488171 0 0.073053036664580961 0.091004970125465698 0 0.087692367089376388 0.1036681180449969 0 0.087692367089376388 0.1036681180449969 0 0.093571338038818952 0.13028581703133199 0 0.087692367089376388 0.1036681180449969 0 0.072239436496325873 0.1190979288429567 0 0.093571338038818952 0.13028581703133199 0 0.051534840982549027 0.1214385844138048 0 0.057853565326153752 0.10299001837528921 0 0.043365224196157327 0.1097415435784321 0 0.072239436496325873 0.1190979288429567 0 0.051534840982549027 0.1214385844138048 0 0.057853565326153752 0.10299001837528921 0 0.057853565326153752 0.10299001837528921 0 0.043365224196157327 0.1097415435784321 0 0.044647035915859633 0.089767654208984832 0 0.043365224196157327 0.1097415435784321 0 0.029095859266349659 0.093297688459730369 0 0.02980338062226363 0.11318810878009571 0 0.043365224196157327 0.1097415435784321 0 0.044647035915859633 0.089767654208984832 0 0.029095859266349659 0.093297688459730369 0 0.03441625599969219 0.1214699112689917 0 0.043365224196157327 0.1097415435784321 0 0.02980338062226363 0.11318810878009571 0 0.051534840982549027 0.1214385844138048 0 0.03441625599969219 0.1214699112689917 0 0.043365224196157327 0.1097415435784321 0 0.073949271918960766 0.071669456869100451 0 0.05116880491469801 0.072538362504232734 0 0.059527508928997247 0.085890364353827436 0 0.056783888171228009 0.05798205909045559 0 0.073949271918960766 0.071669456869100451 0 0.05116880491469801 0.072538362504232734 0 0.043066998520664923 0.057626317357539383 0 0.056783888171228009 0.05798205909045559 0 0.05116880491469801 0.072538362504232734 0 0.057853565326153752 0.10299001837528921 0 0.059527508928997247 0.085890364353827436 0 0.044647035915859633 0.089767654208984832 0 0.05116880491469801 0.072538362504232734 0 0.059527508928997247 0.085890364353827436 0 0.044647035915859633 0.089767654208984832 0 0.05116880491469801 0.072538362504232734 0 0.044647035915859633 0.089767654208984832 0 0.02838833791043523 0.073407268139365031 0 0.044647035915859633 0.089767654208984832 0 0.02838833791043523 0.073407268139365031 0 0.029095859266349659 0.093297688459730369 0 0.05116880491469801 0.072538362504232734 0 0.02838833791043523 0.073407268139365031 0 0.043066998520664923 0.057626317357539383 0 0.05116880491469801 0.072538362504232734 0 0.02838833791043523 0.073407268139365031 0 0.02838833791043523 0.073407268139365031 0 0.011707657343758769 0.074043512222487506 0 0.02838833791043523 0.073407268139365031 0 0.020265452516061409 0.06770257163074575 0 0.011707657343758769 0.074043512222487506 0 0.027706051050216771 0.054226260646968137 0 0.02838833791043523 0.073407268139365031 0 0.027706051050216771 0.054226260646968137 0 0.02838833791043523 0.073407268139365031 0 0.020265452516061409 0.06770257163074575 0 0.017955414181849622 0.05898227478120658 0 0.020265452516061409 0.06770257163074575 0 0.011707657343758769 0.074043512222487506 0 0.02838833791043523 0.073407268139365031 0 0.017534298914294592 0.088449207075476308 0 0.011707657343758769 0.074043512222487506 0 0.02838833791043523 0.073407268139365031 0 0.029095859266349659 0.093297688459730369 0 0.02838833791043523 0.073407268139365031 0 0.017534298914294592 0.088449207075476308 0 0.029095859266349659 0.093297688459730369 0 0.0020847749378083099 0.078230687096478249 0 0.011707657343758769 0.074043512222487506 0 0.0022678925523651979 0.096799605744922884 0 0.017534298914294592 0.088449207075476308 0 0.011707657343758769 0.074043512222487506 0 0.0022678925523651979 0.096799605744922884 0 0.011707657343758769 0.074043512222487506 0 0.0022678925523651979 0.096799605744922884 0 0.0020847749378083099 0.078230687096478249 0 0.011707657343758769 0.074043512222487506 0 0.009721275856115201 0.07411927792420954 0 0.011707657343758769 0.074043512222487506 0 0.009721275856115201 0.07411927792420954 0 0.011707657343758769 0.074043512222487506 0 0.0097177806480805238 0.07205057694729286 0 0.01092020440378391 0.068732490664053847 0 0.011707657343758769 0.074043512222487506 0 0.0097177806480805238 0.07205057694729286 0 0.009721275856115201 0.07411927792420954 0 0.0097177806480805238 0.07205057694729286 0 0.0065219849886642128 0.07130702697842059 0 0.01092020440378391 0.068732490664053847 0 0.0097177806480805238 0.07205057694729286 0 0.009721275856115201 0.07411927792420954 0 0.0065219849886642128 0.07130702697842059 0 0.0020847749378083099 0.078230687096478249 0 0.009721275856115201 0.07411927792420954 0 0.0065219849886642128 0.07130702697842059 0 0.0020847749378083099 0.078230687096478249 0 0.0065219849886642128 0.07130702697842059 0 0.0010595345373616469 0.069183840650855921 0 0.0027775871166603309 0.061015890287034837 0 0.0010595345373616469 0.069183840650855921 0 0.0085032657975456939 0.064782867351069695 0 0.0065219849886642128 0.07130702697842059 0 0.0010595345373616469 0.069183840650855921 0 0.0085032657975456939 0.064782867351069695 0 0.017955414181849622 0.05898227478120658 0 0.0085032657975456939 0.064782867351069695 0 0.01092020440378391 0.068732490664053847 0 0.017955414181849622 0.05898227478120658 0 0.011707657343758769 0.074043512222487506 0 0.01092020440378391 0.068732490664053847 0 0.017955414181849622 0.05898227478120658 0 0.011707657343758769 0.074043512222487506 0 0.0065219849886642128 0.07130702697842059 0 0.0085032657975456939 0.064782867351069695 0 0.01092020440378391 0.068732490664053847 0 0.03441625599969219 0.1214699112689917 0 0.02980338062226363 0.11318810878009571 0 0.013622191880332341 0.1205128052681753 0 0.03441625599969219 0.1214699112689917 0 0.013622191880332341 0.1205128052681753 0 0.021816789214141111 0.13293322911788241 0 0.03441625599969219 0.1214699112689917 0 0.013622191880332341 0.1205128052681753 0 0.02980338062226363 0.11318810878009571 0 0.016211747498564098 0.10469796081087571 0 0.013622191880332341 0.1205128052681753 0 0.017534298914294592 0.088449207075476308 0 0.029095859266349659 0.093297688459730369 0 0.016211747498564098 0.10469796081087571 0 0.029095859266349659 0.093297688459730369 0 0.02980338062226363 0.11318810878009571 0 0.029095859266349659 0.093297688459730369 0 0.02980338062226363 0.11318810878009571 0 0.016211747498564098 0.10469796081087571 0 -0.0071718722390274317 0.11955569926735859 0 0.016211747498564098 0.10469796081087571 0 0.0022678925523651979 0.096799605744922884 0 0.017534298914294592 0.088449207075476308 0 0.016211747498564098 0.10469796081087571 0 0.0022678925523651979 0.096799605744922884 0 -0.0071718722390274317 0.11955569926735859 0 0.016211747498564098 0.10469796081087571 0 0.013622191880332341 0.1205128052681753 0 -0.0071718722390274317 0.11955569926735859 0 0.013622191880332341 0.1205128052681753 0 -0.0071718722390274317 0.11955569926735859 0 0.013622191880332341 0.1205128052681753 0 0.003017903001127233 0.13115607762078649 0 0.003017903001127233 0.13115607762078649 0 0.021816789214141111 0.13293322911788241 0 0.0090034019054878404 0.1449374421830304 0 0.013622191880332341 0.1205128052681753 0 0.003017903001127233 0.13115607762078649 0 0.021816789214141111 0.13293322911788241 0 0.0090034019054878404 0.1449374421830304 0 0.017838618734829871 0.1574056030271466 0 0.031547981344171069 0.14573338122542689 0 0.021816789214141111 0.13293322911788241 0 0.0090034019054878404 0.1449374421830304 0 0.031547981344171069 0.14573338122542689 0 -0.0042016335045788238 0.15756862583259459 0 0.0090034019054878404 0.1449374421830304 0 0.017838618734829871 0.1574056030271466 0 -0.0042016335045788238 0.15756862583259459 0 0.0072149943495940869 0.16976998710142929 0 0.017838618734829871 0.1574056030271466 0 0.0072149943495940869 0.16976998710142929 0 0.00017271318419879829 0.1845110916695607 0 0.01815579206740402 0.19305448909347689 0 -0.0066138979197252392 0.17441914777680101 0 0.0072149943495940869 0.16976998710142929 0 0.00017271318419879829 0.1845110916695607 0 0.0072149943495940869 0.16976998710142929 0 0.033646654804229383 0.17416340429036881 0 0.01815579206740402 0.19305448909347689 0 0.033646654804229383 0.17416340429036881 0 0.01815579206740402 0.19305448909347689 0 0.0072149943495940869 0.16976998710142929 0 0.017838618734829871 0.1574056030271466 0 0.033646654804229383 0.17416340429036881 0 0.017838618734829871 0.1574056030271466 0 0.033646654804229383 0.17416340429036881 0 0.031547981344171069 0.14573338122542689 0 0.033646654804229383 0.17416340429036881 0 0.047627881968494157 0.15711331789435151 0 0.031547981344171069 0.14573338122542689 0 0.033646654804229383 0.17416340429036881 0 0.031547981344171069 0.14573338122542689 0 0.033646654804229383 0.17416340429036881 0 0.047627881968494157 0.15711331789435151 0 0.033646654804229383 0.17416340429036881 0 0.035432737656672222 0.19835886759478241 0 0.033646654804229383 0.17416340429036881 0 0.044382275821449921 0.1855345673949888 0 0.047627881968494157 0.15711331789435151 0 0.033646654804229383 0.17416340429036881 0 0.044382275821449921 0.1855345673949888 0 0.035432737656672222 0.19835886759478241 0 0.044382275821449921 0.1855345673949888 0 0.059927375588761718 0.18382963859836379 0 0.047627881968494157 0.15711331789435151 0 0.059927375588761718 0.18382963859836379 0 0.047627881968494157 0.15711331789435151 0 0.074306796799638197 0.16246665689532611 0 0.047627881968494157 0.15711331789435151 0 0.061609109132760173 0.14006323149833511 0 0.041425476440301277 0.13645860923646541 0 0.047627881968494157 0.15711331789435151 0 0.061609109132760173 0.14006323149833511 0 0.074306796799638197 0.16246665689532611 0 0.047627881968494157 0.15711331789435151 0 0.061609109132760173 0.14006323149833511 0 0.072239436496325873 0.1190979288429567 0 0.051534840982549027 0.1214385844138048 0 0.061609109132760173 0.14006323149833511 0 0.051534840982549027 0.1214385844138048 0 0.061609109132760173 0.14006323149833511 0 0.041425476440301277 0.13645860923646541 0 0.03441625599969219 0.1214699112689917 0 0.021816789214141111 0.13293322911788241 0 0.041425476440301277 0.13645860923646541 0 0.021816789214141111 0.13293322911788241 0 0.041425476440301277 0.13645860923646541 0 0.031547981344171069 0.14573338122542689 0 0.051534840982549027 0.1214385844138048 0 0.03441625599969219 0.1214699112689917 0 0.041425476440301277 0.13645860923646541 0 0.047627881968494157 0.15711331789435151 0 0.041425476440301277 0.13645860923646541 0 0.031547981344171069 0.14573338122542689 0 0.018574232411852201 0.24183753246135331 0 0.036447020789956923 0.24738458194663299 0 0.018574232411852201 0.24183753246135331 0 0.031911784129738219 0.2345702524842086 0 0.036447020789956923 0.24738458194663299 0 0.018574232411852201 0.24183753246135331 0 0.022734550121412268 0.22804724832904641 0 0.031911784129738219 0.2345702524842086 0 -0.0071456676101167961 0.2338550310653702 0 0.018574232411852201 0.24183753246135331 0 0.018574232411852201 0.24183753246135331 0 0.0084959545527315428 0.25114024567600379 0 0.016391949852141291 0.25651470091725309 0 -0.0071456676101167961 0.2338550310653702 0 0.018574232411852201 0.24183753246135331 0 0.0035012577501164969 0.2427079637763046 0 0.018574232411852201 0.24183753246135331 0 0.0035012577501164969 0.2427079637763046 0 0.0084959545527315428 0.25114024567600379 0 -0.001075236980814549 0.25381653425611589 0 0.0035012577501164969 0.2427079637763046 0 0.0084959545527315428 0.25114024567600379 0 -0.0071456676101167961 0.2338550310653702 0 0.018574232411852201 0.24183753246135331 0 0.010619580871216819 0.2268915531789695 0 -0.0071456676101167961 0.2338550310653702 0 0.010619580871216819 0.2268915531789695 0 0.0026649293305802081 0.21194557389658619 0 0.018574232411852201 0.24183753246135331 0 0.010619580871216819 0.2268915531789695 0 0.010619580871216819 0.2268915531789695 0 0.0026649293305802081 0.21194557389658619 0 0.010619580871216819 0.2268915531789695 0 0.016672408260079291 0.21850168559268909 0 0.0026649293305802081 0.21194557389658619 0 0.022734550121412268 0.22804724832904641 0 0.02716993842723717 0.21695514385522169 0 0.016672408260079291 0.21850168559268909 0 0.010619580871216819 0.2268915531789695 0 0.022734550121412268 0.22804724832904641 0 0.016672408260079291 0.21850168559268909 0 0.018574232411852201 0.24183753246135331 0 0.010619580871216819 0.2268915531789695 0 0.022734550121412268 0.22804724832904641 0 0.022734550121412268 0.22804724832904641 0 0.031061454540558558 0.22458990190752309 0 0.031911784129738219 0.2345702524842086 0 0.022734550121412268 0.22804724832904641 0 0.031061454540558558 0.22458990190752309 0 0.02716993842723717 0.21695514385522169 0 0.02716993842723717 0.21695514385522169 0 0.020173042549950251 0.2086689087036222 0 0.035432737656672222 0.19835886759478241 0 0.02716993842723717 0.21695514385522169 0 0.020173042549950251 0.2086689087036222 0 0.016672408260079291 0.21850168559268909 0 0.020173042549950251 0.2086689087036222 0 0.016672408260079291 0.21850168559268909 0 0.0026649293305802081 0.21194557389658619 0 0.020173042549950251 0.2086689087036222 0 0.0026649293305802081 0.21194557389658619 0 0.01815579206740402 0.19305448909347689 0 0.0026649293305802081 0.21194557389658619 0 0.01815579206740402 0.19305448909347689 0 0.00017271318419879829 0.1845110916695607 0 0.0029309145854395338 0.19475815837753441 0 0.01815579206740402 0.19305448909347689 0 0.0026649293305802081 0.21194557389658619 0 0.0029309145854395338 0.19475815837753441 0 0.01815579206740402 0.19305448909347689 0 0.020173042549950251 0.2086689087036222 0 0.01815579206740402 0.19305448909347689 0 0.035432737656672222 0.19835886759478241 0 0.033646654804229383 0.17416340429036881 0 0.01815579206740402 0.19305448909347689 0 0.035432737656672222 0.19835886759478241 0 0.044382275821449921 0.1855345673949888 0 0.035432737656672222 0.19835886759478241 0 0.051079766046947188 0.20777771468221609 0 0.059927375588761718 0.18382963859836379 0 0.051079766046947188 0.20777771468221609 0 0.068275097575813001 0.1979944038553498 0 0.059927375588761718 0.18382963859836379 0 0.051079766046947188 0.20777771468221609 0 0.044382275821449921 0.1855345673949888 0 0.059927375588761718 0.18382963859836379 0 0.051079766046947188 0.20777771468221609 0 0.051079766046947188 0.20777771468221609 0 0.058431261867242727 0.22354912445167691 0 0.070204013748790456 0.21107669214952199 0 0.035432737656672222 0.19835886759478241 0 0.051079766046947188 0.20777771468221609 0 0.037218820509115569 0.22255433089919591 0 0.035432737656672222 0.19835886759478241 0 0.037218820509115569 0.22255433089919591 0 0.036272179515291207 0.22082253396994281 0 0.02716993842723717 0.21695514385522169 0 0.035432737656672222 0.19835886759478241 0 0.036272179515291207 0.22082253396994281 0 0.035432737656672222 0.19835886759478241 0 0.037218820509115569 0.22255433089919591 0 0.051079766046947188 0.20777771468221609 0 0.042232156505133213 0.23172579076606861 0 0.037218820509115569 0.22255433089919591 0 0.038617986850250793 0.24150836643987461 0 0.037218820509115569 0.22255433089919591 0 0.042232156505133213 0.23172579076606861 0 0.038617986850250793 0.24150836643987461 0 0.051079766046947188 0.20777771468221609 0 0.037218820509115569 0.22255433089919591 0 0.042232156505133213 0.23172579076606861 0 0.037218820509115569 0.22255433089919591 0 0.038617986850250793 0.24150836643987461 0 0.031911784129738219 0.2345702524842086 0 0.031061454540558558 0.22458990190752309 0 0.02716993842723717 0.21695514385522169 0 0.036272179515291207 0.22082253396994281 0 0.037218820509115569 0.22255433089919591 0 0.036272179515291207 0.22082253396994281 0 0.031061454540558558 0.22458990190752309 0 0.037218820509115569 0.22255433089919591 0 0.036272179515291207 0.22082253396994281 0 0.031061454540558558 0.22458990190752309 0 0.037218820509115569 0.22255433089919591 0 0.031911784129738219 0.2345702524842086 0 0.037218820509115569 0.22255433089919591 0 0.042232156505133213 0.23172579076606861 0 0.042232156505133213 0.23172579076606861 0 0.058431261867242727 0.22354912445167691 0 0.058833821481006222 0.23729519308914851 0 0.051079766046947188 0.20777771468221609 0 0.042232156505133213 0.23172579076606861 0 0.058431261867242727 0.22354912445167691 0 0.058431261867242727 0.22354912445167691 0 0.058833821481006222 0.23729519308914851 0 0.069806551554335822 0.22987023157142991 0 0.042232156505133213 0.23172579076606861 0 0.058833821481006222 0.23729519308914851 0 0.053722420554875902 0.25274622420115039 0 0.042232156505133213 0.23172579076606861 0 0.053722420554875902 0.25274622420115039 0 0.058833821481006222 0.23729519308914851 0 0.059931904731732752 0.2477460156495658 0 0.053722420554875902 0.25274622420115039 0 0.058833821481006222 0.23729519308914851 0 0.059931904731732752 0.2477460156495658 0 0.067724568333001778 0.24213177980124981 0 0.042232156505133213 0.23172579076606861 0 0.038617986850250793 0.24150836643987461 0 0.053722420554875902 0.25274622420115039 0 0.039112838312762598 0.24821195266265239 0 0.038617986850250793 0.24150836643987461 0 0.053722420554875902 0.25274622420115039 0 0.042232156505133213 0.23172579076606861 0 0.038617986850250793 0.24150836643987461 0 0.038617986850250793 0.24150836643987461 0 0.031911784129738219 0.2345702524842086 0 0.036447020789956923 0.24738458194663299 0 0.039112838312762598 0.24821195266265239 0 0.036447020789956923 0.24738458194663299 0 0.039112838312762598 0.24821195266265239 0 0.038617986850250793 0.24150836643987461 0 0.036447020789956923 0.24738458194663299 0 0.038617986850250793 0.24150836643987461 0 0.036447020789956923 0.24738458194663299 0 0.039112838312762598 0.24821195266265239 0 0.038617986850250793 0.24150836643987461 0 0.088783463194145804 0.2499617020718464 0 0.080223067326315844 0.2371120534813044 0 0.096330838487110437 0.2300816521412109 0 0.088783463194145804 0.2499617020718464 0 0.080223067326315844 0.2371120534813044 0 0.07628835892792668 0.24895923227191261 0 0.080223067326315844 0.2371120534813044 0 0.07628835892792668 0.24895923227191261 0 0.067724568333001778 0.24213177980124981 0 0.07628835892792668 0.24895923227191261 0 0.067724568333001778 0.24213177980124981 0 0.067514909018214109 0.25264991452397462 0 0.059931904731732752 0.2477460156495658 0 0.067724568333001778 0.24213177980124981 0 0.067514909018214109 0.25264991452397462 0 0.058833821481006222 0.23729519308914851 0 0.067724568333001778 0.24213177980124981 0 0.069806551554335822 0.22987023157142991 0 0.080223067326315844 0.2371120534813044 0 0.067724568333001778 0.24213177980124981 0 0.069806551554335822 0.22987023157142991 0 0.069806551554335822 0.22987023157142991 0 0.082151493095028449 0.220856032954099 0 0.070204013748790456 0.21107669214952199 0 0.080223067326315844 0.2371120534813044 0 0.069806551554335822 0.22987023157142991 0 0.082151493095028449 0.220856032954099 0 0.058431261867242727 0.22354912445167691 0 0.069806551554335822 0.22987023157142991 0 0.070204013748790456 0.21107669214952199 0 0.082151493095028449 0.220856032954099 0 0.092933092031424858 0.21059049401861879 0 0.096330838487110437 0.2300816521412109 0 0.080223067326315844 0.2371120534813044 0 0.082151493095028449 0.220856032954099 0 0.096330838487110437 0.2300816521412109 0 0.082151493095028449 0.220856032954099 0 0.092933092031424858 0.21059049401861879 0 0.081482582560866615 0.20217577241847531 0 0.051079766046947188 0.20777771468221609 0 0.070204013748790456 0.21107669214952199 0 0.068275097575813001 0.1979944038553498 0 0.082151493095028449 0.220856032954099 0 0.070204013748790456 0.21107669214952199 0 0.081482582560866615 0.20217577241847531 0 0.070204013748790456 0.21107669214952199 0 0.068275097575813001 0.1979944038553498 0 0.081482582560866615 0.20217577241847531 0 0.059927375588761718 0.18382963859836379 0 0.068275097575813001 0.1979944038553498 0 0.07868174993369903 0.185112201428172 0 0.068275097575813001 0.1979944038553498 0 0.081482582560866615 0.20217577241847531 0 0.07868174993369903 0.185112201428172 0 0.093205855017276712 0.1928303946482755 0 0.081482582560866615 0.20217577241847531 0 0.07868174993369903 0.185112201428172 0 0.092933092031424858 0.21059049401861879 0 0.093205855017276712 0.1928303946482755 0 0.081482582560866615 0.20217577241847531 0 0.093205855017276712 0.1928303946482755 0 0.10941992714499731 0.20328254913052651 0 0.10532927993770411 0.18352121500400231 0 0.092933092031424858 0.21059049401861879 0 0.093205855017276712 0.1928303946482755 0 0.10941992714499731 0.20328254913052651 0 0.1194437214629037 0.18879690174476979 0 0.10941992714499731 0.20328254913052651 0 0.1272959988032368 0.20374943155484421 0 0.1194437214629037 0.18879690174476979 0 0.10941992714499731 0.20328254913052651 0 0.10532927993770411 0.18352121500400231 0 0.10941992714499731 0.20328254913052651 0 0.1178345729879227 0.22466064360607371 0 0.1272959988032368 0.20374943155484421 0 0.10941992714499731 0.20328254913052651 0 0.1041226425767019 0.21761198609719559 0 0.1178345729879227 0.22466064360607371 0 0.1178345729879227 0.22466064360607371 0 0.1272959988032368 0.20374943155484421 0 0.092933092031424858 0.21059049401861879 0 0.10941992714499731 0.20328254913052651 0 0.1041226425767019 0.21761198609719559 0 0.092933092031424858 0.21059049401861879 0 0.1041226425767019 0.21761198609719559 0 0.096330838487110437 0.2300816521412109 0 0.096330838487110437 0.2300816521412109 0 0.1178345729879227 0.22466064360607371 0 0.1083731471726074 0.24557185565730269 0 0.1041226425767019 0.21761198609719559 0 0.096330838487110437 0.2300816521412109 0 0.1178345729879227 0.22466064360607371 0 0.1083731471726074 0.24557185565730269 0 0.13150167835556251 0.240388990032782 0 0.13206362771497401 0.25404998313225402 0 0.1178345729879227 0.22466064360607371 0 0.1083731471726074 0.24557185565730269 0 0.1083731471726074 0.24557185565730269 0 0.13150167835556251 0.240388990032782 0 0.1178345729879227 0.22466064360607371 0 0.1083731471726074 0.24557185565730269 0 0.13150167835556251 0.240388990032782 0 0.088783463194145804 0.2499617020718464 0 0.1083731471726074 0.24557185565730269 0 0.088783463194145804 0.2499617020718464 0 0.096330838487110437 0.2300816521412109 0 0.1083731471726074 0.24557185565730269 0 0.080361798240041984 0.14423476241147321 0 0.093571338038818952 0.13028581703133199 0 0.099450308988261515 0.15690351601766711 0 0.080361798240041984 0.14423476241147321 0 0.074306796799638197 0.16246665689532611 0 0.099450308988261515 0.15690351601766711 0 0.072239436496325873 0.1190979288429567 0 0.080361798240041984 0.14423476241147321 0 0.093571338038818952 0.13028581703133199 0 0.072239436496325873 0.1190979288429567 0 0.061609109132760173 0.14006323149833511 0 0.080361798240041984 0.14423476241147321 0 0.061609109132760173 0.14006323149833511 0 0.080361798240041984 0.14423476241147321 0 0.074306796799638197 0.16246665689532611 0 0.059927375588761718 0.18382963859836379 0 0.074306796799638197 0.16246665689532611 0 0.07868174993369903 0.185112201428172 0 0.074306796799638197 0.16246665689532611 0 0.07868174993369903 0.185112201428172 0 0.090917716543795601 0.1727461687840352 0 0.093205855017276712 0.1928303946482755 0 0.07868174993369903 0.185112201428172 0 0.090917716543795601 0.1727461687840352 0 0.074306796799638197 0.16246665689532611 0 0.090917716543795601 0.1727461687840352 0 0.099450308988261515 0.15690351601766711 0 0.090917716543795601 0.1727461687840352 0 0.099450308988261515 0.15690351601766711 0 0.10532927993770411 0.18352121500400231 0 0.099450308988261515 0.15690351601766711 0 0.10532927993770411 0.18352121500400231 0 0.1140102746921155 0.17166112997541341 0 0.099450308988261515 0.15690351601766711 0 0.10532927993770411 0.18352121500400231 0 0.093205855017276712 0.1928303946482755 0 0.090917716543795601 0.1727461687840352 0 0.10532927993770411 0.18352121500400231 0 0.1194437214629037 0.18879690174476979 0 0.1140102746921155 0.17166112997541341 0 0.1411631267364645 0.18177018305906259 0 0.1194437214629037 0.18879690174476979 0 0.10532927993770411 0.18352121500400231 0 0.1140102746921155 0.17166112997541341 0 0.1140102746921155 0.17166112997541341 0 0.117499237159793 0.1541844853431667 0 0.13586201004953649 0.1612147584665202 0 0.099450308988261515 0.15690351601766711 0 0.1140102746921155 0.17166112997541341 0 0.117499237159793 0.1541844853431667 0 0.117499237159793 0.1541844853431667 0 0.1122144787211834 0.13696207007746861 0 0.12796389486957579 0.14215052231899439 0 0.099450308988261515 0.15690351601766711 0 0.117499237159793 0.1541844853431667 0 0.1122144787211834 0.13696207007746861 0 0.093571338038818952 0.13028581703133199 0 0.099450308988261515 0.15690351601766711 0 0.1122144787211834 0.13696207007746861 0 0.093571338038818952 0.13028581703133199 0 0.099450308988261515 0.15690351601766711 0 0.1115742583924318 0.1139428358451049 0 0.093571338038818952 0.13028581703133199 0 0.1122144787211834 0.13696207007746861 0 0.1115742583924318 0.1139428358451049 0 0.1122144787211834 0.13696207007746861 0 0.124944045687717 0.12641920630367029 0 0.1122144787211834 0.13696207007746861 0 0.124944045687717 0.12641920630367029 0 0.12796389486957579 0.14215052231899439 0 0.1364191313080145 0.13198838817936889 0 0.1448025907090246 0.14342564467226271 0 0.12796389486957579 0.14215052231899439 0 0.124944045687717 0.12641920630367029 0 0.1364191313080145 0.13198838817936889 0 0.12796389486957579 0.14215052231899439 0 0.124944045687717 0.12641920630367029 0 0.1364191313080145 0.13198838817936889 0 0.1399010246219663 0.1185031286530491 0 0.14768901359828349 0.1298134103230707 0 0.1448025907090246 0.14342564467226271 0 0.163325303880097 0.1353300035085945 0 0.14768901359828349 0.1298134103230707 0 0.163325303880097 0.1353300035085945 0 0.1546142286097463 0.1210109192760616 0 0.1364191313080145 0.13198838817936889 0 0.14768901359828349 0.1298134103230707 0 0.1399010246219663 0.1185031286530491 0 0.1364191313080145 0.13198838817936889 0 0.14768901359828349 0.1298134103230707 0 0.1448025907090246 0.14342564467226271 0 0.15469805141194551 0.1561183970708182 0 0.1448025907090246 0.14342564467226271 0 0.163325303880097 0.1353300035085945 0 0.15469805141194551 0.1561183970708182 0 0.1448025907090246 0.14342564467226271 0 0.13586201004953649 0.1612147584665202 0 0.117499237159793 0.1541844853431667 0 0.12796389486957579 0.14215052231899439 0 0.13586201004953649 0.1612147584665202 0 0.1448025907090246 0.14342564467226271 0 0.12796389486957579 0.14215052231899439 0 0.13586201004953649 0.1612147584665202 0 0.1140102746921155 0.17166112997541341 0 0.13586201004953649 0.1612147584665202 0 0.1411631267364645 0.18177018305906259 0 0.1140102746921155 0.17166112997541341 0 0.1411631267364645 0.18177018305906259 0 0.1411631267364645 0.18177018305906259 0 0.16831597878081339 0.19187923614271171 0 0.1411631267364645 0.18177018305906259 0 0.1590823359205604 0.17319760878875329 0 0.16831597878081339 0.19187923614271171 0 0.13586201004953649 0.1612147584665202 0 0.1411631267364645 0.18177018305906259 0 0.1590823359205604 0.17319760878875329 0 0.15469805141194551 0.1561183970708182 0 0.13586201004953649 0.1612147584665202 0 0.1590823359205604 0.17319760878875329 0 0.18120657706015669 0.1668780991225714 0 0.16831597878081339 0.19187923614271171 0 0.2005831527781185 0.18200300481078169 0 0.1590823359205604 0.17319760878875329 0 0.18120657706015669 0.1668780991225714 0 0.16968176023594689 0.15377864794593951 0 0.15469805141194551 0.1561183970708182 0 0.1590823359205604 0.17319760878875329 0 0.16968176023594689 0.15377864794593951 0 0.1590823359205604 0.17319760878875329 0 0.18120657706015669 0.1668780991225714 0 0.16831597878081339 0.19187923614271171 0 0.18120657706015669 0.1668780991225714 0 0.18648222776529469 0.13974192919468911 0 0.16968176023594689 0.15377864794593951 0 0.18648222776529469 0.13974192919468911 0 0.163325303880097 0.1353300035085945 0 0.16968176023594689 0.15377864794593951 0 0.18648222776529469 0.13974192919468911 0 0.163325303880097 0.1353300035085945 0 0.17907199784920841 0.12420406901578659 0 0.18648222776529469 0.13974192919468911 0 0.19473365735523579 0.1179635402702183 0 0.17907199784920841 0.12420406901578659 0 0.163325303880097 0.1353300035085945 0 0.16613706559432809 0.1156781477954635 0 0.17907199784920841 0.12420406901578659 0 0.15469805141194551 0.1561183970708182 0 0.163325303880097 0.1353300035085945 0 0.16968176023594689 0.15377864794593951 0 0.15463020953851789 0.23520612440826211 0 0.13150167835556251 0.240388990032782 0 0.15651689922818729 0.24262149791996021 0 0.15463020953851789 0.23520612440826211 0 0.13150167835556251 0.240388990032782 0 0.15651689922818729 0.24262149791996021 0 0.13206362771497401 0.25404998313225402 0 0.15463020953851789 0.23520612440826211 0 0.13150167835556251 0.240388990032782 0 0.1409865658579886 0.22920246844837669 0 0.13150167835556251 0.240388990032782 0 0.15651689922818729 0.24262149791996021 0 0.13206362771497401 0.25404998313225402 0 0.13150167835556251 0.240388990032782 0 0.13164622728776251 0.22878716241672781 0 0.1409865658579886 0.22920246844837669 0 0.1178345729879227 0.22466064360607371 0 0.13164622728776251 0.22878716241672781 0 0.13629635004948801 0.2194721248765481 0 0.1178345729879227 0.22466064360607371 0 0.13150167835556251 0.240388990032782 0 0.13164622728776251 0.22878716241672781 0 0.13164622728776251 0.22878716241672781 0 0.13629635004948801 0.2194721248765481 0 0.1409865658579886 0.22920246844837669 0 0.13629635004948801 0.2194721248765481 0 0.1409865658579886 0.22920246844837669 0 0.15086728543879721 0.22178699709529021 0 0.15463020953851789 0.23520612440826211 0 0.1409865658579886 0.22920246844837669 0 0.15086728543879721 0.22178699709529021 0 0.15086728543879721 0.22178699709529021 0 0.14616412760133141 0.20335966960226909 0 0.16118140879621201 0.212664092715703 0 0.13629635004948801 0.2194721248765481 0 0.15086728543879721 0.22178699709529021 0 0.14616412760133141 0.20335966960226909 0 0.1178345729879227 0.22466064360607371 0 0.13629635004948801 0.2194721248765481 0 0.1272959988032368 0.20374943155484421 0 0.13629635004948801 0.2194721248765481 0 0.14616412760133141 0.20335966960226909 0 0.1272959988032368 0.20374943155484421 0 0.1411631267364645 0.18177018305906259 0 0.14616412760133141 0.20335966960226909 0 0.1272959988032368 0.20374943155484421 0 0.1194437214629037 0.18879690174476979 0 0.1411631267364645 0.18177018305906259 0 0.1272959988032368 0.20374943155484421 0 0.1411631267364645 0.18177018305906259 0 0.14616412760133141 0.20335966960226909 0 0.16831597878081339 0.19187923614271171 0 0.14616412760133141 0.20335966960226909 0 0.16831597878081339 0.19187923614271171 0 0.16118140879621201 0.212664092715703 0 0.16831597878081339 0.19187923614271171 0 0.19546883082516239 0.20198828922636089 0 0.16831597878081339 0.19187923614271171 0 0.1853483842654037 0.21214611666923139 0 0.19546883082516239 0.20198828922636089 0 0.16831597878081339 0.19187923614271171 0 0.1853483842654037 0.21214611666923139 0 0.1732291682616853 0.2172931058143498 0 0.1853483842654037 0.21214611666923139 0 0.1820582932577644 0.22168591468934909 0 0.19056058745403789 0.22048839160983999 0 0.1853483842654037 0.21214611666923139 0 0.1732291682616853 0.2172931058143498 0 0.1820582932577644 0.22168591468934909 0 0.16831597878081339 0.19187923614271171 0 0.1732291682616853 0.2172931058143498 0 0.16118140879621201 0.212664092715703 0 0.15463020953851789 0.23520612440826211 0 0.1777587407214731 0.23002325878374219 0 0.15463020953851789 0.23520612440826211 0 0.16486657208448471 0.22668892596342649 0 0.1777587407214731 0.23002325878374219 0 0.15086728543879721 0.22178699709529021 0 0.16118140879621201 0.212664092715703 0 0.16486657208448471 0.22668892596342649 0 0.15463020953851789 0.23520612440826211 0 0.15086728543879721 0.22178699709529021 0 0.16486657208448471 0.22668892596342649 0 0.1732291682616853 0.2172931058143498 0 0.16118140879621201 0.212664092715703 0 0.16486657208448471 0.22668892596342649 0 0.1732291682616853 0.2172931058143498 0 0.16486657208448471 0.22668892596342649 0 0.17326224750722319 0.22468675394572921 0 0.1732291682616853 0.2172931058143498 0 0.17326224750722319 0.22468675394572921 0 0.17739436861917379 0.22414621588393269 0 0.1732291682616853 0.2172931058143498 0 0.17739436861917379 0.22414621588393269 0 0.1820582932577644 0.22168591468934909 0 0.17326224750722319 0.22468675394572921 0 0.17739436861917379 0.22414621588393269 0 0.1777587407214731 0.23002325878374219 0 0.1820582932577644 0.22168591468934909 0 0.18716338002683841 0.22704383629324401 0 0.19056058745403789 0.22048839160983999 0 0.17739436861917379 0.22414621588393269 0 0.1820582932577644 0.22168591468934909 0 0.18176240156226939 0.22764386113616841 0 0.1820582932577644 0.22168591468934909 0 0.18716338002683841 0.22704383629324401 0 0.18176240156226939 0.22764386113616841 0 0.18522945600696661 0.23177092845907579 0 0.18716338002683841 0.22704383629324401 0 0.18176240156226939 0.22764386113616841 0 0.18176240156226939 0.22764386113616841 0 0.18097017074140059 0.2311930127076664 0 0.1777587407214731 0.23002325878374219 0 0.18522945600696661 0.23177092845907579 0 0.18176240156226939 0.22764386113616841 0 0.18097017074140059 0.2311930127076664 0 0.18522945600696661 0.23177092845907579 0 0.18097017074140059 0.2311930127076664 0 0.18329987255423619 0.2357469381419155 0 0.16486657208448471 0.22668892596342649 0 0.17326224750722319 0.22468675394572921 0 0.1777587407214731 0.23002325878374219 0 0.17739436861917379 0.22414621588393269 0 0.18176240156226939 0.22764386113616841 0 0.1777587407214731 0.23002325878374219 0 0.1755555303481787 0.2372040665924473 0 0.1786081018079477 0.25275609474700989 0 0.1893027118352715 0.25591321596415212 0 0.1755555303481787 0.2372040665924473 0 0.1893027118352715 0.25591321596415212 0 0.1755555303481787 0.2372040665924473 0 0.1867380169727223 0.24202972856536459 0 0.1893027118352715 0.25591321596415212 0 0.18097017074140059 0.2311930127076664 0 0.1755555303481787 0.2372040665924473 0 0.18329987255423619 0.2357469381419155 0 0.1755555303481787 0.2372040665924473 0 0.18329987255423619 0.2357469381419155 0 0.1867380169727223 0.24202972856536459 0 0.18329987255423619 0.2357469381419155 0 0.1867380169727223 0.24202972856536459 0 0.18800618870191299 0.23653695438502351 0 0.18522945600696661 0.23177092845907579 0 0.18329987255423619 0.2357469381419155 0 0.18800618870191299 0.23653695438502351 0 0.1755555303481787 0.2372040665924473 0 0.17245793070736001 0.2487546097822059 0 0.1786081018079477 0.25275609474700989 0 0.15463020953851789 0.23520612440826211 0 0.1777587407214731 0.23002325878374219 0 0.15651689922818729 0.24262149791996021 0 0.18097017074140059 0.2311930127076664 0 0.1777587407214731 0.23002325878374219 0 0.15651689922818729 0.24262149791996021 0 0.18097017074140059 0.2311930127076664 0 0.15651689922818729 0.24262149791996021 0 0.1755555303481787 0.2372040665924473 0 0.16464510318760389 0.24831332401324829 0 0.15651689922818729 0.24262149791996021 0 0.1755555303481787 0.2372040665924473 0 0.17245793070736001 0.2487546097822059 0 0.16464510318760389 0.24831332401324829 0 0.18097017074140059 0.2311930127076664 0 0.1755555303481787 0.2372040665924473 0 0.15651689922818729 0.24262149791996021 0 0.16464510318760389 0.24831332401324829 0 0.15651689922818729 0.24262149791996021 0 0.15926591796108369 0.2557145643866473 0 0.2021685729854745 0.24474154839612419 0 0.2217256732695527 0.24035232717870739 0 0.20324983654009099 0.25932282194775452 0 0.21048074315998011 0.23563313324726709 0 0.2021685729854745 0.24474154839612419 0 0.2217256732695527 0.24035232717870739 0 0.2217256732695527 0.24035232717870739 0 0.20324983654009099 0.25932282194775452 0 0.21048074315998011 0.23563313324726709 0 0.21505945080540409 0.2275929445488282 0 0.2217256732695527 0.24035232717870739 0 0.21048074315998011 0.23563313324726709 0 0.2021685729854745 0.24474154839612419 0 0.20296927557948921 0.22984571286540861 0 0.2021685729854745 0.24474154839612419 0 0.19415257657177001 0.2469208898894758 0 0.19754826516547669 0.25241489083028829 0 0.2021685729854745 0.24474154839612419 0 0.19415257657177001 0.2469208898894758 0 0.195005315899905 0.23950506569145 0 0.1867380169727223 0.24202972856536459 0 0.19415257657177001 0.2469208898894758 0 0.195005315899905 0.23950506569145 0 0.1867380169727223 0.24202972856536459 0 0.19415257657177001 0.2469208898894758 0 0.1893027118352715 0.25591321596415212 0 0.1867380169727223 0.24202972856536459 0 0.18800618870191299 0.23653695438502351 0 0.195005315899905 0.23950506569145 0 0.18800618870191299 0.23653695438502351 0 0.195005315899905 0.23950506569145 0 0.19188534224159609 0.2325265699810605 0 0.2021685729854745 0.24474154839612419 0 0.195005315899905 0.23950506569145 0 0.20296927557948921 0.22984571286540861 0 0.195005315899905 0.23950506569145 0 0.20296927557948921 0.22984571286540861 0 0.19188534224159609 0.2325265699810605 0 0.20296927557948921 0.22984571286540861 0 0.19188534224159609 0.2325265699810605 0 0.1948739696082443 0.22534251616256051 0 0.18522945600696661 0.23177092845907579 0 0.18716338002683841 0.22704383629324401 0 0.19188534224159609 0.2325265699810605 0 0.18716338002683841 0.22704383629324401 0 0.19188534224159609 0.2325265699810605 0 0.1948739696082443 0.22534251616256051 0 0.18522945600696661 0.23177092845907579 0 0.18800618870191299 0.23653695438502351 0 0.19188534224159609 0.2325265699810605 0 0.18716338002683841 0.22704383629324401 0 0.19056058745403789 0.22048839160983999 0 0.1948739696082443 0.22534251616256051 0 0.19056058745403789 0.22048839160983999 0 0.1948739696082443 0.22534251616256051 0 0.20335891011193891 0.2162235742348145 0 0.20296927557948921 0.22984571286540861 0 0.1948739696082443 0.22534251616256051 0 0.20335891011193891 0.2162235742348145 0 0.20296927557948921 0.22984571286540861 0 0.21144056790001539 0.22055487825763781 0 0.20335891011193891 0.2162235742348145 0 0.20296927557948921 0.22984571286540861 0 0.21505945080540409 0.2275929445488282 0 0.21144056790001539 0.22055487825763781 0 0.21048074315998011 0.23563313324726709 0 0.20296927557948921 0.22984571286540861 0 0.21505945080540409 0.2275929445488282 0 0.21505945080540409 0.2275929445488282 0 0.21144056790001539 0.22055487825763781 0 0.22006864915725899 0.2194087454951536 0 0.16831597878081339 0.19187923614271171 0 0.19546883082516239 0.20198828922636089 0 0.2005831527781185 0.18200300481078169 0 0.21710497041974641 0.21400885706531861 0 0.19546883082516239 0.20198828922636089 0 0.22262168286951101 0.21209734231001051 0 0.19546883082516239 0.20198828922636089 0 0.21276242453027069 0.1985539225532835 0 0.22262168286951101 0.21209734231001051 0 0.19546883082516239 0.20198828922636089 0 0.22262168286951101 0.21209734231001051 0 0.21710497041974641 0.21400885706531861 0 0.20335891011193891 0.2162235742348145 0 0.19546883082516239 0.20198828922636089 0 0.21144056790001539 0.22055487825763781 0 0.21710497041974641 0.21400885706531861 0 0.22006864915725899 0.2194087454951536 0 0.21144056790001539 0.22055487825763781 0 0.21710497041974641 0.21400885706531861 0 0.20335891011193891 0.2162235742348145 0 0.1853483842654037 0.21214611666923139 0 0.19056058745403789 0.22048839160983999 0 0.20335891011193891 0.2162235742348145 0 0.1853483842654037 0.21214611666923139 0 0.20335891011193891 0.2162235742348145 0 0.19546883082516239 0.20198828922636089 0 0.19546883082516239 0.20198828922636089 0 0.21276242453027069 0.1985539225532835 0 0.2005831527781185 0.18200300481078169 0 0.21276242453027069 0.1985539225532835 0 0.2235233834823426 0.188781256874233 0 0.2005831527781185 0.18200300481078169 0 0.2235233834823426 0.188781256874233 0 0.22208796453289739 0.1998791993648236 0 0.22944436724946529 0.2000842757217671 0 0.21276242453027069 0.1985539225532835 0 0.2235233834823426 0.188781256874233 0 0.22208796453289739 0.1998791993648236 0 0.2235233834823426 0.188781256874233 0 0.22944436724946529 0.2000842757217671 0 0.23771806358683539 0.19221452277703699 0 0.23771806358683539 0.19221452277703699 0 0.24944343291725679 0.19441542054727931 0 0.2464345572839246 0.1857114382451 0 0.23771806358683539 0.19221452277703699 0 0.24944343291725679 0.19441542054727931 0 0.24223699847448221 0.20530072828483811 0 0.22944436724946529 0.2000842757217671 0 0.23771806358683539 0.19221452277703699 0 0.24223699847448221 0.20530072828483811 0 0.24020150999901441 0.2213818324096602 0 0.25867734672847609 0.20241133764061289 0 0.24223699847448221 0.20530072828483811 0 0.23733713980480831 0.21757593200166009 0 0.24020150999901441 0.2213818324096602 0 0.24223699847448221 0.20530072828483811 0 0.24020150999901441 0.2213818324096602 0 0.25867734672847609 0.20241133764061289 0 0.24020150999901441 0.2213818324096602 0 0.2527997622758939 0.2134747172007474 0 0.25229738250750439 0.21684689117579101 0 0.23733713980480831 0.21757593200166009 0 0.22262168286951101 0.21209734231001051 0 0.24223699847448221 0.20530072828483811 0 0.23733713980480831 0.21757593200166009 0 0.22262168286951101 0.21209734231001051 0 0.24223699847448221 0.20530072828483811 0 0.22262168286951101 0.21209734231001051 0 0.23733713980480831 0.21757593200166009 0 0.22262168286951101 0.21209734231001051 0 0.2294864505021128 0.219053302019945 0 0.22944436724946529 0.2000842757217671 0 0.24223699847448221 0.20530072828483811 0 0.22262168286951101 0.21209734231001051 0 0.22208796453289739 0.1998791993648236 0 0.22944436724946529 0.2000842757217671 0 0.22262168286951101 0.21209734231001051 0 0.21276242453027069 0.1985539225532835 0 0.22208796453289739 0.1998791993648236 0 0.22262168286951101 0.21209734231001051 0 0.21710497041974641 0.21400885706531861 0 0.22262168286951101 0.21209734231001051 0 0.22262168286951101 0.21209734231001051 0 0.22006864915725899 0.2194087454951536 0 0.2294864505021128 0.219053302019945 0 0.21710497041974641 0.21400885706531861 0 0.22262168286951101 0.21209734231001051 0 0.22006864915725899 0.2194087454951536 0 0.24020150999901441 0.2213818324096602 0 0.2217256732695527 0.24035232717870739 0 0.24020150999901441 0.2213818324096602 0 0.24113516658644571 0.2336564644832797 0 0.2217256732695527 0.24035232717870739 0 0.22537798073364501 0.22529787022984871 0 0.24020150999901441 0.2213818324096602 0 0.2217256732695527 0.24035232717870739 0 0.21505945080540409 0.2275929445488282 0 0.22537798073364501 0.22529787022984871 0 0.22006864915725899 0.2194087454951536 0 0.22537798073364501 0.22529787022984871 0 0.22006864915725899 0.2194087454951536 0 0.2294864505021128 0.219053302019945 0 0.21505945080540409 0.2275929445488282 0 0.22537798073364501 0.22529787022984871 0 0.2217256732695527 0.24035232717870739 0 0.22537798073364501 0.22529787022984871 0 0.2294864505021128 0.219053302019945 0 0.24020150999901441 0.2213818324096602 0 0.23733713980480831 0.21757593200166009 0 0.2294864505021128 0.219053302019945 0 0.24020150999901441 0.2213818324096602 0 0.24020150999901441 0.2213818324096602 0 0.2488418168950948 0.2229684027595536 0 0.25229738250750439 0.21684689117579101 0 0.24020150999901441 0.2213818324096602 0 0.2488418168950948 0.2229684027595536 0 0.2451243742167282 0.22663864441598461 0 0.2488418168950948 0.2229684027595536 0 0.2451243742167282 0.22663864441598461 0 0.25149112656619682 0.22885747807162579 0 0.2451243742167282 0.22663864441598461 0 0.24113516658644571 0.2336564644832797 0 0.25149112656619682 0.22885747807162579 0 0.24020150999901441 0.2213818324096602 0 0.2451243742167282 0.22663864441598461 0 0.24113516658644571 0.2336564644832797 0 0.24113516658644571 0.2336564644832797 0 0.2370001881435361 0.2463308645213014 0 0.25022510234823309 0.2419965137784883 0 0.24113516658644571 0.2336564644832797 0 0.25022510234823309 0.2419965137784883 0 0.25149112656619682 0.22885747807162579 0 0.2370001881435361 0.2463308645213014 0 0.24202371078080781 0.25684302508270712 0 0.25022510234823309 0.2419965137784883 0 0.24113516658644571 0.2336564644832797 0 0.2370001881435361 0.2463308645213014 0 0.2217256732695527 0.24035232717870739 0 0.2370001881435361 0.2463308645213014 0 0.2217256732695527 0.24035232717870739 0 0.22899738368326769 0.25660133231804849 0 0.18648222776529469 0.13974192919468911 0 0.2136772873925355 0.14687666462314011 0 0.21092144543246161 0.13035700385153839 0 0.2136772873925355 0.14687666462314011 0 0.21092144543246161 0.13035700385153839 0 0.22762622331531709 0.13567115184699441 0 0.18648222776529469 0.13974192919468911 0 0.21092144543246161 0.13035700385153839 0 0.19473365735523579 0.1179635402702183 0 0.18648222776529469 0.13974192919468911 0 0.21092144543246161 0.13035700385153839 0 0.18648222776529469 0.13974192919468911 0 0.2136772873925355 0.14687666462314011 0 0.2014246999160616 0.16090256191154259 0 0.18120657706015669 0.1668780991225714 0 0.18648222776529469 0.13974192919468911 0 0.2014246999160616 0.16090256191154259 0 0.18120657706015669 0.1668780991225714 0 0.2014246999160616 0.16090256191154259 0 0.2005831527781185 0.18200300481078169 0 0.2235233834823426 0.188781256874233 0 0.2005831527781185 0.18200300481078169 0 0.22207813764973861 0.16764186126205141 0 0.2136772873925355 0.14687666462314011 0 0.2014246999160616 0.16090256191154259 0 0.22207813764973861 0.16764186126205141 0 0.2014246999160616 0.16090256191154259 0 0.2005831527781185 0.18200300481078169 0 0.22207813764973861 0.16764186126205141 0 0.22207813764973861 0.16764186126205141 0 0.2411863370001672 0.16282392185974071 0 0.23353099027633969 0.14694547967202509 0 0.22207813764973861 0.16764186126205141 0 0.23657255507324459 0.17867322562386159 0 0.2411863370001672 0.16282392185974071 0 0.2235233834823426 0.188781256874233 0 0.22207813764973861 0.16764186126205141 0 0.23657255507324459 0.17867322562386159 0 0.2235233834823426 0.188781256874233 0 0.23771806358683539 0.19221452277703699 0 0.23657255507324459 0.17867322562386159 0 0.23771806358683539 0.19221452277703699 0 0.23657255507324459 0.17867322562386159 0 0.2464345572839246 0.1857114382451 0 0.23657255507324459 0.17867322562386159 0 0.2464345572839246 0.1857114382451 0 0.25172744253974771 0.17409645344866409 0 0.2411863370001672 0.16282392185974071 0 0.24876844027334519 0.14720168954242899 0 0.25840702724703668 0.16240883134597561 0 0.23657255507324459 0.17867322562386159 0 0.2411863370001672 0.16282392185974071 0 0.25172744253974771 0.17409645344866409 0 0.2411863370001672 0.16282392185974071 0 0.24876844027334519 0.14720168954242899 0 0.23353099027633969 0.14694547967202509 0 0.24876844027334519 0.14720168954242899 0 0.23353099027633969 0.14694547967202509 0 0.24182630146523329 0.1335432886261054 0 0.2136772873925355 0.14687666462314011 0 0.23353099027633969 0.14694547967202509 0 0.22762622331531709 0.13567115184699441 0 0.2136772873925355 0.14687666462314011 0 0.22207813764973861 0.16764186126205141 0 0.23353099027633969 0.14694547967202509 0 0.21092144543246161 0.13035700385153839 0 0.2353606630996283 0.12097207850838761 0 0.21092144543246161 0.13035700385153839 0 0.22762622331531709 0.13567115184699441 0 0.2353606630996283 0.12097207850838761 0 0.23353099027633969 0.14694547967202509 0 0.22762622331531709 0.13567115184699441 0 0.24182630146523329 0.1335432886261054 0 0.22762622331531709 0.13567115184699441 0 0.24182630146523329 0.1335432886261054 0 0.2353606630996283 0.12097207850838761 0 0.24876844027334519 0.14720168954242899 0 0.24182630146523329 0.1335432886261054 0 0.25413859587330628 0.13335810079468399 0 0.24182630146523329 0.1335432886261054 0 0.24987677668642461 0.1216251859118096 0 0.2353606630996283 0.12097207850838761 0 0.24182630146523329 0.1335432886261054 0 0.24987677668642461 0.1216251859118096 0 0.25413859587330628 0.13335810079468399 0 0.23909985288100041 0.1111711316047955 0 0.2353606630996283 0.12097207850838761 0 0.25979988076679511 0.1115871531652366 0 0.24987677668642461 0.1216251859118096 0 0.2353606630996283 0.12097207850838761 0 0.25979988076679511 0.1115871531652366 0 0.23909985288100041 0.1111711316047955 0 0.25979988076679511 0.1115871531652366 0 0.2353606630996283 0.12097207850838761 0 0.25979988076679511 0.1115871531652366 0 0.24963786501015919 0.1020248971531897 0 0.2322388080068136 0.1014632372175741 0 0.2347638283520814 0.088723514765995354 0 0.23909985288100041 0.1111711316047955 0 0.24963786501015919 0.1020248971531897 0 0.25979988076679511 0.1115871531652366 0 0.23909985288100041 0.1111711316047955 0 0.24963786501015919 0.1020248971531897 0 0.2322388080068136 0.1014632372175741 0 0.2322388080068136 0.1014632372175741 0 0.213204566592371 0.10893485433994241 0 0.21563302943029389 0.09377703756687239 0 0.2322388080068136 0.1014632372175741 0 0.21563302943029389 0.09377703756687239 0 0.2347638283520814 0.088723514765995354 0 0.2322388080068136 0.1014632372175741 0 0.22739497928295729 0.1123193172418277 0 0.213204566592371 0.10893485433994241 0 0.23909985288100041 0.1111711316047955 0 0.2322388080068136 0.1014632372175741 0 0.22739497928295729 0.1123193172418277 0 0.21092144543246161 0.13035700385153839 0 0.2353606630996283 0.12097207850838761 0 0.22739497928295729 0.1123193172418277 0 0.23909985288100041 0.1111711316047955 0 0.2353606630996283 0.12097207850838761 0 0.22739497928295729 0.1123193172418277 0 0.21092144543246161 0.13035700385153839 0 0.213204566592371 0.10893485433994241 0 0.19473365735523579 0.1179635402702183 0 0.21092144543246161 0.13035700385153839 0 0.22739497928295729 0.1123193172418277 0 0.213204566592371 0.10893485433994241 0 0.21563302943029389 0.09377703756687239 0 0.20071397285602391 0.102380517750469 0 0.19528241473226249 0.086864652207347695 0 0.213204566592371 0.10893485433994241 0 0.21563302943029389 0.09377703756687239 0 0.20071397285602391 0.102380517750469 0 0.20071397285602391 0.102380517750469 0 0.19473365735523579 0.1179635402702183 0 0.17803205495302671 0.10129850395266191 0 0.20071397285602391 0.102380517750469 0 0.19528241473226249 0.086864652207347695 0 0.17803205495302671 0.10129850395266191 0 0.213204566592371 0.10893485433994241 0 0.20071397285602391 0.102380517750469 0 0.19473365735523579 0.1179635402702183 0 0.18833475342864481 0.06726983837060671 0 0.19528241473226249 0.086864652207347695 0 0.21620205662201769 0.073657115700051234 0 0.21563302943029389 0.09377703756687239 0 0.19528241473226249 0.086864652207347695 0 0.21620205662201769 0.073657115700051234 0 0.18833475342864481 0.06726983837060671 0 0.21620205662201769 0.073657115700051234 0 0.20820566746429531 0.053482580160986982 0 0.21620205662201769 0.073657115700051234 0 0.24265909480624639 0.070067850223988079 0 0.22715755591662309 0.05627855436558054 0 0.21620205662201769 0.073657115700051234 0 0.2347638283520814 0.088723514765995354 0 0.24265909480624639 0.070067850223988079 0 0.21563302943029389 0.09377703756687239 0 0.21620205662201769 0.073657115700051234 0 0.2347638283520814 0.088723514765995354 0 0.2347638283520814 0.088723514765995354 0 0.24265909480624639 0.070067850223988079 0 0.25529113178443802 0.089267786231947754 0 0.24265909480624639 0.070067850223988079 0 0.25529113178443802 0.089267786231947754 0 0.24963786501015919 0.1020248971531897 0 0.2347638283520814 0.088723514765995354 0 0.25529113178443802 0.089267786231947754 0 0.24265909480624639 0.070067850223988079 0 0.24422613881931299 0.046380353871089089 0 0.22715755591662309 0.05627855436558054 0 0.24422613881931299 0.046380353871089089 0 0.24051442166525189 0.018205481349733769 0 0.26306230309304363 0.036931046343213668 0 0.24422613881931299 0.046380353871089089 0 0.22449482187124331 0.037804871871787361 0 0.24051442166525189 0.018205481349733769 0 0.24422613881931299 0.046380353871089089 0 0.22449482187124331 0.037804871871787361 0 0.22715755591662309 0.05627855436558054 0 0.22449482187124331 0.037804871871787361 0 0.22715755591662309 0.05627855436558054 0 0.20820566746429531 0.053482580160986982 0 0.24051442166525189 0.018205481349733769 0 0.25224907986928918 -0.004282503037371696 0 0.22767587784724139 -0.001729027059641961 0 0.24051442166525189 0.018205481349733769 0 0.25224907986928918 -0.004282503037371696 0 0.22449482187124331 0.037804871871787361 0 0.24051442166525189 0.018205481349733769 0 0.2107567109478142 0.015958845201794018 0 0.24051442166525189 0.018205481349733769 0 0.2107567109478142 0.015958845201794018 0 0.22767587784724139 -0.001729027059641961 0 0.2107567109478142 0.015958845201794018 0 0.2047437083246624 -0.01368012143010814 0 0.22767587784724139 -0.001729027059641961 0 0.22449482187124331 0.037804871871787361 0 0.2107567109478142 0.015958845201794018 0 0.2053175958412814 0.036023160455825168 0 0.2107567109478142 0.015958845201794018 0 0.2053175958412814 0.036023160455825168 0 0.1850822435639356 0.031170368652063209 0 0.2107567109478142 0.015958845201794018 0 0.18478110282549029 0.0042166180743495223 0 0.1850822435639356 0.031170368652063209 0 0.2107567109478142 0.015958845201794018 0 0.18478110282549029 0.0042166180743495223 0 0.2047437083246624 -0.01368012143010814 0 0.21620205662201769 0.073657115700051234 0 0.22715755591662309 0.05627855436558054 0 0.20820566746429531 0.053482580160986982 0 0.22449482187124331 0.037804871871787361 0 0.20820566746429531 0.053482580160986982 0 0.2053175958412814 0.036023160455825168 0 0.2053175958412814 0.036023160455825168 0 0.19130921040128479 0.048429472416773957 0 0.1850822435639356 0.031170368652063209 0 0.20820566746429531 0.053482580160986982 0 0.2053175958412814 0.036023160455825168 0 0.19130921040128479 0.048429472416773957 0 0.18833475342864481 0.06726983837060671 0 0.20820566746429531 0.053482580160986982 0 0.19130921040128479 0.048429472416773957 0 0.18833475342864481 0.06726983837060671 0 0.19130921040128479 0.048429472416773957 0 0.1696057917082667 0.054201414444387738 0 0.19130921040128479 0.048429472416773957 0 0.1696057917082667 0.054201414444387738 0 0.1850822435639356 0.031170368652063209 0 0.1696057917082667 0.054201414444387738 0 0.1850822435639356 0.031170368652063209 0 0.1696057917082667 0.054201414444387738 0 0.1850822435639356 0.031170368652063209 0 0.15905512354163759 0.031183359073005779 0 0.1696057917082667 0.054201414444387738 0 0.15905512354163759 0.031183359073005779 0 0.15115724983505979 0.057091055571692778 0 0.18478110282549029 0.0042166180743495223 0 0.1850822435639356 0.031170368652063209 0 0.1669714649816865 0.013324301014774491 0 0.1850822435639356 0.031170368652063209 0 0.15905512354163759 0.031183359073005779 0 0.1669714649816865 0.013324301014774491 0 0.18478110282549029 0.0042166180743495223 0 0.1669714649816865 0.013324301014774491 0 0.1581495078418457 -0.0061234651867359997 0 0.1669714649816865 0.013324301014774491 0 0.14216614331718261 0.01235829744842569 0 0.1581495078418457 -0.0061234651867359997 0 0.14216614331718261 0.01235829744842569 0 0.13801378204512321 -0.0044740867696424066 0 0.1581495078418457 -0.0061234651867359997 0 0.15905512354163759 0.031183359073005779 0 0.1669714649816865 0.013324301014774491 0 0.14216614331718261 0.01235829744842569 0 0.15905512354163759 0.031183359073005779 0 0.14216614331718261 0.01235829744842569 0 0.14196545105846159 0.034790237884855753 0 0.14216614331718261 0.01235829744842569 0 0.12709100070137189 0.026086172122875138 0 0.14196545105846159 0.034790237884855753 0 0.12476049303783231 0.0027968485244255609 0 0.14216614331718261 0.01235829744842569 0 0.13801378204512321 -0.0044740867696424066 0 0.12476049303783231 0.0027968485244255609 0 0.14216614331718261 0.01235829744842569 0 0.12709100070137189 0.026086172122875138 0 0.15905512354163759 0.031183359073005779 0 0.15115724983505979 0.057091055571692778 0 0.14196545105846159 0.034790237884855753 0 0.15115724983505979 0.057091055571692778 0 0.14196545105846159 0.034790237884855753 0 0.1303577378970559 0.047232305208279327 0 0.15905512354163759 0.031183359073005779 0 0.15115724983505979 0.057091055571692778 0 0.12709100070137189 0.026086172122875138 0 0.14196545105846159 0.034790237884855753 0 0.1303577378970559 0.047232305208279327 0 0.15115724983505979 0.057091055571692778 0 0.1303577378970559 0.047232305208279327 0 0.13097148590930521 0.060851027543543768 0 0.1195094402637699 0.058798797955330932 0 0.1303577378970559 0.047232305208279327 0 0.13097148590930521 0.060851027543543768 0 0.15115724983505979 0.057091055571692778 0 0.13097148590930521 0.060851027543543768 0 0.137087676589462 0.07003969205134733 0 0.1195094402637699 0.058798797955330932 0 0.13097148590930521 0.060851027543543768 0 0.12575758491747441 0.0716176020917699 0 0.13097148590930521 0.060851027543543768 0 0.12575758491747441 0.0716176020917699 0 0.137087676589462 0.07003969205134733 0 0.12575758491747441 0.0716176020917699 0 0.137087676589462 0.07003969205134733 0 0.13352117935410879 0.079140880996628887 0 0.137087676589462 0.07003969205134733 0 0.14325937612848191 0.082998752070379725 0 0.13352117935410879 0.079140880996628887 0 0.15115724983505979 0.057091055571692778 0 0.137087676589462 0.07003969205134733 0 0.14325937612848191 0.082998752070379725 0 0.15115724983505979 0.057091055571692778 0 0.15412933985259791 0.077232460236712222 0 0.14325937612848191 0.082998752070379725 0 0.15115724983505979 0.057091055571692778 0 0.14325937612848191 0.082998752070379725 0 0.14325937612848191 0.082998752070379725 0 0.13805210580802521 0.1000803596094637 0 0.15412933985259791 0.077232460236712222 0 0.13805210580802521 0.1000803596094637 0 0.15412933985259791 0.077232460236712222 0 0.14325937612848191 0.082998752070379725 0 0.13805210580802521 0.1000803596094637 0 0.15412933985259791 0.077232460236712222 0 0.15322800225827499 0.092753290762030163 0 0.13805210580802521 0.1000803596094637 0 0.14325937612848191 0.082998752070379725 0 0.1320918023051236 0.093129542422485168 0 0.13805210580802521 0.1000803596094637 0 0.14325937612848191 0.082998752070379725 0 0.1337554500077191 0.085067113665859506 0 0.1320918023051236 0.093129542422485168 0 0.14325937612848191 0.082998752070379725 0 0.1337554500077191 0.085067113665859506 0 0.13352117935410879 0.079140880996628887 0 0.12575758491747441 0.0716176020917699 0 0.13352117935410879 0.079140880996628887 0 0.12614944224316199 0.084999279173944245 0 0.1337554500077191 0.085067113665859506 0 0.13352117935410879 0.079140880996628887 0 0.12614944224316199 0.084999279173944245 0 0.1231419713223879 0.095690801609799286 0 0.12614944224316199 0.084999279173944245 0 0.1320918023051236 0.093129542422485168 0 0.1337554500077191 0.085067113665859506 0 0.12614944224316199 0.084999279173944245 0 0.1320918023051236 0.093129542422485168 0 0.1320918023051236 0.093129542422485168 0 0.13536150242190409 0.10890644856906689 0 0.13805210580802521 0.1000803596094637 0 0.1231419713223879 0.095690801609799286 0 0.1320918023051236 0.093129542422485168 0 0.12839322637741121 0.10279013128812189 0 0.1320918023051236 0.093129542422485168 0 0.12839322637741121 0.10279013128812189 0 0.13536150242190409 0.10890644856906689 0 0.1219350760894693 0.1041850896555971 0 0.12839322637741121 0.10279013128812189 0 0.12609589304222479 0.1138041793199234 0 0.12839322637741121 0.10279013128812189 0 0.13536150242190409 0.10890644856906689 0 0.12609589304222479 0.1138041793199234 0 0.13536150242190409 0.10890644856906689 0 0.13805210580802521 0.1000803596094637 0 0.13536150242190409 0.10890644856906689 0 0.13805210580802521 0.1000803596094637 0 0.14304514222338091 0.10688433444651441 0 0.124944045687717 0.12641920630367029 0 0.12609589304222479 0.1138041793199234 0 0.1399010246219663 0.1185031286530491 0 0.13536150242190409 0.10890644856906689 0 0.12609589304222479 0.1138041793199234 0 0.1399010246219663 0.1185031286530491 0 0.13536150242190409 0.10890644856906689 0 0.1399010246219663 0.1185031286530491 0 0.14304514222338091 0.10688433444651441 0 0.14768901359828349 0.1298134103230707 0 0.1399010246219663 0.1185031286530491 0 0.1546142286097463 0.1210109192760616 0 0.1399010246219663 0.1185031286530491 0 0.1517530021376147 0.1103445028079459 0 0.14304514222338091 0.10688433444651441 0 0.1399010246219663 0.1185031286530491 0 0.1517530021376147 0.1103445028079459 0 0.1546142286097463 0.1210109192760616 0 0.15322800225827499 0.092753290762030163 0 0.13805210580802521 0.1000803596094637 0 0.14912200955118329 0.100881307499326 0 0.13805210580802521 0.1000803596094637 0 0.14304514222338091 0.10688433444651441 0 0.14912200955118329 0.100881307499326 0 0.1517530021376147 0.1103445028079459 0 0.14304514222338091 0.10688433444651441 0 0.14912200955118329 0.100881307499326 0 0.1517530021376147 0.1103445028079459 0 0.14912200955118329 0.100881307499326 0 0.15932016256062151 0.099033519320187266 0 0.15322800225827499 0.092753290762030163 0 0.14912200955118329 0.100881307499326 0 0.15932016256062151 0.099033519320187266 0 0.15932016256062151 0.099033519320187266 0 0.17803205495302671 0.10129850395266191 0 0.16491561133004301 0.0863556607248884 0 0.1517530021376147 0.1103445028079459 0 0.15932016256062151 0.099033519320187266 0 0.16613706559432809 0.1156781477954635 0 0.15932016256062151 0.099033519320187266 0 0.16613706559432809 0.1156781477954635 0 0.17803205495302671 0.10129850395266191 0 0.163325303880097 0.1353300035085945 0 0.1546142286097463 0.1210109192760616 0 0.16613706559432809 0.1156781477954635 0 0.1517530021376147 0.1103445028079459 0 0.1546142286097463 0.1210109192760616 0 0.16613706559432809 0.1156781477954635 0 0.19473365735523579 0.1179635402702183 0 0.17907199784920841 0.12420406901578659 0 0.17803205495302671 0.10129850395266191 0 0.16613706559432809 0.1156781477954635 0 0.17907199784920841 0.12420406901578659 0 0.17803205495302671 0.10129850395266191 0 0.19528241473226249 0.086864652207347695 0 0.17803205495302671 0.10129850395266191 0 0.17831115998284891 0.081547996002769449 0 0.18833475342864481 0.06726983837060671 0 0.19528241473226249 0.086864652207347695 0 0.17831115998284891 0.081547996002769449 0 0.17803205495302671 0.10129850395266191 0 0.17831115998284891 0.081547996002769449 0 0.16491561133004301 0.0863556607248884 0 0.18833475342864481 0.06726983837060671 0 0.17831115998284891 0.081547996002769449 0 0.17073646714765811 0.073153730570348408 0 0.18833475342864481 0.06726983837060671 0 0.1696057917082667 0.054201414444387738 0 0.17073646714765811 0.073153730570348408 0 0.1696057917082667 0.054201414444387738 0 0.15115724983505979 0.057091055571692778 0 0.15412933985259791 0.077232460236712222 0 0.1696057917082667 0.054201414444387738 0 0.15412933985259791 0.077232460236712222 0 0.17073646714765811 0.073153730570348408 0 0.1696057917082667 0.054201414444387738 0 0.15412933985259791 0.077232460236712222 0 0.15412933985259791 0.077232460236712222 0 0.15322800225827499 0.092753290762030163 0 0.16491561133004301 0.0863556607248884 0 0.15412933985259791 0.077232460236712222 0 0.17073646714765811 0.073153730570348408 0 0.16491561133004301 0.0863556607248884 0 0.15322800225827499 0.092753290762030163 0 0.15932016256062151 0.099033519320187266 0 0.16491561133004301 0.0863556607248884 0 0.17831115998284891 0.081547996002769449 0 0.17073646714765811 0.073153730570348408 0 0.16491561133004301 0.0863556607248884 0 0.1027832161657473 0.47535191125976911 0 0.1088386206864721 0.5 0 0.092754265995223392 0.5 0 0.1027832161657473 0.47535191125976911 0 0.092754265995223392 0.5 0 0.1027832161657473 0.47535191125976911 0 0.1088386206864721 0.5 0 0.12353368339238111 0.48747014263592281 0 0.1088386206864721 0.5 0 0.12353368339238111 0.48747014263592281 0 0.1362743261120862 0.5 0 0.1027832161657473 0.47535191125976911 0 0.12353368339238111 0.48747014263592281 0 0.13045961320473029 0.4700802750481563 0 0.1027832161657473 0.47535191125976911 0 0.11281216633627129 0.45144382245309572 0 0.13045961320473029 0.4700802750481563 0 0.11281216633627129 0.45144382245309572 0 0.1228411165067953 0.42753573364642228 0 0.11281216633627129 0.45144382245309572 0 0.1228411165067953 0.42753573364642228 0 0.1380828412931798 0.43626930258991498 0 0.11281216633627129 0.45144382245309572 0 0.088073866584560692 0.44546192481525387 0 0.1041821650444406 0.42984488509952229 0 0.1027832161657473 0.47535191125976911 0 0.11281216633627129 0.45144382245309572 0 0.1027832161657473 0.47535191125976911 0 0.11281216633627129 0.45144382245309572 0 0.088073866584560692 0.44546192481525387 0 0.088073866584560692 0.44546192481525387 0 0.068725102294348903 0.44761217630775058 0 0.077861503191837489 0.46811758791332192 0 0.1027832161657473 0.47535191125976911 0 0.088073866584560692 0.44546192481525387 0 0.077861503191837489 0.46811758791332192 0 0.088073866584560692 0.44546192481525387 0 0.068725102294348903 0.44761217630775058 0 0.069822941137183556 0.42651371448215258 0 0.068725102294348903 0.44761217630775058 0 0.077861503191837489 0.46811758791332192 0 0.054906209040149048 0.46215943072338428 0 0.077861503191837489 0.46811758791332192 0 0.085203089852824571 0.48629061112338728 0 0.068315256771332059 0.48571839769506742 0 0.077861503191837489 0.46811758791332192 0 0.068315256771332059 0.48571839769506742 0 0.054906209040149048 0.46215943072338428 0 0.1027832161657473 0.47535191125976911 0 0.077861503191837489 0.46811758791332192 0 0.085203089852824571 0.48629061112338728 0 0.1027832161657473 0.47535191125976911 0 0.092754265995223392 0.5 0 0.085203089852824571 0.48629061112338728 0 0.085203089852824571 0.48629061112338728 0 0.081402915260857966 0.5 0 0.068315256771332059 0.48571839769506742 0 0.092754265995223392 0.5 0 0.085203089852824571 0.48629061112338728 0 0.081402915260857966 0.5 0 0.081402915260857966 0.5 0 0.068315256771332059 0.48571839769506742 0 0.053967209835243828 0.5 0 0.068315256771332059 0.48571839769506742 0 0.053967209835243828 0.5 0 0.039856452223321848 0.48043304240005852 0 0.068315256771332059 0.48571839769506742 0 0.039856452223321848 0.48043304240005852 0 0.054906209040149048 0.46215943072338428 0 0.053967209835243828 0.5 0 0.039856452223321848 0.48043304240005852 0 0.02653150440962981 0.5 0 0.039856452223321848 0.48043304240005852 0 0.02653150440962981 0.5 0 0.0085449540768192771 0.48364543480893779 0 0.039856452223321848 0.48043304240005852 0 0.0085449540768192771 0.48364543480893779 0 0.01958680061256023 0.46667541130474 0 0.0085449540768192771 0.48364543480893779 0 0.0012645026175754309 0.46647247731765568 0 0.01958680061256023 0.46667541130474 0 -0.00090420101598420732 0.5 0 0.02653150440962981 0.5 0 0.0085449540768192771 0.48364543480893779 0 -0.0057271874249656416 0.43674594677932538 0 -0.0020075228541637348 0.44976175751563191 0 0.01206409287757489 0.43631670658397398 0 -0.0020075228541637348 0.44976175751563191 0 0.013448252735174431 0.45332984278811272 0 0.01206409287757489 0.43631670658397398 0 0.0012645026175754309 0.46647247731765568 0 0.013448252735174431 0.45332984278811272 0 0.01958680061256023 0.46667541130474 0 -0.0020075228541637348 0.44976175751563191 0 0.0012645026175754309 0.46647247731765568 0 0.013448252735174431 0.45332984278811272 0 0.039856452223321848 0.48043304240005852 0 0.01958680061256023 0.46667541130474 0 0.032289254743768613 0.45083763542335809 0 0.013448252735174431 0.45332984278811272 0 0.01958680061256023 0.46667541130474 0 0.032289254743768613 0.45083763542335809 0 0.013448252735174431 0.45332984278811272 0 0.032289254743768613 0.45083763542335809 0 0.01206409287757489 0.43631670658397398 0 0.032289254743768613 0.45083763542335809 0 0.054906209040149048 0.46215943072338428 0 0.052960991518013693 0.43580822360464028 0 0.039856452223321848 0.48043304240005852 0 0.032289254743768613 0.45083763542335809 0 0.054906209040149048 0.46215943072338428 0 0.068725102294348903 0.44761217630775058 0 0.054906209040149048 0.46215943072338428 0 0.052960991518013693 0.43580822360464028 0 0.054906209040149048 0.46215943072338428 0 0.052960991518013693 0.43580822360464028 0 0.052960991518013693 0.43580822360464028 0 0.051015773995878318 0.40945701648589627 0 0.069822941137183556 0.42651371448215258 0 0.052960991518013693 0.43580822360464028 0 0.051015773995878318 0.40945701648589627 0 0.051015773995878318 0.40945701648589627 0 0.032359455933220212 0.42185220185126332 0 0.037763864580829247 0.39821715460500828 0 0.032289254743768613 0.45083763542335809 0 0.052960991518013693 0.43580822360464028 0 0.032359455933220212 0.42185220185126332 0 0.052960991518013693 0.43580822360464028 0 0.051015773995878318 0.40945701648589627 0 0.032359455933220212 0.42185220185126332 0 0.032289254743768613 0.45083763542335809 0 0.032359455933220212 0.42185220185126332 0 0.01206409287757489 0.43631670658397398 0 0.032359455933220212 0.42185220185126332 0 0.014010730910963319 0.418648669666488 0 0.01206409287757489 0.43631670658397398 0 0.032359455933220212 0.42185220185126332 0 0.020944046763749259 0.40258079148797038 0 0.037763864580829247 0.39821715460500828 0 0.032359455933220212 0.42185220185126332 0 0.014010730910963319 0.418648669666488 0 0.020944046763749259 0.40258079148797038 0 0.014010730910963319 0.418648669666488 0 0.0012592712859812729 0.42477821901238588 0 0.00035999669059131462 0.4054250193058847 0 0.014010730910963319 0.418648669666488 0 0.00035999669059131462 0.4054250193058847 0 0.020944046763749259 0.40258079148797038 0 0.014010730910963319 0.418648669666488 0 0.01206409287757489 0.43631670658397398 0 0.0012592712859812729 0.42477821901238588 0 -0.0057271874249656416 0.43674594677932538 0 0.01206409287757489 0.43631670658397398 0 0.0012592712859812729 0.42477821901238588 0 -0.0064271344534248352 0.38996151369641441 0 0.010918260295279409 0.38604640736746171 0 0.0012734071493996 0.37563546231701261 0 0.00035999669059131462 0.4054250193058847 0 0.020944046763749259 0.40258079148797038 0 0.010918260295279409 0.38604640736746171 0 0.00035999669059131462 0.4054250193058847 0 0.020944046763749259 0.40258079148797038 0 -0.0064271344534248352 0.38996151369641441 0 0.010918260295279409 0.38604640736746171 0 0.00035999669059131462 0.4054250193058847 0 0.020944046763749259 0.40258079148797038 0 0.02894471675655437 0.38322638575060319 0 0.037763864580829247 0.39821715460500828 0 0.010918260295279409 0.38604640736746171 0 0.020944046763749259 0.40258079148797038 0 0.02894471675655437 0.38322638575060319 0 0.010918260295279409 0.38604640736746171 0 0.02894471675655437 0.38322638575060319 0 0.019931823908567941 0.36122339820449179 0 0.02894471675655437 0.38322638575060319 0 0.049070556473742963 0.38310580936715227 0 0.035917148878200827 0.37025103591519848 0 0.02894471675655437 0.38322638575060319 0 0.037763864580829247 0.39821715460500828 0 0.049070556473742963 0.38310580936715227 0 0.051015773995878318 0.40945701648589627 0 0.037763864580829247 0.39821715460500828 0 0.049070556473742963 0.38310580936715227 0 0.051015773995878318 0.40945701648589627 0 0.049070556473742963 0.38310580936715227 0 0.073509177973951109 0.39981531068228382 0 0.051015773995878318 0.40945701648589627 0 0.049070556473742963 0.38310580936715227 0 0.049070556473742963 0.38310580936715227 0 0.071215767365181759 0.37374610366423577 0 0.056303265942123919 0.36932449811770363 0 0.049070556473742963 0.38310580936715227 0 0.073509177973951109 0.39981531068228382 0 0.071215767365181759 0.37374610366423577 0 0.092702158575631938 0.384079588127892 0 0.073509177973951109 0.39981531068228382 0 0.071215767365181759 0.37374610366423577 0 0.092702158575631938 0.384079588127892 0 0.090848753086039721 0.40216946084825378 0 0.073509177973951109 0.39981531068228382 0 0.051015773995878318 0.40945701648589627 0 0.073509177973951109 0.39981531068228382 0 0.069822941137183556 0.42651371448215258 0 0.073509177973951109 0.39981531068228382 0 0.069822941137183556 0.42651371448215258 0 0.086579173390431738 0.42050566914069049 0 0.068725102294348903 0.44761217630775058 0 0.052960991518013693 0.43580822360464028 0 0.069822941137183556 0.42651371448215258 0 0.088073866584560692 0.44546192481525387 0 0.086579173390431738 0.42050566914069049 0 0.1041821650444406 0.42984488509952229 0 0.088073866584560692 0.44546192481525387 0 0.069822941137183556 0.42651371448215258 0 0.086579173390431738 0.42050566914069049 0 0.090848753086039721 0.40216946084825378 0 0.073509177973951109 0.39981531068228382 0 0.086579173390431738 0.42050566914069049 0 0.090848753086039721 0.40216946084825378 0 0.086579173390431738 0.42050566914069049 0 0.1106045024041441 0.40427727544214909 0 0.086579173390431738 0.42050566914069049 0 0.1041821650444406 0.42984488509952229 0 0.1106045024041441 0.40427727544214909 0 0.11281216633627129 0.45144382245309572 0 0.1041821650444406 0.42984488509952229 0 0.1228411165067953 0.42753573364642228 0 0.1041821650444406 0.42984488509952229 0 0.1228411165067953 0.42753573364642228 0 0.1106045024041441 0.40427727544214909 0 0.1228411165067953 0.42753573364642228 0 0.1106045024041441 0.40427727544214909 0 0.1409823852734102 0.40525718543870259 0 0.1106045024041441 0.40427727544214909 0 0.1134128449443591 0.3759062871051928 0 0.13260461952664079 0.38532420488296532 0 0.092702158575631938 0.384079588127892 0 0.1106045024041441 0.40427727544214909 0 0.1134128449443591 0.3759062871051928 0 0.092702158575631938 0.384079588127892 0 0.090848753086039721 0.40216946084825378 0 0.1106045024041441 0.40427727544214909 0 0.12248945676421361 0.35551815221153971 0 0.10696092644006951 0.34140100138709922 0 0.091048627654966463 0.35699854353997013 0 0.1134128449443591 0.3759062871051928 0 0.12248945676421361 0.35551815221153971 0 0.091048627654966463 0.35699854353997013 0 0.092702158575631938 0.384079588127892 0 0.1134128449443591 0.3759062871051928 0 0.091048627654966463 0.35699854353997013 0 0.1134128449443591 0.3759062871051928 0 0.12248945676421361 0.35551815221153971 0 0.13170443831462339 0.36909771788981488 0 0.12248945676421361 0.35551815221153971 0 0.10696092644006951 0.34140100138709922 0 0.12969327033768441 0.33893408138805858 0 0.114226827725774 0.32362769837306338 0 0.10696092644006951 0.34140100138709922 0 0.12969327033768441 0.33893408138805858 0 0.114226827725774 0.32362769837306338 0 0.12180026009199681 0.30452247861734461 0 0.1345814295956575 0.3176664762451023 0 0.114226827725774 0.32362769837306338 0 0.089395096734300988 0.32991749895204819 0 0.1032587660054546 0.30907986443793289 0 0.114226827725774 0.32362769837306338 0 0.10696092644006951 0.34140100138709922 0 0.089395096734300988 0.32991749895204819 0 0.10696092644006951 0.34140100138709922 0 0.089395096734300988 0.32991749895204819 0 0.091048627654966463 0.35699854353997013 0 0.089395096734300988 0.32991749895204819 0 0.091048627654966463 0.35699854353997013 0 0.089395096734300988 0.32991749895204819 0 0.075530700515232127 0.31579900438374081 0 0.087741565813635486 0.3028364543641261 0 0.089395096734300988 0.32991749895204819 0 0.087741565813635486 0.3028364543641261 0 0.1032587660054546 0.30907986443793289 0 0.089395096734300988 0.32991749895204819 0 0.087741565813635486 0.3028364543641261 0 0.089395096734300988 0.32991749895204819 0 0.075530700515232127 0.31579900438374081 0 0.067797973388052449 0.33244044367295222 0 0.075530700515232127 0.31579900438374081 0 0.067797973388052449 0.33244044367295222 0 0.060822620571432312 0.31190875040111521 0 0.089395096734300988 0.32991749895204819 0 0.067797973388052449 0.33244044367295222 0 0.076390791468232633 0.34849958388716512 0 0.067797973388052449 0.33244044367295222 0 0.076390791468232633 0.34849958388716512 0 0.060975853337005358 0.35447850360587058 0 0.076390791468232633 0.34849958388716512 0 0.071215767365181759 0.37374610366423577 0 0.060975853337005358 0.35447850360587058 0 0.089395096734300988 0.32991749895204819 0 0.076390791468232633 0.34849958388716512 0 0.091048627654966463 0.35699854353997013 0 0.092702158575631938 0.384079588127892 0 0.091048627654966463 0.35699854353997013 0 0.076390791468232633 0.34849958388716512 0 0.091048627654966463 0.35699854353997013 0 0.071215767365181759 0.37374610366423577 0 0.092702158575631938 0.384079588127892 0 0.091048627654966463 0.35699854353997013 0 0.071215767365181759 0.37374610366423577 0 0.071215767365181759 0.37374610366423577 0 0.056303265942123919 0.36932449811770363 0 0.060975853337005358 0.35447850360587058 0 0.049070556473742963 0.38310580936715227 0 0.056303265942123919 0.36932449811770363 0 0.047125338951607282 0.35675460224840821 0 0.049070556473742963 0.38310580936715227 0 0.047125338951607282 0.35675460224840821 0 0.056303265942123919 0.36932449811770363 0 0.060975853337005358 0.35447850360587058 0 0.047125338951607282 0.35675460224840821 0 0.060975853337005358 0.35447850360587058 0 0.047125338951607282 0.35675460224840821 0 0.045137307855963288 0.32982341405804128 0 0.060975853337005358 0.35447850360587058 0 0.047125338951607282 0.35675460224840821 0 0.047125338951607282 0.35675460224840821 0 0.019931823908567941 0.36122339820449179 0 0.03056824105303196 0.34690163341491209 0 0.047125338951607282 0.35675460224840821 0 0.03056824105303196 0.34690163341491209 0 0.045137307855963288 0.32982341405804128 0 0.047125338951607282 0.35675460224840821 0 0.019931823908567941 0.36122339820449179 0 0.049070556473742963 0.38310580936715227 0 0.047125338951607282 0.35675460224840821 0 0.035917148878200827 0.37025103591519848 0 0.047125338951607282 0.35675460224840821 0 0.035917148878200827 0.37025103591519848 0 0.019931823908567941 0.36122339820449179 0 0.02894471675655437 0.38322638575060319 0 0.035917148878200827 0.37025103591519848 0 0.019931823908567941 0.36122339820449179 0 0.019931823908567941 0.36122339820449179 0 0.03056824105303196 0.34690163341491209 0 0.00040474318727079338 0.34494123859893733 0 -0.0072616911344711311 0.36569219416057808 0 0.019931823908567941 0.36122339820449179 0 0.00040474318727079338 0.34494123859893733 0 0.010918260295279409 0.38604640736746171 0 0.0012734071493996 0.37563546231701261 0 0.019931823908567941 0.36122339820449179 0 -0.0072616911344711311 0.36569219416057808 0 0.0012734071493996 0.37563546231701261 0 0.019931823908567941 0.36122339820449179 0 -0.0072616911344711311 0.36569219416057808 0 0.019931823908567941 0.36122339820449179 0 -0.00604253315440011 0.31767135503429572 0 0.0080711775090130961 0.32419028303729658 0 0.015737611830756389 0.30343932747565627 0 0.0080711775090130961 0.32419028303729658 0 0.022695098007021759 0.31192343170463432 0 0.015737611830756389 0.30343932747565627 0 0.0080711775090130961 0.32419028303729658 0 0.015737611830756389 0.30343932747565627 0 0.00040474318727079338 0.34494123859893733 0 0.0080711775090130961 0.32419028303729658 0 0.00040474318727079338 0.34494123859893733 0 0.0080711775090130961 0.32419028303729658 0 0.024467490460669761 0.32998385345118558 0 0.03056824105303196 0.34690163341491209 0 0.00040474318727079338 0.34494123859893733 0 0.024467490460669761 0.32998385345118558 0 0.0080711775090130961 0.32419028303729658 0 0.024467490460669761 0.32998385345118558 0 0.022695098007021759 0.31192343170463432 0 0.024467490460669761 0.32998385345118558 0 0.033815427039315837 0.3166987770303924 0 0.022695098007021759 0.31192343170463432 0 0.045137307855963288 0.32982341405804128 0 0.043149276760318968 0.30289222586767428 0 0.024467490460669761 0.32998385345118558 0 0.033815427039315837 0.3166987770303924 0 0.045137307855963288 0.32982341405804128 0 0.033815427039315837 0.3166987770303924 0 0.045137307855963288 0.32982341405804128 0 0.043149276760318968 0.30289222586767428 0 0.03056824105303196 0.34690163341491209 0 0.024467490460669761 0.32998385345118558 0 0.045137307855963288 0.32982341405804128 0 0.047125338951607282 0.35675460224840821 0 0.045137307855963288 0.32982341405804128 0 0.067797973388052449 0.33244044367295222 0 0.060975853337005358 0.35447850360587058 0 0.045137307855963288 0.32982341405804128 0 0.045137307855963288 0.32982341405804128 0 0.060822620571432312 0.31190875040111521 0 0.043149276760318968 0.30289222586767428 0 0.067797973388052449 0.33244044367295222 0 0.045137307855963288 0.32982341405804128 0 0.060822620571432312 0.31190875040111521 0 0.060822620571432312 0.31190875040111521 0 0.058549653374679787 0.29179496304418379 0 0.043149276760318968 0.30289222586767428 0 0.058549653374679787 0.29179496304418379 0 0.041738040753800387 0.28377468663208161 0 0.041161245664673871 0.27596103767730751 0 0.058549653374679787 0.29179496304418379 0 0.041738040753800387 0.28377468663208161 0 0.043149276760318968 0.30289222586767428 0 0.041738040753800387 0.28377468663208161 0 0.043149276760318968 0.30289222586767428 0 0.041738040753800387 0.28377468663208161 0 0.035183609852322627 0.29113967865401141 0 0.043149276760318968 0.30289222586767428 0 0.035183609852322627 0.29113967865401141 0 0.031144774108228589 0.30338228341483858 0 0.028096610225389729 0.29165050871876691 0 0.035183609852322627 0.29113967865401141 0 0.03154000688943933 0.28379122353940861 0 0.028096610225389729 0.29165050871876691 0 0.041738040753800387 0.28377468663208161 0 0.035183609852322627 0.29113967865401141 0 0.036099064269900741 0.28368669038502731 0 0.035183609852322627 0.29113967865401141 0 0.03154000688943933 0.28379122353940861 0 0.036099064269900741 0.28368669038502731 0 0.035183609852322627 0.29113967865401141 0 0.043149276760318968 0.30289222586767428 0 0.031144774108228589 0.30338228341483858 0 0.033815427039315837 0.3166987770303924 0 0.043149276760318968 0.30289222586767428 0 0.031144774108228589 0.30338228341483858 0 0.033815427039315837 0.3166987770303924 0 0.022695098007021759 0.31192343170463432 0 0.031144774108228589 0.30338228341483858 0 0.022695098007021759 0.31192343170463432 0 0.015737611830756389 0.30343932747565627 0 0.031144774108228589 0.30338228341483858 0 0.022695098007021759 0.31192343170463432 0 0.015737611830756389 0.30343932747565627 0 0.015737611830756389 0.30343932747565627 0 0.031144774108228589 0.30338228341483858 0 0.028096610225389729 0.29165050871876691 0 0.015737611830756389 0.30343932747565627 0 0.028096610225389729 0.29165050871876691 0 0.025863590129929798 0.27603105436120762 0 0.015737611830756389 0.30343932747565627 0 0.01131680216690747 0.27609763435787021 0 0.025863590129929798 0.27603105436120762 0 0.015737611830756389 0.30343932747565627 0 0.025863590129929798 0.27603105436120762 0 0.03154000688943933 0.28379122353940861 0 0.028096610225389729 0.29165050871876691 0 0.025863590129929798 0.27603105436120762 0 0.015737611830756389 0.30343932747565627 0 0.0010540778972834479 0.28553391894371088 0 0.015737611830756389 0.30343932747565627 0 0.0010540778972834479 0.28553391894371088 0 0.01131680216690747 0.27609763435787021 0 -0.0087736991501637662 0.30187886595607483 0 -0.00604253315440011 0.31767135503429572 0 0.015737611830756389 0.30343932747565627 0 -0.0087736991501637662 0.30187886595607483 0 0.015737611830756389 0.30343932747565627 0 0.0010540778972834479 0.28553391894371088 0 0.0042115267198120651 0.26033580195898348 0 0.015242726502131329 0.26719379269455518 0 0.016391949852141291 0.25651470091725309 0 0.0084959545527315428 0.25114024567600379 0 0.0042115267198120651 0.26033580195898348 0 0.016391949852141291 0.25651470091725309 0 -0.001075236980814549 0.25381653425611589 0 0.0084959545527315428 0.25114024567600379 0 0.0042115267198120651 0.26033580195898348 0 -0.0041751326731876244 0.26251454664574853 0 0.0042115267198120651 0.26033580195898348 0 0.0033389410962996421 0.27025147499316371 0 0.0042115267198120651 0.26033580195898348 0 0.0033389410962996421 0.27025147499316371 0 0.015242726502131329 0.26719379269455518 0 -0.0027316692861841479 0.27192902358842908 0 0.0010540778972834479 0.28553391894371088 0 0.0033389410962996421 0.27025147499316371 0 0.0010540778972834479 0.28553391894371088 0 0.0033389410962996421 0.27025147499316371 0 0.01131680216690747 0.27609763435787021 0 0.0033389410962996421 0.27025147499316371 0 0.01131680216690747 0.27609763435787021 0 0.015242726502131329 0.26719379269455518 0 0.01131680216690747 0.27609763435787021 0 0.015242726502131329 0.26719379269455518 0 0.025863590129929798 0.27603105436120762 0 0.01131680216690747 0.27609763435787021 0 0.025863590129929798 0.27603105436120762 0 0.025863590129929798 0.27603105436120762 0 0.0303335490476997 0.2639320895788545 0 0.036746432646324052 0.27598124407867458 0 0.025863590129929798 0.27603105436120762 0 0.0303335490476997 0.2639320895788545 0 0.015242726502131329 0.26719379269455518 0 0.025863590129929798 0.27603105436120762 0 0.0303335490476997 0.2639320895788545 0 0.018574232411852201 0.24183753246135331 0 0.0303335490476997 0.2639320895788545 0 0.016391949852141291 0.25651470091725309 0 0.018574232411852201 0.24183753246135331 0 0.036447020789956923 0.24738458194663299 0 0.0303335490476997 0.2639320895788545 0 0.018574232411852201 0.24183753246135331 0 0.0303335490476997 0.2639320895788545 0 0.015242726502131329 0.26719379269455518 0 0.0303335490476997 0.2639320895788545 0 0.016391949852141291 0.25651470091725309 0 0.039112838312762598 0.24821195266265239 0 0.041161245664673871 0.27596103767730751 0 0.053722420554875902 0.25274622420115039 0 0.039112838312762598 0.24821195266265239 0 0.041161245664673871 0.27596103767730751 0 0.036447020789956923 0.24738458194663299 0 0.0303335490476997 0.2639320895788545 0 0.039112838312762598 0.24821195266265239 0 0.036447020789956923 0.24738458194663299 0 0.0303335490476997 0.2639320895788545 0 0.039112838312762598 0.24821195266265239 0 0.0303335490476997 0.2639320895788545 0 0.041161245664673871 0.27596103767730751 0 0.039112838312762598 0.24821195266265239 0 0.053722420554875902 0.25274622420115039 0 0.025863590129929798 0.27603105436120762 0 0.036746432646324052 0.27598124407867458 0 0.03154000688943933 0.28379122353940861 0 0.025863590129929798 0.27603105436120762 0 0.036746432646324052 0.27598124407867458 0 0.041738040753800387 0.28377468663208161 0 0.036099064269900741 0.28368669038502731 0 0.036746432646324052 0.27598124407867458 0 0.03154000688943933 0.28379122353940861 0 0.036099064269900741 0.28368669038502731 0 0.036746432646324052 0.27598124407867458 0 0.036746432646324052 0.27598124407867458 0 0.041161245664673871 0.27596103767730751 0 0.0303335490476997 0.2639320895788545 0 0.036746432646324052 0.27598124407867458 0 0.0303335490476997 0.2639320895788545 0 0.036746432646324052 0.27598124407867458 0 0.041161245664673871 0.27596103767730751 0 0.041738040753800387 0.28377468663208161 0 0.041161245664673871 0.27596103767730751 0 0.041738040753800387 0.28377468663208161 0 0.036746432646324052 0.27598124407867458 0 0.041161245664673871 0.27596103767730751 0 0.041738040753800387 0.28377468663208161 0 0.036746432646324052 0.27598124407867458 0 0.041161245664673871 0.27596103767730751 0 0.053722420554875902 0.25274622420115039 0 0.066349167479323262 0.27584575368785208 0 0.058549653374679787 0.29179496304418379 0 0.041161245664673871 0.27596103767730751 0 0.066349167479323262 0.27584575368785208 0 0.041161245664673871 0.27596103767730751 0 0.066349167479323262 0.27584575368785208 0 0.053722420554875902 0.25274622420115039 0 0.066349167479323262 0.27584575368785208 0 0.053722420554875902 0.25274622420115039 0 0.062432450556232769 0.25365232686086991 0 0.067474625180224471 0.26113011678833531 0 0.059931904731732752 0.2477460156495658 0 0.053722420554875902 0.25274622420115039 0 0.062432450556232769 0.25365232686086991 0 0.053722420554875902 0.25274622420115039 0 0.067474625180224471 0.26113011678833531 0 0.066349167479323262 0.27584575368785208 0 0.059931904731732752 0.2477460156495658 0 0.062432450556232769 0.25365232686086991 0 0.067514909018214109 0.25264991452397462 0 0.067514909018214109 0.25264991452397462 0 0.067474625180224471 0.26113011678833531 0 0.07354669375575662 0.25863255385810041 0 0.062432450556232769 0.25365232686086991 0 0.067514909018214109 0.25264991452397462 0 0.067474625180224471 0.26113011678833531 0 0.067474625180224471 0.26113011678833531 0 0.07354669375575662 0.25863255385810041 0 0.07577649655608007 0.26464094674874061 0 0.067474625180224471 0.26113011678833531 0 0.07577649655608007 0.26464094674874061 0 0.075389921160323753 0.27062303355411321 0 0.07354669375575662 0.25863255385810041 0 0.07577649655608007 0.26464094674874061 0 0.081107085909673138 0.26287353190824342 0 0.07628835892792668 0.24895923227191261 0 0.067514909018214109 0.25264991452397462 0 0.07354669375575662 0.25863255385810041 0 0.07628835892792668 0.24895923227191261 0 0.07354669375575662 0.25863255385810041 0 0.081636708803741825 0.25581368707816421 0 0.088783463194145804 0.2499617020718464 0 0.07628835892792668 0.24895923227191261 0 0.081636708803741825 0.25581368707816421 0 0.07354669375575662 0.25863255385810041 0 0.081636708803741825 0.25581368707816421 0 0.081107085909673138 0.26287353190824342 0 0.081107085909673138 0.26287353190824342 0 0.087659713174112378 0.26001479678056982 0 0.08661721096988817 0.26747359960128009 0 0.081636708803741825 0.25581368707816421 0 0.081107085909673138 0.26287353190824342 0 0.087659713174112378 0.26001479678056982 0 0.087659713174112378 0.26001479678056982 0 0.092759223489119441 0.26582029332726032 0 0.095825853115009463 0.25640249875856602 0 0.087659713174112378 0.26001479678056982 0 0.092759223489119441 0.26582029332726032 0 0.08661721096988817 0.26747359960128009 0 0.088783463194145804 0.2499617020718464 0 0.087659713174112378 0.26001479678056982 0 0.095825853115009463 0.25640249875856602 0 0.088783463194145804 0.2499617020718464 0 0.081636708803741825 0.25581368707816421 0 0.087659713174112378 0.26001479678056982 0 0.089046664238531387 0.27346467986193229 0 0.086088034892972815 0.27575540977620389 0 0.094734289917514702 0.27571583625439822 0 0.086088034892972815 0.27575540977620389 0 0.094734289917514702 0.27571583625439822 0 0.09014817716142004 0.28585185361642801 0 0.094734289917514702 0.27571583625439822 0 0.086088034892972815 0.27575540977620389 0 0.09014817716142004 0.28585185361642801 0 0.094734289917514702 0.27571583625439822 0 0.085955157075042615 0.27357917583520891 0 0.086088034892972815 0.27575540977620389 0 0.089046664238531387 0.27346467986193229 0 0.085955157075042615 0.27357917583520891 0 0.086088034892972815 0.27575540977620389 0 0.090710147991712495 0.27091910896393911 0 0.092759223489119441 0.26582029332726032 0 0.094734289917514702 0.27571583625439822 0 0.089046664238531387 0.27346467986193229 0 0.090710147991712495 0.27091910896393911 0 0.094734289917514702 0.27571583625439822 0 0.090710147991712495 0.27091910896393911 0 0.092759223489119441 0.26582029332726032 0 0.08661721096988817 0.26747359960128009 0 0.090710147991712495 0.27091910896393911 0 0.08661721096988817 0.26747359960128009 0 0.087360358144108835 0.27123435365085208 0 0.089046664238531387 0.27346467986193229 0 0.090710147991712495 0.27091910896393911 0 0.087360358144108835 0.27123435365085208 0 0.08661721096988817 0.26747359960128009 0 0.087360358144108835 0.27123435365085208 0 0.085324220740865486 0.27055815668056288 0 0.085955157075042615 0.27357917583520891 0 0.087360358144108835 0.27123435365085208 0 0.085324220740865486 0.27055815668056288 0 0.089046664238531387 0.27346467986193229 0 0.085955157075042615 0.27357917583520891 0 0.087360358144108835 0.27123435365085208 0 0.085955157075042615 0.27357917583520891 0 0.086088034892972815 0.27575540977620389 0 0.081364156774422394 0.26994549763491049 0 0.086088034892972815 0.27575540977620389 0 0.081364156774422394 0.26994549763491049 0 0.075389921160323753 0.27062303355411321 0 0.085955157075042615 0.27357917583520891 0 0.085324220740865486 0.27055815668056288 0 0.081364156774422394 0.26994549763491049 0 0.08661721096988817 0.26747359960128009 0 0.085324220740865486 0.27055815668056288 0 0.081364156774422394 0.26994549763491049 0 0.081107085909673138 0.26287353190824342 0 0.08661721096988817 0.26747359960128009 0 0.081364156774422394 0.26994549763491049 0 0.07577649655608007 0.26464094674874061 0 0.081107085909673138 0.26287353190824342 0 0.081364156774422394 0.26994549763491049 0 0.086088034892972815 0.27575540977620389 0 0.066349167479323262 0.27584575368785208 0 0.072983351982786215 0.28798241418124371 0 0.086088034892972815 0.27575540977620389 0 0.075389921160323753 0.27062303355411321 0 0.066349167479323262 0.27584575368785208 0 0.086088034892972815 0.27575540977620389 0 0.066349167479323262 0.27584575368785208 0 0.07577649655608007 0.26464094674874061 0 0.081364156774422394 0.26994549763491049 0 0.075389921160323753 0.27062303355411321 0 0.067474625180224471 0.26113011678833531 0 0.075389921160323753 0.27062303355411321 0 0.066349167479323262 0.27584575368785208 0 0.066349167479323262 0.27584575368785208 0 0.072983351982786215 0.28798241418124371 0 0.058549653374679787 0.29179496304418379 0 0.066349167479323262 0.27584575368785208 0 0.072983351982786215 0.28798241418124371 0 0.058549653374679787 0.29179496304418379 0 0.072983351982786215 0.28798241418124371 0 0.071896246068739386 0.30189187452846189 0 0.060822620571432312 0.31190875040111521 0 0.058549653374679787 0.29179496304418379 0 0.071896246068739386 0.30189187452846189 0 0.072983351982786215 0.28798241418124371 0 0.071896246068739386 0.30189187452846189 0 0.087741565813635486 0.3028364543641261 0 0.075530700515232127 0.31579900438374081 0 0.060822620571432312 0.31190875040111521 0 0.071896246068739386 0.30189187452846189 0 0.075530700515232127 0.31579900438374081 0 0.071896246068739386 0.30189187452846189 0 0.087741565813635486 0.3028364543641261 0 0.086088034892972815 0.27575540977620389 0 0.087741565813635486 0.3028364543641261 0 0.09014817716142004 0.28585185361642801 0 0.087741565813635486 0.3028364543641261 0 0.09014817716142004 0.28585185361642801 0 0.096845287246936279 0.29546359332837191 0 0.086088034892972815 0.27575540977620389 0 0.087741565813635486 0.3028364543641261 0 0.086088034892972815 0.27575540977620389 0 0.072983351982786215 0.28798241418124371 0 0.087741565813635486 0.3028364543641261 0 0.09014817716142004 0.28585185361642801 0 0.103440424134474 0.28606844275612597 0 0.094734289917514702 0.27571583625439822 0 0.09014817716142004 0.28585185361642801 0 0.096845287246936279 0.29546359332837191 0 0.103440424134474 0.28606844275612597 0 0.096845287246936279 0.29546359332837191 0 0.1078762981136018 0.29677850532190381 0 0.103440424134474 0.28606844275612597 0 0.087741565813635486 0.3028364543641261 0 0.096845287246936279 0.29546359332837191 0 0.1032587660054546 0.30907986443793289 0 0.096845287246936279 0.29546359332837191 0 0.1078762981136018 0.29677850532190381 0 0.1032587660054546 0.30907986443793289 0 0.1078762981136018 0.29677850532190381 0 0.1032587660054546 0.30907986443793289 0 0.12180026009199681 0.30452247861734461 0 0.114226827725774 0.32362769837306338 0 0.1032587660054546 0.30907986443793289 0 0.12180026009199681 0.30452247861734461 0 0.1078762981136018 0.29677850532190381 0 0.12180026009199681 0.30452247861734461 0 0.1180487763703595 0.28965511733422228 0 0.103440424134474 0.28606844275612597 0 0.1180487763703595 0.28965511733422228 0 0.11629219580790021 0.27561716668515329 0 0.1078762981136018 0.29677850532190381 0 0.103440424134474 0.28606844275612597 0 0.1180487763703595 0.28965511733422228 0 0.12180026009199681 0.30452247861734461 0 0.1180487763703595 0.28965511733422228 0 0.13036505411089019 0.29198264314625139 0 0.1180487763703595 0.28965511733422228 0 0.11629219580790021 0.27561716668515329 0 0.12659726969418039 0.28171577066257619 0 0.11629219580790021 0.27561716668515329 0 0.10761035620176081 0.26547846834454769 0 0.12810485269656921 0.26983054823199493 0 0.11629219580790021 0.27561716668515329 0 0.12810485269656921 0.26983054823199493 0 0.12659726969418039 0.28171577066257619 0 0.1083731471726074 0.24557185565730269 0 0.11052019726711609 0.25562204817081002 0 0.13206362771497401 0.25404998313225402 0 0.11052019726711609 0.25562204817081002 0 0.10761035620176081 0.26547846834454769 0 0.13206362771497401 0.25404998313225402 0 0.10761035620176081 0.26547846834454769 0 0.13206362771497401 0.25404998313225402 0 0.12810485269656921 0.26983054823199493 0 0.10761035620176081 0.26547846834454769 0 0.13206362771497401 0.25404998313225402 0 0.088783463194145804 0.2499617020718464 0 0.1083731471726074 0.24557185565730269 0 0.095825853115009463 0.25640249875856602 0 0.11052019726711609 0.25562204817081002 0 0.10761035620176081 0.26547846834454769 0 0.1015537185450623 0.26064384595585099 0 0.1083731471726074 0.24557185565730269 0 0.11052019726711609 0.25562204817081002 0 0.1015537185450623 0.26064384595585099 0 0.1083731471726074 0.24557185565730269 0 0.1015537185450623 0.26064384595585099 0 0.1083731471726074 0.24557185565730269 0 0.095825853115009463 0.25640249875856602 0 0.1015537185450623 0.26064384595585099 0 0.092759223489119441 0.26582029332726032 0 0.095825853115009463 0.25640249875856602 0 0.1015537185450623 0.26064384595585099 0 0.10761035620176081 0.26547846834454769 0 0.1015537185450623 0.26064384595585099 0 0.094734289917514702 0.27571583625439822 0 0.092759223489119441 0.26582029332726032 0 0.1015537185450623 0.26064384595585099 0 0.094734289917514702 0.27571583625439822 0 0.103440424134474 0.28606844275612597 0 0.11629219580790021 0.27561716668515329 0 0.094734289917514702 0.27571583625439822 0 0.11629219580790021 0.27561716668515329 0 0.10761035620176081 0.26547846834454769 0 0.094734289917514702 0.27571583625439822 0 0.11629219580790021 0.27561716668515329 0 0.094734289917514702 0.27571583625439822 0 0.1015537185450623 0.26064384595585099 0 0.094734289917514702 0.27571583625439822 0 0.1456363013127854 0.26071578350694008 0 0.1388204794980098 0.28190574786511008 0 0.15472275448217801 0.28531238405960507 0 0.1456363013127854 0.26071578350694008 0 0.15472275448217801 0.28531238405960507 0 0.1644293580353888 0.26860403658266108 0 0.1456363013127854 0.26071578350694008 0 0.15472275448217801 0.28531238405960507 0 0.15651689922818729 0.24262149791996021 0 0.1456363013127854 0.26071578350694008 0 0.15926591796108369 0.2557145643866473 0 0.15651689922818729 0.24262149791996021 0 0.1456363013127854 0.26071578350694008 0 0.13206362771497401 0.25404998313225402 0 0.1456363013127854 0.26071578350694008 0 0.13206362771497401 0.25404998313225402 0 0.12810485269656921 0.26983054823199493 0 0.1456363013127854 0.26071578350694008 0 0.12810485269656921 0.26983054823199493 0 0.1388204794980098 0.28190574786511008 0 0.12810485269656921 0.26983054823199493 0 0.12659726969418039 0.28171577066257619 0 0.1388204794980098 0.28190574786511008 0 0.12659726969418039 0.28171577066257619 0 0.13036505411089019 0.29198264314625139 0 0.1388204794980098 0.28190574786511008 0 0.13036505411089019 0.29198264314625139 0 0.1388204794980098 0.28190574786511008 0 0.1442446687222402 0.30286704546293652 0 0.1180487763703595 0.28965511733422228 0 0.12659726969418039 0.28171577066257619 0 0.13036505411089019 0.29198264314625139 0 0.12180026009199681 0.30452247861734461 0 0.13036505411089019 0.29198264314625139 0 0.1442446687222402 0.30286704546293652 0 0.12180026009199681 0.30452247861734461 0 0.1442446687222402 0.30286704546293652 0 0.1345814295956575 0.3176664762451023 0 0.1442446687222402 0.30286704546293652 0 0.15472275448217801 0.28531238405960507 0 0.16380920765157059 0.30990898461227012 0 0.1388204794980098 0.28190574786511008 0 0.1442446687222402 0.30286704546293652 0 0.15472275448217801 0.28531238405960507 0 0.15472275448217801 0.28531238405960507 0 0.1761205910659428 0.29536080191317232 0 0.1792353554438918 0.27771572562556729 0 0.15472275448217801 0.28531238405960507 0 0.16380920765157059 0.30990898461227012 0 0.1761205910659428 0.29536080191317232 0 0.15472275448217801 0.28531238405960507 0 0.16380920765157059 0.30990898461227012 0 0.16380920765157059 0.30990898461227012 0 0.1761205910659428 0.29536080191317232 0 0.18829485067992541 0.31108578642362578 0 0.1761205910659428 0.29536080191317232 0 0.18829485067992541 0.31108578642362578 0 0.19330382777808591 0.29843087922832051 0 0.1761205910659428 0.29536080191317232 0 0.190366598125049 0.28477817363304547 0 0.19330382777808591 0.29843087922832051 0 0.1761205910659428 0.29536080191317232 0 0.1792353554438918 0.27771572562556729 0 0.190366598125049 0.28477817363304547 0 0.1792353554438918 0.27771572562556729 0 0.18875986888090951 0.27085081208487172 0 0.190366598125049 0.28477817363304547 0 0.1792353554438918 0.27771572562556729 0 0.17964378401723879 0.26348516583409781 0 0.18875986888090951 0.27085081208487172 0 0.1792353554438918 0.27771572562556729 0 0.1644293580353888 0.26860403658266108 0 0.17964378401723879 0.26348516583409781 0 0.15472275448217801 0.28531238405960507 0 0.1792353554438918 0.27771572562556729 0 0.1644293580353888 0.26860403658266108 0 0.1456363013127854 0.26071578350694008 0 0.1644293580353888 0.26860403658266108 0 0.15926591796108369 0.2557145643866473 0 0.1644293580353888 0.26860403658266108 0 0.16969204942097821 0.25630325330611092 0 0.17964378401723879 0.26348516583409781 0 0.1644293580353888 0.26860403658266108 0 0.15926591796108369 0.2557145643866473 0 0.16969204942097821 0.25630325330611092 0 0.16464510318760389 0.24831332401324829 0 0.15926591796108369 0.2557145643866473 0 0.16969204942097821 0.25630325330611092 0 0.17245793070736001 0.2487546097822059 0 0.16464510318760389 0.24831332401324829 0 0.16969204942097821 0.25630325330611092 0 0.17245793070736001 0.2487546097822059 0 0.16969204942097821 0.25630325330611092 0 0.1786081018079477 0.25275609474700989 0 0.16969204942097821 0.25630325330611092 0 0.1786081018079477 0.25275609474700989 0 0.17964378401723879 0.26348516583409781 0 0.17964378401723879 0.26348516583409781 0 0.1893027118352715 0.25591321596415212 0 0.18875986888090951 0.27085081208487172 0 0.1786081018079477 0.25275609474700989 0 0.17964378401723879 0.26348516583409781 0 0.1893027118352715 0.25591321596415212 0 0.19415257657177001 0.2469208898894758 0 0.1893027118352715 0.25591321596415212 0 0.19754826516547669 0.25241489083028829 0 0.1893027118352715 0.25591321596415212 0 0.19800435109750419 0.26256928858320472 0 0.20304989332236431 0.27462236533585699 0 0.1893027118352715 0.25591321596415212 0 0.20304989332236431 0.27462236533585699 0 0.1893027118352715 0.25591321596415212 0 0.19754826516547669 0.25241489083028829 0 0.19847012414592499 0.2574609268814077 0 0.1893027118352715 0.25591321596415212 0 0.19800435109750419 0.26256928858320472 0 0.19847012414592499 0.2574609268814077 0 0.19800435109750419 0.26256928858320472 0 0.19847012414592499 0.2574609268814077 0 0.20324983654009099 0.25932282194775452 0 0.2021685729854745 0.24474154839612419 0 0.19754826516547669 0.25241489083028829 0 0.20324983654009099 0.25932282194775452 0 0.19754826516547669 0.25241489083028829 0 0.19847012414592499 0.2574609268814077 0 0.20324983654009099 0.25932282194775452 0 0.1893027118352715 0.25591321596415212 0 0.18875986888090951 0.27085081208487172 0 0.20304989332236431 0.27462236533585699 0 0.18875986888090951 0.27085081208487172 0 0.20304989332236431 0.27462236533585699 0 0.190366598125049 0.28477817363304547 0 0.19800435109750419 0.26256928858320472 0 0.20304989332236431 0.27462236533585699 0 0.21372623669340179 0.27608336625709129 0 0.19800435109750419 0.26256928858320472 0 0.21372623669340179 0.27608336625709129 0 0.19800435109750419 0.26256928858320472 0 0.21372623669340179 0.27608336625709129 0 0.21036226524296081 0.26540402773765848 0 0.21372623669340179 0.27608336625709129 0 0.21036226524296081 0.26540402773765848 0 0.22190183416078951 0.26762235690173758 0 0.2217256732695527 0.24035232717870739 0 0.20324983654009099 0.25932282194775452 0 0.21814344394845361 0.25979742754929602 0 0.19800435109750419 0.26256928858320472 0 0.21036226524296081 0.26540402773765848 0 0.20324983654009099 0.25932282194775452 0 0.21036226524296081 0.26540402773765848 0 0.20324983654009099 0.25932282194775452 0 0.21814344394845361 0.25979742754929602 0 0.21036226524296081 0.26540402773765848 0 0.21814344394845361 0.25979742754929602 0 0.22190183416078951 0.26762235690173758 0 0.2217256732695527 0.24035232717870739 0 0.21814344394845361 0.25979742754929602 0 0.22899738368326769 0.25660133231804849 0 0.22899738368326769 0.25660133231804849 0 0.22190183416078951 0.26762235690173758 0 0.2331894517964663 0.26866199267454161 0 0.21814344394845361 0.25979742754929602 0 0.22899738368326769 0.25660133231804849 0 0.22190183416078951 0.26762235690173758 0 0.21372623669340179 0.27608336625709129 0 0.22609831955081339 0.27698133510851392 0 0.22944812228929939 0.28959744393097792 0 0.21372623669340179 0.27608336625709129 0 0.22190183416078951 0.26762235690173758 0 0.22609831955081339 0.27698133510851392 0 0.22609831955081339 0.27698133510851392 0 0.2331894517964663 0.26866199267454161 0 0.2360448489511533 0.28076066134042221 0 0.22190183416078951 0.26762235690173758 0 0.22609831955081339 0.27698133510851392 0 0.2331894517964663 0.26866199267454161 0 0.2331894517964663 0.26866199267454161 0 0.2360448489511533 0.28076066134042221 0 0.2446261182263402 0.26990320929454759 0 0.2360448489511533 0.28076066134042221 0 0.2446261182263402 0.26990320929454759 0 0.245636632775911 0.28203334836175997 0 0.2446261182263402 0.26990320929454759 0 0.245636632775911 0.28203334836175997 0 0.25537292166961961 0.2734449184232583 0 0.24202371078080781 0.25684302508270712 0 0.25548914338408291 0.25767530988459658 0 0.25022510234823309 0.2419965137784883 0 0.2446261182263402 0.26990320929454759 0 0.24202371078080781 0.25684302508270712 0 0.25548914338408291 0.25767530988459658 0 0.2370001881435361 0.2463308645213014 0 0.22899738368326769 0.25660133231804849 0 0.24202371078080781 0.25684302508270712 0 0.2331894517964663 0.26866199267454161 0 0.2446261182263402 0.26990320929454759 0 0.24202371078080781 0.25684302508270712 0 0.22899738368326769 0.25660133231804849 0 0.2331894517964663 0.26866199267454161 0 0.24202371078080781 0.25684302508270712 0 0.24517000788519719 0.30311152160486438 0 0.22944812228929939 0.28959744393097792 0 0.23362373972974931 0.30064188328850677 0 0.24517000788519719 0.30311152160486438 0 0.23054425629655059 0.31204066407926589 0 0.24517000788519719 0.30311152160486438 0 0.23054425629655059 0.31204066407926589 0 0.24512512039125281 0.31600989545926389 0 0.24517000788519719 0.30311152160486438 0 0.23362373972974931 0.30064188328850677 0 0.23054425629655059 0.31204066407926589 0 0.24517000788519719 0.30311152160486438 0 0.24512512039125281 0.31600989545926389 0 0.25679827062552968 0.31310683959180002 0 0.24517000788519719 0.30311152160486438 0 0.243650774332413 0.29045925376566739 0 0.25311098557544798 0.29826348895829979 0 0.24517000788519719 0.30311152160486438 0 0.25311098557544798 0.29826348895829979 0 0.24517000788519719 0.30311152160486438 0 0.243650774332413 0.29045925376566739 0 0.22944812228929939 0.28959744393097792 0 0.243650774332413 0.29045925376566739 0 0.2530985684290763 0.28843308140909041 0 0.25311098557544798 0.29826348895829979 0 0.24517000788519719 0.30311152160486438 0 0.22944812228929939 0.28959744393097792 0 0.243650774332413 0.29045925376566739 0 0.245636632775911 0.28203334836175997 0 0.2530985684290763 0.28843308140909041 0 0.2360448489511533 0.28076066134042221 0 0.243650774332413 0.29045925376566739 0 0.245636632775911 0.28203334836175997 0 0.2360448489511533 0.28076066134042221 0 0.243650774332413 0.29045925376566739 0 0.22944812228929939 0.28959744393097792 0 0.22944812228929939 0.28959744393097792 0 0.23362373972974931 0.30064188328850677 0 0.21679707480945709 0.29333151470756191 0 0.21372623669340179 0.27608336625709129 0 0.22944812228929939 0.28959744393097792 0 0.21679707480945709 0.29333151470756191 0 0.21372623669340179 0.27608336625709129 0 0.22944812228929939 0.28959744393097792 0 0.22609831955081339 0.27698133510851392 0 0.2360448489511533 0.28076066134042221 0 0.22944812228929939 0.28959744393097792 0 0.23362373972974931 0.30064188328850677 0 0.23054425629655059 0.31204066407926589 0 0.21679707480945709 0.29333151470756191 0 0.23054425629655059 0.31204066407926589 0 0.21679707480945709 0.29333151470756191 0 0.2066717286052287 0.30710011392818121 0 0.21679707480945709 0.29333151470756191 0 0.20249306416348681 0.29139913247109123 0 0.23054425629655059 0.31204066407926589 0 0.2066717286052287 0.30710011392818121 0 0.21679707480945709 0.29333151470756191 0 0.20304989332236431 0.27462236533585699 0 0.21679707480945709 0.29333151470756191 0 0.20304989332236431 0.27462236533585699 0 0.21372623669340179 0.27608336625709129 0 0.21679707480945709 0.29333151470756191 0 0.20304989332236431 0.27462236533585699 0 0.21679707480945709 0.29333151470756191 0 0.20249306416348681 0.29139913247109123 0 0.20304989332236431 0.27462236533585699 0 0.20249306416348681 0.29139913247109123 0 0.190366598125049 0.28477817363304547 0 0.20249306416348681 0.29139913247109123 0 0.190366598125049 0.28477817363304547 0 0.19330382777808591 0.29843087922832051 0 0.2066717286052287 0.30710011392818121 0 0.20249306416348681 0.29139913247109123 0 0.19330382777808591 0.29843087922832051 0 0.2066717286052287 0.30710011392818121 0 0.18829485067992541 0.31108578642362578 0 0.19330382777808591 0.29843087922832051 0 0.18829485067992541 0.31108578642362578 0 0.2078104415550289 0.32591984625895493 0 0.18357735750419901 0.32424384617968599 0 0.2066717286052287 0.30710011392818121 0 0.18829485067992541 0.31108578642362578 0 0.2078104415550289 0.32591984625895493 0 0.2078104415550289 0.32591984625895493 0 0.1850766268135072 0.33979902843864401 0 0.20810733991167771 0.34365161840975628 0 0.2078104415550289 0.32591984625895493 0 0.1850766268135072 0.33979902843864401 0 0.2078104415550289 0.32591984625895493 0 0.1850766268135072 0.33979902843864401 0 0.18357735750419901 0.32424384617968599 0 0.20810733991167771 0.34365161840975628 0 0.2078104415550289 0.32591984625895493 0 0.22747621583287361 0.33257362835116211 0 0.23054425629655059 0.31204066407926589 0 0.2066717286052287 0.30710011392818121 0 0.2078104415550289 0.32591984625895493 0 0.23054425629655059 0.31204066407926589 0 0.2078104415550289 0.32591984625895493 0 0.22747621583287361 0.33257362835116211 0 0.23054425629655059 0.31204066407926589 0 0.2078104415550289 0.32591984625895493 0 0.20810733991167771 0.34365161840975628 0 0.22747621583287361 0.33257362835116211 0 0.22168974788433851 0.34936272169739679 0 0.22747621583287361 0.33257362835116211 0 0.24798794675773561 0.33578055656112638 0 0.23859151455692229 0.35481131326343951 0 0.23054425629655059 0.31204066407926589 0 0.22747621583287361 0.33257362835116211 0 0.24798794675773561 0.33578055656112638 0 0.23054425629655059 0.31204066407926589 0 0.24798794675773561 0.33578055656112638 0 0.24512512039125281 0.31600989545926389 0 0.24798794675773561 0.33578055656112638 0 0.24512512039125281 0.31600989545926389 0 0.25679827062552968 0.31310683959180002 0 0.23054425629655059 0.31204066407926589 0 0.24798794675773561 0.33578055656112638 0 0.24617944538287501 0.37149191785978819 0 0.23859151455692229 0.35481131326343951 0 0.22919508235611061 0.37384206996575331 0 0.24617944538287501 0.37149191785978819 0 0.23859151455692229 0.35481131326343951 0 0.26522591831159159 0.35924047705239248 0 0.24798794675773561 0.33578055656112638 0 0.23859151455692229 0.35481131326343951 0 0.23859151455692229 0.35481131326343951 0 0.22168974788433851 0.34936272169739679 0 0.22919508235611061 0.37384206996575331 0 0.22747621583287361 0.33257362835116211 0 0.23859151455692229 0.35481131326343951 0 0.22168974788433851 0.34936272169739679 0 0.23859151455692229 0.35481131326343951 0 0.22919508235611061 0.37384206996575331 0 0.22168974788433851 0.34936272169739679 0 0.22919508235611061 0.37384206996575331 0 0.20988854240999791 0.36026563420769558 0 0.22919508235611061 0.37384206996575331 0 0.20988854240999791 0.36026563420769558 0 0.21221286094767841 0.37575346145326122 0 0.20988854240999791 0.36026563420769558 0 0.1987918911774135 0.36900543965193089 0 0.21221286094767841 0.37575346145326122 0 0.20810733991167771 0.34365161840975628 0 0.20988854240999791 0.36026563420769558 0 0.1967024649743204 0.35398885150468451 0 0.20810733991167771 0.34365161840975628 0 0.22168974788433851 0.34936272169739679 0 0.20988854240999791 0.36026563420769558 0 0.20810733991167771 0.34365161840975628 0 0.1967024649743204 0.35398885150468451 0 0.1850766268135072 0.33979902843864401 0 0.1967024649743204 0.35398885150468451 0 0.1819821139903558 0.35910218571760022 0 0.1850766268135072 0.33979902843864401 0 0.1967024649743204 0.35398885150468451 0 0.1987918911774135 0.36900543965193089 0 0.1819821139903558 0.35910218571760022 0 0.1987918911774135 0.36900543965193089 0 0.1819821139903558 0.35910218571760022 0 0.19106856715974829 0.3836987862702651 0 0.20988854240999791 0.36026563420769558 0 0.1967024649743204 0.35398885150468451 0 0.1987918911774135 0.36900543965193089 0 0.16486475569070311 0.36180742203560329 0 0.1819821139903558 0.35910218571760022 0 0.1800064187382259 0.38387789493085389 0 0.1819821139903558 0.35910218571760022 0 0.19106856715974829 0.3836987862702651 0 0.16486475569070311 0.36180742203560329 0 0.1800064187382259 0.38387789493085389 0 0.16486475569070311 0.36180742203560329 0 0.14889904883586871 0.3724575868991522 0 0.1632186660401099 0.37961488372815089 0 0.16486475569070311 0.36180742203560329 0 0.17047233873641071 0.34906149334017461 0 0.16279893479452731 0.34198461197207969 0 0.16486475569070311 0.36180742203560329 0 0.14972309264318029 0.3397369491403528 0 0.16486475569070311 0.36180742203560329 0 0.16279893479452731 0.34198461197207969 0 0.14972309264318029 0.3397369491403528 0 0.1819821139903558 0.35910218571760022 0 0.17289566082096319 0.33450558516493512 0 0.17047233873641071 0.34906149334017461 0 0.1819821139903558 0.35910218571760022 0 0.17289566082096319 0.33450558516493512 0 0.16486475569070311 0.36180742203560329 0 0.17047233873641071 0.34906149334017461 0 0.1819821139903558 0.35910218571760022 0 0.1819821139903558 0.35910218571760022 0 0.1850766268135072 0.33979902843864401 0 0.17289566082096319 0.33450558516493512 0 0.1850766268135072 0.33979902843864401 0 0.17289566082096319 0.33450558516493512 0 0.18357735750419901 0.32424384617968599 0 0.16380920765157059 0.30990898461227012 0 0.18829485067992541 0.31108578642362578 0 0.18357735750419901 0.32424384617968599 0 0.16380920765157059 0.30990898461227012 0 0.17289566082096319 0.33450558516493512 0 0.18357735750419901 0.32424384617968599 0 0.16380920765157059 0.30990898461227012 0 0.17289566082096319 0.33450558516493512 0 0.1560388260813792 0.32481161017933252 0 0.16380920765157059 0.30990898461227012 0 0.17289566082096319 0.33450558516493512 0 0.17289566082096319 0.33450558516493512 0 0.16279893479452731 0.34198461197207969 0 0.1560388260813792 0.32481161017933252 0 0.17047233873641071 0.34906149334017461 0 0.17289566082096319 0.33450558516493512 0 0.16279893479452731 0.34198461197207969 0 0.14972309264318029 0.3397369491403528 0 0.1345814295956575 0.3176664762451023 0 0.16279893479452731 0.34198461197207969 0 0.14972309264318029 0.3397369491403528 0 0.1560388260813792 0.32481161017933252 0 0.1442446687222402 0.30286704546293652 0 0.1560388260813792 0.32481161017933252 0 0.1345814295956575 0.3176664762451023 0 0.1442446687222402 0.30286704546293652 0 0.16380920765157059 0.30990898461227012 0 0.1560388260813792 0.32481161017933252 0 0.14972309264318029 0.3397369491403528 0 0.1560388260813792 0.32481161017933252 0 0.1345814295956575 0.3176664762451023 0 0.114226827725774 0.32362769837306338 0 0.1345814295956575 0.3176664762451023 0 0.12969327033768441 0.33893408138805858 0 0.14972309264318029 0.3397369491403528 0 0.1345814295956575 0.3176664762451023 0 0.12969327033768441 0.33893408138805858 0 0.14972309264318029 0.3397369491403528 0 0.12969327033768441 0.33893408138805858 0 0.14111622150203459 0.35628235835022448 0 0.12248945676421361 0.35551815221153971 0 0.12969327033768441 0.33893408138805858 0 0.14111622150203459 0.35628235835022448 0 0.12248945676421361 0.35551815221153971 0 0.13170443831462339 0.36909771788981488 0 0.14111622150203459 0.35628235835022448 0 0.13170443831462339 0.36909771788981488 0 0.14889904883586871 0.3724575868991522 0 0.14111622150203459 0.35628235835022448 0 0.16486475569070311 0.36180742203560329 0 0.14889904883586871 0.3724575868991522 0 0.14111622150203459 0.35628235835022448 0 0.16486475569070311 0.36180742203560329 0 0.14972309264318029 0.3397369491403528 0 0.14111622150203459 0.35628235835022448 0 0.1409823852734102 0.40525718543870259 0 0.15808613067903729 0.41237276084630781 0 0.16100231947421009 0.40046642563412049 0 0.1409823852734102 0.40525718543870259 0 0.1529821569617274 0.38841393965741772 0 0.13260461952664079 0.38532420488296532 0 0.1409823852734102 0.40525718543870259 0 0.1529821569617274 0.38841393965741772 0 0.16100231947421009 0.40046642563412049 0 0.14889904883586871 0.3724575868991522 0 0.1529821569617274 0.38841393965741772 0 0.13260461952664079 0.38532420488296532 0 0.14889904883586871 0.3724575868991522 0 0.1529821569617274 0.38841393965741772 0 0.1632186660401099 0.37961488372815089 0 0.1134128449443591 0.3759062871051928 0 0.13170443831462339 0.36909771788981488 0 0.13260461952664079 0.38532420488296532 0 0.13170443831462339 0.36909771788981488 0 0.14889904883586871 0.3724575868991522 0 0.13260461952664079 0.38532420488296532 0 0.1106045024041441 0.40427727544214909 0 0.1409823852734102 0.40525718543870259 0 0.13260461952664079 0.38532420488296532 0 0.1228411165067953 0.42753573364642228 0 0.1409823852734102 0.40525718543870259 0 0.14738117749196569 0.42263781646367521 0 0.1228411165067953 0.42753573364642228 0 0.1380828412931798 0.43626930258991498 0 0.14738117749196569 0.42263781646367521 0 0.1380828412931798 0.43626930258991498 0 0.14738117749196569 0.42263781646367521 0 0.1577245947832141 0.43788876873574412 0 0.1409823852734102 0.40525718543870259 0 0.14738117749196569 0.42263781646367521 0 0.15808613067903729 0.41237276084630781 0 0.15808613067903729 0.41237276084630781 0 0.17296982103993799 0.41331549355837871 0 0.16100231947421009 0.40046642563412049 0 0.14738117749196569 0.42263781646367521 0 0.15808613067903729 0.41237276084630781 0 0.16494009568364951 0.4238135389279224 0 0.15808613067903729 0.41237276084630781 0 0.16494009568364951 0.4238135389279224 0 0.17296982103993799 0.41331549355837871 0 0.14738117749196569 0.42263781646367521 0 0.16494009568364951 0.4238135389279224 0 0.1577245947832141 0.43788876873574412 0 0.16494009568364951 0.4238135389279224 0 0.17283703675321899 0.43277676370766621 0 0.1577245947832141 0.43788876873574412 0 0.16494009568364951 0.4238135389279224 0 0.17283703675321899 0.43277676370766621 0 0.1806418133545227 0.42388963025576282 0 0.17283703675321899 0.43277676370766621 0 0.18421998301584491 0.43475918912823719 0 0.1747665298090865 0.44420871229602321 0 0.17283703675321899 0.43277676370766621 0 0.1806418133545227 0.42388963025576282 0 0.18421998301584491 0.43475918912823719 0 0.1806418133545227 0.42388963025576282 0 0.18421998301584491 0.43475918912823719 0 0.19456689838265559 0.42751055163360629 0 0.17296982103993799 0.41331549355837871 0 0.1782201696271474 0.40200868512050192 0 0.1894725990822414 0.41616613179673972 0 0.16494009568364951 0.4238135389279224 0 0.1806418133545227 0.42388963025576282 0 0.17296982103993799 0.41331549355837871 0 0.1806418133545227 0.42388963025576282 0 0.17296982103993799 0.41331549355837871 0 0.1894725990822414 0.41616613179673972 0 0.1782201696271474 0.40200868512050192 0 0.1800064187382259 0.38387789493085389 0 0.19514808178574869 0.40594836782610438 0 0.1782201696271474 0.40200868512050192 0 0.1693409499740243 0.39151757511772761 0 0.1800064187382259 0.38387789493085389 0 0.1782201696271474 0.40200868512050192 0 0.1693409499740243 0.39151757511772761 0 0.16100231947421009 0.40046642563412049 0 0.1529821569617274 0.38841393965741772 0 0.1693409499740243 0.39151757511772761 0 0.16100231947421009 0.40046642563412049 0 0.17296982103993799 0.41331549355837871 0 0.1782201696271474 0.40200868512050192 0 0.16100231947421009 0.40046642563412049 0 0.1693409499740243 0.39151757511772761 0 0.1632186660401099 0.37961488372815089 0 0.1800064187382259 0.38387789493085389 0 0.16486475569070311 0.36180742203560329 0 0.1632186660401099 0.37961488372815089 0 0.1800064187382259 0.38387789493085389 0 0.1529821569617274 0.38841393965741772 0 0.1693409499740243 0.39151757511772761 0 0.1632186660401099 0.37961488372815089 0 0.1819821139903558 0.35910218571760022 0 0.1800064187382259 0.38387789493085389 0 0.19106856715974829 0.3836987862702651 0 0.1987918911774135 0.36900543965193089 0 0.19106856715974829 0.3836987862702651 0 0.20158990236607829 0.38502982273662623 0 0.1800064187382259 0.38387789493085389 0 0.19106856715974829 0.3836987862702651 0 0.19507157558897081 0.39195109380218918 0 0.19106856715974829 0.3836987862702651 0 0.20158990236607829 0.38502982273662623 0 0.19507157558897081 0.39195109380218918 0 0.1800064187382259 0.38387789493085389 0 0.19514808178574869 0.40594836782610438 0 0.19507157558897081 0.39195109380218918 0 0.1800064187382259 0.38387789493085389 0 0.19514808178574869 0.40594836782610438 0 0.20158990236607829 0.38502982273662623 0 0.19507157558897081 0.39195109380218918 0 0.20366065670975819 0.39904276757888713 0 0.19514808178574869 0.40594836782610438 0 0.19507157558897081 0.39195109380218918 0 0.20366065670975819 0.39904276757888713 0 0.20366065670975819 0.39904276757888713 0 0.21979865015529901 0.39287282666806711 0 0.20669507365269449 0.41941172686144867 0 0.20158990236607829 0.38502982273662623 0 0.20366065670975819 0.39904276757888713 0 0.21979865015529901 0.39287282666806711 0 0.21979865015529901 0.39287282666806711 0 0.20669507365269449 0.41941172686144867 0 0.20158990236607829 0.38502982273662623 0 0.21979865015529901 0.39287282666806711 0 0.20158990236607829 0.38502982273662623 0 0.21221286094767841 0.37575346145326122 0 0.21979865015529901 0.39287282666806711 0 0.1987918911774135 0.36900543965193089 0 0.20158990236607829 0.38502982273662623 0 0.21221286094767841 0.37575346145326122 0 0.22919508235611061 0.37384206996575331 0 0.21979865015529901 0.39287282666806711 0 0.24034047363951291 0.3851723842056699 0 0.22919508235611061 0.37384206996575331 0 0.21979865015529901 0.39287282666806711 0 0.22919508235611061 0.37384206996575331 0 0.21221286094767841 0.37575346145326122 0 0.21979865015529901 0.39287282666806711 0 0.21979865015529901 0.39287282666806711 0 0.23859681149314521 0.4009697070786985 0 0.24034047363951291 0.3851723842056699 0 0.21979865015529901 0.39287282666806711 0 0.23859681149314521 0.4009697070786985 0 0.2286753186154841 0.41849002431863641 0 0.21979865015529901 0.39287282666806711 0 0.23859681149314521 0.4009697070786985 0 0.23859681149314521 0.4009697070786985 0 0.25739497283099211 0.40906658748932812 0 0.23859681149314521 0.4009697070786985 0 0.24034047363951291 0.3851723842056699 0 0.25759257180006928 0.38661509705400471 0 0.24617944538287501 0.37149191785978819 0 0.24034047363951291 0.3851723842056699 0 0.25759257180006928 0.38661509705400471 0 0.24617944538287501 0.37149191785978819 0 0.22919508235611061 0.37384206996575331 0 0.24034047363951291 0.3851723842056699 0 0.24495105346729379 0.43178308160075041 0 0.24326972528544361 0.41599067533811962 0 0.2286753186154841 0.41849002431863641 0 0.23859681149314521 0.4009697070786985 0 0.24326972528544361 0.41599067533811962 0 0.2286753186154841 0.41849002431863641 0 0.23859681149314521 0.4009697070786985 0 0.24326972528544361 0.41599067533811962 0 0.25739497283099211 0.40906658748932812 0 0.24495105346729379 0.43178308160075041 0 0.2286753186154841 0.41849002431863641 0 0.2233312654227213 0.44558129898605642 0 0.2286753186154841 0.41849002431863641 0 0.20669507365269449 0.41941172686144867 0 0.2233312654227213 0.44558129898605642 0 0.20669507365269449 0.41941172686144867 0 0.19359149715009311 0.44595062705483152 0 0.2233312654227213 0.44558129898605642 0 0.21979865015529901 0.39287282666806711 0 0.2286753186154841 0.41849002431863641 0 0.20669507365269449 0.41941172686144867 0 0.1782201696271474 0.40200868512050192 0 0.19514808178574869 0.40594836782610438 0 0.1894725990822414 0.41616613179673972 0 0.19514808178574869 0.40594836782610438 0 0.20669507365269449 0.41941172686144867 0 0.1894725990822414 0.41616613179673972 0 0.20669507365269449 0.41941172686144867 0 0.1894725990822414 0.41616613179673972 0 0.19456689838265559 0.42751055163360629 0 0.19514808178574869 0.40594836782610438 0 0.20366065670975819 0.39904276757888713 0 0.20669507365269449 0.41941172686144867 0 0.20669507365269449 0.41941172686144867 0 0.19359149715009311 0.44595062705483152 0 0.20669507365269449 0.41941172686144867 0 0.19456689838265559 0.42751055163360629 0 0.19359149715009311 0.44595062705483152 0 0.1806418133545227 0.42388963025576282 0 0.1894725990822414 0.41616613179673972 0 0.19456689838265559 0.42751055163360629 0 0.18421998301584491 0.43475918912823719 0 0.19456689838265559 0.42751055163360629 0 0.19188365303933691 0.4418452575077586 0 0.19456689838265559 0.42751055163360629 0 0.19188365303933691 0.4418452575077586 0 0.19359149715009311 0.44595062705483152 0 0.19188365303933691 0.4418452575077586 0 0.19359149715009311 0.44595062705483152 0 0.19188365303933691 0.4418452575077586 0 0.19359149715009311 0.44595062705483152 0 0.18278907696683699 0.45071095071212353 0 0.19359149715009311 0.44595062705483152 0 0.20483383504639871 0.47297531352741501 0 0.19359149715009311 0.44595062705483152 0 0.20483383504639871 0.47297531352741501 0 0.1802480637722193 0.47297531352741051 0 0.19359149715009311 0.44595062705483152 0 0.2233312654227213 0.44558129898605642 0 0.20483383504639871 0.47297531352741501 0 0.2233312654227213 0.44558129898605642 0 0.23326875393674881 0.47518438503835009 0 0.20483383504639871 0.47297531352741501 0 0.2233312654227213 0.44558129898605642 0 0.23326875393674881 0.47518438503835009 0 0.25210031702500812 0.45452205440049959 0 0.24495105346729379 0.43178308160075041 0 0.2233312654227213 0.44558129898605642 0 0.25210031702500812 0.45452205440049959 0 0.24495105346729379 0.43178308160075041 0 0.25210031702500812 0.45452205440049959 0 0.2412375085415682 0.5 0 0.23326875393674881 0.47518438503835009 0 0.25924958058272241 0.47726102720024888 0 0.23326875393674881 0.47518438503835009 0 0.25924958058272241 0.47726102720024888 0 0.25210031702500812 0.45452205440049959 0 0.2412375085415682 0.5 0 0.23326875393674881 0.47518438503835009 0 0.21607617294270001 0.50000000000000022 0 0.21607617294270001 0.50000000000000022 0 0.20483383504639871 0.47297531352741501 0 0.19149040166852571 0.5 0 0.21607617294270001 0.50000000000000022 0 0.20483383504639871 0.47297531352741501 0 0.23326875393674881 0.47518438503835009 0 0.21607617294270001 0.50000000000000022 0 0.20483383504639871 0.47297531352741501 0 0.20483383504639871 0.47297531352741501 0 0.19149040166852571 0.5 0 0.1802480637722193 0.47297531352741051 0 0.19149040166852571 0.5 0 0.1669046303943513 0.49999999999999251 0 0.1802480637722193 0.47297531352741051 0 0.1669046303943513 0.49999999999999251 0 0.1802480637722193 0.47297531352741051 0 0.16371003153770031 0.50000000000000089 0 0.1692382806733935 0.47210435614801222 0 0.14783391193271869 0.48314990193195462 0 0.16371003153770031 0.50000000000000089 0 0.1669046303943513 0.49999999999999251 0 0.1692382806733935 0.47210435614801222 0 0.16371003153770031 0.50000000000000089 0 0.1692382806733935 0.47210435614801222 0 0.1669046303943513 0.49999999999999251 0 0.1692382806733935 0.47210435614801222 0 0.1802480637722193 0.47297531352741051 0 0.1692382806733935 0.47210435614801222 0 0.1747665298090865 0.44420871229602321 0 0.1692382806733935 0.47210435614801222 0 0.1802480637722193 0.47297531352741051 0 0.18278907696683699 0.45071095071212353 0 0.19359149715009311 0.44595062705483152 0 0.1802480637722193 0.47297531352741051 0 0.1692382806733935 0.47210435614801222 0 0.18278907696683699 0.45071095071212353 0 0.1747665298090865 0.44420871229602321 0 0.19359149715009311 0.44595062705483152 0 0.1802480637722193 0.47297531352741051 0 0.18278907696683699 0.45071095071212353 0 0.18421998301584491 0.43475918912823719 0 0.18278907696683699 0.45071095071212353 0 0.1747665298090865 0.44420871229602321 0 0.18421998301584491 0.43475918912823719 0 0.19188365303933691 0.4418452575077586 0 0.18278907696683699 0.45071095071212353 0 0.1747665298090865 0.44420871229602321 0 0.1577245947832141 0.43788876873574412 0 0.1597002633320119 0.4552524265866838 0 0.17283703675321899 0.43277676370766621 0 0.1747665298090865 0.44420871229602321 0 0.1577245947832141 0.43788876873574412 0 0.1692382806733935 0.47210435614801222 0 0.1597002633320119 0.4552524265866838 0 0.1498081298672081 0.46671680626033918 0 0.1692382806733935 0.47210435614801222 0 0.1747665298090865 0.44420871229602321 0 0.1597002633320119 0.4552524265866838 0 0.1498081298672081 0.46671680626033918 0 0.1418085801931859 0.45299707158688901 0 0.13045961320473029 0.4700802750481563 0 0.1597002633320119 0.4552524265866838 0 0.1498081298672081 0.46671680626033918 0 0.1418085801931859 0.45299707158688901 0 0.1380828412931798 0.43626930258991498 0 0.1577245947832141 0.43788876873574412 0 0.1418085801931859 0.45299707158688901 0 0.1577245947832141 0.43788876873574412 0 0.1597002633320119 0.4552524265866838 0 0.1418085801931859 0.45299707158688901 0 0.11281216633627129 0.45144382245309572 0 0.1380828412931798 0.43626930258991498 0 0.1418085801931859 0.45299707158688901 0 0.11281216633627129 0.45144382245309572 0 0.1418085801931859 0.45299707158688901 0 0.13045961320473029 0.4700802750481563 0 0.12353368339238111 0.48747014263592281 0 0.13045961320473029 0.4700802750481563 0 0.14783391193271869 0.48314990193195462 0 0.12353368339238111 0.48747014263592281 0 0.1362743261120862 0.5 0 0.14783391193271869 0.48314990193195462 0 0.16371003153770031 0.50000000000000089 0 0.1362743261120862 0.5 0 0.14783391193271869 0.48314990193195462 0 0.1498081298672081 0.46671680626033918 0 0.13045961320473029 0.4700802750481563 0 0.14783391193271869 0.48314990193195462 0 0.1692382806733935 0.47210435614801222 0 0.1498081298672081 0.46671680626033918 0 0.14783391193271869 0.48314990193195462 0 0.35141577608085589 0.476540079508734 0 0.36924720914121029 0.50000000000000067 0 0.34309002176114128 0.5 0 0.35141577608085589 0.476540079508734 0 0.36924720914121029 0.50000000000000067 0 0.3767978028934118 0.48401303026752818 0 0.35141577608085589 0.476540079508734 0 0.36924720914121029 0.50000000000000067 0 0.36924720914121029 0.50000000000000067 0 0.3767978028934118 0.48401303026752818 0 0.35141577608085589 0.476540079508734 0 0.36770274132954739 0.46970160511778158 0 0.3767978028934118 0.48401303026752818 0 0.36555052008806871 0.45564637397221258 0 0.38434839664561321 0.46802606053505569 0 0.36770274132954739 0.46970160511778158 0 0.36555052008806871 0.45564637397221258 0 0.38434839664561321 0.46802606053505569 0 0.36770274132954739 0.46970160511778158 0 0.36555052008806871 0.45564637397221258 0 0.35341114966434312 0.45983240101712353 0 0.36555052008806871 0.45564637397221258 0 0.35720721919331228 0.43337346249646053 0 0.37789224291533557 0.43508951856857381 0 0.36555052008806871 0.45564637397221258 0 0.34675264353052299 0.4432666874093707 0 0.36555052008806871 0.45564637397221258 0 0.34675264353052299 0.4432666874093707 0 0.35720721919331228 0.43337346249646053 0 0.36555052008806871 0.45564637397221258 0 0.34675264353052299 0.4432666874093707 0 0.35341114966434312 0.45983240101712353 0 0.34675264353052299 0.4432666874093707 0 0.35341114966434312 0.45983240101712353 0 0.33417780452700302 0.45308015901746562 0 0.35141577608085589 0.476540079508734 0 0.36770274132954739 0.46970160511778158 0 0.35341114966434312 0.45983240101712353 0 0.35141577608085589 0.476540079508734 0 0.35341114966434312 0.45983240101712353 0 0.33417780452700302 0.45308015901746562 0 0.35141577608085589 0.476540079508734 0 0.33417780452700302 0.45308015901746562 0 0.34675264353052299 0.4432666874093707 0 0.33417780452700302 0.45308015901746562 0 0.3279547669729776 0.43088700084652881 0 0.33417780452700302 0.45308015901746562 0 0.31300876538533717 0.45057177575804658 0 0.31693983297315009 0.4296202385261973 0 0.33417780452700302 0.45308015901746562 0 0.31693983297315009 0.4296202385261973 0 0.3279547669729776 0.43088700084652881 0 0.33417780452700302 0.45308015901746562 0 0.31693983297315009 0.4296202385261973 0 0.33417780452700302 0.45308015901746562 0 0.31300876538533717 0.45057177575804658 0 0.31620211430558731 0.47233051957144839 0 0.33417780452700302 0.45308015901746562 0 0.31620211430558731 0.47233051957144839 0 0.33248240251243211 0.48039015161952958 0 0.31620211430558731 0.47233051957144839 0 0.33248240251243211 0.48039015161952958 0 0.31752629588757308 0.5 0 0.35141577608085589 0.476540079508734 0 0.33417780452700302 0.45308015901746562 0 0.33248240251243211 0.48039015161952958 0 0.33248240251243211 0.48039015161952958 0 0.34309002176114128 0.5 0 0.31752629588757308 0.5 0 0.35141577608085589 0.476540079508734 0 0.33248240251243211 0.48039015161952958 0 0.34309002176114128 0.5 0 0.31752629588757308 0.5 0 0.30008040046120948 0.48272527747836841 0 0.29196257001400472 0.5 0 0.31620211430558731 0.47233051957144839 0 0.31752629588757308 0.5 0 0.30008040046120948 0.48272527747836841 0 0.31620211430558731 0.47233051957144839 0 0.30008040046120948 0.48272527747836841 0 0.29393439592416221 0.4607251722750394 0 0.30008040046120948 0.48272527747836841 0 0.28077662617472021 0.48057069554535359 0 0.29393439592416221 0.4607251722750394 0 0.30008040046120948 0.48272527747836841 0 0.29196257001400472 0.5 0 0.28077662617472021 0.48057069554535359 0 0.29196257001400472 0.5 0 0.26639884414043619 0.49999999999999828 0 0.28077662617472021 0.48057069554535359 0 0.26639884414043619 0.49999999999999828 0 0.28077662617472021 0.48057069554535359 0 0.25924958058272241 0.47726102720024888 0 0.28077662617472021 0.48057069554535359 0 0.25924958058272241 0.47726102720024888 0 0.27234935921613102 0.46327267813396877 0 0.2412375085415682 0.5 0 0.26639884414043619 0.49999999999999828 0 0.25924958058272241 0.47726102720024888 0 0.26639884414043619 0.49999999999999828 0 0.25924958058272241 0.47726102720024888 0 0.25210031702500812 0.45452205440049959 0 0.2756858763740419 0.44328444124870259 0 0.26314685192783221 0.42997552688222052 0 0.24495105346729379 0.43178308160075041 0 0.25210031702500812 0.45452205440049959 0 0.26314685192783221 0.42997552688222052 0 0.25924958058272241 0.47726102720024888 0 0.25210031702500812 0.45452205440049959 0 0.25924958058272241 0.47726102720024888 0 0.25210031702500812 0.45452205440049959 0 0.27234935921613102 0.46327267813396877 0 0.27234935921613102 0.46327267813396877 0 0.2756858763740419 0.44328444124870259 0 0.29393439592416221 0.4607251722750394 0 0.25210031702500812 0.45452205440049959 0 0.27234935921613102 0.46327267813396877 0 0.2756858763740419 0.44328444124870259 0 0.2756858763740419 0.44328444124870259 0 0.29393439592416221 0.4607251722750394 0 0.29493045307734472 0.43204165116486948 0 0.28077662617472021 0.48057069554535359 0 0.27234935921613102 0.46327267813396877 0 0.29393439592416221 0.4607251722750394 0 0.31300876538533717 0.45057177575804658 0 0.31620211430558731 0.47233051957144839 0 0.29393439592416221 0.4607251722750394 0 0.31300876538533717 0.45057177575804658 0 0.29393439592416221 0.4607251722750394 0 0.29493045307734472 0.43204165116486948 0 0.29493045307734472 0.43204165116486948 0 0.29970186141929722 0.40616031803492902 0 0.31693983297315009 0.4296202385261973 0 0.31300876538533717 0.45057177575804658 0 0.29493045307734472 0.43204165116486948 0 0.31693983297315009 0.4296202385261973 0 0.29970186141929722 0.40616031803492902 0 0.31693983297315009 0.4296202385261973 0 0.29493045307734472 0.43204165116486948 0 0.27619313416883912 0.41716346789995762 0 0.29970186141929722 0.40616031803492902 0 0.27619313416883912 0.41716346789995762 0 0.27383730492382369 0.39957410944043092 0 0.29970186141929722 0.40616031803492902 0 0.2756858763740419 0.44328444124870259 0 0.29493045307734472 0.43204165116486948 0 0.27619313416883912 0.41716346789995762 0 0.2756858763740419 0.44328444124870259 0 0.27619313416883912 0.41716346789995762 0 0.26314685192783221 0.42997552688222052 0 0.27619313416883912 0.41716346789995762 0 0.25739497283099211 0.40906658748932812 0 0.27619313416883912 0.41716346789995762 0 0.25739497283099211 0.40906658748932812 0 0.27383730492382369 0.39957410944043092 0 0.27619313416883912 0.41716346789995762 0 0.25739497283099211 0.40906658748932812 0 0.26314685192783221 0.42997552688222052 0 0.24326972528544361 0.41599067533811962 0 0.25739497283099211 0.40906658748932812 0 0.26314685192783221 0.42997552688222052 0 0.24495105346729379 0.43178308160075041 0 0.24326972528544361 0.41599067533811962 0 0.26314685192783221 0.42997552688222052 0 0.25739497283099211 0.40906658748932812 0 0.25759257180006928 0.38661509705400471 0 0.27383730492382369 0.39957410944043092 0 0.23859681149314521 0.4009697070786985 0 0.25739497283099211 0.40906658748932812 0 0.25759257180006928 0.38661509705400471 0 0.25759257180006928 0.38661509705400471 0 0.27383730492382369 0.39957410944043092 0 0.28246388986544441 0.3827003975436607 0 0.25759257180006928 0.38661509705400471 0 0.28246388986544441 0.3827003975436607 0 0.26522591831159159 0.35924047705239248 0 0.28246388986544441 0.3827003975436607 0 0.30488057886195868 0.38287421361439028 0 0.30170484771110989 0.35988099474601792 0 0.28246388986544441 0.3827003975436607 0 0.29970186141929722 0.40616031803492902 0 0.30488057886195868 0.38287421361439028 0 0.27383730492382369 0.39957410944043092 0 0.28246388986544441 0.3827003975436607 0 0.29970186141929722 0.40616031803492902 0 0.28246388986544441 0.3827003975436607 0 0.29970186141929722 0.40616031803492902 0 0.29970186141929722 0.40616031803492902 0 0.30488057886195868 0.38287421361439028 0 0.31965208670783363 0.39115347137178003 0 0.30488057886195868 0.38287421361439028 0 0.31965208670783363 0.39115347137178003 0 0.32088020860610827 0.37447588637556389 0 0.33435442212578848 0.3840464509372552 0 0.31965208670783363 0.39115347137178003 0 0.32088020860610827 0.37447588637556389 0 0.33435442212578848 0.3840464509372552 0 0.33864983701810347 0.37151652039054622 0 0.32088020860610827 0.37447588637556389 0 0.33435442212578848 0.3840464509372552 0 0.33478717585053391 0.39653880931643443 0 0.31965208670783363 0.39115347137178003 0 0.33435442212578848 0.3840464509372552 0 0.34671813452044442 0.38078693710682932 0 0.34620021311487842 0.39281647833900329 0 0.33435442212578848 0.3840464509372552 0 0.34671813452044442 0.38078693710682932 0 0.33864983701810347 0.37151652039054622 0 0.33478717585053391 0.39653880931643443 0 0.33717143764644453 0.40797771109743441 0 0.34620021311487842 0.39281647833900329 0 0.33435442212578848 0.3840464509372552 0 0.33478717585053391 0.39653880931643443 0 0.34620021311487842 0.39281647833900329 0 0.33478717585053391 0.39653880931643443 0 0.32262453954221498 0.40905324438625612 0 0.33717143764644453 0.40797771109743441 0 0.29970186141929722 0.40616031803492902 0 0.31965208670783363 0.39115347137178003 0 0.32262453954221498 0.40905324438625612 0 0.33478717585053391 0.39653880931643443 0 0.31965208670783363 0.39115347137178003 0 0.32262453954221498 0.40905324438625612 0 0.29970186141929722 0.40616031803492902 0 0.32262453954221498 0.40905324438625612 0 0.31693983297315009 0.4296202385261973 0 0.32262453954221498 0.40905324438625612 0 0.31693983297315009 0.4296202385261973 0 0.33232993892689638 0.42069568146354058 0 0.31693983297315009 0.4296202385261973 0 0.3279547669729776 0.43088700084652881 0 0.33232993892689638 0.42069568146354058 0 0.34675264353052299 0.4432666874093707 0 0.3279547669729776 0.43088700084652881 0 0.34675264353052299 0.4432666874093707 0 0.3279547669729776 0.43088700084652881 0 0.34209276783783049 0.42894467208731291 0 0.3279547669729776 0.43088700084652881 0 0.34209276783783049 0.42894467208731291 0 0.33232993892689638 0.42069568146354058 0 0.34209276783783049 0.42894467208731291 0 0.33232993892689638 0.42069568146354058 0 0.34727913306989477 0.41871002556119652 0 0.32262453954221498 0.40905324438625612 0 0.33232993892689638 0.42069568146354058 0 0.33717143764644453 0.40797771109743441 0 0.33232993892689638 0.42069568146354058 0 0.33717143764644453 0.40797771109743441 0 0.34727913306989477 0.41871002556119652 0 0.33717143764644453 0.40797771109743441 0 0.34727913306989477 0.41871002556119652 0 0.35383180429727529 0.40396580641055069 0 0.34727913306989477 0.41871002556119652 0 0.36367600771822128 0.41858349738009698 0 0.35383180429727529 0.40396580641055069 0 0.34727913306989477 0.41871002556119652 0 0.35720721919331228 0.43337346249646053 0 0.36367600771822128 0.41858349738009698 0 0.34675264353052299 0.4432666874093707 0 0.34209276783783049 0.42894467208731291 0 0.35720721919331228 0.43337346249646053 0 0.34209276783783049 0.42894467208731291 0 0.34727913306989477 0.41871002556119652 0 0.35720721919331228 0.43337346249646053 0 0.35720721919331228 0.43337346249646053 0 0.36367600771822128 0.41858349738009698 0 0.37789224291533557 0.43508951856857381 0 0.36367600771822128 0.41858349738009698 0 0.37789224291533557 0.43508951856857381 0 0.36367600771822128 0.41858349738009698 0 0.38042523265221673 0.4177707441873969 0 0.37789224291533557 0.43508951856857381 0 0.36367600771822128 0.41858349738009698 0 0.36946811632572207 0.40185385646195321 0 0.35383180429727529 0.40396580641055069 0 0.36367600771822128 0.41858349738009698 0 0.36946811632572207 0.40185385646195321 0 0.38042523265221673 0.4177707441873969 0 0.36946811632572207 0.40185385646195321 0 0.36088115219715178 0.38555534324986968 0 0.35383180429727529 0.40396580641055069 0 0.36946811632572207 0.40185385646195321 0 0.36088115219715178 0.38555534324986968 0 0.37919096452727141 0.39170638101165339 0 0.36088115219715178 0.38555534324986968 0 0.36341496823848918 0.36767434258804299 0 0.37617448514113289 0.37548569647746532 0 0.36088115219715178 0.38555534324986968 0 0.37617448514113289 0.37548569647746532 0 0.37919096452727141 0.39170638101165339 0 0.36088115219715178 0.38555534324986968 0 0.352529820110077 0.37216231553109042 0 0.36341496823848918 0.36767434258804299 0 0.36088115219715178 0.38555534324986968 0 0.34671813452044442 0.38078693710682932 0 0.352529820110077 0.37216231553109042 0 0.36088115219715178 0.38555534324986968 0 0.34671813452044442 0.38078693710682932 0 0.34620021311487842 0.39281647833900329 0 0.36088115219715178 0.38555534324986968 0 0.35383180429727529 0.40396580641055069 0 0.34620021311487842 0.39281647833900329 0 0.33717143764644453 0.40797771109743441 0 0.35383180429727529 0.40396580641055069 0 0.34620021311487842 0.39281647833900329 0 0.34486633405218459 0.34824691069919778 0 0.34671170038024229 0.362056285128245 0 0.36251864864301758 0.35035802869549421 0 0.34671170038024229 0.362056285128245 0 0.352529820110077 0.37216231553109042 0 0.36341496823848918 0.36767434258804299 0 0.34671170038024229 0.362056285128245 0 0.36341496823848918 0.36767434258804299 0 0.36251864864301758 0.35035802869549421 0 0.34671813452044442 0.38078693710682932 0 0.352529820110077 0.37216231553109042 0 0.33864983701810347 0.37151652039054622 0 0.34671170038024229 0.362056285128245 0 0.352529820110077 0.37216231553109042 0 0.33864983701810347 0.37151652039054622 0 0.36341496823848918 0.36767434258804299 0 0.3781428757762999 0.35754202838204618 0 0.37617448514113289 0.37548569647746532 0 0.36341496823848918 0.36767434258804299 0 0.36251864864301758 0.35035802869549421 0 0.3781428757762999 0.35754202838204618 0 0.36251864864301758 0.35035802869549421 0 0.37945229047161838 0.33770273635935988 0 0.3781428757762999 0.35754202838204618 0 0.36251864864301758 0.35035802869549421 0 0.35958852443728861 0.32539120343839012 0 0.37945229047161838 0.33770273635935988 0 0.35958852443728861 0.32539120343839012 0 0.37431071482239259 0.30253549617758241 0 0.38476975808974512 0.31587997353501962 0 0.35958852443728861 0.32539120343839012 0 0.37431071482239259 0.30253549617758241 0 0.35958852443728861 0.32539120343839012 0 0.38476975808974512 0.31587997353501962 0 0.37945229047161838 0.33770273635935988 0 0.35958852443728861 0.32539120343839012 0 0.33745602104719441 0.32532381068776861 0 0.35146120699424738 0.30378584499619349 0 0.34486633405218459 0.34824691069919778 0 0.35958852443728861 0.32539120343839012 0 0.33745602104719441 0.32532381068776861 0 0.34486633405218459 0.34824691069919778 0 0.35958852443728861 0.32539120343839012 0 0.34486633405218459 0.34824691069919778 0 0.36251864864301758 0.35035802869549421 0 0.35958852443728861 0.32539120343839012 0 0.34486633405218459 0.34824691069919778 0 0.33745602104719441 0.32532381068776861 0 0.32454916451844462 0.34809117431741932 0 0.33745602104719441 0.32532381068776861 0 0.31833867285045542 0.32348101319907091 0 0.32749787197052832 0.30471680660399381 0 0.32454916451844462 0.34809117431741932 0 0.30238662865664673 0.33412606350659341 0 0.31833867285045542 0.32348101319907091 0 0.32454916451844462 0.34809117431741932 0 0.30238662865664673 0.33412606350659341 0 0.33745602104719441 0.32532381068776861 0 0.31833867285045542 0.32348101319907091 0 0.32454916451844462 0.34809117431741932 0 0.32454916451844462 0.34809117431741932 0 0.32805456620246293 0.36210616600124362 0 0.30170484771110989 0.35988099474601792 0 0.34671170038024229 0.362056285128245 0 0.32454916451844462 0.34809117431741932 0 0.34671170038024229 0.362056285128245 0 0.32454916451844462 0.34809117431741932 0 0.32805456620246293 0.36210616600124362 0 0.34486633405218459 0.34824691069919778 0 0.34671170038024229 0.362056285128245 0 0.32454916451844462 0.34809117431741932 0 0.34671170038024229 0.362056285128245 0 0.33864983701810347 0.37151652039054622 0 0.32805456620246293 0.36210616600124362 0 0.33864983701810347 0.37151652039054622 0 0.32805456620246293 0.36210616600124362 0 0.32088020860610827 0.37447588637556389 0 0.32805456620246293 0.36210616600124362 0 0.32088020860610827 0.37447588637556389 0 0.30170484771110989 0.35988099474601792 0 0.28246388986544441 0.3827003975436607 0 0.30170484771110989 0.35988099474601792 0 0.26522591831159159 0.35924047705239248 0 0.30488057886195868 0.38287421361439028 0 0.32088020860610827 0.37447588637556389 0 0.30170484771110989 0.35988099474601792 0 0.30170484771110989 0.35988099474601792 0 0.26522591831159159 0.35924047705239248 0 0.28240183490371668 0.34136720876177951 0 0.32454916451844462 0.34809117431741932 0 0.30170484771110989 0.35988099474601792 0 0.30238662865664673 0.33412606350659341 0 0.30170484771110989 0.35988099474601792 0 0.28240183490371668 0.34136720876177951 0 0.30238662865664673 0.33412606350659341 0 0.28246388986544441 0.3827003975436607 0 0.26522591831159159 0.35924047705239248 0 0.24798794675773561 0.33578055656112638 0 0.23859151455692229 0.35481131326343951 0 0.26522591831159159 0.35924047705239248 0 0.24798794675773561 0.33578055656112638 0 0.26522591831159159 0.35924047705239248 0 0.24617944538287501 0.37149191785978819 0 0.25759257180006928 0.38661509705400471 0 0.26522591831159159 0.35924047705239248 0 0.24798794675773561 0.33578055656112638 0 0.26579729962857179 0.32947712779898641 0 0.2598423477277636 0.31177163318563239 0 0.24798794675773561 0.33578055656112638 0 0.25679827062552968 0.31310683959180002 0 0.2598423477277636 0.31177163318563239 0 0.24798794675773561 0.33578055656112638 0 0.2598423477277636 0.31177163318563239 0 0.26579729962857179 0.32947712779898641 0 0.27060897056702282 0.31253009587013048 0 0.2598423477277636 0.31177163318563239 0 0.24798794675773561 0.33578055656112638 0 0.26522591831159159 0.35924047705239248 0 0.26579729962857179 0.32947712779898641 0 0.26522591831159159 0.35924047705239248 0 0.26579729962857179 0.32947712779898641 0 0.28240183490371668 0.34136720876177951 0 0.26579729962857179 0.32947712779898641 0 0.28022409279484878 0.32016095269576761 0 0.28240183490371668 0.34136720876177951 0 0.26579729962857179 0.32947712779898641 0 0.27060897056702282 0.31253009587013048 0 0.28022409279484878 0.32016095269576761 0 0.27060897056702282 0.31253009587013048 0 0.28022409279484878 0.32016095269576761 0 0.28417638789382338 0.30677766485817259 0 0.28022409279484878 0.32016095269576761 0 0.30238662865664673 0.33412606350659341 0 0.28022409279484878 0.32016095269576761 0 0.30238662865664673 0.33412606350659341 0 0.30293497513942819 0.30868738913488641 0 0.28022409279484878 0.32016095269576761 0 0.28240183490371668 0.34136720876177951 0 0.30238662865664673 0.33412606350659341 0 0.31833867285045542 0.32348101319907091 0 0.30238662865664673 0.33412606350659341 0 0.30293497513942819 0.30868738913488641 0 0.30293497513942819 0.30868738913488641 0 0.29890224237082258 0.28356441351351658 0 0.31914365362188513 0.28435950040528302 0 0.29890224237082258 0.28356441351351658 0 0.27919333587725342 0.29273705099423342 0 0.27782831601861258 0.28040190924189468 0 0.29890224237082258 0.28356441351351658 0 0.28417638789382338 0.30677766485817259 0 0.27919333587725342 0.29273705099423342 0 0.28022409279484878 0.32016095269576761 0 0.30293497513942819 0.30868738913488641 0 0.28417638789382338 0.30677766485817259 0 0.30293497513942819 0.30868738913488641 0 0.29890224237082258 0.28356441351351658 0 0.28417638789382338 0.30677766485817259 0 0.27060897056702282 0.31253009587013048 0 0.28417638789382338 0.30677766485817259 0 0.269764785702168 0.30145618423322129 0 0.27060897056702282 0.31253009587013048 0 0.269764785702168 0.30145618423322129 0 0.26181914162917508 0.30557850239763629 0 0.28417638789382338 0.30677766485817259 0 0.269764785702168 0.30145618423322129 0 0.27919333587725342 0.29273705099423342 0 0.27919333587725342 0.29273705099423342 0 0.26974543980280891 0.29112286202460419 0 0.27782831601861258 0.28040190924189468 0 0.26974543980280891 0.29112286202460419 0 0.26474977175628928 0.28297297784884518 0 0.27782831601861258 0.28040190924189468 0 0.269764785702168 0.30145618423322129 0 0.26974543980280891 0.29112286202460419 0 0.2608513834086259 0.29596491015216991 0 0.269764785702168 0.30145618423322129 0 0.27919333587725342 0.29273705099423342 0 0.26974543980280891 0.29112286202460419 0 0.26974543980280891 0.29112286202460419 0 0.2608513834086259 0.29596491015216991 0 0.26474977175628928 0.28297297784884518 0 0.2608513834086259 0.29596491015216991 0 0.26474977175628928 0.28297297784884518 0 0.2530985684290763 0.28843308140909041 0 0.26474977175628928 0.28297297784884518 0 0.2530985684290763 0.28843308140909041 0 0.25537292166961961 0.2734449184232583 0 0.245636632775911 0.28203334836175997 0 0.2530985684290763 0.28843308140909041 0 0.25537292166961961 0.2734449184232583 0 0.2608513834086259 0.29596491015216991 0 0.2530985684290763 0.28843308140909041 0 0.25311098557544798 0.29826348895829979 0 0.24517000788519719 0.30311152160486438 0 0.25311098557544798 0.29826348895829979 0 0.25550118783986803 0.30288663536716409 0 0.24517000788519719 0.30311152160486438 0 0.25550118783986803 0.30288663536716409 0 0.25582619114150668 0.30729102642941952 0 0.2608513834086259 0.29596491015216991 0 0.25311098557544798 0.29826348895829979 0 0.25550118783986803 0.30288663536716409 0 0.24517000788519719 0.30311152160486438 0 0.25679827062552968 0.31310683959180002 0 0.25582619114150668 0.30729102642941952 0 0.24517000788519719 0.30311152160486438 0 0.25679827062552968 0.31310683959180002 0 0.25679827062552968 0.31310683959180002 0 0.25582619114150668 0.30729102642941952 0 0.2598423477277636 0.31177163318563239 0 0.25550118783986803 0.30288663536716409 0 0.25582619114150668 0.30729102642941952 0 0.26181914162917508 0.30557850239763629 0 0.25582619114150668 0.30729102642941952 0 0.2598423477277636 0.31177163318563239 0 0.26181914162917508 0.30557850239763629 0 0.27060897056702282 0.31253009587013048 0 0.2598423477277636 0.31177163318563239 0 0.26181914162917508 0.30557850239763629 0 0.269764785702168 0.30145618423322129 0 0.2608513834086259 0.29596491015216991 0 0.26181914162917508 0.30557850239763629 0 0.2608513834086259 0.29596491015216991 0 0.25550118783986803 0.30288663536716409 0 0.26181914162917508 0.30557850239763629 0 0.25548914338408291 0.25767530988459658 0 0.25537292166961961 0.2734449184232583 0 0.27723419766466229 0.26420177098327408 0 0.2446261182263402 0.26990320929454759 0 0.25548914338408291 0.25767530988459658 0 0.25537292166961961 0.2734449184232583 0 0.26474977175628928 0.28297297784884518 0 0.25537292166961961 0.2734449184232583 0 0.27723419766466229 0.26420177098327408 0 0.26474977175628928 0.28297297784884518 0 0.27782831601861258 0.28040190924189468 0 0.27723419766466229 0.26420177098327408 0 0.27723419766466229 0.26420177098327408 0 0.26799075757218532 0.24379820218074161 0 0.28743123409184901 0.24245411835034539 0 0.25548914338408291 0.25767530988459658 0 0.27723419766466229 0.26420177098327408 0 0.26799075757218532 0.24379820218074161 0 0.27723419766466229 0.26420177098327408 0 0.3136006934098563 0.25742143280046859 0 0.28743123409184901 0.24245411835034539 0 0.29890224237082258 0.28356441351351658 0 0.27723419766466229 0.26420177098327408 0 0.3136006934098563 0.25742143280046859 0 0.29890224237082258 0.28356441351351658 0 0.27782831601861258 0.28040190924189468 0 0.27723419766466229 0.26420177098327408 0 0.29890224237082258 0.28356441351351658 0 0.3136006934098563 0.25742143280046859 0 0.29890224237082258 0.28356441351351658 0 0.3136006934098563 0.25742143280046859 0 0.31914365362188513 0.28435950040528302 0 0.3136006934098563 0.25742143280046859 0 0.33193975671920289 0.25081964153042491 0 0.33285223359269078 0.2666289054795794 0 0.33193975671920289 0.25081964153042491 0 0.33285223359269078 0.2666289054795794 0 0.34698810445264139 0.25436637207054608 0 0.33285223359269078 0.2666289054795794 0 0.34698810445264139 0.25436637207054608 0 0.34952172149175148 0.27027880903321633 0 0.33285223359269078 0.2666289054795794 0 0.33907390524798448 0.28513805489925348 0 0.34952172149175148 0.27027880903321633 0 0.33285223359269078 0.2666289054795794 0 0.31914365362188513 0.28435950040528302 0 0.33907390524798448 0.28513805489925348 0 0.3136006934098563 0.25742143280046859 0 0.33285223359269078 0.2666289054795794 0 0.31914365362188513 0.28435950040528302 0 0.30293497513942819 0.30868738913488641 0 0.31914365362188513 0.28435950040528302 0 0.32749787197052832 0.30471680660399381 0 0.31833867285045542 0.32348101319907091 0 0.30293497513942819 0.30868738913488641 0 0.32749787197052832 0.30471680660399381 0 0.33745602104719441 0.32532381068776861 0 0.32749787197052832 0.30471680660399381 0 0.35146120699424738 0.30378584499619349 0 0.32749787197052832 0.30471680660399381 0 0.33907390524798448 0.28513805489925348 0 0.35146120699424738 0.30378584499619349 0 0.31914365362188513 0.28435950040528302 0 0.32749787197052832 0.30471680660399381 0 0.33907390524798448 0.28513805489925348 0 0.35772027482925528 0.28351388212006939 0 0.35146120699424738 0.30378584499619349 0 0.36290963101465962 0.29495721565771232 0 0.33907390524798448 0.28513805489925348 0 0.35772027482925528 0.28351388212006939 0 0.35146120699424738 0.30378584499619349 0 0.35958852443728861 0.32539120343839012 0 0.35146120699424738 0.30378584499619349 0 0.37431071482239259 0.30253549617758241 0 0.35146120699424738 0.30378584499619349 0 0.37431071482239259 0.30253549617758241 0 0.36290963101465962 0.29495721565771232 0 0.37431071482239259 0.30253549617758241 0 0.36877892975376392 0.2877365119261226 0 0.37734936811104552 0.28109411123657518 0 0.35772027482925528 0.28351388212006939 0 0.36877892975376392 0.2877365119261226 0 0.37178640016787462 0.27509687006556183 0 0.35772027482925528 0.28351388212006939 0 0.36290963101465962 0.29495721565771232 0 0.36877892975376392 0.2877365119261226 0 0.37431071482239259 0.30253549617758241 0 0.36290963101465962 0.29495721565771232 0 0.36877892975376392 0.2877365119261226 0 0.36877892975376392 0.2877365119261226 0 0.37178640016787462 0.27509687006556183 0 0.37734936811104552 0.28109411123657518 0 0.35772027482925528 0.28351388212006939 0 0.37178640016787462 0.27509687006556183 0 0.36163689990717091 0.26993342655912089 0 0.37178640016787462 0.27509687006556183 0 0.37015754567452802 0.26018763932014388 0 0.37948952141868891 0.26626162780473128 0 0.37178640016787462 0.27509687006556183 0 0.36163689990717091 0.26993342655912089 0 0.37015754567452802 0.26018763932014388 0 0.37015754567452802 0.26018763932014388 0 0.36274925373024541 0.24880903180279629 0 0.37517197332411217 0.2448619195859793 0 0.37015754567452802 0.26018763932014388 0 0.35899855737244479 0.26058993225661309 0 0.36274925373024541 0.24880903180279629 0 0.36163689990717091 0.26993342655912089 0 0.37015754567452802 0.26018763932014388 0 0.35899855737244479 0.26058993225661309 0 0.35899855737244479 0.26058993225661309 0 0.34698810445264139 0.25436637207054608 0 0.34952172149175148 0.27027880903321633 0 0.35899855737244479 0.26058993225661309 0 0.34698810445264139 0.25436637207054608 0 0.36274925373024541 0.24880903180279629 0 0.33907390524798448 0.28513805489925348 0 0.35772027482925528 0.28351388212006939 0 0.34952172149175148 0.27027880903321633 0 0.35772027482925528 0.28351388212006939 0 0.36163689990717091 0.26993342655912089 0 0.34952172149175148 0.27027880903321633 0 0.36163689990717091 0.26993342655912089 0 0.35899855737244479 0.26058993225661309 0 0.34952172149175148 0.27027880903321633 0 0.40375509559260042 0.25682408165596737 0 0.38903290520749662 0.27967978891677492 0 0.40446337583634318 0.28074383020743571 0 0.40375509559260042 0.25682408165596737 0 0.38903290520749662 0.27967978891677492 0 0.40375509559260042 0.25682408165596737 0 0.39362462584052121 0.25393471460672151 0 0.38903290520749662 0.27967978891677492 0 0.39362462584052121 0.25393471460672151 0 0.37948952141868891 0.26626162780473128 0 0.39362462584052121 0.25393471460672151 0 0.38140986025283791 0.25425838635208919 0 0.37948952141868891 0.26626162780473128 0 0.39362462584052121 0.25393471460672151 0 0.37948952141868891 0.26626162780473128 0 0.38359962253621532 0.27613113421778829 0 0.39362462584052121 0.25393471460672151 0 0.38359962253621532 0.27613113421778829 0 0.39362462584052121 0.25393471460672151 0 0.38140986025283791 0.25425838635208919 0 0.38467031793994938 0.24796058382973071 0 0.37015754567452802 0.26018763932014388 0 0.38140986025283791 0.25425838635208919 0 0.37517197332411217 0.2448619195859793 0 0.37015754567452802 0.26018763932014388 0 0.38140986025283791 0.25425838635208919 0 0.37948952141868891 0.26626162780473128 0 0.39362462584052121 0.25393471460672151 0 0.38359962253621532 0.27613113421778829 0 0.38903290520749662 0.27967978891677492 0 0.37178640016787462 0.27509687006556183 0 0.37948952141868891 0.26626162780473128 0 0.38359962253621532 0.27613113421778829 0 0.38359962253621532 0.27613113421778829 0 0.38903290520749662 0.27967978891677492 0 0.37734936811104552 0.28109411123657518 0 0.37178640016787462 0.27509687006556183 0 0.38359962253621532 0.27613113421778829 0 0.37734936811104552 0.28109411123657518 0 0.37431071482239259 0.30253549617758241 0 0.38903290520749662 0.27967978891677492 0 0.37431071482239259 0.30253549617758241 0 0.38903290520749662 0.27967978891677492 0 0.38639462556153842 0.29900317088432138 0 0.37431071482239259 0.30253549617758241 0 0.38903290520749662 0.27967978891677492 0 0.37734936811104552 0.28109411123657518 0 0.38639462556153842 0.29900317088432138 0 0.39728198074505189 0.31079180006446239 0 0.38476975808974512 0.31587997353501962 0 0.37431071482239259 0.30253549617758241 0 0.38639462556153842 0.29900317088432138 0 0.38476975808974512 0.31587997353501962 0 0.38639462556153842 0.29900317088432138 0 0.39728198074505189 0.31079180006446239 0 0.40275124098194132 0.29723246244742357 0 0.39728198074505189 0.31079180006446239 0 0.40275124098194132 0.29723246244742357 0 0.41037383978076991 0.30508826531569311 0 0.39728198074505189 0.31079180006446239 0 0.41037383978076991 0.30508826531569311 0 0.40820352884321698 0.31973284457963552 0 0.40446337583634318 0.28074383020743571 0 0.38639462556153842 0.29900317088432138 0 0.40446337583634318 0.28074383020743571 0 0.38639462556153842 0.29900317088432138 0 0.40275124098194132 0.29723246244742357 0 0.40446337583634318 0.28074383020743571 0 0.38903290520749662 0.27967978891677492 0 0.38639462556153842 0.29900317088432138 0 0.40446337583634318 0.28074383020743571 0 0.40275124098194132 0.29723246244742357 0 0.41524238298600308 0.29053524576520529 0 0.40446337583634318 0.28074383020743571 0 0.41524238298600308 0.29053524576520529 0 0.42258705102964728 0.27785198972727421 0 0.41037383978076991 0.30508826531569311 0 0.42440481357616078 0.30023625664692871 0 0.42449791001860249 0.31863898953874292 0 0.40275124098194132 0.29723246244742357 0 0.41524238298600308 0.29053524576520529 0 0.41037383978076991 0.30508826531569311 0 0.41524238298600308 0.29053524576520529 0 0.41037383978076991 0.30508826531569311 0 0.42440481357616078 0.30023625664692871 0 0.43889661412556807 0.30001737657637789 0 0.44842918168856932 0.31261454368182701 0 0.42449791001860249 0.31863898953874292 0 0.42440481357616078 0.30023625664692871 0 0.43889661412556807 0.30001737657637789 0 0.42449791001860249 0.31863898953874292 0 0.41524238298600308 0.29053524576520529 0 0.43207263217981612 0.28794200271194542 0 0.42258705102964728 0.27785198972727421 0 0.41524238298600308 0.29053524576520529 0 0.42440481357616078 0.30023625664692871 0 0.43207263217981612 0.28794200271194542 0 0.42440481357616078 0.30023625664692871 0 0.43207263217981612 0.28794200271194542 0 0.43889661412556807 0.30001737657637789 0 0.42258705102964728 0.27785198972727421 0 0.42253212611114771 0.26248448953054998 0 0.44329481688753031 0.26996001367133909 0 0.43207263217981612 0.28794200271194542 0 0.42258705102964728 0.27785198972727421 0 0.44329481688753031 0.26996001367133909 0 0.40446337583634318 0.28074383020743571 0 0.40375509559260042 0.25682408165596737 0 0.42253212611114771 0.26248448953054998 0 0.40446337583634318 0.28074383020743571 0 0.42253212611114771 0.26248448953054998 0 0.40446337583634318 0.28074383020743571 0 0.42258705102964728 0.27785198972727421 0 0.42253212611114771 0.26248448953054998 0 0.40375509559260042 0.25682408165596737 0 0.42253212611114771 0.26248448953054998 0 0.42142532950501849 0.2473814196921246 0 0.42253212611114771 0.26248448953054998 0 0.44060087638595241 0.24422514885366431 0 0.42253212611114771 0.26248448953054998 0 0.42142532950501849 0.2473814196921246 0 0.44060087638595241 0.24422514885366431 0 0.42253212611114771 0.26248448953054998 0 0.44329481688753031 0.26996001367133909 0 0.44060087638595241 0.24422514885366431 0 0.44329481688753031 0.26996001367133909 0 0.46803559015249929 0.2564153695710033 0 0.44060087638595241 0.24422514885366431 0 0.44329481688753031 0.26996001367133909 0 0.46113979168927621 0.27360253490920089 0 0.45398240103754223 0.28998902252155312 0 0.46113979168927621 0.27360253490920089 0 0.47788832184929092 0.27984495320589492 0 0.45398240103754223 0.28998902252155312 0 0.44329481688753031 0.26996001367133909 0 0.46113979168927621 0.27360253490920089 0 0.46803559015249929 0.2564153695710033 0 0.46803559015249929 0.2564153695710033 0 0.5 0.26876097680083572 0 0.48454435427300457 0.24591948113172821 0 0.46803559015249929 0.2564153695710033 0 0.47788832184929092 0.27984495320589492 0 0.5 0.26876097680083572 0 0.46113979168927621 0.27360253490920089 0 0.46803559015249929 0.2564153695710033 0 0.47788832184929092 0.27984495320589492 0 0.5 0.26876097680083572 0 0.48454435427300457 0.24591948113172821 0 0.5 0.23966553501943069 0 0.5 0.29785641858224049 0 0.47435035166988071 0.31076212676014409 0 0.5 0.32695186036364549 0 0.47788832184929092 0.27984495320589492 0 0.5 0.26876097680083572 0 0.5 0.29785641858224049 0 0.47788832184929092 0.27984495320589492 0 0.5 0.29785641858224049 0 0.47435035166988071 0.31076212676014409 0 0.47435035166988071 0.31076212676014409 0 0.45398240103754223 0.28998902252155312 0 0.44842918168856932 0.31261454368182701 0 0.47788832184929092 0.27984495320589492 0 0.47435035166988071 0.31076212676014409 0 0.45398240103754223 0.28998902252155312 0 0.43207263217981612 0.28794200271194542 0 0.44329481688753031 0.26996001367133909 0 0.45398240103754223 0.28998902252155312 0 0.43207263217981612 0.28794200271194542 0 0.45398240103754223 0.28998902252155312 0 0.43889661412556807 0.30001737657637789 0 0.45398240103754223 0.28998902252155312 0 0.43889661412556807 0.30001737657637789 0 0.44842918168856932 0.31261454368182701 0 0.44187877458606162 0.32624333821847462 0 0.44842918168856932 0.31261454368182701 0 0.45811121040361819 0.33301961226898702 0 0.44187877458606162 0.32624333821847462 0 0.44842918168856932 0.31261454368182701 0 0.42449791001860249 0.31863898953874292 0 0.44187877458606162 0.32624333821847462 0 0.45811121040361819 0.33301961226898702 0 0.43647679623345592 0.34070020738434142 0 0.45811121040361819 0.33301961226898702 0 0.45157475588705948 0.35311673905725333 0 0.43647679623345592 0.34070020738434142 0 0.47435035166988071 0.31076212676014409 0 0.44842918168856932 0.31261454368182701 0 0.45811121040361819 0.33301961226898702 0 0.47435035166988071 0.31076212676014409 0 0.45811121040361819 0.33301961226898702 0 0.48093361928850881 0.33624315692595691 0 0.45811121040361819 0.33301961226898702 0 0.48093361928850881 0.33624315692595691 0 0.47104365829919259 0.35478751379384987 0 0.48093361928850881 0.33624315692595691 0 0.5 0.32695186036364549 0 0.5 0.35604730214505048 0 0.47435035166988071 0.31076212676014409 0 0.48093361928850881 0.33624315692595691 0 0.5 0.32695186036364549 0 0.5 0.35604730214505048 0 0.47787973786305632 0.37873006966805278 0 0.5 0.38514274392645548 0 0.48093361928850881 0.33624315692595691 0 0.5 0.35604730214505048 0 0.47104365829919259 0.35478751379384987 0 0.5 0.35604730214505048 0 0.47104365829919259 0.35478751379384987 0 0.47787973786305632 0.37873006966805278 0 0.47104365829919259 0.35478751379384987 0 0.45575947572611258 0.37231739540965009 0 0.47787973786305632 0.37873006966805278 0 0.47104365829919259 0.35478751379384987 0 0.45575947572611258 0.37231739540965009 0 0.45157475588705948 0.35311673905725333 0 0.45811121040361819 0.33301961226898702 0 0.47104365829919259 0.35478751379384987 0 0.45157475588705948 0.35311673905725333 0 0.45157475588705948 0.35311673905725333 0 0.43363921358916901 0.36590472115124739 0 0.43647679623345592 0.34070020738434142 0 0.45575947572611258 0.37231739540965009 0 0.43363921358916901 0.36590472115124739 0 0.45575947572611258 0.37231739540965009 0 0.45157475588705948 0.35311673905725333 0 0.43363921358916901 0.36590472115124739 0 0.45575947572611258 0.37231739540965009 0 0.43363921358916901 0.36590472115124739 0 0.44363791096747007 0.38016328078987432 0 0.43363921358916901 0.36590472115124739 0 0.41151895145222528 0.3594920468928447 0 0.43363921358916901 0.36590472115124739 0 0.41873341099637879 0.3751881000737286 0 0.43089470199519669 0.38091228421152579 0 0.41151895145222528 0.3594920468928447 0 0.40295759382112972 0.37202026503062557 0 0.41873341099637879 0.3751881000737286 0 0.43363921358916901 0.36590472115124739 0 0.41151895145222528 0.3594920468928447 0 0.41873341099637879 0.3751881000737286 0 0.41151895145222528 0.3594920468928447 0 0.41425595883750371 0.33799723781046748 0 0.39580419168328762 0.35126134728811997 0 0.41151895145222528 0.3594920468928447 0 0.42397273002808838 0.35102355330972518 0 0.41425595883750371 0.33799723781046748 0 0.43363921358916901 0.36590472115124739 0 0.42397273002808838 0.35102355330972518 0 0.43647679623345592 0.34070020738434142 0 0.43363921358916901 0.36590472115124739 0 0.41151895145222528 0.3594920468928447 0 0.42397273002808838 0.35102355330972518 0 0.44187877458606162 0.32624333821847462 0 0.43647679623345592 0.34070020738434142 0 0.42449791001860249 0.31863898953874292 0 0.43647679623345592 0.34070020738434142 0 0.42449791001860249 0.31863898953874292 0 0.41425595883750371 0.33799723781046748 0 0.42397273002808838 0.35102355330972518 0 0.43647679623345592 0.34070020738434142 0 0.41425595883750371 0.33799723781046748 0 0.41037383978076991 0.30508826531569311 0 0.42449791001860249 0.31863898953874292 0 0.40820352884321698 0.31973284457963552 0 0.42449791001860249 0.31863898953874292 0 0.40820352884321698 0.31973284457963552 0 0.41425595883750371 0.33799723781046748 0 0.41425595883750371 0.33799723781046748 0 0.39573372339056362 0.32848011082061518 0 0.39580419168328762 0.35126134728811997 0 0.40820352884321698 0.31973284457963552 0 0.41425595883750371 0.33799723781046748 0 0.39573372339056362 0.32848011082061518 0 0.39728198074505189 0.31079180006446239 0 0.39573372339056362 0.32848011082061518 0 0.38476975808974512 0.31587997353501962 0 0.39728198074505189 0.31079180006446239 0 0.40820352884321698 0.31973284457963552 0 0.39573372339056362 0.32848011082061518 0 0.39573372339056362 0.32848011082061518 0 0.38476975808974512 0.31587997353501962 0 0.37945229047161838 0.33770273635935988 0 0.39573372339056362 0.32848011082061518 0 0.37945229047161838 0.33770273635935988 0 0.39580419168328762 0.35126134728811997 0 0.37945229047161838 0.33770273635935988 0 0.3781428757762999 0.35754202838204618 0 0.39580419168328762 0.35126134728811997 0 0.3781428757762999 0.35754202838204618 0 0.38848110258577129 0.3674468456581379 0 0.39580419168328762 0.35126134728811997 0 0.3781428757762999 0.35754202838204618 0 0.38848110258577129 0.3674468456581379 0 0.37617448514113289 0.37548569647746532 0 0.38848110258577129 0.3674468456581379 0 0.38932636650700603 0.38092489111243261 0 0.37617448514113289 0.37548569647746532 0 0.41151895145222528 0.3594920468928447 0 0.40295759382112972 0.37202026503062557 0 0.39580419168328762 0.35126134728811997 0 0.38848110258577129 0.3674468456581379 0 0.40295759382112972 0.37202026503062557 0 0.39580419168328762 0.35126134728811997 0 0.38848110258577129 0.3674468456581379 0 0.40295759382112972 0.37202026503062557 0 0.38932636650700603 0.38092489111243261 0 0.39172072338644948 0.39262426816903678 0 0.40031327595501948 0.39883511962192741 0 0.40033132238104879 0.38740588154215427 0 0.39172072338644948 0.39262426816903678 0 0.40031327595501948 0.39883511962192741 0 0.38944168756190167 0.40424906755701651 0 0.40031327595501948 0.39883511962192741 0 0.38944168756190167 0.40424906755701651 0 0.40430818025409943 0.40990944944209923 0 0.40031327595501948 0.39883511962192741 0 0.40430818025409943 0.40990944944209923 0 0.4091659877919388 0.4019656657522655 0 0.40031327595501948 0.39883511962192741 0 0.40780715694068082 0.3947427375322986 0 0.4091659877919388 0.4019656657522655 0 0.40031327595501948 0.39883511962192741 0 0.40033132238104879 0.38740588154215427 0 0.40780715694068082 0.3947427375322986 0 0.40295759382112972 0.37202026503062557 0 0.40033132238104879 0.38740588154215427 0 0.41132001546090552 0.38490690189452659 0 0.40295759382112972 0.37202026503062557 0 0.40033132238104879 0.38740588154215427 0 0.38932636650700603 0.38092489111243261 0 0.39172072338644948 0.39262426816903678 0 0.40033132238104879 0.38740588154215427 0 0.38932636650700603 0.38092489111243261 0 0.39172072338644948 0.39262426816903678 0 0.38932636650700603 0.38092489111243261 0 0.37919096452727141 0.39170638101165339 0 0.38932636650700603 0.38092489111243261 0 0.37617448514113289 0.37548569647746532 0 0.37919096452727141 0.39170638101165339 0 0.36946811632572207 0.40185385646195321 0 0.37919096452727141 0.39170638101165339 0 0.38944168756190167 0.40424906755701651 0 0.39172072338644948 0.39262426816903678 0 0.37919096452727141 0.39170638101165339 0 0.38944168756190167 0.40424906755701651 0 0.36946811632572207 0.40185385646195321 0 0.38944168756190167 0.40424906755701651 0 0.38042523265221673 0.4177707441873969 0 0.38944168756190167 0.40424906755701651 0 0.38042523265221673 0.4177707441873969 0 0.39498577695329862 0.41900694658759302 0 0.38042523265221673 0.4177707441873969 0 0.37789224291533557 0.43508951856857381 0 0.38918831939559889 0.43144551494375671 0 0.38042523265221673 0.4177707441873969 0 0.38918831939559889 0.43144551494375671 0 0.39498577695329862 0.41900694658759302 0 0.38918831939559889 0.43144551494375671 0 0.40052986634469517 0.43376482561816948 0 0.39498577695329862 0.41900694658759302 0 0.40052986634469517 0.43376482561816948 0 0.39498577695329862 0.41900694658759302 0 0.40052986634469517 0.43376482561816948 0 0.39498577695329862 0.41900694658759302 0 0.4071305680781242 0.4197890745330769 0 0.40052986634469517 0.43376482561816948 0 0.4071305680781242 0.4197890745330769 0 0.38944168756190167 0.40424906755701651 0 0.39498577695329862 0.41900694658759302 0 0.38944168756190167 0.40424906755701651 0 0.39498577695329862 0.41900694658759302 0 0.40430818025409943 0.40990944944209923 0 0.39498577695329862 0.41900694658759302 0 0.40430818025409943 0.40990944944209923 0 0.4071305680781242 0.4197890745330769 0 0.4071305680781242 0.4197890745330769 0 0.41373126981155378 0.40581332344798449 0 0.40430818025409943 0.40990944944209923 0 0.4071305680781242 0.4197890745330769 0 0.41373126981155378 0.40581332344798449 0 0.4071305680781242 0.4197890745330769 0 0.41630902973261269 0.40554376856977181 0 0.41373126981155378 0.40581332344798449 0 0.4071305680781242 0.4197890745330769 0 0.42762290559891492 0.42915782642732953 0 0.41630902973261269 0.40554376856977181 0 0.40052986634469517 0.43376482561816948 0 0.4071305680781242 0.4197890745330769 0 0.41354976258670478 0.43682754445729099 0 0.41354976258670478 0.43682754445729099 0 0.42762290559891492 0.42915782642732953 0 0.42364142177114339 0.44558277862909801 0 0.4071305680781242 0.4197890745330769 0 0.41354976258670478 0.43682754445729099 0 0.42762290559891492 0.42915782642732953 0 0.42762290559891492 0.42915782642732953 0 0.42371302203153022 0.4088182014893878 0 0.43135835797686639 0.41136664009760721 0 0.42762290559891492 0.42915782642732953 0 0.43135835797686639 0.41136664009760721 0 0.44441656158735049 0.41472445811981001 0 0.42762290559891492 0.42915782642732953 0 0.41630902973261269 0.40554376856977181 0 0.42762290559891492 0.42915782642732953 0 0.42371302203153022 0.4088182014893878 0 0.41630902973261269 0.40554376856977181 0 0.42371302203153022 0.4088182014893878 0 0.43135835797686639 0.41136664009760721 0 0.42766072965379581 0.40342199659360689 0 0.43685495735846153 0.40208812832640273 0 0.42705892334933548 0.3967371453526265 0 0.42766072965379581 0.40342199659360689 0 0.43135835797686639 0.41136664009760721 0 0.43685495735846153 0.40208812832640273 0 0.42766072965379581 0.40342199659360689 0 0.43685495735846153 0.40208812832640273 0 0.42705892334933548 0.3967371453526265 0 0.43638130929035701 0.39057860684450812 0 0.42705892334933548 0.3967371453526265 0 0.42212414321514652 0.38749614697979112 0 0.43638130929035701 0.39057860684450812 0 0.42705892334933548 0.3967371453526265 0 0.42008059498953487 0.39523576173540609 0 0.42212414321514652 0.38749614697979112 0 0.42705892334933548 0.3967371453526265 0 0.42138798306981062 0.40063675714386499 0 0.42008059498953487 0.39523576173540609 0 0.42371302203153022 0.4088182014893878 0 0.42766072965379581 0.40342199659360689 0 0.42138798306981062 0.40063675714386499 0 0.42705892334933548 0.3967371453526265 0 0.42766072965379581 0.40342199659360689 0 0.42138798306981062 0.40063675714386499 0 0.42371302203153022 0.4088182014893878 0 0.41793912615718071 0.40278222010414688 0 0.42138798306981062 0.40063675714386499 0 0.42371302203153022 0.4088182014893878 0 0.41630902973261269 0.40554376856977181 0 0.41793912615718071 0.40278222010414688 0 0.41630902973261269 0.40554376856977181 0 0.41793912615718071 0.40278222010414688 0 0.41473923926878897 0.40299219196626612 0 0.41630902973261269 0.40554376856977181 0 0.41473923926878897 0.40299219196626612 0 0.41373126981155378 0.40581332344798449 0 0.41793912615718071 0.40278222010414688 0 0.41473923926878897 0.40299219196626612 0 0.41481201029548509 0.39880080840889071 0 0.41793912615718071 0.40278222010414688 0 0.41481201029548509 0.39880080840889071 0 0.42138798306981062 0.40063675714386499 0 0.41481201029548509 0.39880080840889071 0 0.42138798306981062 0.40063675714386499 0 0.42008059498953487 0.39523576173540609 0 0.42008059498953487 0.39523576173540609 0 0.41501991501789692 0.3925079507918568 0 0.42212414321514652 0.38749614697979112 0 0.41481201029548509 0.39880080840889071 0 0.42008059498953487 0.39523576173540609 0 0.41501991501789692 0.3925079507918568 0 0.41501991501789692 0.3925079507918568 0 0.40780715694068082 0.3947427375322986 0 0.41132001546090552 0.38490690189452659 0 0.41481201029548509 0.39880080840889071 0 0.41501991501789692 0.3925079507918568 0 0.40780715694068082 0.3947427375322986 0 0.40430818025409943 0.40990944944209923 0 0.4091659877919388 0.4019656657522655 0 0.41373126981155378 0.40581332344798449 0 0.41473923926878897 0.40299219196626612 0 0.4091659877919388 0.4019656657522655 0 0.41373126981155378 0.40581332344798449 0 0.41473923926878897 0.40299219196626612 0 0.41481201029548509 0.39880080840889071 0 0.4091659877919388 0.4019656657522655 0 0.41481201029548509 0.39880080840889071 0 0.40780715694068082 0.3947427375322986 0 0.4091659877919388 0.4019656657522655 0 0.40295759382112972 0.37202026503062557 0 0.41132001546090552 0.38490690189452659 0 0.41873341099637879 0.3751881000737286 0 0.40033132238104879 0.38740588154215427 0 0.40780715694068082 0.3947427375322986 0 0.41132001546090552 0.38490690189452659 0 0.41501991501789692 0.3925079507918568 0 0.41132001546090552 0.38490690189452659 0 0.42212414321514652 0.38749614697979112 0 0.41132001546090552 0.38490690189452659 0 0.41873341099637879 0.3751881000737286 0 0.42212414321514652 0.38749614697979112 0 0.41873341099637879 0.3751881000737286 0 0.42212414321514652 0.38749614697979112 0 0.43089470199519669 0.38091228421152579 0 0.42212414321514652 0.38749614697979112 0 0.43638130929035701 0.39057860684450812 0 0.43089470199519669 0.38091228421152579 0 0.43638130929035701 0.39057860684450812 0 0.43089470199519669 0.38091228421152579 0 0.44363791096747007 0.38016328078987432 0 0.43363921358916901 0.36590472115124739 0 0.43089470199519669 0.38091228421152579 0 0.44363791096747007 0.38016328078987432 0 0.45575947572611258 0.37231739540965009 0 0.44363791096747007 0.38016328078987432 0 0.45517597550800692 0.39458382264170561 0 0.5 0.38514274392645548 0 0.48192248666585169 0.42737539637296962 0 0.5 0.45068987553052059 0 0.43638130929035701 0.39057860684450812 0 0.44363791096747007 0.38016328078987432 0 0.45517597550800692 0.39458382264170561 0 0.43685495735846153 0.40208812832640273 0 0.43638130929035701 0.39057860684450812 0 0.45517597550800692 0.39458382264170561 0 0.43685495735846153 0.40208812832640273 0 0.45517597550800692 0.39458382264170561 0 0.44441656158735049 0.41472445811981001 0 0.45517597550800692 0.39458382264170561 0 0.4769334760271402 0.40153086024276641 0 0.4660059799689123 0.41768917681328233 0 0.45575947572611258 0.37231739540965009 0 0.45517597550800692 0.39458382264170561 0 0.47787973786305632 0.37873006966805278 0 0.45575947572611258 0.37231739540965009 0 0.47787973786305632 0.37873006966805278 0 0.4769334760271402 0.40153086024276641 0 0.5 0.38514274392645548 0 0.48192248666585169 0.42737539637296962 0 0.45517597550800692 0.39458382264170561 0 0.47787973786305632 0.37873006966805278 0 0.4769334760271402 0.40153086024276641 0 0.47787973786305632 0.37873006966805278 0 0.4769334760271402 0.40153086024276641 0 0.5 0.38514274392645548 0 0.47787973786305632 0.37873006966805278 0 0.5 0.38514274392645548 0 0.4769334760271402 0.40153086024276641 0 0.48192248666585169 0.42737539637296962 0 0.4660059799689123 0.41768917681328233 0 0.48192248666585169 0.42737539637296962 0 0.4660059799689123 0.41768917681328233 0 0.46586532117187351 0.44512611787552242 0 0.4660059799689123 0.41768917681328233 0 0.44441656158735049 0.41472445811981001 0 0.44924168564357531 0.43552494239088768 0 0.4660059799689123 0.41768917681328233 0 0.46586532117187351 0.44512611787552242 0 0.4660059799689123 0.41768917681328233 0 0.44924168564357531 0.43552494239088768 0 0.46586532117187351 0.44512611787552242 0 0.45517597550800692 0.39458382264170561 0 0.4660059799689123 0.41768917681328233 0 0.44441656158735049 0.41472445811981001 0 0.43135835797686639 0.41136664009760721 0 0.43685495735846153 0.40208812832640273 0 0.44441656158735049 0.41472445811981001 0 0.42762290559891492 0.42915782642732953 0 0.44441656158735049 0.41472445811981001 0 0.44924168564357531 0.43552494239088768 0 0.42762290559891492 0.42915782642732953 0 0.44924168564357531 0.43552494239088768 0 0.43893678146521709 0.45277188428488713 0 0.44924168564357531 0.43552494239088768 0 0.43893678146521709 0.45277188428488713 0 0.45428509839494408 0.45899955094923811 0 0.43893678146521709 0.45277188428488713 0 0.45025065733151942 0.47638594214244478 0 0.42887026608233159 0.46552367202123618 0 0.43893678146521709 0.45277188428488713 0 0.45428509839494408 0.45899955094923811 0 0.45025065733151942 0.47638594214244478 0 0.43893678146521709 0.45277188428488713 0 0.45025065733151942 0.47638594214244478 0 0.45428509839494408 0.45899955094923811 0 0.46586532117187351 0.44512611787552242 0 0.46572466237483462 0.47256305893776229 0 0.46586532117187351 0.44512611787552242 0 0.46572466237483462 0.47256305893776229 0 0.44924168564357531 0.43552494239088768 0 0.45428509839494408 0.45899955094923811 0 0.46586532117187351 0.44512611787552242 0 0.48192248666585169 0.42737539637296962 0 0.46586532117187351 0.44512611787552242 0 0.48273014282718418 0.4640736038492706 0 0.48192248666585169 0.42737539637296962 0 0.5 0.45068987553052059 0 0.48273014282718418 0.4640736038492706 0 0.46586532117187351 0.44512611787552242 0 0.48273014282718418 0.4640736038492706 0 0.46572466237483462 0.47256305893776229 0 0.48273014282718418 0.4640736038492706 0 0.5 0.5 0 0.47918518662067189 0.48455408258748289 0 0.5 0.45068987553052059 0 0.48273014282718418 0.4640736038492706 0 0.5 0.5 0 0.5 0.5 0 0.47918518662067189 0.48455408258748289 0 0.46558400357779572 0.50000000000000233 0 0.48273014282718418 0.4640736038492706 0 0.47918518662067189 0.48455408258748289 0 0.46572466237483462 0.47256305893776229 0 0.47918518662067189 0.48455408258748289 0 0.46558400357779572 0.50000000000000233 0 0.46572466237483462 0.47256305893776229 0 0.46558400357779572 0.50000000000000233 0 0.46156453319782248 0.50000000000000222 0 0.46572466237483462 0.47256305893776229 0 0.46156453319782248 0.50000000000000222 0 0.45025065733151942 0.47638594214244478 0 0.46558400357779572 0.50000000000000233 0 0.46572466237483462 0.47256305893776229 0 0.46156453319782248 0.50000000000000222 0 0.46572466237483462 0.47256305893776229 0 0.45025065733151942 0.47638594214244478 0 0.45428509839494408 0.45899955094923811 0 0.46572466237483462 0.47256305893776229 0 0.45025065733151942 0.47638594214244478 0 0.45025065733151942 0.47638594214244478 0 0.43445044884886691 0.48463660145281362 0 0.42887026608233159 0.46552367202123618 0 0.45025065733151942 0.47638594214244478 0 0.44348847696518562 0.5 0 0.43445044884886691 0.48463660145281362 0 0.46156453319782248 0.50000000000000222 0 0.45025065733151942 0.47638594214244478 0 0.44348847696518562 0.5 0 0.43445044884886691 0.48463660145281362 0 0.42541242073254859 0.500000000000004 0 0.41711823593659669 0.47792160853939281 0 0.44348847696518562 0.5 0 0.43445044884886691 0.48463660145281362 0 0.42541242073254859 0.500000000000004 0 0.42541242073254859 0.500000000000004 0 0.40747246436681961 0.48325483967774679 0 0.39732981493687952 0.5 0 0.42541242073254859 0.500000000000004 0 0.41711823593659669 0.47792160853939281 0 0.41630877428386442 0.47969373845974728 0 0.42541242073254859 0.500000000000004 0 0.41711823593659669 0.47792160853939281 0 0.42541242073254859 0.500000000000004 0 0.40747246436681961 0.48325483967774679 0 0.41630877428386442 0.47969373845974728 0 0.40747246436681961 0.48325483967774679 0 0.41630877428386442 0.47969373845974728 0 0.40420862619815712 0.46564463910839898 0 0.41711823593659669 0.47792160853939281 0 0.41630877428386442 0.47969373845974728 0 0.40420862619815712 0.46564463910839898 0 0.41630877428386442 0.47969373845974728 0 0.40420862619815712 0.46564463910839898 0 0.43445044884886691 0.48463660145281362 0 0.41711823593659669 0.47792160853939281 0 0.42887026608233159 0.46552367202123618 0 0.43893678146521709 0.45277188428488713 0 0.42887026608233159 0.46552367202123618 0 0.42364142177114339 0.44558277862909801 0 0.42762290559891492 0.42915782642732953 0 0.43893678146521709 0.45277188428488713 0 0.42364142177114339 0.44558277862909801 0 0.42762290559891492 0.42915782642732953 0 0.43893678146521709 0.45277188428488713 0 0.41354976258670478 0.43682754445729099 0 0.42364142177114339 0.44558277862909801 0 0.40882405114064613 0.45584321707878112 0 0.40052986634469517 0.43376482561816948 0 0.41354976258670478 0.43682754445729099 0 0.40882405114064613 0.45584321707878112 0 0.41711823593659669 0.47792160853939281 0 0.42887026608233159 0.46552367202123618 0 0.40882405114064613 0.45584321707878112 0 0.42887026608233159 0.46552367202123618 0 0.42364142177114339 0.44558277862909801 0 0.40882405114064613 0.45584321707878112 0 0.41711823593659669 0.47792160853939281 0 0.40882405114064613 0.45584321707878112 0 0.41711823593659669 0.47792160853939281 0 0.40882405114064613 0.45584321707878112 0 0.40420862619815712 0.46564463910839898 0 0.40420862619815712 0.46564463910839898 0 0.39210847811244942 0.45159553975705108 0 0.38434839664561321 0.46802606053505569 0 0.40882405114064613 0.45584321707878112 0 0.40420862619815712 0.46564463910839898 0 0.39210847811244942 0.45159553975705108 0 0.40420862619815712 0.46564463910839898 0 0.39210847811244942 0.45159553975705108 0 0.40052986634469517 0.43376482561816948 0 0.40882405114064613 0.45584321707878112 0 0.40052986634469517 0.43376482561816948 0 0.39210847811244942 0.45159553975705108 0 0.38918831939559889 0.43144551494375671 0 0.40052986634469517 0.43376482561816948 0 0.39210847811244942 0.45159553975705108 0 0.40052986634469517 0.43376482561816948 0 0.40882405114064613 0.45584321707878112 0 0.39210847811244942 0.45159553975705108 0 0.37789224291533557 0.43508951856857381 0 0.39210847811244942 0.45159553975705108 0 0.36555052008806871 0.45564637397221258 0 0.37789224291533557 0.43508951856857381 0 0.39210847811244942 0.45159553975705108 0 0.37789224291533557 0.43508951856857381 0 0.38918831939559889 0.43144551494375671 0 0.39210847811244942 0.45159553975705108 0 0.39210847811244942 0.45159553975705108 0 0.38434839664561321 0.46802606053505569 0 0.36555052008806871 0.45564637397221258 0 0.39210847811244942 0.45159553975705108 0 0.38434839664561321 0.46802606053505569 0 0.38434839664561321 0.46802606053505569 0 0.3767978028934118 0.48401303026752818 0 0.39148711971068101 0.48382348262008268 0 0.38434839664561321 0.46802606053505569 0 0.3767978028934118 0.48401303026752818 0 0.36770274132954739 0.46970160511778158 0 0.38434839664561321 0.46802606053505569 0 0.3767978028934118 0.48401303026752818 0 0.3767978028934118 0.48401303026752818 0 0.39732981493687952 0.5 0 0.39148711971068101 0.48382348262008268 0 0.36924720914121029 0.50000000000000067 0 0.3767978028934118 0.48401303026752818 0 0.39732981493687952 0.5 0 0.40747246436681961 0.48325483967774679 0 0.39732981493687952 0.5 0 0.39148711971068101 0.48382348262008268 0 0.40747246436681961 0.48325483967774679 0 0.38434839664561321 0.46802606053505569 0 0.40747246436681961 0.48325483967774679 0 0.38434839664561321 0.46802606053505569 0 0.39148711971068101 0.48382348262008268 0 0.40747246436681961 0.48325483967774679 0 0.40420862619815712 0.46564463910839898 0 0.38434839664561321 0.46802606053505569 0 0.33339469262582039 0.090812529232360897 0 0.33866281824887973 0.077673819896891191 0 0.3437606398589883 0.1020906453930515 0 0.33866281824887973 0.077673819896891191 0 0.3437606398589883 0.1020906453930515 0 0.33866281824887973 0.077673819896891191 0 0.3437606398589883 0.1020906453930515 0 0.34581095112161192 0.088524641378755514 0 0.33339469262582039 0.090812529232360897 0 0.33866281824887973 0.077673819896891191 0 0.32805419800360142 0.081926681577970215 0 0.33339469262582039 0.090812529232360897 0 0.32805419800360142 0.081926681577970215 0 0.32402643859461472 0.092240703474861865 0 0.33866281824887973 0.077673819896891191 0 0.33356499663877198 0.053256994400730603 0 0.33866281824887973 0.077673819896891191 0 0.32548682099476062 0.068953529233834188 0 0.33356499663877198 0.053256994400730603 0 0.33866281824887973 0.077673819896891191 0 0.34426297201261852 0.065382407146964819 0 0.33356499663877198 0.053256994400730603 0 0.33866281824887973 0.077673819896891191 0 0.32548682099476062 0.068953529233834188 0 0.32805419800360142 0.081926681577970215 0 0.32548682099476062 0.068953529233834188 0 0.31772570164237363 0.080379752148652076 0 0.32805419800360142 0.081926681577970215 0 0.32548682099476062 0.068953529233834188 0 0.3141826520990047 0.064870475240078967 0 0.32441930296729199 0.057919760427736278 0 0.32548682099476062 0.068953529233834188 0 0.3141826520990047 0.064870475240078967 0 0.31772570164237363 0.080379752148652076 0 0.31772570164237363 0.080379752148652076 0 0.32805419800360142 0.081926681577970215 0 0.32402643859461472 0.092240703474861865 0 0.31772570164237363 0.080379752148652076 0 0.32402643859461472 0.092240703474861865 0 0.31092311332407518 0.095620637533192304 0 0.32256106952151042 0.1032601117131173 0 0.31351552124117271 0.112666710385812 0 0.31092311332407518 0.095620637533192304 0 0.32402643859461472 0.092240703474861865 0 0.32256106952151042 0.1032601117131173 0 0.31092311332407518 0.095620637533192304 0 0.32402643859461472 0.092240703474861865 0 0.32256106952151042 0.1032601117131173 0 0.33198210946723877 0.10034425886740431 0 0.32256106952151042 0.1032601117131173 0 0.31351552124117271 0.112666710385812 0 0.33521735241746381 0.11310286582097349 0 0.31351552124117271 0.112666710385812 0 0.32229220056805291 0.1223237481719216 0 0.31582572342550169 0.12902764748340911 0 0.31351552124117271 0.112666710385812 0 0.32229220056805291 0.1223237481719216 0 0.33521735241746381 0.11310286582097349 0 0.31351552124117271 0.112666710385812 0 0.33521735241746381 0.11310286582097349 0 0.32229220056805291 0.1223237481719216 0 0.33201645564438398 0.1239316332577842 0 0.32632679776380069 0.1280521604625913 0 0.33201645564438398 0.1239316332577842 0 0.34109838491210559 0.1199540796386885 0 0.3437606398589883 0.1020906453930515 0 0.33201645564438398 0.1239316332577842 0 0.3437606398589883 0.1020906453930515 0 0.33201645564438398 0.1239316332577842 0 0.33521735241746381 0.11310286582097349 0 0.3437606398589883 0.1020906453930515 0 0.32229220056805291 0.1223237481719216 0 0.33201645564438398 0.1239316332577842 0 0.33521735241746381 0.11310286582097349 0 0.33201645564438398 0.1239316332577842 0 0.34109838491210559 0.1199540796386885 0 0.34241732696124028 0.13059528572623 0 0.33339469262582039 0.090812529232360897 0 0.32402643859461472 0.092240703474861865 0 0.33198210946723877 0.10034425886740431 0 0.32256106952151042 0.1032601117131173 0 0.33521735241746381 0.11310286582097349 0 0.33198210946723877 0.10034425886740431 0 0.33521735241746381 0.11310286582097349 0 0.33198210946723877 0.10034425886740431 0 0.3437606398589883 0.1020906453930515 0 0.33339469262582039 0.090812529232360897 0 0.33198210946723877 0.10034425886740431 0 0.3437606398589883 0.1020906453930515 0 0.34699962929462741 0.096067006146166353 0 0.3437606398589883 0.1020906453930515 0 0.35119261609205782 0.1226722190701168 0 0.34699962929462741 0.096067006146166353 0 0.3437606398589883 0.1020906453930515 0 0.34581095112161192 0.088524641378755514 0 0.34699962929462741 0.096067006146166353 0 0.35509022645559368 0.1084249406745101 0 0.35119261609205782 0.1226722190701168 0 0.34699962929462741 0.096067006146166353 0 0.35119261609205782 0.1226722190701168 0 0.34699962929462741 0.096067006146166353 0 0.3437606398589883 0.1020906453930515 0 0.35509022645559368 0.1084249406745101 0 0.35572548355953959 0.09923531670259457 0 0.36208269188161141 0.10309903428184999 0 0.34699962929462741 0.096067006146166353 0 0.35572548355953959 0.09923531670259457 0 0.35570205417089668 0.092094758034999127 0 0.34699962929462741 0.096067006146166353 0 0.35509022645559368 0.1084249406745101 0 0.35572548355953959 0.09923531670259457 0 0.35572548355953959 0.09923531670259457 0 0.36070865122240098 0.095817744902399124 0 0.35570205417089668 0.092094758034999127 0 0.3437606398589883 0.1020906453930515 0 0.34813621094343339 0.12304813739377959 0 0.34109838491210559 0.1199540796386885 0 0.3437606398589883 0.1020906453930515 0 0.34813621094343339 0.12304813739377959 0 0.3437606398589883 0.1020906453930515 0 0.34813621094343339 0.12304813739377959 0 0.35119261609205782 0.1226722190701168 0 0.34109838491210559 0.1199540796386885 0 0.34813621094343339 0.12304813739377959 0 0.34241732696124028 0.13059528572623 0 0.35509022645559368 0.1084249406745101 0 0.35119261609205782 0.1226722190701168 0 0.357050853973225 0.1168594565216535 0 0.35509022645559368 0.1084249406745101 0 0.357050853973225 0.1168594565216535 0 0.36268321733803671 0.1120882823522778 0 0.357050853973225 0.1168594565216535 0 0.35858978888025822 0.1232883522891396 0 0.36074433123691391 0.11782628642510901 0 0.35119261609205782 0.1226722190701168 0 0.357050853973225 0.1168594565216535 0 0.35858978888025822 0.1232883522891396 0 0.35858978888025822 0.1232883522891396 0 0.36465346475613591 0.11906905453736499 0 0.36556718681037981 0.1260075999883811 0 0.35858978888025822 0.1232883522891396 0 0.36074433123691391 0.11782628642510901 0 0.36465346475613591 0.11906905453736499 0 0.36465346475613591 0.11906905453736499 0 0.36268321733803671 0.1120882823522778 0 0.37092041687023047 0.11421589958046691 0 0.36074433123691391 0.11782628642510901 0 0.36465346475613591 0.11906905453736499 0 0.36268321733803671 0.1120882823522778 0 0.357050853973225 0.1168594565216535 0 0.36074433123691391 0.11782628642510901 0 0.36268321733803671 0.1120882823522778 0 0.36268321733803671 0.1120882823522778 0 0.37092041687023047 0.11421589958046691 0 0.37094035244152779 0.1051042271576224 0 0.37092041687023047 0.11421589958046691 0 0.37094035244152779 0.1051042271576224 0 0.37704417723406453 0.1102301786634421 0 0.36465346475613591 0.11906905453736499 0 0.37092041687023047 0.11421589958046691 0 0.37229523722889007 0.12197292985088749 0 0.37092041687023047 0.11421589958046691 0 0.37229523722889007 0.12197292985088749 0 0.37819647453487942 0.11732363562449261 0 0.36465346475613591 0.11906905453736499 0 0.37229523722889007 0.12197292985088749 0 0.36556718681037981 0.1260075999883811 0 0.36070865122240098 0.095817744902399124 0 0.36208269188161141 0.10309903428184999 0 0.36757351131452448 0.098248128994599046 0 0.35572548355953959 0.09923531670259457 0 0.36070865122240098 0.095817744902399124 0 0.36208269188161141 0.10309903428184999 0 0.36208269188161141 0.10309903428184999 0 0.37094035244152779 0.1051042271576224 0 0.36757351131452448 0.098248128994599046 0 0.35509022645559368 0.1084249406745101 0 0.36268321733803671 0.1120882823522778 0 0.36208269188161141 0.10309903428184999 0 0.36268321733803671 0.1120882823522778 0 0.36208269188161141 0.10309903428184999 0 0.37094035244152779 0.1051042271576224 0 0.37094035244152779 0.1051042271576224 0 0.36757351131452448 0.098248128994599046 0 0.37546750769419229 0.094015517500835213 0 0.36454913933506877 0.086599415610560795 0 0.37572298921642872 0.079836457265596933 0 0.37546750769419229 0.094015517500835213 0 0.36454913933506877 0.086599415610560795 0 0.36155386754451763 0.06900008219576001 0 0.37572298921642872 0.079836457265596933 0 0.36757351131452448 0.098248128994599046 0 0.36454913933506877 0.086599415610560795 0 0.37546750769419229 0.094015517500835213 0 0.36454913933506877 0.086599415610560795 0 0.35427674841957152 0.082533544170962689 0 0.36155386754451763 0.06900008219576001 0 0.36070865122240098 0.095817744902399124 0 0.36757351131452448 0.098248128994599046 0 0.36454913933506877 0.086599415610560795 0 0.36070865122240098 0.095817744902399124 0 0.36454913933506877 0.086599415610560795 0 0.35570205417089668 0.092094758034999127 0 0.34699962929462741 0.096067006146166353 0 0.35570205417089668 0.092094758034999127 0 0.35427674841957152 0.082533544170962689 0 0.36454913933506877 0.086599415610560795 0 0.35570205417089668 0.092094758034999127 0 0.35427674841957152 0.082533544170962689 0 0.33866281824887973 0.077673819896891191 0 0.34681424849619952 0.080940906327442622 0 0.34581095112161192 0.088524641378755514 0 0.35427674841957152 0.082533544170962689 0 0.34681424849619952 0.080940906327442622 0 0.34581095112161192 0.088524641378755514 0 0.35427674841957152 0.082533544170962689 0 0.34681424849619952 0.080940906327442622 0 0.34850647619473479 0.07503161986316112 0 0.34699962929462741 0.096067006146166353 0 0.35427674841957152 0.082533544170962689 0 0.34699962929462741 0.096067006146166353 0 0.35427674841957152 0.082533544170962689 0 0.34581095112161192 0.088524641378755514 0 0.34699962929462741 0.096067006146166353 0 0.34581095112161192 0.088524641378755514 0 0.34426297201261852 0.065382407146964819 0 0.34850647619473479 0.07503161986316112 0 0.36155386754451763 0.06900008219576001 0 0.33866281824887973 0.077673819896891191 0 0.34426297201261852 0.065382407146964819 0 0.34850647619473479 0.07503161986316112 0 0.33866281824887973 0.077673819896891191 0 0.34681424849619952 0.080940906327442622 0 0.34850647619473479 0.07503161986316112 0 0.35427674841957152 0.082533544170962689 0 0.36155386754451763 0.06900008219576001 0 0.35427674841957152 0.082533544170962689 0 0.34850647619473479 0.07503161986316112 0 0.36155386754451763 0.06900008219576001 0 0.36155386754451763 0.06900008219576001 0 0.37393707199371279 0.070754156872176954 0 0.37572298921642872 0.079836457265596933 0 0.36155386754451763 0.06900008219576001 0 0.37572298921642872 0.079836457265596933 0 0.36155386754451763 0.06900008219576001 0 0.37393707199371279 0.070754156872176954 0 0.37403842409923738 0.063234616832978444 0 0.36155386754451763 0.06900008219576001 0 0.37403842409923738 0.063234616832978444 0 0.3696217865676738 0.053995947531447687 0 0.37403842409923738 0.063234616832978444 0 0.3696217865676738 0.053995947531447687 0 0.37897390334099579 0.051218110053311283 0 0.36155386754451763 0.06900008219576001 0 0.36095506799236943 0.051863740371156299 0 0.3696217865676738 0.053995947531447687 0 0.36155386754451763 0.06900008219576001 0 0.3696217865676738 0.053995947531447687 0 0.36095506799236943 0.051863740371156299 0 0.3696217865676738 0.053995947531447687 0 0.36563244745791301 0.042179647821096289 0 0.36563244745791301 0.042179647821096289 0 0.35067107574560841 0.051671022917508497 0 0.36292654565782467 0.030005172028447231 0 0.3696217865676738 0.053995947531447687 0 0.37768970559083093 0.038991812867135871 0 0.3696217865676738 0.053995947531447687 0 0.36563244745791301 0.042179647821096289 0 0.37768970559083093 0.038991812867135871 0 0.36563244745791301 0.042179647821096289 0 0.36292654565782467 0.030005172028447231 0 0.37768970559083093 0.038991812867135871 0 0.34483520757082697 0.042031667527357007 0 0.36292654565782467 0.030005172028447231 0 0.34584711503494803 0.031006495876623689 0 0.35067107574560841 0.051671022917508497 0 0.36292654565782467 0.030005172028447231 0 0.34483520757082697 0.042031667527357007 0 0.35067107574560841 0.051671022917508497 0 0.36292654565782467 0.030005172028447231 0 0.36155386754451763 0.06900008219576001 0 0.33944141819389018 0.052088744963671739 0 0.34426297201261852 0.065382407146964819 0 0.36155386754451763 0.06900008219576001 0 0.33944141819389018 0.052088744963671739 0 0.36155386754451763 0.06900008219576001 0 0.35067107574560841 0.051671022917508497 0 0.33944141819389018 0.052088744963671739 0 0.36155386754451763 0.06900008219576001 0 0.36095506799236943 0.051863740371156299 0 0.35067107574560841 0.051671022917508497 0 0.34483520757082697 0.042031667527357007 0 0.35067107574560841 0.051671022917508497 0 0.33944141819389018 0.052088744963671739 0 0.36095506799236943 0.051863740371156299 0 0.36563244745791301 0.042179647821096289 0 0.35067107574560841 0.051671022917508497 0 0.35499197291639889 0.01685545008407591 0 0.35895128437477569 0.0022124844517259442 0 0.37518201557004099 0.0083393211393859926 0 0.35895128437477569 0.0022124844517259442 0 0.37518201557004099 0.0083393211393859926 0 0.36826171176772288 -0.0081843471275536445 0 0.36292654565782467 0.030005172028447231 0 0.38117661184383672 0.024070470402107719 0 0.37768970559083093 0.038991812867135871 0 0.36292654565782467 0.030005172028447231 0 0.35499197291639889 0.01685545008407591 0 0.37518201557004099 0.0083393211393859926 0 0.36292654565782467 0.030005172028447231 0 0.37518201557004099 0.0083393211393859926 0 0.38117661184383672 0.024070470402107719 0 0.36292654565782467 0.030005172028447231 0 0.37518201557004099 0.0083393211393859926 0 0.36292654565782467 0.030005172028447231 0 0.34584711503494803 0.031006495876623689 0 0.35499197291639889 0.01685545008407591 0 0.34584711503494803 0.031006495876623689 0 0.35499197291639889 0.01685545008407591 0 0.34087457009336181 0.02159445771779845 0 0.34617030676744248 0.0079747692904741565 0 0.35895128437477569 0.0022124844517259442 0 0.35036062941849011 -0.0090600746860207641 0 0.35499197291639889 0.01685545008407591 0 0.34617030676744248 0.0079747692904741565 0 0.35895128437477569 0.0022124844517259442 0 0.35499197291639889 0.01685545008407591 0 0.34617030676744248 0.0079747692904741565 0 0.34087457009336181 0.02159445771779845 0 0.34617030676744248 0.0079747692904741565 0 0.33113182765427429 0.0150772435978691 0 0.33583525833053052 -0.0026513136738154841 0 0.34617030676744248 0.0079747692904741565 0 0.33113182765427429 0.0150772435978691 0 0.34087457009336181 0.02159445771779845 0 0.33113182765427429 0.0150772435978691 0 0.34087457009336181 0.02159445771779845 0 0.32846717502866452 0.028840168904570002 0 0.34584711503494803 0.031006495876623689 0 0.34087457009336181 0.02159445771779845 0 0.33740654850513307 0.029901824097323899 0 0.34087457009336181 0.02159445771779845 0 0.33740654850513307 0.029901824097323899 0 0.32846717502866452 0.028840168904570002 0 0.33113182765427429 0.0150772435978691 0 0.31824817567533747 0.028841709422935201 0 0.31719548003030912 0.0058636699252523003 0 0.31824817567533747 0.028841709422935201 0 0.31719548003030912 0.0058636699252523003 0 0.30619690582215192 0.01535016197429045 0 0.31824817567533747 0.028841709422935201 0 0.31719548003030912 0.0058636699252523003 0 0.33113182765427429 0.0150772435978691 0 0.32846717502866452 0.028840168904570002 0 0.31824817567533747 0.028841709422935201 0 0.33113182765427429 0.0150772435978691 0 0.31719548003030912 0.0058636699252523003 0 0.33583525833053052 -0.0026513136738154841 0 0.33356499663877198 0.053256994400730603 0 0.32628568892540499 0.043681779712639278 0 0.32589271496295869 0.051669570865431072 0 0.33356499663877198 0.053256994400730603 0 0.33735500111798111 0.046960008622461087 0 0.3347562690185012 0.040451782684337793 0 0.34426297201261852 0.065382407146964819 0 0.33356499663877198 0.053256994400730603 0 0.33944141819389018 0.052088744963671739 0 0.34483520757082697 0.042031667527357007 0 0.33944141819389018 0.052088744963671739 0 0.33735500111798111 0.046960008622461087 0 0.33356499663877198 0.053256994400730603 0 0.33944141819389018 0.052088744963671739 0 0.33735500111798111 0.046960008622461087 0 0.32846717502866452 0.028840168904570002 0 0.33356499663877198 0.053256994400730603 0 0.32628568892540499 0.043681779712639278 0 0.32846717502866452 0.028840168904570002 0 0.33356499663877198 0.053256994400730603 0 0.3347562690185012 0.040451782684337793 0 0.34483520757082697 0.042031667527357007 0 0.33735500111798111 0.046960008622461087 0 0.3347562690185012 0.040451782684337793 0 0.32846717502866452 0.028840168904570002 0 0.33356499663877198 0.053256994400730603 0 0.34483520757082697 0.042031667527357007 0 0.34584711503494803 0.031006495876623689 0 0.3347562690185012 0.040451782684337793 0 0.34584711503494803 0.031006495876623689 0 0.33740654850513307 0.029901824097323899 0 0.3347562690185012 0.040451782684337793 0 0.33740654850513307 0.029901824097323899 0 0.32846717502866452 0.028840168904570002 0 0.3347562690185012 0.040451782684337793 0 0.31824817567533747 0.028841709422935201 0 0.31930087132036589 0.051819748920618143 0 0.32628568892540499 0.043681779712639278 0 0.32307547773744322 0.038295851740190651 0 0.31930087132036589 0.051819748920618143 0 0.31824817567533747 0.028841709422935201 0 0.32307547773744322 0.038295851740190651 0 0.31930087132036589 0.051819748920618143 0 0.31824817567533747 0.028841709422935201 0 0.31930087132036589 0.051819748920618143 0 0.31023178103181309 0.040609325746873731 0 0.32846717502866452 0.028840168904570002 0 0.32628568892540499 0.043681779712639278 0 0.32307547773744322 0.038295851740190651 0 0.32846717502866452 0.028840168904570002 0 0.31824817567533747 0.028841709422935201 0 0.32307547773744322 0.038295851740190651 0 0.32548682099476062 0.068953529233834188 0 0.33356499663877198 0.053256994400730603 0 0.32441930296729199 0.057919760427736278 0 0.32628568892540499 0.043681779712639278 0 0.31930087132036589 0.051819748920618143 0 0.32589271496295869 0.051669570865431072 0 0.33356499663877198 0.053256994400730603 0 0.32589271496295869 0.051669570865431072 0 0.32441930296729199 0.057919760427736278 0 0.31930087132036589 0.051819748920618143 0 0.32589271496295869 0.051669570865431072 0 0.32441930296729199 0.057919760427736278 0 0.3141826520990047 0.064870475240078967 0 0.31930087132036589 0.051819748920618143 0 0.32441930296729199 0.057919760427736278 0 0.3141826520990047 0.064870475240078967 0 0.31930087132036589 0.051819748920618143 0 0.30721819226707697 0.051512721392480663 0 0.3141826520990047 0.064870475240078967 0 0.30032192310904049 0.062404152542661837 0 0.30721819226707697 0.051512721392480663 0 0.30032192310904049 0.062404152542661837 0 0.30721819226707697 0.051512721392480663 0 0.29237517874094271 0.052101239146847778 0 0.30721819226707697 0.051512721392480663 0 0.30060839946414158 0.041252334301032707 0 0.29237517874094271 0.052101239146847778 0 0.31930087132036589 0.051819748920618143 0 0.30721819226707697 0.051512721392480663 0 0.31023178103181309 0.040609325746873731 0 0.30721819226707697 0.051512721392480663 0 0.31023178103181309 0.040609325746873731 0 0.30060839946414158 0.041252334301032707 0 0.31023178103181309 0.040609325746873731 0 0.30060839946414158 0.041252334301032707 0 0.30343855403414921 0.029580970784219032 0 0.31824817567533747 0.028841709422935201 0 0.31023178103181309 0.040609325746873731 0 0.30343855403414921 0.029580970784219032 0 0.28532689298950442 0.03178071354586718 0 0.29237517874094271 0.052101239146847778 0 0.27765695579168398 0.046500667139953857 0 0.30060839946414158 0.041252334301032707 0 0.28532689298950442 0.03178071354586718 0 0.29237517874094271 0.052101239146847778 0 0.30060839946414158 0.041252334301032707 0 0.28532689298950442 0.03178071354586718 0 0.30343855403414921 0.029580970784219032 0 0.30032192310904049 0.062404152542661837 0 0.28332708265537182 0.061224561419855647 0 0.29237517874094271 0.052101239146847778 0 0.28332708265537182 0.061224561419855647 0 0.29237517874094271 0.052101239146847778 0 0.27765695579168398 0.046500667139953857 0 0.30619690582215192 0.01535016197429045 0 0.2919715825106553 0.0010704837671552049 0 0.30563710767018037 -0.0051413574210867992 0 0.30619690582215192 0.01535016197429045 0 0.29293419824511552 0.018304571841788759 0 0.2919715825106553 0.0010704837671552049 0 0.31719548003030912 0.0058636699252523003 0 0.30619690582215192 0.01535016197429045 0 0.30563710767018037 -0.0051413574210867992 0 0.30619690582215192 0.01535016197429045 0 0.30343855403414921 0.029580970784219032 0 0.29293419824511552 0.018304571841788759 0 0.31824817567533747 0.028841709422935201 0 0.30619690582215192 0.01535016197429045 0 0.30343855403414921 0.029580970784219032 0 0.28532689298950442 0.03178071354586718 0 0.30343855403414921 0.029580970784219032 0 0.29293419824511552 0.018304571841788759 0 0.28532689298950442 0.03178071354586718 0 0.29293419824511552 0.018304571841788759 0 0.28070533072628462 0.01229729958930588 0 0.29293419824511552 0.018304571841788759 0 0.2919715825106553 0.0010704837671552049 0 0.28070533072628462 0.01229729958930588 0 0.2919715825106553 0.0010704837671552049 0 0.28070533072628462 0.01229729958930588 0 0.27482828377235008 -0.0026106230468389432 0 0.28070533072628462 0.01229729958930588 0 0.26626712991691048 0.018754561237894291 0 0.27482828377235008 -0.0026106230468389432 0 0.28532689298950442 0.03178071354586718 0 0.26626712991691048 0.018754561237894291 0 0.26306230309304363 0.036931046343213668 0 0.28532689298950442 0.03178071354586718 0 0.28070533072628462 0.01229729958930588 0 0.26626712991691048 0.018754561237894291 0 0.24051442166525189 0.018205481349733769 0 0.26626712991691048 0.018754561237894291 0 0.26306230309304363 0.036931046343213668 0 0.26626712991691048 0.018754561237894291 0 0.25224907986928918 -0.004282503037371696 0 0.27482828377235008 -0.0026106230468389432 0 0.24051442166525189 0.018205481349733769 0 0.26626712991691048 0.018754561237894291 0 0.25224907986928918 -0.004282503037371696 0 0.27765695579168398 0.046500667139953857 0 0.26306230309304363 0.036931046343213668 0 0.26438227937559811 0.059964500914743882 0 0.28332708265537182 0.061224561419855647 0 0.27765695579168398 0.046500667139953857 0 0.26438227937559811 0.059964500914743882 0 0.28532689298950442 0.03178071354586718 0 0.27765695579168398 0.046500667139953857 0 0.26306230309304363 0.036931046343213668 0 0.24422613881931299 0.046380353871089089 0 0.26306230309304363 0.036931046343213668 0 0.26438227937559811 0.059964500914743882 0 0.24265909480624639 0.070067850223988079 0 0.24422613881931299 0.046380353871089089 0 0.26438227937559811 0.059964500914743882 0 0.24265909480624639 0.070067850223988079 0 0.26438227937559811 0.059964500914743882 0 0.26323641009210519 0.076279237627542726 0 0.24265909480624639 0.070067850223988079 0 0.26323641009210519 0.076279237627542726 0 0.25529113178443802 0.089267786231947754 0 0.26323641009210519 0.076279237627542726 0 0.25529113178443802 0.089267786231947754 0 0.27092982777196262 0.091172286400072605 0 0.26323641009210519 0.076279237627542726 0 0.27092982777196262 0.091172286400072605 0 0.27795830526369419 0.077631670228080332 0 0.27092982777196262 0.091172286400072605 0 0.27795830526369419 0.077631670228080332 0 0.28340515010082951 0.092055457592757128 0 0.26438227937559811 0.059964500914743882 0 0.26323641009210519 0.076279237627542726 0 0.27795830526369419 0.077631670228080332 0 0.28332708265537182 0.061224561419855647 0 0.26438227937559811 0.059964500914743882 0 0.27795830526369419 0.077631670228080332 0 0.30032192310904049 0.062404152542661837 0 0.28332708265537182 0.061224561419855647 0 0.29177261698351031 0.072518464575066235 0 0.28332708265537182 0.061224561419855647 0 0.27795830526369419 0.077631670228080332 0 0.29177261698351031 0.072518464575066235 0 0.27795830526369419 0.077631670228080332 0 0.29177261698351031 0.072518464575066235 0 0.29147480577653362 0.083818207216075608 0 0.27795830526369419 0.077631670228080332 0 0.28340515010082951 0.092055457592757128 0 0.29147480577653362 0.083818207216075608 0 0.29147480577653362 0.083818207216075608 0 0.30302474000249718 0.080749422344627828 0 0.29542317218153558 0.093900814112963443 0 0.28340515010082951 0.092055457592757128 0 0.29147480577653362 0.083818207216075608 0 0.29542317218153558 0.093900814112963443 0 0.29177261698351031 0.072518464575066235 0 0.29147480577653362 0.083818207216075608 0 0.30302474000249718 0.080749422344627828 0 0.30302474000249718 0.080749422344627828 0 0.31092311332407518 0.095620637533192304 0 0.29542317218153558 0.093900814112963443 0 0.31772570164237363 0.080379752148652076 0 0.30302474000249718 0.080749422344627828 0 0.31092311332407518 0.095620637533192304 0 0.30032192310904049 0.062404152542661837 0 0.29177261698351031 0.072518464575066235 0 0.30302474000249718 0.080749422344627828 0 0.3141826520990047 0.064870475240078967 0 0.31772570164237363 0.080379752148652076 0 0.30302474000249718 0.080749422344627828 0 0.3141826520990047 0.064870475240078967 0 0.30032192310904049 0.062404152542661837 0 0.30302474000249718 0.080749422344627828 0 0.30370734084027728 0.1207336748093836 0 0.29155860638128889 0.12364689706802159 0 0.30757839419177041 0.13007984477740689 0 0.31351552124117271 0.112666710385812 0 0.30370734084027728 0.1207336748093836 0 0.31582572342550169 0.12902764748340911 0 0.31351552124117271 0.112666710385812 0 0.30009517541938741 0.1035489188515082 0 0.29181369006488161 0.1122305549506505 0 0.31351552124117271 0.112666710385812 0 0.30370734084027728 0.1207336748093836 0 0.29181369006488161 0.1122305549506505 0 0.31351552124117271 0.112666710385812 0 0.29181369006488161 0.1122305549506505 0 0.31351552124117271 0.112666710385812 0 0.31092311332407518 0.095620637533192304 0 0.30009517541938741 0.1035489188515082 0 0.31092311332407518 0.095620637533192304 0 0.30009517541938741 0.1035489188515082 0 0.29542317218153558 0.093900814112963443 0 0.30009517541938741 0.1035489188515082 0 0.29003295643830179 0.10115712863822179 0 0.29181369006488161 0.1122305549506505 0 0.28340515010082951 0.092055457592757128 0 0.29003295643830179 0.10115712863822179 0 0.29542317218153558 0.093900814112963443 0 0.30009517541938741 0.1035489188515082 0 0.29003295643830179 0.10115712863822179 0 0.29542317218153558 0.093900814112963443 0 0.28340515010082951 0.092055457592757128 0 0.29003295643830179 0.10115712863822179 0 0.27942759442487491 0.10404989768322979 0 0.29003295643830179 0.10115712863822179 0 0.29181369006488161 0.1122305549506505 0 0.27942759442487491 0.10404989768322979 0 0.29181369006488161 0.1122305549506505 0 0.28360047005560302 0.1189726292671809 0 0.27011185888859057 0.11179439951549069 0 0.30370734084027728 0.1207336748093836 0 0.29181369006488161 0.1122305549506505 0 0.29155860638128889 0.12364689706802159 0 0.29181369006488161 0.1122305549506505 0 0.29155860638128889 0.12364689706802159 0 0.28360047005560302 0.1189726292671809 0 0.29155860638128889 0.12364689706802159 0 0.28360047005560302 0.1189726292671809 0 0.28091772488765088 0.12821866553456229 0 0.27011185888859057 0.11179439951549069 0 0.28091772488765088 0.12821866553456229 0 0.29181369006488161 0.1122305549506505 0 0.27011185888859057 0.11179439951549069 0 0.28360047005560302 0.1189726292671809 0 0.27011185888859057 0.11179439951549069 0 0.28091772488765088 0.12821866553456229 0 0.27011185888859057 0.11179439951549069 0 0.26996470378111459 0.12651248386955671 0 0.28091772488765088 0.12821866553456229 0 0.27011185888859057 0.11179439951549069 0 0.26792316876263012 0.1084677222399073 0 0.25979988076679511 0.1115871531652366 0 0.27011185888859057 0.11179439951549069 0 0.26792316876263012 0.1084677222399073 0 0.27011185888859057 0.11179439951549069 0 0.26463397912958542 0.11882806584924489 0 0.26996470378111459 0.12651248386955671 0 0.26463397912958542 0.11882806584924489 0 0.26372144918603702 0.12534555396068389 0 0.26996470378111459 0.12651248386955671 0 0.29181369006488161 0.1122305549506505 0 0.27011185888859057 0.11179439951549069 0 0.27942759442487491 0.10404989768322979 0 0.27092982777196262 0.091172286400072605 0 0.27942759442487491 0.10404989768322979 0 0.26792316876263012 0.1084677222399073 0 0.27092982777196262 0.091172286400072605 0 0.28340515010082951 0.092055457592757128 0 0.27942759442487491 0.10404989768322979 0 0.27942759442487491 0.10404989768322979 0 0.26792316876263012 0.1084677222399073 0 0.27011185888859057 0.11179439951549069 0 0.27942759442487491 0.10404989768322979 0 0.26792316876263012 0.1084677222399073 0 0.24963786501015919 0.1020248971531897 0 0.25529113178443802 0.089267786231947754 0 0.26792316876263012 0.1084677222399073 0 0.25529113178443802 0.089267786231947754 0 0.27092982777196262 0.091172286400072605 0 0.26792316876263012 0.1084677222399073 0 0.25529113178443802 0.089267786231947754 0 0.26792316876263012 0.1084677222399073 0 0.24963786501015919 0.1020248971531897 0 0.26792316876263012 0.1084677222399073 0 0.25979988076679511 0.1115871531652366 0 0.25910776597644902 0.1208062904480019 0 0.25750674411340307 0.12664549335303479 0 0.26372144918603702 0.12534555396068389 0 0.25910776597644902 0.1208062904480019 0 0.26463397912958542 0.11882806584924489 0 0.26372144918603702 0.12534555396068389 0 0.25910776597644902 0.1208062904480019 0 0.26463397912958542 0.11882806584924489 0 0.25979988076679511 0.1115871531652366 0 0.26792316876263012 0.1084677222399073 0 0.25979988076679511 0.1115871531652366 0 0.27011185888859057 0.11179439951549069 0 0.26463397912958542 0.11882806584924489 0 0.25979988076679511 0.1115871531652366 0 0.27011185888859057 0.11179439951549069 0 0.25979988076679511 0.1115871531652366 0 0.24987677668642461 0.1216251859118096 0 0.25910776597644902 0.1208062904480019 0 0.25750674411340307 0.12664549335303479 0 0.24987677668642461 0.1216251859118096 0 0.25910776597644902 0.1208062904480019 0 0.25979988076679511 0.1115871531652366 0 0.24987677668642461 0.1216251859118096 0 0.25750674411340307 0.12664549335303479 0 0.25413859587330628 0.13335810079468399 0 0.25413859587330628 0.13335810079468399 0 0.26494819673986503 0.13434439339869281 0 0.26336309929303392 0.14733041710617131 0 0.25750674411340307 0.12664549335303479 0 0.26494819673986503 0.13434439339869281 0 0.26372144918603702 0.12534555396068389 0 0.25750674411340307 0.12664549335303479 0 0.25413859587330628 0.13335810079468399 0 0.26494819673986503 0.13434439339869281 0 0.26494819673986503 0.13434439339869281 0 0.26372144918603702 0.12534555396068389 0 0.26996470378111459 0.12651248386955671 0 0.26494819673986503 0.13434439339869281 0 0.26996470378111459 0.12651248386955671 0 0.27545501385495952 0.14054382495866691 0 0.26996470378111459 0.12651248386955671 0 0.27545501385495952 0.14054382495866691 0 0.28091772488765088 0.12821866553456229 0 0.27545501385495952 0.14054382495866691 0 0.27846132176969079 0.16612566259657971 0 0.27545501385495952 0.14054382495866691 0 0.26336309929303392 0.14733041710617131 0 0.27846132176969079 0.16612566259657971 0 0.26494819673986503 0.13434439339869281 0 0.27545501385495952 0.14054382495866691 0 0.26336309929303392 0.14733041710617131 0 0.24876844027334519 0.14720168954242899 0 0.25413859587330628 0.13335810079468399 0 0.26336309929303392 0.14733041710617131 0 0.24876844027334519 0.14720168954242899 0 0.26336309929303392 0.14733041710617131 0 0.25840702724703668 0.16240883134597561 0 0.2411863370001672 0.16282392185974071 0 0.25840702724703668 0.16240883134597561 0 0.25172744253974771 0.17409645344866409 0 0.25840702724703668 0.16240883134597561 0 0.25172744253974771 0.17409645344866409 0 0.26604858560794742 0.17853257564849129 0 0.2464345572839246 0.1857114382451 0 0.25737653789418419 0.18666100748847961 0 0.25172744253974771 0.17409645344866409 0 0.25737653789418419 0.18666100748847961 0 0.26604858560794742 0.17853257564849129 0 0.26668626681650209 0.18885129940778209 0 0.25737653789418419 0.18666100748847961 0 0.25172744253974771 0.17409645344866409 0 0.26604858560794742 0.17853257564849129 0 0.27846132176969079 0.16612566259657971 0 0.28146762968442401 0.1917075002344921 0 0.26604858560794742 0.17853257564849129 0 0.27846132176969079 0.16612566259657971 0 0.28146762968442401 0.1917075002344921 0 0.26604858560794742 0.17853257564849129 0 0.26668626681650209 0.18885129940778209 0 0.28146762968442401 0.1917075002344921 0 0.25840702724703668 0.16240883134597561 0 0.26604858560794742 0.17853257564849129 0 0.27846132176969079 0.16612566259657971 0 0.26336309929303392 0.14733041710617131 0 0.25840702724703668 0.16240883134597561 0 0.27846132176969079 0.16612566259657971 0 0.27846132176969079 0.16612566259657971 0 0.29107045576820428 0.1765545909150717 0 0.29970800110702112 0.161363339494833 0 0.27846132176969079 0.16612566259657971 0 0.29970800110702112 0.161363339494833 0 0.29172359088671218 0.14464293155363339 0 0.30775924466686772 0.18259758007145241 0 0.28146762968442401 0.1917075002344921 0 0.27846132176969079 0.16612566259657971 0 0.29107045576820428 0.1765545909150717 0 0.28146762968442401 0.1917075002344921 0 0.29107045576820428 0.1765545909150717 0 0.30775924466686772 0.18259758007145241 0 0.28146762968442401 0.1917075002344921 0 0.29107045576820428 0.1765545909150717 0 0.30775924466686772 0.18259758007145241 0 0.29970800110702112 0.161363339494833 0 0.29970800110702112 0.161363339494833 0 0.31016468962654548 0.15200585988815871 0 0.31668765678692379 0.1638455010044442 0 0.30775924466686772 0.18259758007145241 0 0.29970800110702112 0.161363339494833 0 0.31668765678692379 0.1638455010044442 0 0.29970800110702112 0.161363339494833 0 0.31016468962654548 0.15200585988815871 0 0.30314843077759712 0.14398080887758111 0 0.29970800110702112 0.161363339494833 0 0.30314843077759712 0.14398080887758111 0 0.29172359088671218 0.14464293155363339 0 0.30314843077759712 0.14398080887758111 0 0.29666034265695912 0.1341054736491494 0 0.29172359088671218 0.14464293155363339 0 0.31016468962654548 0.15200585988815871 0 0.30314843077759712 0.14398080887758111 0 0.31305556619657449 0.1416874039023048 0 0.30314843077759712 0.14398080887758111 0 0.30757839419177041 0.13007984477740689 0 0.31305556619657449 0.1416874039023048 0 0.29155860638128889 0.12364689706802159 0 0.30757839419177041 0.13007984477740689 0 0.29666034265695912 0.1341054736491494 0 0.29155860638128889 0.12364689706802159 0 0.30757839419177041 0.13007984477740689 0 0.30370734084027728 0.1207336748093836 0 0.30757839419177041 0.13007984477740689 0 0.31582572342550169 0.12902764748340911 0 0.30314843077759712 0.14398080887758111 0 0.30757839419177041 0.13007984477740689 0 0.29666034265695912 0.1341054736491494 0 0.27545501385495952 0.14054382495866691 0 0.28091772488765088 0.12821866553456229 0 0.29172359088671218 0.14464293155363339 0 0.28091772488765088 0.12821866553456229 0 0.29172359088671218 0.14464293155363339 0 0.28091772488765088 0.12821866553456229 0 0.29666034265695912 0.1341054736491494 0 0.29172359088671218 0.14464293155363339 0 0.29155860638128889 0.12364689706802159 0 0.28091772488765088 0.12821866553456229 0 0.29666034265695912 0.1341054736491494 0 0.27545501385495952 0.14054382495866691 0 0.27846132176969079 0.16612566259657971 0 0.29172359088671218 0.14464293155363339 0 0.26799075757218532 0.24379820218074161 0 0.26452020220138889 0.2254495022768421 0 0.28743123409184901 0.24245411835034539 0 0.26799075757218532 0.24379820218074161 0 0.25022510234823309 0.2419965137784883 0 0.25910458858941637 0.2356432914172874 0 0.25548914338408291 0.25767530988459658 0 0.26799075757218532 0.24379820218074161 0 0.25022510234823309 0.2419965137784883 0 0.26799075757218532 0.24379820218074161 0 0.25910458858941637 0.2356432914172874 0 0.26452020220138889 0.2254495022768421 0 0.25022510234823309 0.2419965137784883 0 0.25910458858941637 0.2356432914172874 0 0.25149112656619682 0.22885747807162579 0 0.25910458858941637 0.2356432914172874 0 0.25149112656619682 0.22885747807162579 0 0.26452020220138889 0.2254495022768421 0 0.25149112656619682 0.22885747807162579 0 0.25582726817342932 0.2213106677623197 0 0.26452020220138889 0.2254495022768421 0 0.2488418168950948 0.2229684027595536 0 0.25582726817342932 0.2213106677623197 0 0.25229738250750439 0.21684689117579101 0 0.2488418168950948 0.2229684027595536 0 0.25149112656619682 0.22885747807162579 0 0.25582726817342932 0.2213106677623197 0 0.25582726817342932 0.2213106677623197 0 0.26452020220138889 0.2254495022768421 0 0.26002280986858062 0.21325880757692539 0 0.26452020220138889 0.2254495022768421 0 0.28444943188813548 0.21708080929241891 0 0.28743123409184901 0.24245411835034539 0 0.26452020220138889 0.2254495022768421 0 0.26879188438249102 0.20786194413196291 0 0.28444943188813548 0.21708080929241891 0 0.26879188438249102 0.20786194413196291 0 0.28146762968442401 0.1917075002344921 0 0.28444943188813548 0.21708080929241891 0 0.24020150999901441 0.2213818324096602 0 0.2527997622758939 0.2134747172007474 0 0.25867734672847609 0.20241133764061289 0 0.26452020220138889 0.2254495022768421 0 0.26879188438249102 0.20786194413196291 0 0.26002280986858062 0.21325880757692539 0 0.25582726817342932 0.2213106677623197 0 0.26002280986858062 0.21325880757692539 0 0.25229738250750439 0.21684689117579101 0 0.26002280986858062 0.21325880757692539 0 0.2527997622758939 0.2134747172007474 0 0.25229738250750439 0.21684689117579101 0 0.26002280986858062 0.21325880757692539 0 0.2527997622758939 0.2134747172007474 0 0.25867734672847609 0.20241133764061289 0 0.26879188438249102 0.20786194413196291 0 0.26002280986858062 0.21325880757692539 0 0.25867734672847609 0.20241133764061289 0 0.24223699847448221 0.20530072828483811 0 0.25867734672847609 0.20241133764061289 0 0.26185231407945309 0.1985041142596653 0 0.26879188438249102 0.20786194413196291 0 0.25867734672847609 0.20241133764061289 0 0.26185231407945309 0.1985041142596653 0 0.24944343291725679 0.19441542054727931 0 0.24223699847448221 0.20530072828483811 0 0.26185231407945309 0.1985041142596653 0 0.24223699847448221 0.20530072828483811 0 0.26185231407945309 0.1985041142596653 0 0.24944343291725679 0.19441542054727931 0 0.25737653789418419 0.18666100748847961 0 0.26185231407945309 0.1985041142596653 0 0.24944343291725679 0.19441542054727931 0 0.2464345572839246 0.1857114382451 0 0.25737653789418419 0.18666100748847961 0 0.25737653789418419 0.18666100748847961 0 0.26185231407945309 0.1985041142596653 0 0.26668626681650209 0.18885129940778209 0 0.26185231407945309 0.1985041142596653 0 0.28146762968442401 0.1917075002344921 0 0.26879188438249102 0.20786194413196291 0 0.26185231407945309 0.1985041142596653 0 0.28146762968442401 0.1917075002344921 0 0.26185231407945309 0.1985041142596653 0 0.26668626681650209 0.18885129940778209 0 0.28146762968442401 0.1917075002344921 0 0.30775924466686772 0.18259758007145241 0 0.28146762968442401 0.1917075002344921 0 0.29768542900779538 0.20266348977724871 0 0.30775924466686772 0.18259758007145241 0 0.29768542900779538 0.20266348977724871 0 0.31584792087403302 0.20643796446477899 0 0.29768542900779538 0.20266348977724871 0 0.30538176010970242 0.2277847183638573 0 0.31584792087403302 0.20643796446477899 0 0.28146762968442401 0.1917075002344921 0 0.28444943188813548 0.21708080929241891 0 0.28146762968442401 0.1917075002344921 0 0.29768542900779538 0.20266348977724871 0 0.28444943188813548 0.21708080929241891 0 0.29768542900779538 0.20266348977724871 0 0.28444943188813548 0.21708080929241891 0 0.30538176010970242 0.2277847183638573 0 0.28444943188813548 0.21708080929241891 0 0.30538176010970242 0.2277847183638573 0 0.28743123409184901 0.24245411835034539 0 0.28444943188813548 0.21708080929241891 0 0.28743123409184901 0.24245411835034539 0 0.3136006934098563 0.25742143280046859 0 0.30538176010970242 0.2277847183638573 0 0.28743123409184901 0.24245411835034539 0 0.33193975671920289 0.25081964153042491 0 0.33983533385136799 0.24064885387683249 0 0.32829914444889002 0.23127845208742079 0 0.33193975671920289 0.25081964153042491 0 0.34698810445264139 0.25436637207054608 0 0.33983533385136799 0.24064885387683249 0 0.3136006934098563 0.25742143280046859 0 0.30538176010970242 0.2277847183638573 0 0.32829914444889002 0.23127845208742079 0 0.3136006934098563 0.25742143280046859 0 0.32829914444889002 0.23127845208742079 0 0.3136006934098563 0.25742143280046859 0 0.33193975671920289 0.25081964153042491 0 0.32829914444889002 0.23127845208742079 0 0.30538176010970242 0.2277847183638573 0 0.32829914444889002 0.23127845208742079 0 0.32237698482513871 0.21657792771671641 0 0.32829914444889002 0.23127845208742079 0 0.34231214043262798 0.22610272335899009 0 0.34299759548792369 0.2051354713743731 0 0.33983533385136799 0.24064885387683249 0 0.32829914444889002 0.23127845208742079 0 0.34231214043262798 0.22610272335899009 0 0.34299759548792369 0.2051354713743731 0 0.32237698482513871 0.21657792771671641 0 0.32800331780161862 0.20227399180156519 0 0.32829914444889002 0.23127845208742079 0 0.34299759548792369 0.2051354713743731 0 0.32237698482513871 0.21657792771671641 0 0.32829914444889002 0.23127845208742079 0 0.34299759548792369 0.2051354713743731 0 0.30538176010970242 0.2277847183638573 0 0.32237698482513871 0.21657792771671641 0 0.31584792087403302 0.20643796446477899 0 0.32237698482513871 0.21657792771671641 0 0.31584792087403302 0.20643796446477899 0 0.32800331780161862 0.20227399180156519 0 0.31584792087403302 0.20643796446477899 0 0.32800331780161862 0.20227399180156519 0 0.32459226755061449 0.18891750956477249 0 0.30775924466686772 0.18259758007145241 0 0.31584792087403302 0.20643796446477899 0 0.32459226755061449 0.18891750956477249 0 0.34299759548792369 0.2051354713743731 0 0.32800331780161862 0.20227399180156519 0 0.33852422756861988 0.18931156564139209 0 0.32800331780161862 0.20227399180156519 0 0.32459226755061449 0.18891750956477249 0 0.33852422756861988 0.18931156564139209 0 0.34299759548792369 0.2051354713743731 0 0.33852422756861988 0.18931156564139209 0 0.34299759548792369 0.2051354713743731 0 0.35509016398328241 0.18362736932295029 0 0.34299759548792369 0.2051354713743731 0 0.33852422756861988 0.18931156564139209 0 0.35509016398328241 0.18362736932295029 0 0.34299759548792369 0.2051354713743731 0 0.35635125307852478 0.19412270194549849 0 0.35509016398328241 0.18362736932295029 0 0.34299759548792369 0.2051354713743731 0 0.35749402759377519 0.2023031379370443 0 0.35635125307852478 0.19412270194549849 0 0.37014965221805701 0.18787750761752789 0 0.36530973012866252 0.19550399211067429 0 0.3608647481989799 0.1840435389824506 0 0.35635125307852478 0.19412270194549849 0 0.36530973012866252 0.19550399211067429 0 0.3608647481989799 0.1840435389824506 0 0.37014965221805701 0.18787750761752789 0 0.36530973012866252 0.19550399211067429 0 0.37577380362120771 0.19710760781322201 0 0.36530973012866252 0.19550399211067429 0 0.36733283614554091 0.20659341356089739 0 0.37577380362120771 0.19710760781322201 0 0.35749402759377519 0.2023031379370443 0 0.36530973012866252 0.19550399211067429 0 0.36733283614554091 0.20659341356089739 0 0.35749402759377519 0.2023031379370443 0 0.35635125307852478 0.19412270194549849 0 0.36530973012866252 0.19550399211067429 0 0.35749402759377519 0.2023031379370443 0 0.36733283614554091 0.20659341356089739 0 0.35562643412448591 0.21227382396728861 0 0.36733283614554091 0.20659341356089739 0 0.38155822370381542 0.2060448997830171 0 0.37577380362120771 0.19710760781322201 0 0.36733283614554091 0.20659341356089739 0 0.36999154151231761 0.22031006035298489 0 0.38155822370381542 0.2060448997830171 0 0.36733283614554091 0.20659341356089739 0 0.35562643412448591 0.21227382396728861 0 0.36999154151231761 0.22031006035298489 0 0.34299759548792369 0.2051354713743731 0 0.35562643412448591 0.21227382396728861 0 0.34855559603462238 0.2247961114785095 0 0.34299759548792369 0.2051354713743731 0 0.34855559603462238 0.2247961114785095 0 0.34231214043262798 0.22610272335899009 0 0.34299759548792369 0.2051354713743731 0 0.34855559603462238 0.2247961114785095 0 0.34299759548792369 0.2051354713743731 0 0.35749402759377519 0.2023031379370443 0 0.35562643412448591 0.21227382396728861 0 0.34231214043262798 0.22610272335899009 0 0.34855559603462238 0.2247961114785095 0 0.35335338106469732 0.2417675968140634 0 0.34855559603462238 0.2247961114785095 0 0.35335338106469732 0.2417675968140634 0 0.35562643412448591 0.21227382396728861 0 0.34855559603462238 0.2247961114785095 0 0.36999154151231761 0.22031006035298489 0 0.34855559603462238 0.2247961114785095 0 0.36999154151231761 0.22031006035298489 0 0.34855559603462238 0.2247961114785095 0 0.36338991019608569 0.2340490713282023 0 0.35335338106469732 0.2417675968140634 0 0.34231214043262798 0.22610272335899009 0 0.34855559603462238 0.2247961114785095 0 0.34855559603462238 0.2247961114785095 0 0.36999154151231761 0.22031006035298489 0 0.36338991019608569 0.2340490713282023 0 0.36999154151231761 0.22031006035298489 0 0.36338991019608569 0.2340490713282023 0 0.37642448459271372 0.2323582944410458 0 0.36338991019608569 0.2340490713282023 0 0.36274925373024541 0.24880903180279629 0 0.35335338106469732 0.2417675968140634 0 0.36338991019608569 0.2340490713282023 0 0.37517197332411217 0.2448619195859793 0 0.37642448459271372 0.2323582944410458 0 0.36338991019608569 0.2340490713282023 0 0.36274925373024541 0.24880903180279629 0 0.37517197332411217 0.2448619195859793 0 0.33983533385136799 0.24064885387683249 0 0.34231214043262798 0.22610272335899009 0 0.35335338106469732 0.2417675968140634 0 0.34698810445264139 0.25436637207054608 0 0.36274925373024541 0.24880903180279629 0 0.35335338106469732 0.2417675968140634 0 0.34698810445264139 0.25436637207054608 0 0.33983533385136799 0.24064885387683249 0 0.35335338106469732 0.2417675968140634 0 0.32882452082578378 0.15500022619760179 0 0.33949189244587008 0.1428951122404292 0 0.32359818200225182 0.13651279248679241 0 0.32882452082578378 0.15500022619760179 0 0.34199755447800989 0.1532617025297896 0 0.33949189244587008 0.1428951122404292 0 0.33949189244587008 0.1428951122404292 0 0.33081080940110758 0.13229425099880171 0 0.32359818200225182 0.13651279248679241 0 0.33949189244587008 0.1428951122404292 0 0.34241732696124028 0.13059528572623 0 0.33081080940110758 0.13229425099880171 0 0.33949189244587008 0.1428951122404292 0 0.32359818200225182 0.13651279248679241 0 0.33201645564438398 0.1239316332577842 0 0.33081080940110758 0.13229425099880171 0 0.32632679776380069 0.1280521604625913 0 0.33201645564438398 0.1239316332577842 0 0.34241732696124028 0.13059528572623 0 0.33081080940110758 0.13229425099880171 0 0.33081080940110758 0.13229425099880171 0 0.32359818200225182 0.13651279248679241 0 0.32277323597534169 0.13359466270178469 0 0.30757839419177041 0.13007984477740689 0 0.32359818200225182 0.13651279248679241 0 0.31582572342550169 0.12902764748340911 0 0.30757839419177041 0.13007984477740689 0 0.32359818200225182 0.13651279248679241 0 0.30757839419177041 0.13007984477740689 0 0.32359818200225182 0.13651279248679241 0 0.31305556619657449 0.1416874039023048 0 0.32359818200225182 0.13651279248679241 0 0.32277323597534169 0.13359466270178469 0 0.32359818200225182 0.13651279248679241 0 0.32277323597534169 0.13359466270178469 0 0.31582572342550169 0.12902764748340911 0 0.33081080940110758 0.13229425099880171 0 0.32277323597534169 0.13359466270178469 0 0.32632679776380069 0.1280521604625913 0 0.32277323597534169 0.13359466270178469 0 0.32632679776380069 0.1280521604625913 0 0.32180448943317419 0.12824955470492669 0 0.32229220056805291 0.1223237481719216 0 0.32632679776380069 0.1280521604625913 0 0.32180448943317419 0.12824955470492669 0 0.32229220056805291 0.1223237481719216 0 0.32180448943317419 0.12824955470492669 0 0.31582572342550169 0.12902764748340911 0 0.32277323597534169 0.13359466270178469 0 0.32180448943317419 0.12824955470492669 0 0.31582572342550169 0.12902764748340911 0 0.32359818200225182 0.13651279248679241 0 0.31305556619657449 0.1416874039023048 0 0.31846612308761579 0.1498103566958604 0 0.32882452082578378 0.15500022619760179 0 0.32359818200225182 0.13651279248679241 0 0.31016468962654548 0.15200585988815871 0 0.31305556619657449 0.1416874039023048 0 0.31846612308761579 0.1498103566958604 0 0.32882452082578378 0.15500022619760179 0 0.32359818200225182 0.13651279248679241 0 0.31846612308761579 0.1498103566958604 0 0.32882452082578378 0.15500022619760179 0 0.31846612308761579 0.1498103566958604 0 0.31668765678692379 0.1638455010044442 0 0.31016468962654548 0.15200585988815871 0 0.31846612308761579 0.1498103566958604 0 0.31668765678692379 0.1638455010044442 0 0.32882452082578378 0.15500022619760179 0 0.31668765678692379 0.1638455010044442 0 0.33405085964931142 0.17348765990841261 0 0.30775924466686772 0.18259758007145241 0 0.32459226755061449 0.18891750956477249 0 0.33405085964931142 0.17348765990841261 0 0.30775924466686772 0.18259758007145241 0 0.31668765678692379 0.1638455010044442 0 0.33405085964931142 0.17348765990841261 0 0.30775924466686772 0.18259758007145241 0 0.33405085964931142 0.17348765990841261 0 0.32459226755061449 0.18891750956477249 0 0.33852422756861988 0.18931156564139209 0 0.33405085964931142 0.17348765990841261 0 0.33852422756861988 0.18931156564139209 0 0.33405085964931142 0.17348765990841261 0 0.34161800298619371 0.17867690696795069 0 0.33852422756861988 0.18931156564139209 0 0.33405085964931142 0.17348765990841261 0 0.33405085964931142 0.17348765990841261 0 0.33922062413316068 0.17169636098131949 0 0.33405085964931142 0.17348765990841261 0 0.34161800298619371 0.17867690696795069 0 0.33922062413316068 0.17169636098131949 0 0.34161800298619371 0.17867690696795069 0 0.33922062413316068 0.17169636098131949 0 0.345271850344474 0.17462297498717161 0 0.33852422756861988 0.18931156564139209 0 0.34161800298619371 0.17867690696795069 0 0.34753530255681092 0.17963103433257291 0 0.32882452082578378 0.15500022619760179 0 0.33405085964931142 0.17348765990841261 0 0.33804517643626991 0.16278960888363489 0 0.32882452082578378 0.15500022619760179 0 0.33405085964931142 0.17348765990841261 0 0.33922062413316068 0.17169636098131949 0 0.33804517643626991 0.16278960888363489 0 0.34614656001598992 0.16835769117878391 0 0.33405085964931142 0.17348765990841261 0 0.33922062413316068 0.17169636098131949 0 0.33804517643626991 0.16278960888363489 0 0.33922062413316068 0.17169636098131949 0 0.34614656001598992 0.16835769117878391 0 0.345271850344474 0.17462297498717161 0 0.34199755447800989 0.1532617025297896 0 0.33804517643626991 0.16278960888363489 0 0.34730997427996818 0.16056580256885869 0 0.32882452082578378 0.15500022619760179 0 0.34199755447800989 0.1532617025297896 0 0.33804517643626991 0.16278960888363489 0 0.33804517643626991 0.16278960888363489 0 0.34730997427996818 0.16056580256885869 0 0.34614656001598992 0.16835769117878391 0 0.34730997427996818 0.16056580256885869 0 0.35812517554423362 0.16666048548825901 0 0.35538560288948801 0.14927743199406729 0 0.35812517554423362 0.16666048548825901 0 0.35538560288948801 0.14927743199406729 0 0.34730997427996818 0.16056580256885869 0 0.34614656001598992 0.16835769117878391 0 0.35812517554423362 0.16666048548825901 0 0.34614656001598992 0.16835769117878391 0 0.35812517554423362 0.16666048548825901 0 0.34994451416405242 0.17395203180034491 0 0.35812517554423362 0.16666048548825901 0 0.35431198088947191 0.17758289198531549 0 0.3608647481989799 0.1840435389824506 0 0.33852422756861988 0.18931156564139209 0 0.34753530255681092 0.17963103433257291 0 0.35509016398328241 0.18362736932295029 0 0.34753530255681092 0.17963103433257291 0 0.34994451416405242 0.17395203180034491 0 0.35431198088947191 0.17758289198531549 0 0.34753530255681092 0.17963103433257291 0 0.345271850344474 0.17462297498717161 0 0.34994451416405242 0.17395203180034491 0 0.34161800298619371 0.17867690696795069 0 0.34753530255681092 0.17963103433257291 0 0.345271850344474 0.17462297498717161 0 0.34614656001598992 0.16835769117878391 0 0.345271850344474 0.17462297498717161 0 0.34994451416405242 0.17395203180034491 0 0.35812517554423362 0.16666048548825901 0 0.34994451416405242 0.17395203180034491 0 0.35431198088947191 0.17758289198531549 0 0.35635125307852478 0.19412270194549849 0 0.35509016398328241 0.18362736932295029 0 0.3608647481989799 0.1840435389824506 0 0.34753530255681092 0.17963103433257291 0 0.35431198088947191 0.17758289198531549 0 0.35509016398328241 0.18362736932295029 0 0.35431198088947191 0.17758289198531549 0 0.35509016398328241 0.18362736932295029 0 0.3608647481989799 0.1840435389824506 0 0.35812517554423362 0.16666048548825901 0 0.3608647481989799 0.1840435389824506 0 0.36659165679721678 0.174233571717193 0 0.35812517554423362 0.16666048548825901 0 0.3608647481989799 0.1840435389824506 0 0.37014965221805701 0.18787750761752789 0 0.3608647481989799 0.1840435389824506 0 0.36804568679097732 0.1815655844131597 0 0.3608647481989799 0.1840435389824506 0 0.36659165679721678 0.174233571717193 0 0.36804568679097732 0.1815655844131597 0 0.36659165679721678 0.174233571717193 0 0.37457668994965571 0.18010771933546721 0 0.37632162446581879 0.1689035170874027 0 0.36659165679721678 0.174233571717193 0 0.36804568679097732 0.1815655844131597 0 0.37457668994965571 0.18010771933546721 0 0.37014965221805701 0.18787750761752789 0 0.36804568679097732 0.1815655844131597 0 0.37457668994965571 0.18010771933546721 0 0.35812517554423362 0.16666048548825901 0 0.36659165679721678 0.174233571717193 0 0.37632162446581879 0.1689035170874027 0 0.35812517554423362 0.16666048548825901 0 0.37664392203236469 0.15781397798664629 0 0.37632162446581879 0.1689035170874027 0 0.35812517554423362 0.16666048548825901 0 0.35538560288948801 0.14927743199406729 0 0.37664392203236469 0.15781397798664629 0 0.37093760089220001 0.14250105959043771 0 0.35538560288948801 0.14927743199406729 0 0.37664392203236469 0.15781397798664629 0 0.35538560288948801 0.14927743199406729 0 0.37664392203236469 0.15781397798664629 0 0.37093760089220001 0.14250105959043771 0 0.35538560288948801 0.14927743199406729 0 0.36139590050244819 0.13280008938455759 0 0.33949189244587008 0.1428951122404292 0 0.35538560288948801 0.14927743199406729 0 0.34199755447800989 0.1532617025297896 0 0.33949189244587008 0.1428951122404292 0 0.35538560288948801 0.14927743199406729 0 0.33949189244587008 0.1428951122404292 0 0.34241732696124028 0.13059528572623 0 0.35538560288948801 0.14927743199406729 0 0.34199755447800989 0.1532617025297896 0 0.34730997427996818 0.16056580256885869 0 0.35538560288948801 0.14927743199406729 0 0.35119261609205782 0.1226722190701168 0 0.35538560288948801 0.14927743199406729 0 0.36139590050244819 0.13280008938455759 0 0.35119261609205782 0.1226722190701168 0 0.34241732696124028 0.13059528572623 0 0.35538560288948801 0.14927743199406729 0 0.35119261609205782 0.1226722190701168 0 0.35538560288948801 0.14927743199406729 0 0.34813621094343339 0.12304813739377959 0 0.35119261609205782 0.1226722190701168 0 0.34241732696124028 0.13059528572623 0 0.35119261609205782 0.1226722190701168 0 0.35858978888025822 0.1232883522891396 0 0.36139590050244819 0.13280008938455759 0 0.35858978888025822 0.1232883522891396 0 0.36139590050244819 0.13280008938455759 0 0.36556718681037981 0.1260075999883811 0 0.36139590050244819 0.13280008938455759 0 0.36556718681037981 0.1260075999883811 0 0.36833311894408077 0.13244829493606231 0 0.37093760089220001 0.14250105959043771 0 0.36139590050244819 0.13280008938455759 0 0.36833311894408077 0.13244829493606231 0 0.37093760089220001 0.14250105959043771 0 0.36833311894408077 0.13244829493606231 0 0.3751666604505125 0.13088764043964249 0 0.36556718681037981 0.1260075999883811 0 0.36833311894408077 0.13244829493606231 0 0.3751666604505125 0.13088764043964249 0 0.37229523722889007 0.12197292985088749 0 0.36556718681037981 0.1260075999883811 0 0.3751666604505125 0.13088764043964249 0 0.3751666604505125 0.13088764043964249 0 0.3833417972590264 0.13507866812501129 0 0.38069589159201073 0.1249836451319003 0 0.37229523722889007 0.12197292985088749 0 0.3751666604505125 0.13088764043964249 0 0.38069589159201073 0.1249836451319003 0 0.37093760089220001 0.14250105959043771 0 0.3751666604505125 0.13088764043964249 0 0.3833417972590264 0.13507866812501129 0 0.3833417972590264 0.13507866812501129 0 0.39150635011855728 0.13521072614035351 0 0.38578248483521249 0.1447591220341494 0 0.3833417972590264 0.13507866812501129 0 0.38860019224825137 0.12743599548251061 0 0.39150635011855728 0.13521072614035351 0 0.3833417972590264 0.13507866812501129 0 0.38860019224825137 0.12743599548251061 0 0.38069589159201073 0.1249836451319003 0 0.38860019224825137 0.12743599548251061 0 0.39150635011855728 0.13521072614035351 0 0.40041439962846281 0.12869683748587821 0 0.39150635011855728 0.13521072614035351 0 0.39939287662183348 0.1400830075742181 0 0.38578248483521249 0.1447591220341494 0 0.39150635011855728 0.13521072614035351 0 0.39939287662183348 0.1400830075742181 0 0.40041439962846281 0.12869683748587821 0 0.40592282446185868 0.1332185380989177 0 0.39939287662183348 0.1400830075742181 0 0.41201953648983769 0.13921935202880009 0 0.40592282446185868 0.1332185380989177 0 0.39939287662183348 0.1400830075742181 0 0.40041439962846281 0.12869683748587821 0 0.40592282446185868 0.1332185380989177 0 0.40041439962846281 0.12869683748587821 0 0.41186448510730062 0.1248749553067743 0 0.39939287662183348 0.1400830075742181 0 0.38578248483521249 0.1447591220341494 0 0.39280802994842828 0.15719921249145349 0 0.39939287662183348 0.1400830075742181 0 0.39280802994842828 0.15719921249145349 0 0.40672990018297661 0.15208643216569179 0 0.39939287662183348 0.1400830075742181 0 0.41201953648983769 0.13921935202880009 0 0.40672990018297661 0.15208643216569179 0 0.38578248483521249 0.1447591220341494 0 0.37664392203236469 0.15781397798664629 0 0.39280802994842828 0.15719921249145349 0 0.37093760089220001 0.14250105959043771 0 0.3833417972590264 0.13507866812501129 0 0.38578248483521249 0.1447591220341494 0 0.37093760089220001 0.14250105959043771 0 0.38578248483521249 0.1447591220341494 0 0.37664392203236469 0.15781397798664629 0 0.37664392203236469 0.15781397798664629 0 0.3888199165824795 0.17123990553426169 0 0.39280802994842828 0.15719921249145349 0 0.37664392203236469 0.15781397798664629 0 0.37632162446581879 0.1689035170874027 0 0.3888199165824795 0.17123990553426169 0 0.37014965221805701 0.18787750761752789 0 0.37457668994965571 0.18010771933546721 0 0.38123547008605257 0.18766935713504851 0 0.37457668994965571 0.18010771933546721 0 0.38359973464620312 0.17934016398385591 0 0.38123547008605257 0.18766935713504851 0 0.37457668994965571 0.18010771933546721 0 0.37632162446581879 0.1689035170874027 0 0.38359973464620312 0.17934016398385591 0 0.3888199165824795 0.17123990553426169 0 0.38359973464620312 0.17934016398385591 0 0.39169900137284791 0.18473180602617101 0 0.37632162446581879 0.1689035170874027 0 0.3888199165824795 0.17123990553426169 0 0.38359973464620312 0.17934016398385591 0 0.38359973464620312 0.17934016398385591 0 0.39169900137284791 0.18473180602617101 0 0.38123547008605257 0.18766935713504851 0 0.39169900137284791 0.18473180602617101 0 0.40173492284798967 0.1803538099602226 0 0.3999488864312401 0.190579104476407 0 0.3888199165824795 0.17123990553426169 0 0.40173492284798967 0.1803538099602226 0 0.40176968116393708 0.16873847836279671 0 0.3888199165824795 0.17123990553426169 0 0.39169900137284791 0.18473180602617101 0 0.40173492284798967 0.1803538099602226 0 0.40173492284798967 0.1803538099602226 0 0.40985869913035822 0.18703987492293389 0 0.3999488864312401 0.190579104476407 0 0.39280802994842828 0.15719921249145349 0 0.40176968116393708 0.16873847836279671 0 0.40672990018297661 0.15208643216569179 0 0.3888199165824795 0.17123990553426169 0 0.39280802994842828 0.15719921249145349 0 0.40176968116393708 0.16873847836279671 0 0.41183885024788269 0.16314705449706679 0 0.4231365399749013 0.15796209291201929 0 0.40672990018297661 0.15208643216569179 0 0.41183885024788269 0.16314705449706679 0 0.41667815093959509 0.1763469510779799 0 0.4231365399749013 0.15796209291201929 0 0.40176968116393708 0.16873847836279671 0 0.41183885024788269 0.16314705449706679 0 0.40672990018297661 0.15208643216569179 0 0.40176968116393708 0.16873847836279671 0 0.41183885024788269 0.16314705449706679 0 0.41667815093959509 0.1763469510779799 0 0.40985869913035822 0.18703987492293389 0 0.41667815093959509 0.1763469510779799 0 0.4194994372178118 0.19245828628651229 0 0.40173492284798967 0.1803538099602226 0 0.40985869913035822 0.18703987492293389 0 0.41667815093959509 0.1763469510779799 0 0.40173492284798967 0.1803538099602226 0 0.40176968116393708 0.16873847836279671 0 0.41667815093959509 0.1763469510779799 0 0.41667815093959509 0.1763469510779799 0 0.43573175224107241 0.17312021409108261 0 0.43094715531080979 0.187463501232912 0 0.41667815093959509 0.1763469510779799 0 0.43094715531080979 0.187463501232912 0 0.4194994372178118 0.19245828628651229 0 0.41667815093959509 0.1763469510779799 0 0.43573175224107241 0.17312021409108261 0 0.4231365399749013 0.15796209291201929 0 0.43573175224107241 0.17312021409108261 0 0.4231365399749013 0.15796209291201929 0 0.44484355660944819 0.15744786631931079 0 0.42835402085837448 0.14116141081304259 0 0.44484355660944819 0.15744786631931079 0 0.4231365399749013 0.15796209291201929 0 0.42835402085837448 0.14116141081304259 0 0.41755999937652238 0.14760732197988841 0 0.4231365399749013 0.15796209291201929 0 0.42835402085837448 0.14116141081304259 0 0.44484355660944819 0.15744786631931079 0 0.42835402085837448 0.14116141081304259 0 0.43476543831671322 0.13181935422003141 0 0.44803045505254208 0.13750630642539929 0 0.43476543831671322 0.13181935422003141 0 0.41749739141171521 0.1304384884033232 0 0.44507091094237361 0.1182815450791545 0 0.42835402085837448 0.14116141081304259 0 0.43476543831671322 0.13181935422003141 0 0.41749739141171521 0.1304384884033232 0 0.42835402085837448 0.14116141081304259 0 0.41749739141171521 0.1304384884033232 0 0.42835402085837448 0.14116141081304259 0 0.41749739141171521 0.1304384884033232 0 0.41201953648983769 0.13921935202880009 0 0.41749739141171521 0.1304384884033232 0 0.41186448510730062 0.1248749553067743 0 0.40592282446185868 0.1332185380989177 0 0.41201953648983769 0.13921935202880009 0 0.41186448510730062 0.1248749553067743 0 0.41749739141171521 0.1304384884033232 0 0.41201953648983769 0.13921935202880009 0 0.41186448510730062 0.1248749553067743 0 0.41201953648983769 0.13921935202880009 0 0.40672990018297661 0.15208643216569179 0 0.41755999937652238 0.14760732197988841 0 0.42835402085837448 0.14116141081304259 0 0.41201953648983769 0.13921935202880009 0 0.41755999937652238 0.14760732197988841 0 0.4231365399749013 0.15796209291201929 0 0.40672990018297661 0.15208643216569179 0 0.41755999937652238 0.14760732197988841 0 0.40375509559260042 0.25682408165596737 0 0.39362462584052121 0.25393471460672151 0 0.41249917296976157 0.23747463782408809 0 0.39362462584052121 0.25393471460672151 0 0.38847481234232678 0.23878731477413309 0 0.40324402915411461 0.23263633635432851 0 0.39362462584052121 0.25393471460672151 0 0.41249917296976157 0.23747463782408809 0 0.39362462584052121 0.25393471460672151 0 0.40324402915411461 0.23263633635432851 0 0.41249917296976157 0.23747463782408809 0 0.39362462584052121 0.25393471460672151 0 0.40324402915411461 0.23263633635432851 0 0.39362462584052121 0.25393471460672151 0 0.38467031793994938 0.24796058382973071 0 0.38847481234232678 0.23878731477413309 0 0.38467031793994938 0.24796058382973071 0 0.37517197332411217 0.2448619195859793 0 0.38847481234232678 0.23878731477413309 0 0.38140986025283791 0.25425838635208919 0 0.38467031793994938 0.24796058382973071 0 0.37517197332411217 0.2448619195859793 0 0.37517197332411217 0.2448619195859793 0 0.38847481234232678 0.23878731477413309 0 0.37642448459271372 0.2323582944410458 0 0.36999154151231761 0.22031006035298489 0 0.3862399674629538 0.22768335796546649 0 0.39142748699001262 0.21582400922746031 0 0.38847481234232678 0.23878731477413309 0 0.3862399674629538 0.22768335796546649 0 0.37642448459271372 0.2323582944410458 0 0.36999154151231761 0.22031006035298489 0 0.3862399674629538 0.22768335796546649 0 0.37642448459271372 0.2323582944410458 0 0.38847481234232678 0.23878731477413309 0 0.3862399674629538 0.22768335796546649 0 0.40324402915411461 0.23263633635432851 0 0.3862399674629538 0.22768335796546649 0 0.40324402915411461 0.23263633635432851 0 0.39142748699001262 0.21582400922746031 0 0.40324402915411461 0.23263633635432851 0 0.39142748699001262 0.21582400922746031 0 0.41286343246770768 0.21133795810193559 0 0.39142748699001262 0.21582400922746031 0 0.39676380005234507 0.20157432832067351 0 0.40782591168270521 0.20386623038898219 0 0.39142748699001262 0.21582400922746031 0 0.40782591168270521 0.20386623038898219 0 0.41286343246770768 0.21133795810193559 0 0.39142748699001262 0.21582400922746031 0 0.41286343246770768 0.21133795810193559 0 0.36999154151231761 0.22031006035298489 0 0.39142748699001262 0.21582400922746031 0 0.38155822370381542 0.2060448997830171 0 0.36999154151231761 0.22031006035298489 0 0.39142748699001262 0.21582400922746031 0 0.39142748699001262 0.21582400922746031 0 0.38155822370381542 0.2060448997830171 0 0.39676380005234507 0.20157432832067351 0 0.38155822370381542 0.2060448997830171 0 0.38805987390146851 0.1948599794228649 0 0.39676380005234507 0.20157432832067351 0 0.38155822370381542 0.2060448997830171 0 0.37577380362120771 0.19710760781322201 0 0.38805987390146851 0.1948599794228649 0 0.37014965221805701 0.18787750761752789 0 0.37577380362120771 0.19710760781322201 0 0.38123547008605257 0.18766935713504851 0 0.37577380362120771 0.19710760781322201 0 0.38123547008605257 0.18766935713504851 0 0.38805987390146851 0.1948599794228649 0 0.39169900137284791 0.18473180602617101 0 0.38123547008605257 0.18766935713504851 0 0.38805987390146851 0.1948599794228649 0 0.39169900137284791 0.18473180602617101 0 0.38805987390146851 0.1948599794228649 0 0.3999488864312401 0.190579104476407 0 0.38805987390146851 0.1948599794228649 0 0.39676380005234507 0.20157432832067351 0 0.3999488864312401 0.190579104476407 0 0.39676380005234507 0.20157432832067351 0 0.3999488864312401 0.190579104476407 0 0.40844314988471619 0.19637059599997231 0 0.39676380005234507 0.20157432832067351 0 0.40844314988471619 0.19637059599997231 0 0.40782591168270521 0.20386623038898219 0 0.40985869913035822 0.18703987492293389 0 0.3999488864312401 0.190579104476407 0 0.40844314988471619 0.19637059599997231 0 0.40985869913035822 0.18703987492293389 0 0.40844314988471619 0.19637059599997231 0 0.4194994372178118 0.19245828628651229 0 0.40844314988471619 0.19637059599997231 0 0.4167621647938371 0.20270575160432511 0 0.40782591168270521 0.20386623038898219 0 0.4167621647938371 0.20270575160432511 0 0.4194994372178118 0.19245828628651229 0 0.42755339579786122 0.19747702645375831 0 0.40844314988471619 0.19637059599997231 0 0.4167621647938371 0.20270575160432511 0 0.4194994372178118 0.19245828628651229 0 0.43094715531080979 0.187463501232912 0 0.4194994372178118 0.19245828628651229 0 0.42755339579786122 0.19747702645375831 0 0.43094715531080979 0.187463501232912 0 0.42755339579786122 0.19747702645375831 0 0.43936422819707521 0.19725580051107541 0 0.42755339579786122 0.19747702645375831 0 0.43119399346977139 0.2075017926339664 0 0.43936422819707521 0.19725580051107541 0 0.4167621647938371 0.20270575160432511 0 0.42755339579786122 0.19747702645375831 0 0.43119399346977139 0.2075017926339664 0 0.43119399346977139 0.2075017926339664 0 0.41286343246770768 0.21133795810193559 0 0.43119399346977139 0.2075017926339664 0 0.42189383512795359 0.21696156354311821 0 0.41286343246770768 0.21133795810193559 0 0.43119399346977139 0.2075017926339664 0 0.42189383512795359 0.21696156354311821 0 0.4313737200990021 0.22101456104145489 0 0.42189383512795359 0.21696156354311821 0 0.41286343246770768 0.21133795810193559 0 0.41546633454033599 0.22411631097823509 0 0.4167621647938371 0.20270575160432511 0 0.43119399346977139 0.2075017926339664 0 0.41286343246770768 0.21133795810193559 0 0.4167621647938371 0.20270575160432511 0 0.41286343246770768 0.21133795810193559 0 0.4167621647938371 0.20270575160432511 0 0.40782591168270521 0.20386623038898219 0 0.41286343246770768 0.21133795810193559 0 0.40324402915411461 0.23263633635432851 0 0.41286343246770768 0.21133795810193559 0 0.40324402915411461 0.23263633635432851 0 0.41286343246770768 0.21133795810193559 0 0.41546633454033599 0.22411631097823509 0 0.41546633454033599 0.22411631097823509 0 0.4313737200990021 0.22101456104145489 0 0.41249917296976157 0.23747463782408809 0 0.40324402915411461 0.23263633635432851 0 0.41546633454033599 0.22411631097823509 0 0.41249917296976157 0.23747463782408809 0 0.4313737200990021 0.22101456104145489 0 0.41249917296976157 0.23747463782408809 0 0.4313737200990021 0.22101456104145489 0 0.42909388215024702 0.23619950566464701 0 0.41249917296976157 0.23747463782408809 0 0.42189383512795359 0.21696156354311821 0 0.41546633454033599 0.22411631097823509 0 0.4313737200990021 0.22101456104145489 0 0.4313737200990021 0.22101456104145489 0 0.42909388215024702 0.23619950566464701 0 0.43957031179150002 0.2309017609119029 0 0.42909388215024702 0.23619950566464701 0 0.42142532950501849 0.2473814196921246 0 0.44060087638595241 0.24422514885366431 0 0.42909388215024702 0.23619950566464701 0 0.44060087638595241 0.24422514885366431 0 0.43957031179150002 0.2309017609119029 0 0.40375509559260042 0.25682408165596737 0 0.42142532950501849 0.2473814196921246 0 0.41249917296976157 0.23747463782408809 0 0.42909388215024702 0.23619950566464701 0 0.42142532950501849 0.2473814196921246 0 0.41249917296976157 0.23747463782408809 0 0.46803559015249929 0.2564153695710033 0 0.45739195761173118 0.23546510181494759 0 0.47356411749421901 0.2343435235675369 0 0.46803559015249929 0.2564153695710033 0 0.45739195761173118 0.23546510181494759 0 0.44060087638595241 0.24422514885366431 0 0.45739195761173118 0.23546510181494759 0 0.44060087638595241 0.24422514885366431 0 0.43957031179150002 0.2309017609119029 0 0.4313737200990021 0.22101456104145489 0 0.44929624081177127 0.2225144406399478 0 0.43957031179150002 0.2309017609119029 0 0.45739195761173118 0.23546510181494759 0 0.44929624081177127 0.2225144406399478 0 0.43957031179150002 0.2309017609119029 0 0.45739195761173118 0.23546510181494759 0 0.44929624081177127 0.2225144406399478 0 0.46462995303777138 0.21849644103354179 0 0.45739195761173118 0.23546510181494759 0 0.46462995303777138 0.21849644103354179 0 0.47356411749421901 0.2343435235675369 0 0.46462995303777138 0.21849644103354179 0 0.45024826722824263 0.20455448425882169 0 0.46595537934790893 0.20093025887544419 0 0.44929624081177127 0.2225144406399478 0 0.46462995303777138 0.21849644103354179 0 0.45024826722824263 0.20455448425882169 0 0.46462995303777138 0.21849644103354179 0 0.46595537934790893 0.20093025887544419 0 0.47298302707287943 0.2104392537148162 0 0.43119399346977139 0.2075017926339664 0 0.4313737200990021 0.22101456104145489 0 0.45024826722824263 0.20455448425882169 0 0.4313737200990021 0.22101456104145489 0 0.44929624081177127 0.2225144406399478 0 0.45024826722824263 0.20455448425882169 0 0.4313737200990021 0.22101456104145489 0 0.45024826722824263 0.20455448425882169 0 0.43119399346977139 0.2075017926339664 0 0.45024826722824263 0.20455448425882169 0 0.43936422819707521 0.19725580051107541 0 0.45024826722824263 0.20455448425882169 0 0.43936422819707521 0.19725580051107541 0 0.44773674541511738 0.18624771311026461 0 0.43094715531080979 0.187463501232912 0 0.43936422819707521 0.19725580051107541 0 0.44773674541511738 0.18624771311026461 0 0.45024826722824263 0.20455448425882169 0 0.46061922249267728 0.1910975110803913 0 0.44773674541511738 0.18624771311026461 0 0.45024826722824263 0.20455448425882169 0 0.46061922249267728 0.1910975110803913 0 0.46595537934790893 0.20093025887544419 0 0.46061922249267728 0.1910975110803913 0 0.46595537934790893 0.20093025887544419 0 0.47782262811159582 0.19002077733184719 0 0.46595537934790893 0.20093025887544419 0 0.47782262811159582 0.19002077733184719 0 0.48197942123064652 0.2026848136650061 0 0.48197942123064652 0.2026848136650061 0 0.48609476627347192 0.18792088977511029 0 0.47639233331714442 0.17605613911712689 0 0.48197942123064652 0.2026848136650061 0 0.47639233331714442 0.17605613911712689 0 0.47782262811159582 0.19002077733184719 0 0.48197942123064652 0.2026848136650061 0 0.47639233331714442 0.17605613911712689 0 0.48609476627347192 0.18792088977511029 0 0.5 0.2105700932380257 0 0.5 0.18147465145662081 0 0.48197942123064652 0.2026848136650061 0 0.48609476627347192 0.18792088977511029 0 0.5 0.2105700932380257 0 0.48197942123064652 0.2026848136650061 0 0.48756650914414879 0.22931348821288541 0 0.48197942123064652 0.2026848136650061 0 0.5 0.2105700932380257 0 0.48756650914414879 0.22931348821288541 0 0.48197942123064652 0.2026848136650061 0 0.47298302707287943 0.2104392537148162 0 0.47614460559593302 0.21905550403875729 0 0.48197942123064652 0.2026848136650061 0 0.47614460559593302 0.21905550403875729 0 0.48756650914414879 0.22931348821288541 0 0.46595537934790893 0.20093025887544419 0 0.48197942123064652 0.2026848136650061 0 0.47298302707287943 0.2104392537148162 0 0.46462995303777138 0.21849644103354179 0 0.47298302707287943 0.2104392537148162 0 0.47614460559593302 0.21905550403875729 0 0.46462995303777138 0.21849644103354179 0 0.47614460559593302 0.21905550403875729 0 0.47356411749421901 0.2343435235675369 0 0.47614460559593302 0.21905550403875729 0 0.47356411749421901 0.2343435235675369 0 0.48756650914414879 0.22931348821288541 0 0.5 0.2105700932380257 0 0.48756650914414879 0.22931348821288541 0 0.5 0.23966553501943069 0 0.48756650914414879 0.22931348821288541 0 0.48454435427300457 0.24591948113172821 0 0.5 0.23966553501943069 0 0.46803559015249929 0.2564153695710033 0 0.47356411749421901 0.2343435235675369 0 0.48454435427300457 0.24591948113172821 0 0.47356411749421901 0.2343435235675369 0 0.48756650914414879 0.22931348821288541 0 0.48454435427300457 0.24591948113172821 0 0.44803045505254208 0.13750630642539929 0 0.44484355660944819 0.15744786631931079 0 0.47080524540364221 0.1494274645692478 0 0.47080524540364221 0.1494274645692478 0 0.46521815749013989 0.1227987900213687 0 0.44803045505254208 0.13750630642539929 0 0.47080524540364221 0.1494274645692478 0 0.46521815749013989 0.1227987900213687 0 0.43476543831671322 0.13181935422003141 0 0.44803045505254208 0.13750630642539929 0 0.44507091094237361 0.1182815450791545 0 0.44803045505254208 0.13750630642539929 0 0.46521815749013989 0.1227987900213687 0 0.44507091094237361 0.1182815450791545 0 0.42835402085837448 0.14116141081304259 0 0.44803045505254208 0.13750630642539929 0 0.44484355660944819 0.15744786631931079 0 0.44484355660944819 0.15744786631931079 0 0.44741128665654001 0.1726375288365592 0 0.461333092360522 0.17373432182557899 0 0.44484355660944819 0.15744786631931079 0 0.461333092360522 0.17373432182557899 0 0.43573175224107241 0.17312021409108261 0 0.44484355660944819 0.15744786631931079 0 0.44741128665654001 0.1726375288365592 0 0.43573175224107241 0.17312021409108261 0 0.43094715531080979 0.187463501232912 0 0.44773674541511738 0.18624771311026461 0 0.43573175224107241 0.17312021409108261 0 0.44741128665654001 0.1726375288365592 0 0.44773674541511738 0.18624771311026461 0 0.44741128665654001 0.1726375288365592 0 0.44773674541511738 0.18624771311026461 0 0.461333092360522 0.17373432182557899 0 0.46061922249267728 0.1910975110803913 0 0.47782262811159582 0.19002077733184719 0 0.461333092360522 0.17373432182557899 0 0.46061922249267728 0.1910975110803913 0 0.44773674541511738 0.18624771311026461 0 0.461333092360522 0.17373432182557899 0 0.44484355660944819 0.15744786631931079 0 0.461333092360522 0.17373432182557899 0 0.47080524540364221 0.1494274645692478 0 0.47639233331714442 0.17605613911712689 0 0.48443557582282809 0.16046808451803021 0 0.47080524540364221 0.1494274645692478 0 0.461333092360522 0.17373432182557899 0 0.47639233331714442 0.17605613911712689 0 0.47080524540364221 0.1494274645692478 0 0.47639233331714442 0.17605613911712689 0 0.47080524540364221 0.1494274645692478 0 0.47782262811159582 0.19002077733184719 0 0.461333092360522 0.17373432182557899 0 0.47639233331714442 0.17605613911712689 0 0.47782262811159582 0.19002077733184719 0 0.461333092360522 0.17373432182557899 0 0.47639233331714442 0.17605613911712689 0 0.5 0.18147465145662081 0 0.48443557582282809 0.16046808451803021 0 0.48609476627347192 0.18792088977511029 0 0.47639233331714442 0.17605613911712689 0 0.5 0.18147465145662081 0 0.5 0.18147465145662081 0 0.48443557582282809 0.16046808451803021 0 0.5 0.15237920967521601 0 0.48443557582282809 0.16046808451803021 0 0.5 0.15237920967521601 0 0.48246910810964422 0.13307975055397589 0 0.48443557582282809 0.16046808451803021 0 0.47080524540364221 0.1494274645692478 0 0.48246910810964422 0.13307975055397589 0 0.47080524540364221 0.1494274645692478 0 0.48246910810964422 0.13307975055397589 0 0.46521815749013989 0.1227987900213687 0 0.5 0.15237920967521601 0 0.48246910810964422 0.13307975055397589 0 0.5 0.1232837678938111 0 0.48246910810964422 0.13307975055397589 0 0.5 0.1232837678938111 0 0.47253545547118531 0.1062349355957799 0 0.5 0.1232837678938111 0 0.49999999999999728 0.09418832611240624 0 0.47253545547118531 0.1062349355957799 0 0.49999999999999728 0.09418832611240624 0 0.47253545547118531 0.1062349355957799 0 0.48139116304268109 0.081972032767684777 0 0.49999999999999728 0.09418832611240624 0 0.47253545547118531 0.1062349355957799 0 0.48246910810964422 0.13307975055397589 0 0.47253545547118531 0.1062349355957799 0 0.46521815749013989 0.1227987900213687 0 0.5 0.066955090201773482 0 0.48139116304268109 0.081972032767684777 0 0.48261825908130063 0.057423716330910403 0 0.49999999999999728 0.09418832611240624 0 0.5 0.066955090201773482 0 0.48139116304268109 0.081972032767684777 0 0.48139116304268109 0.081972032767684777 0 0.46703883262608892 0.070570646435070994 0 0.46619953349299093 0.090081803401004426 0 0.47253545547118531 0.1062349355957799 0 0.48139116304268109 0.081972032767684777 0 0.46619953349299093 0.090081803401004426 0 0.48139116304268109 0.081972032767684777 0 0.46703883262608892 0.070570646435070994 0 0.48261825908130063 0.057423716330910403 0 0.46703883262608892 0.070570646435070994 0 0.45225702536409967 0.077597592487672465 0 0.45216052259871109 0.058695010817054777 0 0.46619953349299093 0.090081803401004426 0 0.45225702536409967 0.077597592487672465 0 0.45284673052291052 0.098678381191568479 0 0.46703883262608892 0.070570646435070994 0 0.46619953349299093 0.090081803401004426 0 0.45225702536409967 0.077597592487672465 0 0.44161428692221738 0.089694878922155663 0 0.45225702536409967 0.077597592487672465 0 0.45284673052291052 0.098678381191568479 0 0.44161428692221738 0.089694878922155663 0 0.45225702536409967 0.077597592487672465 0 0.43084391859102922 0.079586082564662333 0 0.45225702536409967 0.077597592487672465 0 0.43084391859102922 0.079586082564662333 0 0.43597112608375738 0.064773776443830991 0 0.45225702536409967 0.077597592487672465 0 0.43597112608375738 0.064773776443830991 0 0.45216052259871109 0.058695010817054777 0 0.47253545547118531 0.1062349355957799 0 0.46521815749013989 0.1227987900213687 0 0.44507091094237361 0.1182815450791545 0 0.47253545547118531 0.1062349355957799 0 0.44507091094237361 0.1182815450791545 0 0.47253545547118531 0.1062349355957799 0 0.46619953349299093 0.090081803401004426 0 0.45284673052291052 0.098678381191568479 0 0.47253545547118531 0.1062349355957799 0 0.45284673052291052 0.098678381191568479 0 0.44507091094237361 0.1182815450791545 0 0.45284673052291052 0.098678381191568479 0 0.43935111769929952 0.1032392896223414 0 0.44507091094237361 0.1182815450791545 0 0.44161428692221738 0.089694878922155663 0 0.45284673052291052 0.098678381191568479 0 0.43935111769929952 0.1032392896223414 0 0.41749739141171521 0.1304384884033232 0 0.44507091094237361 0.1182815450791545 0 0.42338905017093331 0.1192904763305231 0 0.43935111769929952 0.1032392896223414 0 0.44507091094237361 0.1182815450791545 0 0.42772488246816892 0.1104359340827222 0 0.44507091094237361 0.1182815450791545 0 0.42772488246816892 0.1104359340827222 0 0.42338905017093331 0.1192904763305231 0 0.41749739141171521 0.1304384884033232 0 0.44507091094237361 0.1182815450791545 0 0.42772488246816892 0.1104359340827222 0 0.42338905017093331 0.1192904763305231 0 0.41467860592326122 0.11253179262143551 0 0.42338905017093331 0.1192904763305231 0 0.41467860592326122 0.11253179262143551 0 0.41186448510730062 0.1248749553067743 0 0.41749739141171521 0.1304384884033232 0 0.42338905017093331 0.1192904763305231 0 0.41186448510730062 0.1248749553067743 0 0.41467860592326122 0.11253179262143551 0 0.4054985028210718 0.1156615115220711 0 0.40538176818793248 0.1025191372856116 0 0.41467860592326122 0.11253179262143551 0 0.41186448510730062 0.1248749553067743 0 0.4054985028210718 0.1156615115220711 0 0.41850113655143079 0.099193554180606228 0 0.41087785746787719 0.086327963650681683 0 0.40538176818793248 0.1025191372856116 0 0.41467860592326122 0.11253179262143551 0 0.41850113655143079 0.099193554180606228 0 0.40538176818793248 0.1025191372856116 0 0.42772488246816892 0.1104359340827222 0 0.41467860592326122 0.11253179262143551 0 0.41850113655143079 0.099193554180606228 0 0.42772488246816892 0.1104359340827222 0 0.41850113655143079 0.099193554180606228 0 0.43135724144449722 0.094962963651620422 0 0.43935111769929952 0.1032392896223414 0 0.42772488246816892 0.1104359340827222 0 0.43135724144449722 0.094962963651620422 0 0.44161428692221738 0.089694878922155663 0 0.43935111769929952 0.1032392896223414 0 0.43135724144449722 0.094962963651620422 0 0.44161428692221738 0.089694878922155663 0 0.43135724144449722 0.094962963651620422 0 0.43084391859102922 0.079586082564662333 0 0.43084391859102922 0.079586082564662333 0 0.42207233659258581 0.086563145889639675 0 0.418781528908094 0.072745165400627698 0 0.43135724144449722 0.094962963651620422 0 0.43084391859102922 0.079586082564662333 0 0.42207233659258581 0.086563145889639675 0 0.41850113655143079 0.099193554180606228 0 0.43135724144449722 0.094962963651620422 0 0.42207233659258581 0.086563145889639675 0 0.43597112608375738 0.064773776443830991 0 0.418781528908094 0.072745165400627698 0 0.42213598863733709 0.054489494233870048 0 0.43084391859102922 0.079586082564662333 0 0.43597112608375738 0.064773776443830991 0 0.418781528908094 0.072745165400627698 0 0.418781528908094 0.072745165400627698 0 0.40115477346622158 0.070881052710453196 0 0.40942432826849862 0.05990167190527778 0 0.418781528908094 0.072745165400627698 0 0.41087785746787719 0.086327963650681683 0 0.40115477346622158 0.070881052710453196 0 0.41850113655143079 0.099193554180606228 0 0.42207233659258581 0.086563145889639675 0 0.41087785746787719 0.086327963650681683 0 0.42207233659258581 0.086563145889639675 0 0.418781528908094 0.072745165400627698 0 0.41087785746787719 0.086327963650681683 0 0.39942908386500109 0.084394668148470284 0 0.38443300711466788 0.0709454711943725 0 0.38989211088833992 0.090672832335433801 0 0.39942908386500109 0.084394668148470284 0 0.38989211088833992 0.090672832335433801 0 0.40538176818793248 0.1025191372856116 0 0.41087785746787719 0.086327963650681683 0 0.39942908386500109 0.084394668148470284 0 0.40538176818793248 0.1025191372856116 0 0.41087785746787719 0.086327963650681683 0 0.39942908386500109 0.084394668148470284 0 0.40115477346622158 0.070881052710453196 0 0.39942908386500109 0.084394668148470284 0 0.40115477346622158 0.070881052710453196 0 0.38443300711466788 0.0709454711943725 0 0.40115477346622158 0.070881052710453196 0 0.38443300711466788 0.0709454711943725 0 0.38974566723161541 0.061035141337510097 0 0.40115477346622158 0.070881052710453196 0 0.38974566723161541 0.061035141337510097 0 0.39754415517941438 0.056544694974079893 0 0.37393707199371279 0.070754156872176954 0 0.38443300711466788 0.0709454711943725 0 0.37572298921642872 0.079836457265596933 0 0.37393707199371279 0.070754156872176954 0 0.37403842409923738 0.063234616832978444 0 0.38443300711466788 0.0709454711943725 0 0.38443300711466788 0.0709454711943725 0 0.38989211088833992 0.090672832335433801 0 0.38443300711466788 0.0709454711943725 0 0.38989211088833992 0.090672832335433801 0 0.37572298921642872 0.079836457265596933 0 0.38989211088833992 0.090672832335433801 0 0.37572298921642872 0.079836457265596933 0 0.38989211088833992 0.090672832335433801 0 0.37572298921642872 0.079836457265596933 0 0.37546750769419229 0.094015517500835213 0 0.38989211088833992 0.090672832335433801 0 0.37546750769419229 0.094015517500835213 0 0.38271497470422461 0.1043074049580625 0 0.38989211088833992 0.090672832335433801 0 0.38271497470422461 0.1043074049580625 0 0.3951532552584015 0.109684834910656 0 0.37094035244152779 0.1051042271576224 0 0.37546750769419229 0.094015517500835213 0 0.38271497470422461 0.1043074049580625 0 0.37094035244152779 0.1051042271576224 0 0.38271497470422461 0.1043074049580625 0 0.37704417723406453 0.1102301786634421 0 0.37704417723406453 0.1102301786634421 0 0.37819647453487942 0.11732363562449261 0 0.38657498783050431 0.1172030012688571 0 0.38271497470422461 0.1043074049580625 0 0.37704417723406453 0.1102301786634421 0 0.38657498783050431 0.1172030012688571 0 0.37092041687023047 0.11421589958046691 0 0.37704417723406453 0.1102301786634421 0 0.37819647453487942 0.11732363562449261 0 0.38069589159201073 0.1249836451319003 0 0.37819647453487942 0.11732363562449261 0 0.38657498783050431 0.1172030012688571 0 0.37229523722889007 0.12197292985088749 0 0.38069589159201073 0.1249836451319003 0 0.37819647453487942 0.11732363562449261 0 0.38860019224825137 0.12743599548251061 0 0.38069589159201073 0.1249836451319003 0 0.38657498783050431 0.1172030012688571 0 0.38271497470422461 0.1043074049580625 0 0.38657498783050431 0.1172030012688571 0 0.3951532552584015 0.109684834910656 0 0.40041439962846281 0.12869683748587821 0 0.3951532552584015 0.109684834910656 0 0.40041439962846281 0.12869683748587821 0 0.38657498783050431 0.1172030012688571 0 0.3951532552584015 0.109684834910656 0 0.40041439962846281 0.12869683748587821 0 0.3951532552584015 0.109684834910656 0 0.4054985028210718 0.1156615115220711 0 0.38860019224825137 0.12743599548251061 0 0.40041439962846281 0.12869683748587821 0 0.38657498783050431 0.1172030012688571 0 0.40041439962846281 0.12869683748587821 0 0.41186448510730062 0.1248749553067743 0 0.4054985028210718 0.1156615115220711 0 0.3951532552584015 0.109684834910656 0 0.4054985028210718 0.1156615115220711 0 0.40538176818793248 0.1025191372856116 0 0.38989211088833992 0.090672832335433801 0 0.3951532552584015 0.109684834910656 0 0.40538176818793248 0.1025191372856116 0 0.38989211088833992 0.090672832335433801 0 0.3951532552584015 0.109684834910656 0 0.38989211088833992 0.090672832335433801 0 0.40538176818793248 0.1025191372856116 0 0.39494940040507581 0.023500782280367161 0 0.40559650277314852 0.013209285449120631 0 0.38926535321639671 0.01048302995541636 0 0.39494940040507581 0.023500782280367161 0 0.38874667901597609 0.033082620972141888 0 0.39874927606774152 0.035093378841700322 0 0.39494940040507581 0.023500782280367161 0 0.39874927606774152 0.035093378841700322 0 0.40900242126923658 0.02827451953097921 0 0.39494940040507581 0.023500782280367161 0 0.40559650277314852 0.013209285449120631 0 0.40900242126923658 0.02827451953097921 0 0.40559650277314852 0.013209285449120631 0 0.39862942333100188 0.0010112245927001581 0 0.38926535321639671 0.01048302995541636 0 0.38926535321639671 0.01048302995541636 0 0.37518201557004099 0.0083393211393859926 0 0.38743748548225732 -0.013326529749675331 0 0.38926535321639671 0.01048302995541636 0 0.37518201557004099 0.0083393211393859926 0 0.38117661184383672 0.024070470402107719 0 0.39494940040507581 0.023500782280367161 0 0.38926535321639671 0.01048302995541636 0 0.38117661184383672 0.024070470402107719 0 0.39494940040507581 0.023500782280367161 0 0.38117661184383672 0.024070470402107719 0 0.38874667901597609 0.033082620972141888 0 0.38117661184383672 0.024070470402107719 0 0.37768970559083093 0.038991812867135871 0 0.38874667901597609 0.033082620972141888 0 0.37768970559083093 0.038991812867135871 0 0.37897390334099579 0.051218110053311283 0 0.39116840117239532 0.043756660469398363 0 0.37768970559083093 0.038991812867135871 0 0.38874667901597609 0.033082620972141888 0 0.39116840117239532 0.043756660469398363 0 0.38443300711466788 0.0709454711943725 0 0.37897390334099579 0.051218110053311283 0 0.37403842409923738 0.063234616832978444 0 0.38443300711466788 0.0709454711943725 0 0.37897390334099579 0.051218110053311283 0 0.38443300711466788 0.0709454711943725 0 0.37897390334099579 0.051218110053311283 0 0.38974566723161541 0.061035141337510097 0 0.3696217865676738 0.053995947531447687 0 0.37768970559083093 0.038991812867135871 0 0.37897390334099579 0.051218110053311283 0 0.37897390334099579 0.051218110053311283 0 0.38850465287880409 0.052932613084177543 0 0.39116840117239532 0.043756660469398363 0 0.37897390334099579 0.051218110053311283 0 0.38850465287880409 0.052932613084177543 0 0.38974566723161541 0.061035141337510097 0 0.39754415517941438 0.056544694974079893 0 0.39116840117239532 0.043756660469398363 0 0.40750519515142541 0.044847952207358051 0 0.38850465287880409 0.052932613084177543 0 0.38974566723161541 0.061035141337510097 0 0.39754415517941438 0.056544694974079893 0 0.38850465287880409 0.052932613084177543 0 0.39754415517941438 0.056544694974079893 0 0.39116840117239532 0.043756660469398363 0 0.39754415517941438 0.056544694974079893 0 0.40750519515142541 0.044847952207358051 0 0.40942432826849862 0.05990167190527778 0 0.40115477346622158 0.070881052710453196 0 0.39754415517941438 0.056544694974079893 0 0.40942432826849862 0.05990167190527778 0 0.39874927606774152 0.035093378841700322 0 0.40750519515142541 0.044847952207358051 0 0.40900242126923658 0.02827451953097921 0 0.39116840117239532 0.043756660469398363 0 0.39874927606774152 0.035093378841700322 0 0.40750519515142541 0.044847952207358051 0 0.38874667901597609 0.033082620972141888 0 0.39116840117239532 0.043756660469398363 0 0.39874927606774152 0.035093378841700322 0 0.40750519515142541 0.044847952207358051 0 0.42388681385598792 0.036649799400536448 0 0.40900242126923658 0.02827451953097921 0 0.40750519515142541 0.044847952207358051 0 0.42213598863733709 0.054489494233870048 0 0.42388681385598792 0.036649799400536448 0 0.418781528908094 0.072745165400627698 0 0.40942432826849862 0.05990167190527778 0 0.42213598863733709 0.054489494233870048 0 0.40750519515142541 0.044847952207358051 0 0.40942432826849862 0.05990167190527778 0 0.42213598863733709 0.054489494233870048 0 0.43597112608375738 0.064773776443830991 0 0.42213598863733709 0.054489494233870048 0 0.43819101137836558 0.045450129159245602 0 0.42213598863733709 0.054489494233870048 0 0.42388681385598792 0.036649799400536448 0 0.43819101137836558 0.045450129159245602 0 0.42388681385598792 0.036649799400536448 0 0.43961644324576632 0.029938086136280979 0 0.43819101137836558 0.045450129159245602 0 0.42479833431159197 0.01591456064513164 0 0.44314178793015108 0.014390126527383961 0 0.43961644324576632 0.029938086136280979 0 0.42388681385598792 0.036649799400536448 0 0.42479833431159197 0.01591456064513164 0 0.43961644324576632 0.029938086136280979 0 0.40559650277314852 0.013209285449120631 0 0.42479833431159197 0.01591456064513164 0 0.40900242126923658 0.02827451953097921 0 0.42388681385598792 0.036649799400536448 0 0.42479833431159197 0.01591456064513164 0 0.40900242126923658 0.02827451953097921 0 0.40559650277314852 0.013209285449120631 0 0.39862942333100188 0.0010112245927001581 0 0.4173668989579587 -0.00028581009173609599 0 0.40559650277314852 0.013209285449120631 0 0.42479833431159197 0.01591456064513164 0 0.4173668989579587 -0.00028581009173609599 0 0.42479833431159197 0.01591456064513164 0 0.4173668989579587 -0.00028581009173609599 0 0.43576860258536171 -0.0040478036393969156 0 0.42479833431159197 0.01591456064513164 0 0.44314178793015108 0.014390126527383961 0 0.43576860258536171 -0.0040478036393969156 0 0.44314178793015108 0.014390126527383961 0 0.45841687982412332 0.00049636743974199287 0 0.43576860258536171 -0.0040478036393969156 0 0.44314178793015108 0.014390126527383961 0 0.45710867968391211 0.02964942205516212 0 0.45841687982412332 0.00049636743974199287 0 0.44314178793015108 0.014390126527383961 0 0.43961644324576632 0.029938086136280979 0 0.45710867968391211 0.02964942205516212 0 0.45710867968391211 0.02964942205516212 0 0.45841687982412332 0.00049636743974199287 0 0.47531426236470969 0.01451181454414399 0 0.43597112608375738 0.064773776443830991 0 0.45216052259871109 0.058695010817054777 0 0.43819101137836558 0.045450129159245602 0 0.45216052259871109 0.058695010817054777 0 0.452643628137684 0.043918588259845792 0 0.43819101137836558 0.045450129159245602 0 0.43961644324576632 0.029938086136280979 0 0.45710867968391211 0.02964942205516212 0 0.452643628137684 0.043918588259845792 0 0.43961644324576632 0.029938086136280979 0 0.452643628137684 0.043918588259845792 0 0.43819101137836558 0.045450129159245602 0 0.45710867968391211 0.02964942205516212 0 0.46693247500412161 0.050374640161539461 0 0.48034708381491198 0.034948034128253092 0 0.45710867968391211 0.02964942205516212 0 0.452643628137684 0.043918588259845792 0 0.46693247500412161 0.050374640161539461 0 0.46703883262608892 0.070570646435070994 0 0.45216052259871109 0.058695010817054777 0 0.46693247500412161 0.050374640161539461 0 0.45216052259871109 0.058695010817054777 0 0.452643628137684 0.043918588259845792 0 0.46693247500412161 0.050374640161539461 0 0.46693247500412161 0.050374640161539461 0 0.48261825908130063 0.057423716330910403 0 0.48034708381491198 0.034948034128253092 0 0.46703883262608892 0.070570646435070994 0 0.46693247500412161 0.050374640161539461 0 0.48261825908130063 0.057423716330910403 0 0.48261825908130063 0.057423716330910403 0 0.48034708381491198 0.034948034128253092 0 0.5 0.039721854291140613 0 0.5 0.066955090201773482 0 0.48261825908130063 0.057423716330910403 0 0.5 0.039721854291140613 0 0.45841687982412332 0.00049636743974199287 0 0.47531426236470969 0.01451181454414399 0 0.4801832208612436 -0.0047090021128772591 0 0.45710867968391211 0.02964942205516212 0 0.48034708381491198 0.034948034128253092 0 0.47531426236470969 0.01451181454414399 0 0.48034708381491198 0.034948034128253092 0 0.47531426236470969 0.01451181454414399 0 0.5 0.012488618380507851 0 0.48034708381491198 0.034948034128253092 0 0.5 0.039721854291140613 0 0.5 0.012488618380507851 0 0.47531426236470969 0.01451181454414399 0 0.5 0.012488618380507851 0 0.4801832208612436 -0.0047090021128772591 0 0.5 0.012488618380507851 0 0.5 -0.01474461753012501 0 0.4801832208612436 -0.0047090021128772591 0 0.45841687982412332 0.00049636743974199287 0 0.4801832208612436 -0.0047090021128772591 0 0.47108473289404429 -0.03007391443018587 0 0.5 -0.01474461753012501 0 0.4801832208612436 -0.0047090021128772591 0 0.47108473289404429 -0.03007391443018587 0 0.5 -0.01474461753012501 0 0.47108473289404429 -0.03007391443018587 0 0.5 -0.041977853440757829 0 0.47108473289404429 -0.03007391443018587 0 0.5 -0.041977853440757829 0 0.48253662891161958 -0.056236604121081238 0 0.5 -0.041977853440757829 0 0.48253662891161958 -0.056236604121081238 0 0.5 -0.069211089351390753 0 0.47108473289404429 -0.03007391443018587 0 0.48253662891161958 -0.056236604121081238 0 0.46048923690330901 -0.059821323650930742 0 0.47108473289404429 -0.03007391443018587 0 0.46048923690330901 -0.059821323650930742 0 0.43986929904587341 -0.039543807569720528 0 0.46048923690330901 -0.059821323650930742 0 0.43986929904587341 -0.039543807569720528 0 0.46048923690330901 -0.059821323650930742 0 0.43986929904587341 -0.039543807569720528 0 0.44198385973125498 -0.065355118595390893 0 0.47108473289404429 -0.03007391443018587 0 0.43986929904587341 -0.039543807569720528 0 0.4448777751075681 -0.0184870899376143 0 0.45841687982412332 0.00049636743974199287 0 0.4448777751075681 -0.0184870899376143 0 0.43576860258536171 -0.0040478036393969156 0 0.45841687982412332 0.00049636743974199287 0 0.47108473289404429 -0.03007391443018587 0 0.4448777751075681 -0.0184870899376143 0 0.47941067824463529 -0.1167009248676731 0 0.48581512777477492 -0.10870904986399441 0 0.46556981960316712 -0.1116646077835535 0 0.47941067824463529 -0.1167009248676731 0 0.45882135648927203 -0.12475628847417861 0 0.47941067824463529 -0.1167009248676731 0 0.48581512777477492 -0.10870904986399441 0 0.49999999999999889 -0.10864556126116801 0 0.47941067824463529 -0.1167009248676731 0 0.49999999999999889 -0.10864556126116801 0 0.48753298543211021 -0.12849596566764529 0 0.47941067824463529 -0.1167009248676731 0 0.49999999999999889 -0.10864556126116801 0 0.49999999999999889 -0.10864556126116801 0 0.5 -0.13554354747169189 0 0.48753298543211021 -0.12849596566764529 0 0.48581512777477492 -0.10870904986399441 0 0.49999999999999889 -0.10864556126116801 0 0.48920692529459009 -0.10117379623631551 0 0.50000000000000444 -0.096444325262023609 0 0.48920692529459009 -0.10117379623631551 0 0.4710125734035856 -0.090896248558075904 0 0.49999999999999889 -0.10864556126116801 0 0.50000000000000444 -0.096444325262023609 0 0.48920692529459009 -0.10117379623631551 0 0.48581512777477492 -0.10870904986399441 0 0.46392013729097048 -0.097028610859061948 0 0.48581512777477492 -0.10870904986399441 0 0.46392013729097048 -0.097028610859061948 0 0.46556981960316712 -0.1116646077835535 0 0.48581512777477492 -0.10870904986399441 0 0.4710125734035856 -0.090896248558075904 0 0.46392013729097048 -0.097028610859061948 0 0.48581512777477492 -0.10870904986399441 0 0.48920692529459009 -0.10117379623631551 0 0.4710125734035856 -0.090896248558075904 0 0.4710125734035856 -0.090896248558075904 0 0.48110917476074461 -0.080098839732141006 0 0.45979301957393143 -0.076956670270108621 0 0.50000000000000444 -0.096444325262023609 0 0.4710125734035856 -0.090896248558075904 0 0.48110917476074461 -0.080098839732141006 0 0.50000000000000444 -0.096444325262023609 0 0.4710125734035856 -0.090896248558075904 0 0.50000000000000444 -0.096444325262023609 0 0.48110917476074461 -0.080098839732141006 0 0.5 -0.069211089351390753 0 0.48253662891161958 -0.056236604121081238 0 0.48110917476074461 -0.080098839732141006 0 0.5 -0.069211089351390753 0 0.46048923690330901 -0.059821323650930742 0 0.48110917476074461 -0.080098839732141006 0 0.48253662891161958 -0.056236604121081238 0 0.46048923690330901 -0.059821323650930742 0 0.48110917476074461 -0.080098839732141006 0 0.46048923690330901 -0.059821323650930742 0 0.45979301957393143 -0.076956670270108621 0 0.44198385973125498 -0.065355118595390893 0 0.46048923690330901 -0.059821323650930742 0 0.48110917476074461 -0.080098839732141006 0 0.45979301957393143 -0.076956670270108621 0 0.45979301957393143 -0.076956670270108621 0 0.44198385973125498 -0.065355118595390893 0 0.44202514680716642 -0.085348171854129323 0 0.44202514680716642 -0.085348171854129323 0 0.46392013729097048 -0.097028610859061948 0 0.44585193193232658 -0.098661216773811039 0 0.44202514680716642 -0.085348171854129323 0 0.46392013729097048 -0.097028610859061948 0 0.4710125734035856 -0.090896248558075904 0 0.45979301957393143 -0.076956670270108621 0 0.44202514680716642 -0.085348171854129323 0 0.4710125734035856 -0.090896248558075904 0 0.44202514680716642 -0.085348171854129323 0 0.4710125734035856 -0.090896248558075904 0 0.44202514680716642 -0.085348171854129323 0 0.46392013729097048 -0.097028610859061948 0 0.46392013729097048 -0.097028610859061948 0 0.45369641337012712 -0.1055919377042404 0 0.44585193193232658 -0.098661216773811039 0 0.46392013729097048 -0.097028610859061948 0 0.45369641337012712 -0.1055919377042404 0 0.46556981960316712 -0.1116646077835535 0 0.44202514680716642 -0.085348171854129323 0 0.44585193193232658 -0.098661216773811039 0 0.43701916176789768 -0.099978805789651126 0 0.44585193193232658 -0.098661216773811039 0 0.44052138462077989 -0.10991350925183881 0 0.43701916176789768 -0.099978805789651126 0 0.45369641337012712 -0.1055919377042404 0 0.44585193193232658 -0.098661216773811039 0 0.44052138462077989 -0.10991350925183881 0 0.45369641337012712 -0.1055919377042404 0 0.45208545249219267 -0.1145656320610479 0 0.44052138462077989 -0.10991350925183881 0 0.45208545249219267 -0.1145656320610479 0 0.44181828837761739 -0.12090181709142819 0 0.45882135648927203 -0.12475628847417861 0 0.45208545249219267 -0.1145656320610479 0 0.44052138462077989 -0.10991350925183881 0 0.44181828837761739 -0.12090181709142819 0 0.47941067824463529 -0.1167009248676731 0 0.45882135648927203 -0.12475628847417861 0 0.46556981960316712 -0.1116646077835535 0 0.45208545249219267 -0.1145656320610479 0 0.45882135648927203 -0.12475628847417861 0 0.46556981960316712 -0.1116646077835535 0 0.45369641337012712 -0.1055919377042404 0 0.45208545249219267 -0.1145656320610479 0 0.46556981960316712 -0.1116646077835535 0 0.41373764731034451 -0.1220692672002454 0 0.42054080645364961 -0.1067138801738953 0 0.40808613665940369 -0.1012448607509213 0 0.41373764731034451 -0.1220692672002454 0 0.42983706614572692 -0.1184209845084489 0 0.42054080645364961 -0.1067138801738953 0 0.41373764731034451 -0.1220692672002454 0 0.42983706614572692 -0.1184209845084489 0 0.43823203473390859 -0.1328116520806841 0 0.44181828837761739 -0.12090181709142819 0 0.42983706614572692 -0.1184209845084489 0 0.43823203473390859 -0.1328116520806841 0 0.44052138462077989 -0.10991350925183881 0 0.44181828837761739 -0.12090181709142819 0 0.42983706614572692 -0.1184209845084489 0 0.44052138462077989 -0.10991350925183881 0 0.42983706614572692 -0.1184209845084489 0 0.43013200244639299 -0.1071830132300803 0 0.42983706614572692 -0.1184209845084489 0 0.43013200244639299 -0.1071830132300803 0 0.42054080645364961 -0.1067138801738953 0 0.43013200244639299 -0.1071830132300803 0 0.42656534303282212 -0.098788117838396389 0 0.42054080645364961 -0.1067138801738953 0 0.44052138462077989 -0.10991350925183881 0 0.43013200244639299 -0.1071830132300803 0 0.43701916176789768 -0.099978805789651126 0 0.43013200244639299 -0.1071830132300803 0 0.43701916176789768 -0.099978805789651126 0 0.42656534303282212 -0.098788117838396389 0 0.44202514680716642 -0.085348171854129323 0 0.43701916176789768 -0.099978805789651126 0 0.42656534303282212 -0.098788117838396389 0 0.42656534303282212 -0.098788117838396389 0 0.42054080645364961 -0.1067138801738953 0 0.42039618377841748 -0.09117777623943954 0 0.42054080645364961 -0.1067138801738953 0 0.40808613665940369 -0.1012448607509213 0 0.42039618377841748 -0.09117777623943954 0 0.42254896952373178 -0.081620509962213775 0 0.40307279224029707 -0.077892848070298504 0 0.41029240512411458 -0.088626076008967894 0 0.42254896952373178 -0.081620509962213775 0 0.40307279224029707 -0.077892848070298504 0 0.40808613665940369 -0.1012448607509213 0 0.41029240512411458 -0.088626076008967894 0 0.42039618377841748 -0.09117777623943954 0 0.41029240512411458 -0.088626076008967894 0 0.42039618377841748 -0.09117777623943954 0 0.42254896952373178 -0.081620509962213775 0 0.44202514680716642 -0.085348171854129323 0 0.42254896952373178 -0.081620509962213775 0 0.44202514680716642 -0.085348171854129323 0 0.4223522357537679 -0.074853157582319155 0 0.44202514680716642 -0.085348171854129323 0 0.42254896952373178 -0.081620509962213775 0 0.4223522357537679 -0.074853157582319155 0 0.44202514680716642 -0.085348171854129323 0 0.42656534303282212 -0.098788117838396389 0 0.42039618377841748 -0.09117777623943954 0 0.44202514680716642 -0.085348171854129323 0 0.42039618377841748 -0.09117777623943954 0 0.42254896952373178 -0.081620509962213775 0 0.44198385973125498 -0.065355118595390893 0 0.4223522357537679 -0.074853157582319155 0 0.42737422030348221 -0.055607580645137267 0 0.44198385973125498 -0.065355118595390893 0 0.44202514680716642 -0.085348171854129323 0 0.4223522357537679 -0.074853157582319155 0 0.42254896952373178 -0.081620509962213775 0 0.4223522357537679 -0.074853157582319155 0 0.40307279224029707 -0.077892848070298504 0 0.4223522357537679 -0.074853157582319155 0 0.4026793247003696 -0.06435814331050875 0 0.4223522357537679 -0.074853157582319155 0 0.4026793247003696 -0.06435814331050875 0 0.40307279224029707 -0.077892848070298504 0 0.4223522357537679 -0.074853157582319155 0 0.4026793247003696 -0.06435814331050875 0 0.41194842530669012 -0.056658231527798059 0 0.4026793247003696 -0.06435814331050875 0 0.39350684039098011 -0.073296382136974467 0 0.38300641364697091 -0.053863129038698998 0 0.4026793247003696 -0.06435814331050875 0 0.40307279224029707 -0.077892848070298504 0 0.39350684039098011 -0.073296382136974467 0 0.38141772794853901 -0.079173405243398443 0 0.38300641364697091 -0.053863129038698998 0 0.36214035275928308 -0.065996463729409025 0 0.39350684039098011 -0.073296382136974467 0 0.38141772794853901 -0.079173405243398443 0 0.38300641364697091 -0.053863129038698998 0 0.38141772794853901 -0.079173405243398443 0 0.38743973528702491 -0.1082898974871591 0 0.36962333791657892 -0.086034731535610073 0 0.38141772794853901 -0.079173405243398443 0 0.39732971018216012 -0.089609109474850845 0 0.38743973528702491 -0.1082898974871591 0 0.40307279224029707 -0.077892848070298504 0 0.39350684039098011 -0.073296382136974467 0 0.39732971018216012 -0.089609109474850845 0 0.39350684039098011 -0.073296382136974467 0 0.38141772794853901 -0.079173405243398443 0 0.39732971018216012 -0.089609109474850845 0 0.41029240512411458 -0.088626076008967894 0 0.40307279224029707 -0.077892848070298504 0 0.39732971018216012 -0.089609109474850845 0 0.40808613665940369 -0.1012448607509213 0 0.41029240512411458 -0.088626076008967894 0 0.39732971018216012 -0.089609109474850845 0 0.40808613665940369 -0.1012448607509213 0 0.39732971018216012 -0.089609109474850845 0 0.38743973528702491 -0.1082898974871591 0 0.38743973528702491 -0.1082898974871591 0 0.37703720537808599 -0.1247359663996551 0 0.3932756096575768 -0.1305698078466809 0 0.38743973528702491 -0.1082898974871591 0 0.37703720537808599 -0.1247359663996551 0 0.36866930740217269 -0.1138365897565109 0 0.41373764731034451 -0.1220692672002454 0 0.38743973528702491 -0.1082898974871591 0 0.41373764731034451 -0.1220692672002454 0 0.40808613665940369 -0.1012448607509213 0 0.38743973528702491 -0.1082898974871591 0 0.41373764731034451 -0.1220692672002454 0 0.38743973528702491 -0.1082898974871591 0 0.3932756096575768 -0.1305698078466809 0 0.41924936118843759 -0.019266291488510189 0 0.4183721754162279 -0.038363938990582103 0 0.40285660122387262 -0.018903707878174251 0 0.4183721754162279 -0.038363938990582103 0 0.39969295539447369 -0.03499238063873672 0 0.40285660122387262 -0.018903707878174251 0 0.39862942333100188 0.0010112245927001581 0 0.41924936118843759 -0.019266291488510189 0 0.4173668989579587 -0.00028581009173609599 0 0.39862942333100188 0.0010112245927001581 0 0.41924936118843759 -0.019266291488510189 0 0.40285660122387262 -0.018903707878174251 0 0.39862942333100188 0.0010112245927001581 0 0.41924936118843759 -0.019266291488510189 0 0.4448777751075681 -0.0184870899376143 0 0.41924936118843759 -0.019266291488510189 0 0.43576860258536171 -0.0040478036393969156 0 0.41924936118843759 -0.019266291488510189 0 0.4173668989579587 -0.00028581009173609599 0 0.43576860258536171 -0.0040478036393969156 0 0.43986929904587341 -0.039543807569720528 0 0.41924936118843759 -0.019266291488510189 0 0.43986929904587341 -0.039543807569720528 0 0.4448777751075681 -0.0184870899376143 0 0.41924936118843759 -0.019266291488510189 0 0.43986929904587341 -0.039543807569720528 0 0.41924936118843759 -0.019266291488510189 0 0.4183721754162279 -0.038363938990582103 0 0.43986929904587341 -0.039543807569720528 0 0.42737422030348221 -0.055607580645137267 0 0.4183721754162279 -0.038363938990582103 0 0.43986929904587341 -0.039543807569720528 0 0.44198385973125498 -0.065355118595390893 0 0.42737422030348221 -0.055607580645137267 0 0.4223522357537679 -0.074853157582319155 0 0.42737422030348221 -0.055607580645137267 0 0.41194842530669012 -0.056658231527798059 0 0.42737422030348221 -0.055607580645137267 0 0.41194842530669012 -0.056658231527798059 0 0.4183721754162279 -0.038363938990582103 0 0.41194842530669012 -0.056658231527798059 0 0.4183721754162279 -0.038363938990582103 0 0.39969295539447369 -0.03499238063873672 0 0.41194842530669012 -0.056658231527798059 0 0.39969295539447369 -0.03499238063873672 0 0.39969295539447369 -0.03499238063873672 0 0.39259494655320881 -0.043741933449117788 0 0.38264480372436688 -0.040874105219984178 0 0.39969295539447369 -0.03499238063873672 0 0.39259494655320881 -0.043741933449117788 0 0.3999680248883653 -0.050054749834470523 0 0.41194842530669012 -0.056658231527798059 0 0.39969295539447369 -0.03499238063873672 0 0.3999680248883653 -0.050054749834470523 0 0.4026793247003696 -0.06435814331050875 0 0.38300641364697091 -0.053863129038698998 0 0.38628805032115449 -0.051954901303936062 0 0.4026793247003696 -0.06435814331050875 0 0.38300641364697091 -0.053863129038698998 0 0.4026793247003696 -0.06435814331050875 0 0.39538258661577452 -0.052527431974508272 0 0.38628805032115449 -0.051954901303936062 0 0.4026793247003696 -0.06435814331050875 0 0.41194842530669012 -0.056658231527798059 0 0.3999680248883653 -0.050054749834470523 0 0.4026793247003696 -0.06435814331050875 0 0.3999680248883653 -0.050054749834470523 0 0.39538258661577452 -0.052527431974508272 0 0.39259494655320881 -0.043741933449117788 0 0.3999680248883653 -0.050054749834470523 0 0.39538258661577452 -0.052527431974508272 0 0.39259494655320881 -0.043741933449117788 0 0.39538258661577452 -0.052527431974508272 0 0.38628805032115449 -0.051954901303936062 0 0.39259494655320881 -0.043741933449117788 0 0.38628805032115449 -0.051954901303936062 0 0.3814478681873244 -0.047406972947448618 0 0.38300641364697091 -0.053863129038698998 0 0.38628805032115449 -0.051954901303936062 0 0.3814478681873244 -0.047406972947448618 0 0.38300641364697091 -0.053863129038698998 0 0.38628805032115449 -0.051954901303936062 0 0.38300641364697091 -0.053863129038698998 0 0.3814478681873244 -0.047406972947448618 0 0.37474443767629761 -0.049455568028016282 0 0.38300641364697091 -0.053863129038698998 0 0.37474443767629761 -0.049455568028016282 0 0.39969295539447369 -0.03499238063873672 0 0.38264480372436688 -0.040874105219984178 0 0.37783553644702311 -0.030247335443885401 0 0.39259494655320881 -0.043741933449117788 0 0.3814478681873244 -0.047406972947448618 0 0.38264480372436688 -0.040874105219984178 0 0.3814478681873244 -0.047406972947448618 0 0.38264480372436688 -0.040874105219984178 0 0.37427460669342077 -0.041095631947204267 0 0.3814478681873244 -0.047406972947448618 0 0.37427460669342077 -0.041095631947204267 0 0.37474443767629761 -0.049455568028016282 0 0.38264480372436688 -0.040874105219984178 0 0.37783553644702311 -0.030247335443885401 0 0.37427460669342077 -0.041095631947204267 0 0.37783553644702311 -0.030247335443885401 0 0.38743748548225732 -0.013326529749675331 0 0.37110418972082432 -0.02005959253329823 0 0.39969295539447369 -0.03499238063873672 0 0.37783553644702311 -0.030247335443885401 0 0.38743748548225732 -0.013326529749675331 0 0.39969295539447369 -0.03499238063873672 0 0.38743748548225732 -0.013326529749675331 0 0.39969295539447369 -0.03499238063873672 0 0.40285660122387262 -0.018903707878174251 0 0.38743748548225732 -0.013326529749675331 0 0.39862942333100188 0.0010112245927001581 0 0.38926535321639671 0.01048302995541636 0 0.38743748548225732 -0.013326529749675331 0 0.39862942333100188 0.0010112245927001581 0 0.40285660122387262 -0.018903707878174251 0 0.38743748548225732 -0.013326529749675331 0 0.37518201557004099 0.0083393211393859926 0 0.38743748548225732 -0.013326529749675331 0 0.38743748548225732 -0.013326529749675331 0 0.36826171176772288 -0.0081843471275536445 0 0.37110418972082432 -0.02005959253329823 0 0.37518201557004099 0.0083393211393859926 0 0.38743748548225732 -0.013326529749675331 0 0.36826171176772288 -0.0081843471275536445 0 0.37783553644702311 -0.030247335443885401 0 0.37110418972082432 -0.02005959253329823 0 0.36572382980767659 -0.0364609035525209 0 0.37110418972082432 -0.02005959253329823 0 0.35948002924833322 -0.023798580052705121 0 0.36572382980767659 -0.0364609035525209 0 0.36826171176772288 -0.0081843471275536445 0 0.37110418972082432 -0.02005959253329823 0 0.35948002924833322 -0.023798580052705121 0 0.35948002924833322 -0.023798580052705121 0 0.3441378077145138 -0.02460558063271609 0 0.35406109038186739 -0.033600134464977033 0 0.35948002924833322 -0.023798580052705121 0 0.3441378077145138 -0.02460558063271609 0 0.35036062941849011 -0.0090600746860207641 0 0.3441378077145138 -0.02460558063271609 0 0.35036062941849011 -0.0090600746860207641 0 0.33978454952775039 -0.013379629828006881 0 0.36826171176772288 -0.0081843471275536445 0 0.35948002924833322 -0.023798580052705121 0 0.35036062941849011 -0.0090600746860207641 0 0.34617030676744248 0.0079747692904741565 0 0.35036062941849011 -0.0090600746860207641 0 0.33583525833053052 -0.0026513136738154841 0 0.35895128437477569 0.0022124844517259442 0 0.36826171176772288 -0.0081843471275536445 0 0.35036062941849011 -0.0090600746860207641 0 0.33583525833053052 -0.0026513136738154841 0 0.33978454952775039 -0.013379629828006881 0 0.32880450264746752 -0.017201550319475178 0 0.35036062941849011 -0.0090600746860207641 0 0.33583525833053052 -0.0026513136738154841 0 0.33978454952775039 -0.013379629828006881 0 0.3441378077145138 -0.02460558063271609 0 0.33978454952775039 -0.013379629828006881 0 0.32880450264746752 -0.017201550319475178 0 0.32880450264746752 -0.017201550319475178 0 0.32273694048436907 -0.026239988389368089 0 0.33296109905551002 -0.037510966353022847 0 0.32880450264746752 -0.017201550319475178 0 0.33296109905551002 -0.037510966353022847 0 0.3441378077145138 -0.02460558063271609 0 0.32880450264746752 -0.017201550319475178 0 0.33296109905551002 -0.037510966353022847 0 0.31614278438528071 -0.017114369572430621 0 0.31509008874025329 -0.040092409070113563 0 0.32273694048436907 -0.026239988389368089 0 0.31614278438528071 -0.017114369572430621 0 0.31509008874025329 -0.040092409070113563 0 0.32880450264746752 -0.017201550319475178 0 0.32273694048436907 -0.026239988389368089 0 0.31614278438528071 -0.017114369572430621 0 0.31614278438528071 -0.017114369572430621 0 0.31509008874025329 -0.040092409070113563 0 0.30833203850250029 -0.03048150195009337 0 0.31719548003030912 0.0058636699252523003 0 0.31614278438528071 -0.017114369572430621 0 0.31719548003030912 0.0058636699252523003 0 0.31614278438528071 -0.017114369572430621 0 0.30563710767018037 -0.0051413574210867992 0 0.31719548003030912 0.0058636699252523003 0 0.33583525833053052 -0.0026513136738154841 0 0.32880450264746752 -0.017201550319475178 0 0.31719548003030912 0.0058636699252523003 0 0.32880450264746752 -0.017201550319475178 0 0.31614278438528071 -0.017114369572430621 0 0.31509008874025329 -0.040092409070113563 0 0.31387276780925011 -0.066663857870179505 0 0.32449328523390081 -0.047256544700017153 0 0.31509008874025329 -0.040092409070113563 0 0.31387276780925011 -0.066663857870179505 0 0.32449328523390081 -0.047256544700017153 0 0.33711769546355241 -0.057820382386570522 0 0.31387276780925011 -0.066663857870179505 0 0.31509008874025329 -0.040092409070113563 0 0.32342477510093792 -0.0341951078201993 0 0.32273694048436907 -0.026239988389368089 0 0.32342477510093792 -0.0341951078201993 0 0.33296109905551002 -0.037510966353022847 0 0.32273694048436907 -0.026239988389368089 0 0.31509008874025329 -0.040092409070113563 0 0.32342477510093792 -0.0341951078201993 0 0.32449328523390081 -0.047256544700017153 0 0.31509008874025329 -0.040092409070113563 0 0.32342477510093792 -0.0341951078201993 0 0.32449328523390081 -0.047256544700017153 0 0.32342477510093792 -0.0341951078201993 0 0.33296109905551002 -0.037510966353022847 0 0.33296109905551002 -0.037510966353022847 0 0.33711769546355241 -0.057820382386570522 0 0.34481386544436943 -0.037479584161844597 0 0.3441378077145138 -0.02460558063271609 0 0.33296109905551002 -0.037510966353022847 0 0.34481386544436943 -0.037479584161844597 0 0.33296109905551002 -0.037510966353022847 0 0.33711769546355241 -0.057820382386570522 0 0.32449328523390081 -0.047256544700017153 0 0.33296109905551002 -0.037510966353022847 0 0.33711769546355241 -0.057820382386570522 0 0.33711769546355241 -0.057820382386570522 0 0.35161824374147638 -0.059223792495509332 0 0.35368554891359788 -0.045321463033488399 0 0.35161824374147638 -0.059223792495509332 0 0.36387332969935399 -0.048850854907960872 0 0.36214035275928308 -0.065996463729409025 0 0.35161824374147638 -0.059223792495509332 0 0.35368554891359788 -0.045321463033488399 0 0.36387332969935399 -0.048850854907960872 0 0.33711769546355241 -0.057820382386570522 0 0.34481386544436943 -0.037479584161844597 0 0.35368554891359788 -0.045321463033488399 0 0.34481386544436943 -0.037479584161844597 0 0.35368554891359788 -0.045321463033488399 0 0.35406109038186739 -0.033600134464977033 0 0.3441378077145138 -0.02460558063271609 0 0.34481386544436943 -0.037479584161844597 0 0.35406109038186739 -0.033600134464977033 0 0.35368554891359788 -0.045321463033488399 0 0.35406109038186739 -0.033600134464977033 0 0.36572382980767659 -0.0364609035525209 0 0.35948002924833322 -0.023798580052705121 0 0.35406109038186739 -0.033600134464977033 0 0.36572382980767659 -0.0364609035525209 0 0.35368554891359788 -0.045321463033488399 0 0.36572382980767659 -0.0364609035525209 0 0.36387332969935399 -0.048850854907960872 0 0.36572382980767659 -0.0364609035525209 0 0.37427460669342077 -0.041095631947204267 0 0.36387332969935399 -0.048850854907960872 0 0.37427460669342077 -0.041095631947204267 0 0.36387332969935399 -0.048850854907960872 0 0.37474443767629761 -0.049455568028016282 0 0.37783553644702311 -0.030247335443885401 0 0.36572382980767659 -0.0364609035525209 0 0.37427460669342077 -0.041095631947204267 0 0.38300641364697091 -0.053863129038698998 0 0.37474443767629761 -0.049455568028016282 0 0.36214035275928308 -0.065996463729409025 0 0.36387332969935399 -0.048850854907960872 0 0.37474443767629761 -0.049455568028016282 0 0.36214035275928308 -0.065996463729409025 0 0.38300641364697091 -0.053863129038698998 0 0.36214035275928308 -0.065996463729409025 0 0.38141772794853901 -0.079173405243398443 0 0.36214035275928308 -0.065996463729409025 0 0.36962333791657892 -0.086034731535610073 0 0.36214035275928308 -0.065996463729409025 0 0.36962333791657892 -0.086034731535610073 0 0.35597705032434251 -0.082203363444010968 0 0.36962333791657892 -0.086034731535610073 0 0.35597705032434251 -0.082203363444010968 0 0.36114182326370509 -0.094510527774072761 0 0.35597705032434251 -0.082203363444010968 0 0.36114182326370509 -0.094510527774072761 0 0.34542596352804861 -0.098415151778568688 0 0.35597705032434251 -0.082203363444010968 0 0.34542596352804861 -0.098415151778568688 0 0.34127429187159469 -0.078129798420118218 0 0.35161824374147638 -0.059223792495509332 0 0.36214035275928308 -0.065996463729409025 0 0.34127429187159469 -0.078129798420118218 0 0.36214035275928308 -0.065996463729409025 0 0.34127429187159469 -0.078129798420118218 0 0.36214035275928308 -0.065996463729409025 0 0.35597705032434251 -0.082203363444010968 0 0.34127429187159469 -0.078129798420118218 0 0.37703720537808599 -0.1247359663996551 0 0.36138829109528031 -0.12258048361298619 0 0.36866930740217269 -0.1138365897565109 0 0.36138829109528031 -0.12258048361298619 0 0.36866930740217269 -0.1138365897565109 0 0.35508295936408169 -0.11031595541683981 0 0.38743973528702491 -0.1082898974871591 0 0.36962333791657892 -0.086034731535610073 0 0.36114182326370509 -0.094510527774072761 0 0.38743973528702491 -0.1082898974871591 0 0.36866930740217269 -0.1138365897565109 0 0.36114182326370509 -0.094510527774072761 0 0.38743973528702491 -0.1082898974871591 0 0.36114182326370509 -0.094510527774072761 0 0.36866930740217269 -0.1138365897565109 0 0.36114182326370509 -0.094510527774072761 0 0.35508295936408169 -0.11031595541683981 0 0.36114182326370509 -0.094510527774072761 0 0.34542596352804861 -0.098415151778568688 0 0.35508295936408169 -0.11031595541683981 0 0.34542596352804861 -0.098415151778568688 0 0.35508295936408169 -0.11031595541683981 0 0.34270336738412438 -0.1082661642784276 0 0.34839000325075292 -0.11698576293455069 0 0.33112904011136812 -0.1131712867281497 0 0.35213791768788111 -0.13009706645683061 0 0.36138829109528031 -0.12258048361298619 0 0.35508295936408169 -0.11031595541683981 0 0.34839000325075292 -0.11698576293455069 0 0.35508295936408169 -0.11031595541683981 0 0.34839000325075292 -0.11698576293455069 0 0.34270336738412438 -0.1082661642784276 0 0.36138829109528031 -0.12258048361298619 0 0.34839000325075292 -0.11698576293455069 0 0.35213791768788111 -0.13009706645683061 0 0.33112904011136812 -0.1131712867281497 0 0.32870681115801342 -0.1255466958402357 0 0.35213791768788111 -0.13009706645683061 0 0.33112904011136812 -0.1131712867281497 0 0.35213791768788111 -0.13009706645683061 0 0.34839000325075292 -0.11698576293455069 0 0.33112904011136812 -0.1131712867281497 0 0.34270336738412438 -0.1082661642784276 0 0.33112904011136812 -0.1131712867281497 0 0.34270336738412438 -0.1082661642784276 0 0.33225288091815308 -0.098164795756430515 0 0.34542596352804861 -0.098415151778568688 0 0.34270336738412438 -0.1082661642784276 0 0.33225288091815308 -0.098164795756430515 0 0.33225288091815308 -0.098164795756430515 0 0.32569722720322442 -0.087187652709791924 0 0.31012016253485553 -0.096245506999468072 0 0.33112904011136812 -0.1131712867281497 0 0.31012016253485553 -0.096245506999468072 0 0.33112904011136812 -0.1131712867281497 0 0.33225288091815308 -0.098164795756430515 0 0.31012016253485553 -0.096245506999468072 0 0.33112904011136812 -0.1131712867281497 0 0.31050271753124331 -0.1112628432300147 0 0.31012016253485553 -0.096245506999468072 0 0.31050271753124331 -0.1112628432300147 0 0.31376079479518021 -0.1252766010751121 0 0.32870681115801342 -0.1255466958402357 0 0.31050271753124331 -0.1112628432300147 0 0.32870681115801342 -0.1255466958402357 0 0.33112904011136812 -0.1131712867281497 0 0.31050271753124331 -0.1112628432300147 0 0.32870681115801342 -0.1255466958402357 0 0.33711769546355241 -0.057820382386570522 0 0.35161824374147638 -0.059223792495509332 0 0.34127429187159469 -0.078129798420118218 0 0.33711769546355241 -0.057820382386570522 0 0.34127429187159469 -0.078129798420118218 0 0.33711769546355241 -0.057820382386570522 0 0.32949049558690541 -0.072450422846664947 0 0.34127429187159469 -0.078129798420118218 0 0.34542596352804861 -0.098415151778568688 0 0.33225288091815308 -0.098164795756430515 0 0.34127429187159469 -0.078129798420118218 0 0.34542596352804861 -0.098415151778568688 0 0.34127429187159469 -0.078129798420118218 0 0.33225288091815308 -0.098164795756430515 0 0.34127429187159469 -0.078129798420118218 0 0.32569722720322442 -0.087187652709791924 0 0.32949049558690541 -0.072450422846664947 0 0.34127429187159469 -0.078129798420118218 0 0.32569722720322442 -0.087187652709791924 0 0.34127429187159469 -0.078129798420118218 0 0.32569722720322442 -0.087187652709791924 0 0.32569722720322442 -0.087187652709791924 0 0.31265544687824792 -0.093235306670245488 0 0.31387276780925011 -0.066663857870179505 0 0.31265544687824792 -0.093235306670245488 0 0.31387276780925011 -0.066663857870179505 0 0.32569722720322442 -0.087187652709791924 0 0.31265544687824792 -0.093235306670245488 0 0.31012016253485553 -0.096245506999468072 0 0.32569722720322442 -0.087187652709791924 0 0.31012016253485553 -0.096245506999468072 0 0.32949049558690541 -0.072450422846664947 0 0.32569722720322442 -0.087187652709791924 0 0.31387276780925011 -0.066663857870179505 0 0.33711769546355241 -0.057820382386570522 0 0.32949049558690541 -0.072450422846664947 0 0.31387276780925011 -0.066663857870179505 0 0.31387276780925011 -0.066663857870179505 0 0.29187759288028942 -0.071217120849645488 0 0.29401840051422151 -0.055001919510647708 0 0.31387276780925011 -0.066663857870179505 0 0.30428218507989402 -0.081944354625732477 0 0.29187759288028942 -0.071217120849645488 0 0.30428218507989402 -0.081944354625732477 0 0.29288495529682868 -0.08235998073912594 0 0.31012016253485553 -0.096245506999468072 0 0.29288495529682868 -0.08235998073912594 0 0.31012016253485553 -0.096245506999468072 0 0.31265544687824792 -0.093235306670245488 0 0.31387276780925011 -0.066663857870179505 0 0.30428218507989402 -0.081944354625732477 0 0.31265544687824792 -0.093235306670245488 0 0.30428218507989402 -0.081944354625732477 0 0.31012016253485553 -0.096245506999468072 0 0.30428218507989402 -0.081944354625732477 0 0.29288495529682868 -0.08235998073912594 0 0.29187759288028942 -0.071217120849645488 0 0.29288495529682868 -0.08235998073912594 0 0.28098938211406937 -0.080266646318752494 0 0.27882221440862298 -0.092816054843718174 0 0.29187759288028942 -0.071217120849645488 0 0.27294671228818979 -0.069911429951181964 0 0.28098938211406937 -0.080266646318752494 0 0.29288495529682868 -0.08235998073912594 0 0.29187759288028942 -0.071217120849645488 0 0.28098938211406937 -0.080266646318752494 0 0.29187759288028942 -0.071217120849645488 0 0.27294671228818979 -0.069911429951181964 0 0.29401840051422151 -0.055001919510647708 0 0.30190344767581262 -0.1210076002263986 0 0.31050271753124331 -0.1112628432300147 0 0.28827536746745991 -0.1089479624954636 0 0.30190344767581262 -0.1210076002263986 0 0.31050271753124331 -0.1112628432300147 0 0.31376079479518021 -0.1252766010751121 0 0.31012016253485553 -0.096245506999468072 0 0.28827536746745991 -0.1089479624954636 0 0.31050271753124331 -0.1112628432300147 0 0.31012016253485553 -0.096245506999468072 0 0.28827536746745991 -0.1089479624954636 0 0.29288495529682868 -0.08235998073912594 0 0.31012016253485553 -0.096245506999468072 0 0.28827536746745991 -0.1089479624954636 0 0.29288495529682868 -0.08235998073912594 0 0.28827536746745991 -0.1089479624954636 0 0.27882221440862298 -0.092816054843718174 0 0.30190344767581262 -0.1210076002263986 0 0.28827536746745991 -0.1089479624954636 0 0.29082464865131769 -0.12655161363787029 0 0.28827536746745991 -0.1089479624954636 0 0.26643057240006529 -0.12165041799146099 0 0.29082464865131769 -0.12655161363787029 0 0.28827536746745991 -0.1089479624954636 0 0.26643057240006529 -0.12165041799146099 0 0.26388415910464069 -0.10014586046899911 0 0.28827536746745991 -0.1089479624954636 0 0.26643057240006529 -0.12165041799146099 0 0.28827536746745991 -0.1089479624954636 0 0.26388415910464069 -0.10014586046899911 0 0.27882221440862298 -0.092816054843718174 0 0.25460912307471922 -0.1079661395208884 0 0.262283005957342 -0.086624060995101254 0 0.25388400009878898 -0.091752538450718679 0 0.25460912307471922 -0.1079661395208884 0 0.25388400009878898 -0.091752538450718679 0 0.24757665490382699 -0.095280823708961432 0 0.26388415910464069 -0.10014586046899911 0 0.25460912307471922 -0.1079661395208884 0 0.262283005957342 -0.086624060995101254 0 0.25460912307471922 -0.1079661395208884 0 0.262283005957342 -0.086624060995101254 0 0.26388415910464069 -0.10014586046899911 0 0.25460912307471922 -0.1079661395208884 0 0.25381727155527312 -0.11530888960249901 0 0.26643057240006529 -0.12165041799146099 0 0.26388415910464069 -0.10014586046899911 0 0.26643057240006529 -0.12165041799146099 0 0.26388415910464069 -0.10014586046899911 0 0.2565434503154041 -0.12463588500673151 0 0.26388415910464069 -0.10014586046899911 0 0.25381727155527312 -0.11530888960249901 0 0.2565434503154041 -0.12463588500673151 0 0.26388415910464069 -0.10014586046899911 0 0.2565434503154041 -0.12463588500673151 0 0.25460912307471922 -0.1079661395208884 0 0.25381727155527312 -0.11530888960249901 0 0.24187640099909399 -0.1157802675365063 0 0.25381727155527312 -0.11530888960249901 0 0.2565434503154041 -0.12463588500673151 0 0.24880922466885569 -0.122664717008275 0 0.26670407869831508 -0.074328475689816556 0 0.27294671228818979 -0.069911429951181964 0 0.2757183962773645 -0.049258471811582653 0 0.26670407869831508 -0.074328475689816556 0 0.27294671228818979 -0.069911429951181964 0 0.26841543569641529 -0.085028645210090514 0 0.27294671228818979 -0.069911429951181964 0 0.26841543569641529 -0.085028645210090514 0 0.26670407869831508 -0.074328475689816556 0 0.27294671228818979 -0.069911429951181964 0 0.27294671228818979 -0.069911429951181964 0 0.28098938211406937 -0.080266646318752494 0 0.26841543569641529 -0.085028645210090514 0 0.28098938211406937 -0.080266646318752494 0 0.27882221440862298 -0.092816054843718174 0 0.26841543569641529 -0.085028645210090514 0 0.26388415910464069 -0.10014586046899911 0 0.27882221440862298 -0.092816054843718174 0 0.26841543569641529 -0.085028645210090514 0 0.26388415910464069 -0.10014586046899911 0 0.26841543569641529 -0.085028645210090514 0 0.26670407869831508 -0.074328475689816556 0 0.26841543569641529 -0.085028645210090514 0 0.262283005957342 -0.086624060995101254 0 0.26128138827324499 -0.078165361403059797 0 0.262283005957342 -0.086624060995101254 0 0.25976599615695839 -0.079237594170406767 0 0.26128138827324499 -0.078165361403059797 0 0.262283005957342 -0.086624060995101254 0 0.26670407869831508 -0.074328475689816556 0 0.26128138827324499 -0.078165361403059797 0 0.262283005957342 -0.086624060995101254 0 0.26670407869831508 -0.074328475689816556 0 0.262283005957342 -0.086624060995101254 0 0.25976599615695839 -0.079237594170406767 0 0.262283005957342 -0.086624060995101254 0 0.25582253354189638 -0.083560275845364754 0 0.25976599615695839 -0.079237594170406767 0 0.26128138827324499 -0.078165361403059797 0 0.26388415910464069 -0.10014586046899911 0 0.262283005957342 -0.086624060995101254 0 0.26388415910464069 -0.10014586046899911 0 0.26841543569641529 -0.085028645210090514 0 0.262283005957342 -0.086624060995101254 0 0.262283005957342 -0.086624060995101254 0 0.25388400009878898 -0.091752538450718679 0 0.25582253354189638 -0.083560275845364754 0 0.25388400009878898 -0.091752538450718679 0 0.25582253354189638 -0.083560275845364754 0 0.2491286830161604 -0.08533139218327758 0 0.25388400009878898 -0.091752538450718679 0 0.2491286830161604 -0.08533139218327758 0 0.24757665490382699 -0.095280823708961432 0 0.25582253354189638 -0.083560275845364754 0 0.25230875027751692 -0.074521009261218005 0 0.2491286830161604 -0.08533139218327758 0 0.25976599615695839 -0.079237594170406767 0 0.25582253354189638 -0.083560275845364754 0 0.25230875027751692 -0.074521009261218005 0 0.26670407869831508 -0.074328475689816556 0 0.26044575534213532 -0.071108409388625352 0 0.26426812969508218 -0.058268138077039761 0 0.25230875027751692 -0.074521009261218005 0 0.25787068330693852 -0.075355236662677655 0 0.26044575534213532 -0.071108409388625352 0 0.25976599615695839 -0.079237594170406767 0 0.25230875027751692 -0.074521009261218005 0 0.25787068330693852 -0.075355236662677655 0 0.26128138827324499 -0.078165361403059797 0 0.26044575534213532 -0.071108409388625352 0 0.26128138827324499 -0.078165361403059797 0 0.25787068330693852 -0.075355236662677655 0 0.26044575534213532 -0.071108409388625352 0 0.25976599615695839 -0.079237594170406767 0 0.26128138827324499 -0.078165361403059797 0 0.25787068330693852 -0.075355236662677655 0 0.26670407869831508 -0.074328475689816556 0 0.26128138827324499 -0.078165361403059797 0 0.26044575534213532 -0.071108409388625352 0 0.26670407869831508 -0.074328475689816556 0 0.26128138827324499 -0.078165361403059797 0 0.26044575534213532 -0.071108409388625352 0 0.25073443116223543 -0.064105873279468886 0 0.26426812969508218 -0.058268138077039761 0 0.25230875027751692 -0.074521009261218005 0 0.26044575534213532 -0.071108409388625352 0 0.25073443116223543 -0.064105873279468886 0 0.25073443116223543 -0.064105873279468886 0 0.25365537509746539 -0.050099484109068428 0 0.26426812969508218 -0.058268138077039761 0 0.25365537509746539 -0.050099484109068428 0 0.26426812969508218 -0.058268138077039761 0 0.26155705109453969 -0.043799516583882731 0 0.27294671228818979 -0.069911429951181964 0 0.2778899221195455 -0.053419925718978932 0 0.28151163237704818 -0.060360474161825002 0 0.26670407869831508 -0.074328475689816556 0 0.26426812969508218 -0.058268138077039761 0 0.2757183962773645 -0.049258471811582653 0 0.27294671228818979 -0.069911429951181964 0 0.2778899221195455 -0.053419925718978932 0 0.26670407869831508 -0.074328475689816556 0 0.2757183962773645 -0.049258471811582653 0 0.27294671228818979 -0.069911429951181964 0 0.2757183962773645 -0.049258471811582653 0 0.2778899221195455 -0.053419925718978932 0 0.26426812969508218 -0.058268138077039761 0 0.2757183962773645 -0.049258471811582653 0 0.26155705109453969 -0.043799516583882731 0 0.2757183962773645 -0.049258471811582653 0 0.2778899221195455 -0.053419925718978932 0 0.2778899221195455 -0.053419925718978932 0 0.28151163237704818 -0.060360474161825002 0 0.2778899221195455 -0.053419925718978932 0 0.28298415661394283 -0.036424573996038913 0 0.2757183962773645 -0.049258471811582653 0 0.2639837380733267 -0.026770487424477289 0 0.2757183962773645 -0.049258471811582653 0 0.2778899221195455 -0.053419925718978932 0 0.28298415661394283 -0.036424573996038913 0 0.2757183962773645 -0.049258471811582653 0 0.2639837380733267 -0.026770487424477289 0 0.28355318785801892 -0.02746888501372638 0 0.2757183962773645 -0.049258471811582653 0 0.26155705109453969 -0.043799516583882731 0 0.2639837380733267 -0.026770487424477289 0 0.2757183962773645 -0.049258471811582653 0 0.28355318785801892 -0.02746888501372638 0 0.2757183962773645 -0.049258471811582653 0 0.28355318785801892 -0.02746888501372638 0 0.28298415661394283 -0.036424573996038913 0 0.26155705109453969 -0.043799516583882731 0 0.2639837380733267 -0.026770487424477289 0 0.24900823948062889 -0.034363300222288069 0 0.25365537509746539 -0.050099484109068428 0 0.26155705109453969 -0.043799516583882731 0 0.24900823948062889 -0.034363300222288069 0 0.2639837380733267 -0.026770487424477289 0 0.25224907986928918 -0.004282503037371696 0 0.24900823948062889 -0.034363300222288069 0 0.2639837380733267 -0.026770487424477289 0 0.25224907986928918 -0.004282503037371696 0 0.27195826076892099 -0.01531995135535626 0 0.2639837380733267 -0.026770487424477289 0 0.25224907986928918 -0.004282503037371696 0 0.25224907986928918 -0.004282503037371696 0 0.27195826076892099 -0.01531995135535626 0 0.27482828377235008 -0.0026106230468389432 0 0.27195826076892099 -0.01531995135535626 0 0.27482828377235008 -0.0026106230468389432 0 0.2851770142716204 -0.01546725825436699 0 0.2639837380733267 -0.026770487424477289 0 0.27195826076892099 -0.01531995135535626 0 0.28355318785801892 -0.02746888501372638 0 0.27195826076892099 -0.01531995135535626 0 0.28355318785801892 -0.02746888501372638 0 0.2851770142716204 -0.01546725825436699 0 0.28355318785801892 -0.02746888501372638 0 0.29371221502355721 -0.024059475966728899 0 0.2851770142716204 -0.01546725825436699 0 0.29371221502355721 -0.024059475966728899 0 0.2851770142716204 -0.01546725825436699 0 0.29718918630165991 -0.01392337347458973 0 0.29371221502355721 -0.024059475966728899 0 0.29965933420169222 -0.032818777297131979 0 0.29084160681965709 -0.032427902577771513 0 0.28355318785801892 -0.02746888501372638 0 0.29371221502355721 -0.024059475966728899 0 0.29084160681965709 -0.032427902577771513 0 0.2919715825106553 0.0010704837671552049 0 0.27482828377235008 -0.0026106230468389432 0 0.2851770142716204 -0.01546725825436699 0 0.2919715825106553 0.0010704837671552049 0 0.2851770142716204 -0.01546725825436699 0 0.29718918630165991 -0.01392337347458973 0 0.29718918630165991 -0.01392337347458973 0 0.30563710767018037 -0.0051413574210867992 0 0.30512670697102562 -0.0220947171461984 0 0.31614278438528071 -0.017114369572430621 0 0.30563710767018037 -0.0051413574210867992 0 0.30512670697102562 -0.0220947171461984 0 0.2919715825106553 0.0010704837671552049 0 0.29718918630165991 -0.01392337347458973 0 0.30563710767018037 -0.0051413574210867992 0 0.30512670697102562 -0.0220947171461984 0 0.30833203850250029 -0.03048150195009337 0 0.29965933420169222 -0.032818777297131979 0 0.29371221502355721 -0.024059475966728899 0 0.30512670697102562 -0.0220947171461984 0 0.29965933420169222 -0.032818777297131979 0 0.29371221502355721 -0.024059475966728899 0 0.29718918630165991 -0.01392337347458973 0 0.30512670697102562 -0.0220947171461984 0 0.31614278438528071 -0.017114369572430621 0 0.30512670697102562 -0.0220947171461984 0 0.30833203850250029 -0.03048150195009337 0 0.31509008874025329 -0.040092409070113563 0 0.30833203850250029 -0.03048150195009337 0 0.30202571140193052 -0.040283747924113093 0 0.31509008874025329 -0.040092409070113563 0 0.30202571140193052 -0.040283747924113093 0 0.29401840051422151 -0.055001919510647708 0 0.29965933420169222 -0.032818777297131979 0 0.30202571140193052 -0.040283747924113093 0 0.29302869505098472 -0.043024131792578822 0 0.30833203850250029 -0.03048150195009337 0 0.29965933420169222 -0.032818777297131979 0 0.30202571140193052 -0.040283747924113093 0 0.31509008874025329 -0.040092409070113563 0 0.31387276780925011 -0.066663857870179505 0 0.29401840051422151 -0.055001919510647708 0 0.31509008874025329 -0.040092409070113563 0 0.29401840051422151 -0.055001919510647708 0 0.27294671228818979 -0.069911429951181964 0 0.29401840051422151 -0.055001919510647708 0 0.28151163237704818 -0.060360474161825002 0 0.29401840051422151 -0.055001919510647708 0 0.28584605683443121 -0.053683476106457677 0 0.29302869505098472 -0.043024131792578822 0 0.27294671228818979 -0.069911429951181964 0 0.29401840051422151 -0.055001919510647708 0 0.2778899221195455 -0.053419925718978932 0 0.28151163237704818 -0.060360474161825002 0 0.28584605683443121 -0.053683476106457677 0 0.29401840051422151 -0.055001919510647708 0 0.28151163237704818 -0.060360474161825002 0 0.28584605683443121 -0.053683476106457677 0 0.2778899221195455 -0.053419925718978932 0 0.28584605683443121 -0.053683476106457677 0 0.28493720765472619 -0.046638026903513631 0 0.28584605683443121 -0.053683476106457677 0 0.28493720765472619 -0.046638026903513631 0 0.29302869505098472 -0.043024131792578822 0 0.28493720765472619 -0.046638026903513631 0 0.28298415661394283 -0.036424573996038913 0 0.29302869505098472 -0.043024131792578822 0 0.2778899221195455 -0.053419925718978932 0 0.28493720765472619 -0.046638026903513631 0 0.28298415661394283 -0.036424573996038913 0 0.28355318785801892 -0.02746888501372638 0 0.28298415661394283 -0.036424573996038913 0 0.29084160681965709 -0.032427902577771513 0 0.28298415661394283 -0.036424573996038913 0 0.29084160681965709 -0.032427902577771513 0 0.29302869505098472 -0.043024131792578822 0 0.29965933420169222 -0.032818777297131979 0 0.29084160681965709 -0.032427902577771513 0 0.29302869505098472 -0.043024131792578822 0 0.30202571140193052 -0.040283747924113093 0 0.29401840051422151 -0.055001919510647708 0 0.29302869505098472 -0.043024131792578822 0 0.29056318081154692 -0.2166199297293607 0 0.2972373585523721 -0.20534722641934069 0 0.27540688041864519 -0.19745568199625599 0 0.29056318081154692 -0.2166199297293607 0 0.2781836221646925 -0.22090537208003611 0 0.27540688041864519 -0.19745568199625599 0 0.29056318081154692 -0.2166199297293607 0 0.2972373585523721 -0.20534722641934069 0 0.29674170362987817 -0.2193577131603508 0 0.2972373585523721 -0.20534722641934069 0 0.27540688041864519 -0.19745568199625599 0 0.29625863321749968 -0.17817333892136941 0 0.30940361205306888 -0.20612513653398509 0 0.2972373585523721 -0.20534722641934069 0 0.31394205395424879 -0.19458795152125369 0 0.2972373585523721 -0.20534722641934069 0 0.29625863321749968 -0.17817333892136941 0 0.31394205395424879 -0.19458795152125369 0 0.30940361205306888 -0.20612513653398509 0 0.2972373585523721 -0.20534722641934069 0 0.30421777178244541 -0.2161071874976426 0 0.2972373585523721 -0.20534722641934069 0 0.30421777178244541 -0.2161071874976426 0 0.29674170362987817 -0.2193577131603508 0 0.30940361205306888 -0.20612513653398509 0 0.30421777178244541 -0.2161071874976426 0 0.31883914025392052 -0.2138448305668223 0 0.30932889172251199 -0.22518291002824581 0 0.2960225682108002 -0.22852848034044401 0 0.31883914025392052 -0.2138448305668223 0 0.30421777178244541 -0.2161071874976426 0 0.2960225682108002 -0.22852848034044401 0 0.31883914025392052 -0.2138448305668223 0 0.2960225682108002 -0.22852848034044401 0 0.31883914025392052 -0.2138448305668223 0 0.30932889172251199 -0.22518291002824581 0 0.30495850400505409 -0.23266937360486081 0 0.30968258175728219 -0.24047778556792521 0 0.30932889172251199 -0.22518291002824581 0 0.29794449268640588 -0.23018213399508539 0 0.2960225682108002 -0.22852848034044401 0 0.30932889172251199 -0.22518291002824581 0 0.30495850400505409 -0.23266937360486081 0 0.29794449268640588 -0.23018213399508539 0 0.30495850400505409 -0.23266937360486081 0 0.29794449268640588 -0.23018213399508539 0 0.30272958897429791 -0.2376594292760244 0 0.30421777178244541 -0.2161071874976426 0 0.29674170362987817 -0.2193577131603508 0 0.2960225682108002 -0.22852848034044401 0 0.30968258175728219 -0.24047778556792521 0 0.30272958897429791 -0.2376594292760244 0 0.30377237923722628 -0.2485450890714716 0 0.30968258175728219 -0.24047778556792521 0 0.30377237923722628 -0.2485450890714716 0 0.31313229316781188 -0.25520741234458189 0 0.30495850400505409 -0.23266937360486081 0 0.30968258175728219 -0.24047778556792521 0 0.30272958897429791 -0.2376594292760244 0 0.29794449268640588 -0.23018213399508539 0 0.30272958897429791 -0.2376594292760244 0 0.29641844018509023 -0.2439025448574659 0 0.30377237923722628 -0.2485450890714716 0 0.29641844018509023 -0.2439025448574659 0 0.29581421657553048 -0.25145489687100608 0 0.30272958897429791 -0.2376594292760244 0 0.30377237923722628 -0.2485450890714716 0 0.29641844018509023 -0.2439025448574659 0 0.29794449268640588 -0.23018213399508539 0 0.28369245126452108 -0.24925303235514801 0 0.2960225682108002 -0.22852848034044401 0 0.29794449268640588 -0.23018213399508539 0 0.28369245126452108 -0.24925303235514801 0 0.29794449268640588 -0.23018213399508539 0 0.29641844018509023 -0.2439025448574659 0 0.28369245126452108 -0.24925303235514801 0 0.28369245126452108 -0.24925303235514801 0 0.2960225682108002 -0.22852848034044401 0 0.27320599616767988 -0.2432121301140657 0 0.2960225682108002 -0.22852848034044401 0 0.27320599616767988 -0.2432121301140657 0 0.29641844018509023 -0.2439025448574659 0 0.28369245126452108 -0.24925303235514801 0 0.29581421657553048 -0.25145489687100608 0 0.2960225682108002 -0.22852848034044401 0 0.2798899604269513 -0.23018875428451779 0 0.27320599616767988 -0.2432121301140657 0 0.2960225682108002 -0.22852848034044401 0 0.28691921316299163 -0.22446653761122479 0 0.2798899604269513 -0.23018875428451779 0 0.29251553679348319 -0.22269761568830099 0 0.2960225682108002 -0.22852848034044401 0 0.28691921316299163 -0.22446653761122479 0 0.29056318081154692 -0.2166199297293607 0 0.29251553679348319 -0.22269761568830099 0 0.28691921316299163 -0.22446653761122479 0 0.29251553679348319 -0.22269761568830099 0 0.29674170362987817 -0.2193577131603508 0 0.2960225682108002 -0.22852848034044401 0 0.29056318081154692 -0.2166199297293607 0 0.29251553679348319 -0.22269761568830099 0 0.29674170362987817 -0.2193577131603508 0 0.29056318081154692 -0.2166199297293607 0 0.28691921316299163 -0.22446653761122479 0 0.2781836221646925 -0.22090537208003611 0 0.28691921316299163 -0.22446653761122479 0 0.2781836221646925 -0.22090537208003611 0 0.2798899604269513 -0.23018875428451779 0 0.2781836221646925 -0.22090537208003611 0 0.26683862122965901 -0.22994429828741361 0 0.2596801777785484 -0.21286766494136891 0 0.2781836221646925 -0.22090537208003611 0 0.2798899604269513 -0.23018875428451779 0 0.26683862122965901 -0.22994429828741361 0 0.28369245126452108 -0.24925303235514801 0 0.27320599616767988 -0.2432121301140657 0 0.26613411749903759 -0.25284846400432792 0 0.2798899604269513 -0.23018875428451779 0 0.26683862122965901 -0.22994429828741361 0 0.27320599616767988 -0.2432121301140657 0 0.25674455389328549 -0.2441941701779505 0 0.25332741694679661 -0.2282976981265426 0 0.2439690038215078 -0.23687255988838279 0 0.27320599616767988 -0.2432121301140657 0 0.25674455389328549 -0.2441941701779505 0 0.26613411749903759 -0.25284846400432792 0 0.26683862122965901 -0.22994429828741361 0 0.27320599616767988 -0.2432121301140657 0 0.25674455389328549 -0.2441941701779505 0 0.25332741694679661 -0.2282976981265426 0 0.2596801777785484 -0.21286766494136891 0 0.23985842826464671 -0.21599547639803601 0 0.26683862122965901 -0.22994429828741361 0 0.25674455389328549 -0.2441941701779505 0 0.25332741694679661 -0.2282976981265426 0 0.26683862122965901 -0.22994429828741361 0 0.25332741694679661 -0.2282976981265426 0 0.2596801777785484 -0.21286766494136891 0 0.2781836221646925 -0.22090537208003611 0 0.2596801777785484 -0.21286766494136891 0 0.27540688041864519 -0.19745568199625599 0 0.2781836221646925 -0.22090537208003611 0 0.27540688041864519 -0.19745568199625599 0 0.27540688041864519 -0.19745568199625599 0 0.25898222028543172 -0.1920392038074645 0 0.27263013867259789 -0.1740059919124759 0 0.2596801777785484 -0.21286766494136891 0 0.25898222028543172 -0.1920392038074645 0 0.2449176157384754 -0.20037723063933571 0 0.2596801777785484 -0.21286766494136891 0 0.27540688041864519 -0.19745568199625599 0 0.25898222028543172 -0.1920392038074645 0 0.25898222028543172 -0.1920392038074645 0 0.25289684666260293 -0.17763593045602541 0 0.2436416827555791 -0.18708054626310039 0 0.25898222028543172 -0.1920392038074645 0 0.25289684666260293 -0.17763593045602541 0 0.27263013867259789 -0.1740059919124759 0 0.25255911421028421 -0.16171640417641181 0 0.27263013867259789 -0.1740059919124759 0 0.26985339692654903 -0.15055630182869589 0 0.25289684666260293 -0.17763593045602541 0 0.25255911421028421 -0.16171640417641181 0 0.27263013867259789 -0.1740059919124759 0 0.27263013867259789 -0.1740059919124759 0 0.26985339692654903 -0.15055630182869589 0 0.27263013867259789 -0.1740059919124759 0 0.26985339692654903 -0.15055630182869589 0 0.2842899715240661 -0.15775429433435989 0 0.27540688041864519 -0.19745568199625599 0 0.27263013867259789 -0.1740059919124759 0 0.26643057240006529 -0.12165041799146099 0 0.25275135178836439 -0.12960470140332181 0 0.26985339692654903 -0.15055630182869589 0 0.26643057240006529 -0.12165041799146099 0 0.25275135178836439 -0.12960470140332181 0 0.26643057240006529 -0.12165041799146099 0 0.2565434503154041 -0.12463588500673151 0 0.25275135178836439 -0.12960470140332181 0 0.2565434503154041 -0.12463588500673151 0 0.25275135178836439 -0.12960470140332181 0 0.24880922466885569 -0.122664717008275 0 0.25255911421028421 -0.16171640417641181 0 0.26985339692654903 -0.15055630182869589 0 0.25275135178836439 -0.12960470140332181 0 0.25020245477452041 -0.14682414257693721 0 0.26985339692654903 -0.15055630182869589 0 0.25255911421028421 -0.16171640417641181 0 0.25020245477452041 -0.14682414257693721 0 0.26985339692654903 -0.15055630182869589 0 0.26985339692654903 -0.15055630182869589 0 0.28260656394322409 -0.14232660814907441 0 0.2842899715240661 -0.15775429433435989 0 0.26985339692654903 -0.15055630182869589 0 0.28260656394322409 -0.14232660814907441 0 0.26643057240006529 -0.12165041799146099 0 0.26985339692654903 -0.15055630182869589 0 0.26643057240006529 -0.12165041799146099 0 0.29082464865131769 -0.12655161363787029 0 0.28260656394322409 -0.14232660814907441 0 0.26643057240006529 -0.12165041799146099 0 0.26985339692654903 -0.15055630182869589 0 0.28260656394322409 -0.14232660814907441 0 0.29082464865131769 -0.12655161363787029 0 0.29618953503565659 -0.14413552760377341 0 0.28260656394322409 -0.14232660814907441 0 0.29618953503565659 -0.14413552760377341 0 0.2842899715240661 -0.15775429433435989 0 0.30013738514714983 -0.1567578650061302 0 0.29618953503565659 -0.14413552760377341 0 0.28260656394322409 -0.14232660814907441 0 0.2842899715240661 -0.15775429433435989 0 0.30013738514714983 -0.1567578650061302 0 0.31580242374092599 -0.16347018911336289 0 0.31312493101432032 -0.14842380380167319 0 0.29618953503565659 -0.14413552760377341 0 0.30615370993386187 -0.13299898069353219 0 0.31312493101432032 -0.14842380380167319 0 0.29618953503565659 -0.14413552760377341 0 0.30013738514714983 -0.1567578650061302 0 0.31312493101432032 -0.14842380380167319 0 0.29082464865131769 -0.12655161363787029 0 0.29618953503565659 -0.14413552760377341 0 0.30615370993386187 -0.13299898069353219 0 0.30190344767581262 -0.1210076002263986 0 0.30615370993386187 -0.13299898069353219 0 0.31376079479518021 -0.1252766010751121 0 0.30190344767581262 -0.1210076002263986 0 0.29082464865131769 -0.12655161363787029 0 0.30615370993386187 -0.13299898069353219 0 0.27540688041864519 -0.19745568199625599 0 0.27263013867259789 -0.1740059919124759 0 0.29625863321749968 -0.17817333892136941 0 0.27263013867259789 -0.1740059919124759 0 0.29625863321749968 -0.17817333892136941 0 0.2842899715240661 -0.15775429433435989 0 0.29625863321749968 -0.17817333892136941 0 0.2842899715240661 -0.15775429433435989 0 0.30013738514714983 -0.1567578650061302 0 0.29625863321749968 -0.17817333892136941 0 0.30013738514714983 -0.1567578650061302 0 0.31580242374092599 -0.16347018911336289 0 0.29625863321749968 -0.17817333892136941 0 0.31295355236950162 -0.17902598646408699 0 0.31580242374092599 -0.16347018911336289 0 0.29625863321749968 -0.17817333892136941 0 0.31295355236950162 -0.17902598646408699 0 0.31394205395424879 -0.19458795152125369 0 0.31580242374092599 -0.16347018911336289 0 0.32872906801898572 -0.1813156849532799 0 0.31295355236950162 -0.17902598646408699 0 0.32872906801898572 -0.1813156849532799 0 0.31394205395424879 -0.19458795152125369 0 0.31295355236950162 -0.17902598646408699 0 0.31580242374092599 -0.16347018911336289 0 0.32872906801898572 -0.1813156849532799 0 0.31580242374092599 -0.16347018911336289 0 0.32956062380877421 -0.16020978075862349 0 0.31312493101432032 -0.14842380380167319 0 0.31580242374092599 -0.16347018911336289 0 0.32956062380877421 -0.16020978075862349 0 0.32872906801898572 -0.1813156849532799 0 0.32956062380877421 -0.16020978075862349 0 0.34237195183360819 -0.1645673823814951 0 0.32872906801898572 -0.1813156849532799 0 0.32956062380877421 -0.16020978075862349 0 0.34237195183360819 -0.1645673823814951 0 0.33930773873218062 -0.1499671208298505 0 0.32872906801898572 -0.1813156849532799 0 0.34777250243994179 -0.17796735821133219 0 0.3416557122970405 -0.19916118079320039 0 0.34237195183360819 -0.1645673823814951 0 0.32872906801898572 -0.1813156849532799 0 0.34777250243994179 -0.17796735821133219 0 0.31376079479518021 -0.1252766010751121 0 0.32090009562276361 -0.13585573008350299 0 0.32870681115801342 -0.1255466958402357 0 0.30615370993386187 -0.13299898069353219 0 0.31376079479518021 -0.1252766010751121 0 0.32090009562276361 -0.13585573008350299 0 0.30615370993386187 -0.13299898069353219 0 0.32090009562276361 -0.13585573008350299 0 0.31312493101432032 -0.14842380380167319 0 0.32090009562276361 -0.13585573008350299 0 0.33260732473185861 -0.13947901837852511 0 0.32870681115801342 -0.1255466958402357 0 0.32090009562276361 -0.13585573008350299 0 0.3272110733615517 -0.1461949966885796 0 0.33260732473185861 -0.13947901837852511 0 0.32956062380877421 -0.16020978075862349 0 0.3272110733615517 -0.1461949966885796 0 0.31312493101432032 -0.14842380380167319 0 0.32090009562276361 -0.13585573008350299 0 0.3272110733615517 -0.1461949966885796 0 0.31312493101432032 -0.14842380380167319 0 0.32956062380877421 -0.16020978075862349 0 0.3272110733615517 -0.1461949966885796 0 0.33930773873218062 -0.1499671208298505 0 0.33930773873218062 -0.1499671208298505 0 0.33260732473185861 -0.13947901837852511 0 0.34691090478478359 -0.13983054845045681 0 0.3272110733615517 -0.1461949966885796 0 0.33930773873218062 -0.1499671208298505 0 0.33260732473185861 -0.13947901837852511 0 0.32870681115801342 -0.1255466958402357 0 0.35213791768788111 -0.13009706645683061 0 0.34691090478478359 -0.13983054845045681 0 0.33260732473185861 -0.13947901837852511 0 0.32870681115801342 -0.1255466958402357 0 0.34691090478478359 -0.13983054845045681 0 0.32870681115801342 -0.1255466958402357 0 0.34691090478478359 -0.13983054845045681 0 0.35213791768788111 -0.13009706645683061 0 0.34691090478478359 -0.13983054845045681 0 0.37314679526439398 -0.14702284618551151 0 0.34691090478478359 -0.13983054845045681 0 0.35015142049562931 -0.15469116809553121 0 0.36511499841155381 -0.15411440106067789 0 0.34691090478478359 -0.13983054845045681 0 0.36511499841155381 -0.15411440106067789 0 0.33930773873218062 -0.1499671208298505 0 0.34691090478478359 -0.13983054845045681 0 0.35015142049562931 -0.15469116809553121 0 0.34691090478478359 -0.13983054845045681 0 0.36511499841155381 -0.15411440106067789 0 0.37314679526439398 -0.14702284618551151 0 0.37703720537808599 -0.1247359663996551 0 0.36138829109528031 -0.12258048361298619 0 0.36890381723585752 -0.13219592868607469 0 0.36138829109528031 -0.12258048361298619 0 0.35213791768788111 -0.13009706645683061 0 0.36890381723585752 -0.13219592868607469 0 0.35213791768788111 -0.13009706645683061 0 0.37314679526439398 -0.14702284618551151 0 0.35213791768788111 -0.13009706645683061 0 0.37314679526439398 -0.14702284618551151 0 0.36890381723585752 -0.13219592868607469 0 0.37314679526439398 -0.14702284618551151 0 0.36890381723585752 -0.13219592868607469 0 0.38080887675364622 -0.13654328077539041 0 0.34777250243994179 -0.17796735821133219 0 0.35705150871602021 -0.16497638775517601 0 0.36532618168518022 -0.17322075079220459 0 0.34777250243994179 -0.17796735821133219 0 0.36035480051434382 -0.18712734582666701 0 0.36532618168518022 -0.17322075079220459 0 0.34237195183360819 -0.1645673823814951 0 0.34777250243994179 -0.17796735821133219 0 0.35705150871602021 -0.16497638775517601 0 0.34237195183360819 -0.1645673823814951 0 0.33930773873218062 -0.1499671208298505 0 0.35015142049562931 -0.15469116809553121 0 0.34237195183360819 -0.1645673823814951 0 0.35015142049562931 -0.15469116809553121 0 0.35705150871602021 -0.16497638775517601 0 0.35015142049562931 -0.15469116809553121 0 0.36511499841155381 -0.15411440106067789 0 0.35705150871602021 -0.16497638775517601 0 0.36511499841155381 -0.15411440106067789 0 0.38331909203832409 -0.168398253670899 0 0.36511499841155381 -0.15411440106067789 0 0.3710521605356718 -0.16528982300408121 0 0.38331909203832409 -0.168398253670899 0 0.36511499841155381 -0.15411440106067789 0 0.37314679526439398 -0.14702284618551151 0 0.38331909203832409 -0.168398253670899 0 0.35705150871602021 -0.16497638775517601 0 0.3710521605356718 -0.16528982300408121 0 0.36532618168518022 -0.17322075079220459 0 0.36511499841155381 -0.15411440106067789 0 0.35705150871602021 -0.16497638775517601 0 0.3710521605356718 -0.16528982300408121 0 0.3710521605356718 -0.16528982300408121 0 0.36532618168518022 -0.17322075079220459 0 0.37525480172649173 -0.17003472587154619 0 0.36035480051434382 -0.18712734582666701 0 0.37905388873164692 -0.17509351086013339 0 0.36035480051434382 -0.18712734582666701 0 0.37905388873164692 -0.17509351086013339 0 0.38473910059177718 -0.1867138306800912 0 0.36035480051434382 -0.18712734582666701 0 0.36532618168518022 -0.17322075079220459 0 0.37905388873164692 -0.17509351086013339 0 0.36532618168518022 -0.17322075079220459 0 0.37525480172649173 -0.17003472587154619 0 0.37905388873164692 -0.17509351086013339 0 0.36035480051434382 -0.18712734582666701 0 0.36193869387097832 -0.20328589112059581 0 0.37959589416551692 -0.19838232034524109 0 0.36035480051434382 -0.18712734582666701 0 0.37959589416551692 -0.19838232034524109 0 0.38473910059177718 -0.1867138306800912 0 0.36193869387097832 -0.20328589112059581 0 0.3718159112645093 -0.2124205167309404 0 0.35627115111348079 -0.2193380919069301 0 0.36193869387097832 -0.20328589112059581 0 0.3718159112645093 -0.2124205167309404 0 0.37959589416551692 -0.19838232034524109 0 0.3416557122970405 -0.19916118079320039 0 0.35627115111348079 -0.2193380919069301 0 0.3416557122970405 -0.19916118079320039 0 0.33472710225706592 -0.22345621299250101 0 0.35627115111348079 -0.2193380919069301 0 0.36193869387097832 -0.20328589112059581 0 0.3416557122970405 -0.19916118079320039 0 0.35627115111348079 -0.2193380919069301 0 0.36035480051434382 -0.18712734582666701 0 0.36193869387097832 -0.20328589112059581 0 0.3416557122970405 -0.19916118079320039 0 0.36035480051434382 -0.18712734582666701 0 0.3416557122970405 -0.19916118079320039 0 0.34777250243994179 -0.17796735821133219 0 0.36035480051434382 -0.18712734582666701 0 0.3416557122970405 -0.19916118079320039 0 0.32872906801898572 -0.1813156849532799 0 0.3416557122970405 -0.19916118079320039 0 0.3416557122970405 -0.19916118079320039 0 0.31883914025392052 -0.2138448305668223 0 0.3416557122970405 -0.19916118079320039 0 0.31883914025392052 -0.2138448305668223 0 0.33472710225706592 -0.22345621299250101 0 0.30940361205306888 -0.20612513653398509 0 0.31883914025392052 -0.2138448305668223 0 0.31394205395424879 -0.19458795152125369 0 0.3416557122970405 -0.19916118079320039 0 0.31883914025392052 -0.2138448305668223 0 0.31394205395424879 -0.19458795152125369 0 0.32872906801898572 -0.1813156849532799 0 0.3416557122970405 -0.19916118079320039 0 0.31394205395424879 -0.19458795152125369 0 0.31901868137322448 -0.24453265748771649 0 0.33027118047829868 -0.24167589919900501 0 0.33004520978711799 -0.25918450011683708 0 0.30932889172251199 -0.22518291002824581 0 0.30968258175728219 -0.24047778556792521 0 0.31901868137322448 -0.24453265748771649 0 0.30932889172251199 -0.22518291002824581 0 0.31901868137322448 -0.24453265748771649 0 0.33027118047829868 -0.24167589919900501 0 0.30968258175728219 -0.24047778556792521 0 0.31901868137322448 -0.24453265748771649 0 0.31313229316781188 -0.25520741234458189 0 0.31883914025392052 -0.2138448305668223 0 0.32329157867794928 -0.22603996319664349 0 0.33472710225706592 -0.22345621299250101 0 0.30932889172251199 -0.22518291002824581 0 0.33027118047829868 -0.24167589919900501 0 0.30932889172251199 -0.22518291002824581 0 0.32329157867794928 -0.22603996319664349 0 0.33027118047829868 -0.24167589919900501 0 0.30932889172251199 -0.22518291002824581 0 0.31883914025392052 -0.2138448305668223 0 0.32329157867794928 -0.22603996319664349 0 0.32329157867794928 -0.22603996319664349 0 0.33472710225706592 -0.22345621299250101 0 0.33027118047829868 -0.24167589919900501 0 0.33472710225706592 -0.22345621299250101 0 0.33027118047829868 -0.24167589919900501 0 0.34524654849563552 -0.23789438799004639 0 0.33027118047829868 -0.24167589919900501 0 0.35121346923408497 -0.25816888836976448 0 0.33027118047829868 -0.24167589919900501 0 0.35128925495605978 -0.2467354814207485 0 0.34524654849563552 -0.23789438799004639 0 0.35128925495605978 -0.2467354814207485 0 0.34524654849563552 -0.23789438799004639 0 0.37088658992991569 -0.23951500302066381 0 0.33027118047829868 -0.24167589919900501 0 0.35128925495605978 -0.2467354814207485 0 0.35121346923408497 -0.25816888836976448 0 0.34524654849563552 -0.23789438799004639 0 0.37088658992991569 -0.23951500302066381 0 0.33472710225706592 -0.22345621299250101 0 0.34524654849563552 -0.23789438799004639 0 0.35627115111348079 -0.2193380919069301 0 0.34524654849563552 -0.23789438799004639 0 0.35627115111348079 -0.2193380919069301 0 0.37088658992991569 -0.23951500302066381 0 0.35627115111348079 -0.2193380919069301 0 0.37088658992991569 -0.23951500302066381 0 0.37724270535111848 -0.22561787934083211 0 0.3718159112645093 -0.2124205167309404 0 0.35627115111348079 -0.2193380919069301 0 0.37724270535111848 -0.22561787934083211 0 0.35627115111348079 -0.2193380919069301 0 0.37088658992991569 -0.23951500302066381 0 0.35128925495605978 -0.2467354814207485 0 0.36245181906829399 -0.2497333280551037 0 0.37088658992991569 -0.23951500302066381 0 0.36245181906829399 -0.2497333280551037 0 0.37088658992991569 -0.23951500302066381 0 0.3705420184203852 -0.24836784300958969 0 0.37088658992991569 -0.23951500302066381 0 0.3705420184203852 -0.24836784300958969 0 0.37745903527997521 -0.24858839775712019 0 0.37088658992991569 -0.23951500302066381 0 0.37745903527997521 -0.24858839775712019 0 0.37088658992991569 -0.23951500302066381 0 0.37745903527997521 -0.24858839775712019 0 0.3817984526704411 -0.24020470271614611 0 0.37745903527997521 -0.24858839775712019 0 0.3817984526704411 -0.24020470271614611 0 0.37745903527997521 -0.24858839775712019 0 0.3814913529537487 -0.2466693769885778 0 0.3817984526704411 -0.24020470271614611 0 0.3814913529537487 -0.2466693769885778 0 0.38811530409825568 -0.2477310732407865 0 0.37859261976632369 -0.25015333424025871 0 0.37745903527997521 -0.24858839775712019 0 0.37859261976632369 -0.25015333424025871 0 0.37745903527997521 -0.24858839775712019 0 0.3814913529537487 -0.2466693769885778 0 0.37859261976632369 -0.25015333424025871 0 0.37088658992991569 -0.23951500302066381 0 0.3817984526704411 -0.24020470271614611 0 0.37088658992991569 -0.23951500302066381 0 0.3817984526704411 -0.24020470271614611 0 0.37724270535111848 -0.22561787934083211 0 0.3814913529537487 -0.2466693769885778 0 0.3817984526704411 -0.24020470271614611 0 0.38811530409825568 -0.2477310732407865 0 0.3817984526704411 -0.24020470271614611 0 0.38811530409825568 -0.2477310732407865 0 0.40593425035732228 -0.24173023989624531 0 0.3817984526704411 -0.24020470271614611 0 0.40593425035732228 -0.24173023989624531 0 0.3817984526704411 -0.24020470271614611 0 0.40593425035732228 -0.24173023989624531 0 0.39640155613612499 -0.2328429089214557 0 0.38811530409825568 -0.2477310732407865 0 0.40593425035732228 -0.24173023989624531 0 0.393172287008549 -0.25615578623768992 0 0.40569749549151279 -0.2285088527416782 0 0.3917827910714996 -0.220915097497693 0 0.41016027364000879 -0.2171125108507273 0 0.40593425035732228 -0.24173023989624531 0 0.40569749549151279 -0.2285088527416782 0 0.39640155613612499 -0.2328429089214557 0 0.40569749549151279 -0.2285088527416782 0 0.39640155613612499 -0.2328429089214557 0 0.3917827910714996 -0.220915097497693 0 0.3817984526704411 -0.24020470271614611 0 0.3917827910714996 -0.220915097497693 0 0.3817984526704411 -0.24020470271614611 0 0.39640155613612499 -0.2328429089214557 0 0.3917827910714996 -0.220915097497693 0 0.3718159112645093 -0.2124205167309404 0 0.3917827910714996 -0.220915097497693 0 0.37724270535111848 -0.22561787934083211 0 0.3817984526704411 -0.24020470271614611 0 0.3917827910714996 -0.220915097497693 0 0.37724270535111848 -0.22561787934083211 0 0.3718159112645093 -0.2124205167309404 0 0.3917827910714996 -0.220915097497693 0 0.37959589416551692 -0.19838232034524109 0 0.37959589416551692 -0.19838232034524109 0 0.40176712947255527 -0.2016254922792384 0 0.38473910059177718 -0.1867138306800912 0 0.40176712947255527 -0.2016254922792384 0 0.38473910059177718 -0.1867138306800912 0 0.39840643030550371 -0.18200920208192181 0 0.40176712947255527 -0.2016254922792384 0 0.39840643030550371 -0.18200920208192181 0 0.41793909558122172 -0.1838115132652656 0 0.3917827910714996 -0.220915097497693 0 0.37959589416551692 -0.19838232034524109 0 0.40176712947255527 -0.2016254922792384 0 0.3917827910714996 -0.220915097497693 0 0.40176712947255527 -0.2016254922792384 0 0.41016027364000879 -0.2171125108507273 0 0.3917827910714996 -0.220915097497693 0 0.40176712947255527 -0.2016254922792384 0 0.40176712947255527 -0.2016254922792384 0 0.41016027364000879 -0.2171125108507273 0 0.41588684304366891 -0.20382135425486461 0 0.41016027364000879 -0.2171125108507273 0 0.41588684304366891 -0.20382135425486461 0 0.42565516847764773 -0.21513479848641101 0 0.40176712947255527 -0.2016254922792384 0 0.41588684304366891 -0.20382135425486461 0 0.41793909558122172 -0.1838115132652656 0 0.41588684304366891 -0.20382135425486461 0 0.42937287121980822 -0.20291201218777291 0 0.41793909558122172 -0.1838115132652656 0 0.41793909558122172 -0.1838115132652656 0 0.43812521421349149 -0.2045633506369334 0 0.41793909558122172 -0.1838115132652656 0 0.43812521421349149 -0.2045633506369334 0 0.438137706272687 -0.18832632381318001 0 0.42937287121980822 -0.20291201218777291 0 0.41793909558122172 -0.1838115132652656 0 0.43812521421349149 -0.2045633506369334 0 0.43382012878029202 -0.22576163937103319 0 0.43757020951638259 -0.20826750166572131 0 0.42565516847764773 -0.21513479848641101 0 0.43382012878029202 -0.22576163937103319 0 0.43757020951638259 -0.20826750166572131 0 0.41588684304366891 -0.20382135425486461 0 0.42937287121980822 -0.20291201218777291 0 0.42565516847764773 -0.21513479848641101 0 0.42937287121980822 -0.20291201218777291 0 0.43757020951638259 -0.20826750166572131 0 0.43812521421349149 -0.2045633506369334 0 0.42937287121980822 -0.20291201218777291 0 0.43812521421349149 -0.2045633506369334 0 0.42937287121980822 -0.20291201218777291 0 0.42565516847764773 -0.21513479848641101 0 0.43757020951638259 -0.20826750166572131 0 0.43382012878029202 -0.22576163937103319 0 0.4300700480442034 -0.24325577707634541 0 0.41862152403013603 -0.22976245635596049 0 0.42565516847764773 -0.21513479848641101 0 0.43382012878029202 -0.22576163937103319 0 0.41862152403013603 -0.22976245635596049 0 0.43382012878029202 -0.22576163937103319 0 0.4300700480442034 -0.24325577707634541 0 0.44240257060543559 -0.2440352715822105 0 0.43382012878029202 -0.22576163937103319 0 0.4300700480442034 -0.24325577707634541 0 0.4300700480442034 -0.24325577707634541 0 0.44240257060543559 -0.2440352715822105 0 0.43814373428532938 -0.25489963050429248 0 0.4300700480442034 -0.24325577707634541 0 0.44240257060543559 -0.2440352715822105 0 0.40593425035732228 -0.24173023989624531 0 0.4300700480442034 -0.24325577707634541 0 0.40593425035732228 -0.24173023989624531 0 0.4300700480442034 -0.24325577707634541 0 0.41862152403013603 -0.22976245635596049 0 0.40593425035732228 -0.24173023989624531 0 0.4300700480442034 -0.24325577707634541 0 0.4212357442112688 -0.25179690406534228 0 0.40593425035732228 -0.24173023989624531 0 0.41330233441911218 -0.25518998587651681 0 0.4212357442112688 -0.25179690406534228 0 0.40593425035732228 -0.24173023989624531 0 0.40569749549151279 -0.2285088527416782 0 0.41862152403013603 -0.22976245635596049 0 0.40569749549151279 -0.2285088527416782 0 0.41016027364000879 -0.2171125108507273 0 0.41862152403013603 -0.22976245635596049 0 0.41016027364000879 -0.2171125108507273 0 0.42565516847764773 -0.21513479848641101 0 0.41862152403013603 -0.22976245635596049 0 0.41373764731034451 -0.1220692672002454 0 0.3932756096575768 -0.1305698078466809 0 0.40154610819100012 -0.14446798542013101 0 0.3932756096575768 -0.1305698078466809 0 0.38080887675364622 -0.13654328077539041 0 0.38441806933515071 -0.1493510556675488 0 0.37703720537808599 -0.1247359663996551 0 0.3932756096575768 -0.1305698078466809 0 0.38080887675364622 -0.13654328077539041 0 0.37703720537808599 -0.1247359663996551 0 0.36890381723585752 -0.13219592868607469 0 0.38080887675364622 -0.13654328077539041 0 0.37314679526439398 -0.14702284618551151 0 0.38441806933515071 -0.1493510556675488 0 0.38331909203832409 -0.168398253670899 0 0.37314679526439398 -0.14702284618551151 0 0.38080887675364622 -0.13654328077539041 0 0.38441806933515071 -0.1493510556675488 0 0.3932756096575768 -0.1305698078466809 0 0.38441806933515071 -0.1493510556675488 0 0.40154610819100012 -0.14446798542013101 0 0.38441806933515071 -0.1493510556675488 0 0.40154610819100012 -0.14446798542013101 0 0.39775297694894979 -0.16305967589359949 0 0.40154610819100012 -0.14446798542013101 0 0.39775297694894979 -0.16305967589359949 0 0.41889426814130698 -0.1494541564034656 0 0.38441806933515071 -0.1493510556675488 0 0.39775297694894979 -0.16305967589359949 0 0.38441806933515071 -0.1493510556675488 0 0.39775297694894979 -0.16305967589359949 0 0.38331909203832409 -0.168398253670899 0 0.39775297694894979 -0.16305967589359949 0 0.37905388873164692 -0.17509351086013339 0 0.39775297694894979 -0.16305967589359949 0 0.38998809914446941 -0.17671905487893649 0 0.37905388873164692 -0.17509351086013339 0 0.39775297694894979 -0.16305967589359949 0 0.38331909203832409 -0.168398253670899 0 0.37905388873164692 -0.17509351086013339 0 0.37525480172649173 -0.17003472587154619 0 0.38331909203832409 -0.168398253670899 0 0.37905388873164692 -0.17509351086013339 0 0.3710521605356718 -0.16528982300408121 0 0.37525480172649173 -0.17003472587154619 0 0.38331909203832409 -0.168398253670899 0 0.38998809914446941 -0.17671905487893649 0 0.37905388873164692 -0.17509351086013339 0 0.38473910059177718 -0.1867138306800912 0 0.38998809914446941 -0.17671905487893649 0 0.38473910059177718 -0.1867138306800912 0 0.39840643030550371 -0.18200920208192181 0 0.39775297694894979 -0.16305967589359949 0 0.39840643030550371 -0.18200920208192181 0 0.41793909558122172 -0.1838115132652656 0 0.39775297694894979 -0.16305967589359949 0 0.38998809914446941 -0.17671905487893649 0 0.39840643030550371 -0.18200920208192181 0 0.39775297694894979 -0.16305967589359949 0 0.41793909558122172 -0.1838115132652656 0 0.41793909558122172 -0.1838115132652656 0 0.42409175375732128 -0.1660751185269074 0 0.43912197247345902 -0.17434588539664511 0 0.41793909558122172 -0.1838115132652656 0 0.43912197247345902 -0.17434588539664511 0 0.438137706272687 -0.18832632381318001 0 0.42409175375732128 -0.1660751185269074 0 0.42969061100108191 -0.15599190589897469 0 0.44004439199357592 -0.15909059478217411 0 0.42409175375732128 -0.1660751185269074 0 0.41889426814130698 -0.1494541564034656 0 0.42969061100108191 -0.15599190589897469 0 0.42409175375732128 -0.1660751185269074 0 0.44004439199357592 -0.15909059478217411 0 0.43912197247345902 -0.17434588539664511 0 0.39775297694894979 -0.16305967589359949 0 0.42409175375732128 -0.1660751185269074 0 0.41889426814130698 -0.1494541564034656 0 0.39775297694894979 -0.16305967589359949 0 0.41889426814130698 -0.1494541564034656 0 0.39775297694894979 -0.16305967589359949 0 0.41793909558122172 -0.1838115132652656 0 0.42409175375732128 -0.1660751185269074 0 0.41889426814130698 -0.1494541564034656 0 0.44003555933366417 -0.13584863691333149 0 0.41889426814130698 -0.1494541564034656 0 0.4357320301121233 -0.1493477538833515 0 0.44003555933366417 -0.13584863691333149 0 0.41889426814130698 -0.1494541564034656 0 0.4357320301121233 -0.1493477538833515 0 0.42969061100108191 -0.15599190589897469 0 0.4357320301121233 -0.1493477538833515 0 0.42969061100108191 -0.15599190589897469 0 0.44004439199357592 -0.15909059478217411 0 0.41373764731034451 -0.1220692672002454 0 0.43823203473390859 -0.1328116520806841 0 0.44003555933366417 -0.13584863691333149 0 0.41373764731034451 -0.1220692672002454 0 0.41889426814130698 -0.1494541564034656 0 0.44003555933366417 -0.13584863691333149 0 0.41373764731034451 -0.1220692672002454 0 0.44003555933366417 -0.13584863691333149 0 0.41373764731034451 -0.1220692672002454 0 0.40154610819100012 -0.14446798542013101 0 0.41889426814130698 -0.1494541564034656 0 0.45882135648927203 -0.12475628847417861 0 0.44154174778757932 -0.13487932637410729 0 0.46411075680305852 -0.1484633664231185 0 0.45882135648927203 -0.12475628847417861 0 0.46411075680305852 -0.1484633664231185 0 0.47421638958792128 -0.13376503927153671 0 0.44003555933366417 -0.13584863691333149 0 0.44154174778757932 -0.13487932637410729 0 0.46411075680305852 -0.1484633664231185 0 0.45882135648927203 -0.12475628847417861 0 0.43823203473390859 -0.1328116520806841 0 0.44154174778757932 -0.13487932637410729 0 0.44181828837761739 -0.12090181709142819 0 0.45882135648927203 -0.12475628847417861 0 0.43823203473390859 -0.1328116520806841 0 0.45882135648927203 -0.12475628847417861 0 0.43823203473390859 -0.1328116520806841 0 0.43823203473390859 -0.1328116520806841 0 0.44003555933366417 -0.13584863691333149 0 0.44154174778757932 -0.13487932637410729 0 0.44003555933366417 -0.13584863691333149 0 0.44154174778757932 -0.13487932637410729 0 0.44003555933366417 -0.13584863691333149 0 0.46411075680305852 -0.1484633664231185 0 0.44003555933366417 -0.13584863691333149 0 0.4474405880070581 -0.1505768187276981 0 0.46411075680305852 -0.1484633664231185 0 0.4357320301121233 -0.1493477538833515 0 0.44003555933366417 -0.13584863691333149 0 0.4474405880070581 -0.1505768187276981 0 0.4357320301121233 -0.1493477538833515 0 0.4474405880070581 -0.1505768187276981 0 0.44004439199357592 -0.15909059478217411 0 0.4474405880070581 -0.1505768187276981 0 0.46411075680305852 -0.1484633664231185 0 0.45403181741865373 -0.16265006392142339 0 0.46411075680305852 -0.1484633664231185 0 0.45403181741865373 -0.16265006392142339 0 0.46924573533770408 -0.17174695379151961 0 0.45403181741865373 -0.16265006392142339 0 0.45434878322574268 -0.17591154150408331 0 0.46924573533770408 -0.17174695379151961 0 0.4474405880070581 -0.1505768187276981 0 0.45403181741865373 -0.16265006392142339 0 0.44004439199357592 -0.15909059478217411 0 0.45403181741865373 -0.16265006392142339 0 0.44004439199357592 -0.15909059478217411 0 0.43912197247345902 -0.17434588539664511 0 0.45403181741865373 -0.16265006392142339 0 0.43912197247345902 -0.17434588539664511 0 0.45434878322574268 -0.17591154150408331 0 0.43912197247345902 -0.17434588539664511 0 0.44736449209859042 -0.18407573354879239 0 0.45434878322574268 -0.17591154150408331 0 0.43912197247345902 -0.17434588539664511 0 0.44736449209859042 -0.18407573354879239 0 0.438137706272687 -0.18832632381318001 0 0.44736449209859042 -0.18407573354879239 0 0.45976134327862139 -0.18592648938534309 0 0.45434878322574268 -0.17591154150408331 0 0.45976134327862139 -0.18592648938534309 0 0.46924573533770408 -0.17174695379151961 0 0.47560872750871858 -0.18989324433890239 0 0.45976134327862139 -0.18592648938534309 0 0.45434878322574268 -0.17591154150408331 0 0.46924573533770408 -0.17174695379151961 0 0.48700514595216521 -0.17571612314344129 0 0.46924573533770408 -0.17174695379151961 0 0.47560872750871858 -0.18989324433890239 0 0.48700514595216521 -0.17571612314344129 0 0.5 -0.16244153368221589 0 0.5 -0.18933951989273981 0 0.48700514595216521 -0.17571612314344129 0 0.47560872750871858 -0.18989324433890239 0 0.5 -0.18933951989273981 0 0.48700514595216521 -0.17571612314344129 0 0.5 -0.16244153368221589 0 0.48818595427245293 -0.1610780959329052 0 0.48700514595216521 -0.17571612314344129 0 0.48818595427245293 -0.1610780959329052 0 0.46924573533770408 -0.17174695379151961 0 0.46411075680305852 -0.1484633664231185 0 0.48818595427245293 -0.1610780959329052 0 0.46924573533770408 -0.17174695379151961 0 0.46411075680305852 -0.1484633664231185 0 0.48818595427245293 -0.1610780959329052 0 0.48641134385041462 -0.1447567675924841 0 0.46411075680305852 -0.1484633664231185 0 0.48641134385041462 -0.1447567675924841 0 0.47421638958792128 -0.13376503927153671 0 0.46411075680305852 -0.1484633664231185 0 0.48818595427245293 -0.1610780959329052 0 0.5 -0.16244153368221589 0 0.48818595427245293 -0.1610780959329052 0 0.48641134385041462 -0.1447567675924841 0 0.5 -0.16244153368221589 0 0.48641134385041462 -0.1447567675924841 0 0.5 -0.13554354747169189 0 0.48641134385041462 -0.1447567675924841 0 0.5 -0.13554354747169189 0 0.48753298543211021 -0.12849596566764529 0 0.47941067824463529 -0.1167009248676731 0 0.48753298543211021 -0.12849596566764529 0 0.47421638958792128 -0.13376503927153671 0 0.47941067824463529 -0.1167009248676731 0 0.45882135648927203 -0.12475628847417861 0 0.47421638958792128 -0.13376503927153671 0 0.48641134385041462 -0.1447567675924841 0 0.48753298543211021 -0.12849596566764529 0 0.47421638958792128 -0.13376503927153671 0 0.46278270059958859 -0.22077539481172229 0 0.46325722067895719 -0.2320712605094524 0 0.47867567890528612 -0.2282223288949928 0 0.46278270059958859 -0.22077539481172229 0 0.46325722067895719 -0.2320712605094524 0 0.44928995078693013 -0.22951317355869499 0 0.46278270059958859 -0.22077539481172229 0 0.44928995078693013 -0.22951317355869499 0 0.44734813901286502 -0.2140447491669959 0 0.46325722067895719 -0.2320712605094524 0 0.45763750880715309 -0.24375050559097469 0 0.47692772094474772 -0.2473023808861855 0 0.45763750880715309 -0.24375050559097469 0 0.47692772094474772 -0.2473023808861855 0 0.46415733678497711 -0.2562309783868677 0 0.46325722067895719 -0.2320712605094524 0 0.45763750880715309 -0.24375050559097469 0 0.44928995078693013 -0.22951317355869499 0 0.45763750880715309 -0.24375050559097469 0 0.44240257060543559 -0.2440352715822105 0 0.44928995078693013 -0.22951317355869499 0 0.45763750880715309 -0.24375050559097469 0 0.44240257060543559 -0.2440352715822105 0 0.45004036294105509 -0.25394544562867039 0 0.43382012878029202 -0.22576163937103319 0 0.44240257060543559 -0.2440352715822105 0 0.44928995078693013 -0.22951317355869499 0 0.43382012878029202 -0.22576163937103319 0 0.44928995078693013 -0.22951317355869499 0 0.44734813901286502 -0.2140447491669959 0 0.43382012878029202 -0.22576163937103319 0 0.43757020951638259 -0.20826750166572131 0 0.44734813901286502 -0.2140447491669959 0 0.43812521421349149 -0.2045633506369334 0 0.45875014280899501 -0.2084547357923773 0 0.43812521421349149 -0.2045633506369334 0 0.44734813901286502 -0.2140447491669959 0 0.45875014280899501 -0.2084547357923773 0 0.43757020951638259 -0.20826750166572131 0 0.43812521421349149 -0.2045633506369334 0 0.44734813901286502 -0.2140447491669959 0 0.43812521421349149 -0.2045633506369334 0 0.44734813901286502 -0.2140447491669959 0 0.43812521421349149 -0.2045633506369334 0 0.438137706272687 -0.18832632381318001 0 0.44966112130960051 -0.19490781081533129 0 0.43812521421349149 -0.2045633506369334 0 0.44966112130960051 -0.19490781081533129 0 0.45875014280899501 -0.2084547357923773 0 0.44736449209859042 -0.18407573354879239 0 0.438137706272687 -0.18832632381318001 0 0.44966112130960051 -0.19490781081533129 0 0.44736449209859042 -0.18407573354879239 0 0.45976134327862139 -0.18592648938534309 0 0.44966112130960051 -0.19490781081533129 0 0.45976134327862139 -0.18592648938534309 0 0.46444343322495207 -0.19854334389874029 0 0.47560872750871858 -0.18989324433890239 0 0.45976134327862139 -0.18592648938534309 0 0.44966112130960051 -0.19490781081533129 0 0.46444343322495207 -0.19854334389874029 0 0.44966112130960051 -0.19490781081533129 0 0.46444343322495207 -0.19854334389874029 0 0.45875014280899501 -0.2084547357923773 0 0.46444343322495207 -0.19854334389874029 0 0.45875014280899501 -0.2084547357923773 0 0.4793750714044987 -0.21234612094782029 0 0.46278270059958859 -0.22077539481172229 0 0.45875014280899501 -0.2084547357923773 0 0.4793750714044987 -0.21234612094782029 0 0.46278270059958859 -0.22077539481172229 0 0.44734813901286502 -0.2140447491669959 0 0.45875014280899501 -0.2084547357923773 0 0.45875014280899501 -0.2084547357923773 0 0.4793750714044987 -0.21234612094782029 0 0.46444343322495207 -0.19854334389874029 0 0.4793750714044987 -0.21234612094782029 0 0.47560872750871858 -0.18989324433890239 0 0.4793750714044987 -0.21234612094782029 0 0.47560872750871858 -0.18989324433890239 0 0.5 -0.18933951989273981 0 0.4793750714044987 -0.21234612094782029 0 0.5 -0.18933951989273981 0 0.50000000000000233 -0.2162375061032637 0 0.4793750714044987 -0.21234612094782029 0 0.50000000000000233 -0.2162375061032637 0 0.4793750714044987 -0.21234612094782029 0 0.50000000000000233 -0.2162375061032637 0 0.47867567890528612 -0.2282223288949928 0 0.50000000000000233 -0.2162375061032637 0 0.47867567890528612 -0.2282223288949928 0 0.5 -0.23864165862383019 0 0.46278270059958859 -0.22077539481172229 0 0.4793750714044987 -0.21234612094782029 0 0.47867567890528612 -0.2282223288949928 0 0.46325722067895719 -0.2320712605094524 0 0.47867567890528612 -0.2282223288949928 0 0.47692772094474772 -0.2473023808861855 0 0.47692772094474772 -0.2473023808861855 0 0.5 -0.23864165862383019 0 0.49999999999999811 -0.26104581114439662 0 0.47867567890528612 -0.2282223288949928 0 0.47692772094474772 -0.2473023808861855 0 0.5 -0.23864165862383019 0 0.47692772094474772 -0.2473023808861855 0 0.49999999999999811 -0.26104581114439662 0 0.47672263219840338 -0.27188124877720571 0 0.49999999999999811 -0.26104581114439662 0 0.47672263219840338 -0.27188124877720571 0 0.49999999999999811 -0.26104581114439662 0 0.47672263219840338 -0.27188124877720571 0 0.5 -0.28756709240105771 0 0.47692772094474772 -0.2473023808861855 0 0.47672263219840338 -0.27188124877720571 0 0.46415733678497711 -0.2562309783868677 0 0.47672263219840338 -0.27188124877720571 0 0.46415733678497711 -0.2562309783868677 0 0.45805134371514727 -0.26748015885925458 0 0.45763750880715309 -0.24375050559097469 0 0.46415733678497711 -0.2562309783868677 0 0.45004036294105509 -0.25394544562867039 0 0.46415733678497711 -0.2562309783868677 0 0.45805134371514727 -0.26748015885925458 0 0.45004036294105509 -0.25394544562867039 0 0.47672263219840338 -0.27188124877720571 0 0.45805134371514727 -0.26748015885925458 0 0.4534452643968091 -0.28271668641001552 0 0.47672263219840338 -0.27188124877720571 0 0.4534452643968091 -0.28271668641001552 0 0.45805134371514727 -0.26748015885925458 0 0.44364628216724272 -0.2660609679613678 0 0.4534452643968091 -0.28271668641001552 0 0.44364628216724272 -0.2660609679613678 0 0.4534452643968091 -0.28271668641001552 0 0.43432358956374972 -0.28049250063503373 0 0.44364628216724272 -0.2660609679613678 0 0.43814373428532938 -0.25489963050429248 0 0.45004036294105509 -0.25394544562867039 0 0.44240257060543559 -0.2440352715822105 0 0.43814373428532938 -0.25489963050429248 0 0.45004036294105509 -0.25394544562867039 0 0.45805134371514727 -0.26748015885925458 0 0.44364628216724272 -0.2660609679613678 0 0.45004036294105509 -0.25394544562867039 0 0.44616195635611111 -0.31188858889163651 0 0.44375237875054008 -0.2991015634520568 0 0.45581465629844847 -0.30177184303298099 0 0.44616195635611111 -0.31188858889163651 0 0.43789578317859928 -0.31554712493831888 0 0.43317212010611678 -0.30557857488282603 0 0.44616195635611111 -0.31188858889163651 0 0.44375237875054008 -0.2991015634520568 0 0.43317212010611678 -0.30557857488282603 0 0.44375237875054008 -0.2991015634520568 0 0.4534452643968091 -0.28271668641001552 0 0.43016789659521482 -0.29355212404282521 0 0.4534452643968091 -0.28271668641001552 0 0.43432358956374972 -0.28049250063503373 0 0.43016789659521482 -0.29355212404282521 0 0.44375237875054008 -0.2991015634520568 0 0.4534452643968091 -0.28271668641001552 0 0.45581465629844847 -0.30177184303298099 0 0.4534452643968091 -0.28271668641001552 0 0.43016789659521482 -0.29355212404282521 0 0.4534452643968091 -0.28271668641001552 0 0.45581465629844847 -0.30177184303298099 0 0.47687187966558281 -0.29677418358886182 0 0.44616195635611111 -0.31188858889163651 0 0.45581465629844847 -0.30177184303298099 0 0.46361970345319398 -0.31784692199609332 0 0.45581465629844847 -0.30177184303298099 0 0.47687187966558281 -0.29677418358886182 0 0.46361970345319398 -0.31784692199609332 0 0.47672263219840338 -0.27188124877720571 0 0.4534452643968091 -0.28271668641001552 0 0.47687187966558281 -0.29677418358886182 0 0.47672263219840338 -0.27188124877720571 0 0.47687187966558281 -0.29677418358886182 0 0.5 -0.28756709240105771 0 0.47687187966558281 -0.29677418358886182 0 0.5 -0.28756709240105771 0 0.5 -0.3140883736577188 0 0.47687187966558281 -0.29677418358886182 0 0.5 -0.3140883736577188 0 0.48192621600154162 -0.32706942309749909 0 0.5 -0.3140883736577188 0 0.5 -0.34060965491437989 0 0.48192621600154162 -0.32706942309749909 0 0.5 -0.34060965491437989 0 0.48192621600154162 -0.32706942309749909 0 0.47078623175717921 -0.35334071401058259 0 0.48192621600154162 -0.32706942309749909 0 0.47078623175717921 -0.35334071401058259 0 0.45922810461968921 -0.33412531615461638 0 0.47687187966558281 -0.29677418358886182 0 0.48192621600154162 -0.32706942309749909 0 0.46361970345319398 -0.31784692199609332 0 0.5 -0.34060965491437989 0 0.5 -0.36713093617104098 0 0.47078623175717921 -0.35334071401058259 0 0.5 -0.36713093617104098 0 0.47078623175717921 -0.35334071401058259 0 0.4729884950483062 -0.38386523202899447 0 0.47078623175717921 -0.35334071401058259 0 0.43466761836031031 -0.34763292886204639 0 0.44222693399467172 -0.37528111455214042 0 0.47078623175717921 -0.35334071401058259 0 0.45922810461968921 -0.33412531615461638 0 0.43466761836031031 -0.34763292886204639 0 0.47078623175717921 -0.35334071401058259 0 0.4729884950483062 -0.38386523202899447 0 0.44222693399467172 -0.37528111455214042 0 0.43466761836031031 -0.34763292886204639 0 0.44222693399467172 -0.37528111455214042 0 0.48192621600154162 -0.32706942309749909 0 0.46361970345319398 -0.31784692199609332 0 0.45922810461968921 -0.33412531615461638 0 0.46361970345319398 -0.31784692199609332 0 0.45922810461968921 -0.33412531615461638 0 0.44514075352622051 -0.32473659280686062 0 0.45922810461968921 -0.33412531615461638 0 0.44514075352622051 -0.32473659280686062 0 0.43466761836031031 -0.34763292886204639 0 0.44616195635611111 -0.31188858889163651 0 0.46361970345319398 -0.31784692199609332 0 0.44514075352622051 -0.32473659280686062 0 0.44616195635611111 -0.31188858889163651 0 0.44514075352622051 -0.32473659280686062 0 0.43789578317859928 -0.31554712493831888 0 0.44514075352622051 -0.32473659280686062 0 0.43789578317859928 -0.31554712493831888 0 0.4271083027259488 -0.31998474317195252 0 0.43789578317859928 -0.31554712493831888 0 0.4271083027259488 -0.31998474317195252 0 0.43317212010611678 -0.30557857488282603 0 0.44514075352622051 -0.32473659280686062 0 0.4271083027259488 -0.31998474317195252 0 0.43466761836031031 -0.34763292886204639 0 0.4271083027259488 -0.31998474317195252 0 0.41117325863989901 -0.33140935543684008 0 0.43466761836031031 -0.34763292886204639 0 0.4271083027259488 -0.31998474317195252 0 0.43466761836031031 -0.34763292886204639 0 0.41117325863989901 -0.33140935543684008 0 0.43466761836031031 -0.34763292886204639 0 0.40942786533903852 -0.34813007088066977 0 0.41117325863989901 -0.33140935543684008 0 0.39955223612323559 -0.31678504512372779 0 0.41536112286574323 -0.31187295645934932 0 0.4271083027259488 -0.31998474317195252 0 0.41117325863989901 -0.33140935543684008 0 0.41536112286574323 -0.31187295645934932 0 0.41117325863989901 -0.33140935543684008 0 0.41536112286574323 -0.31187295645934932 0 0.43466761836031031 -0.34763292886204639 0 0.41376800690319743 -0.36319402098784742 0 0.44222693399467172 -0.37528111455214042 0 0.41376800690319743 -0.36319402098784742 0 0.44222693399467172 -0.37528111455214042 0 0.4143685778888439 -0.38229299944697781 0 0.43466761836031031 -0.34763292886204639 0 0.40942786533903852 -0.34813007088066977 0 0.41376800690319743 -0.36319402098784742 0 0.41376800690319743 -0.36319402098784742 0 0.39118135153709721 -0.37499160631328698 0 0.4143685778888439 -0.38229299944697781 0 0.41376800690319743 -0.36319402098784742 0 0.39118135153709721 -0.37499160631328698 0 0.39437589123711903 -0.35160928447788459 0 0.40942786533903852 -0.34813007088066977 0 0.39437589123711903 -0.35160928447788459 0 0.3960026519848186 -0.3335700397807933 0 0.40942786533903852 -0.34813007088066977 0 0.41376800690319743 -0.36319402098784742 0 0.39437589123711903 -0.35160928447788459 0 0.39437589123711903 -0.35160928447788459 0 0.37745567818242398 -0.35523290955314257 0 0.37876641636483371 -0.33517908000645957 0 0.39118135153709721 -0.37499160631328698 0 0.39437589123711903 -0.35160928447788459 0 0.37745567818242398 -0.35523290955314257 0 0.39118135153709721 -0.37499160631328698 0 0.37745567818242398 -0.35523290955314257 0 0.37243329729732361 -0.37088827984250211 0 0.39955223612323559 -0.31678504512372779 0 0.3960026519848186 -0.3335700397807933 0 0.3831031607676364 -0.31879127960775 0 0.41117325863989901 -0.33140935543684008 0 0.39955223612323559 -0.31678504512372779 0 0.3960026519848186 -0.3335700397807933 0 0.41117325863989901 -0.33140935543684008 0 0.40942786533903852 -0.34813007088066977 0 0.3960026519848186 -0.3335700397807933 0 0.39437589123711903 -0.35160928447788459 0 0.3960026519848186 -0.3335700397807933 0 0.37876641636483371 -0.33517908000645957 0 0.3960026519848186 -0.3335700397807933 0 0.37876641636483371 -0.33517908000645957 0 0.3831031607676364 -0.31879127960775 0 0.37876641636483371 -0.33517908000645957 0 0.3831031607676364 -0.31879127960775 0 0.36445291417355868 -0.31811631148630842 0 0.39955223612323559 -0.31678504512372779 0 0.3831031607676364 -0.31879127960775 0 0.3891465103556655 -0.30506588749216312 0 0.3891465103556655 -0.30506588749216312 0 0.39355229169741651 -0.29151260492975439 0 0.37405506136938982 -0.29858763803945132 0 0.3831031607676364 -0.31879127960775 0 0.3891465103556655 -0.30506588749216312 0 0.37405506136938982 -0.29858763803945132 0 0.39955223612323559 -0.31678504512372779 0 0.3891465103556655 -0.30506588749216312 0 0.40575480465970648 -0.30003281612440008 0 0.3891465103556655 -0.30506588749216312 0 0.40575480465970648 -0.30003281612440008 0 0.39355229169741651 -0.29151260492975439 0 0.40598050688836568 -0.28298265250358701 0 0.40620914758426901 -0.29171615775990001 0 0.39355229169741651 -0.29151260492975439 0 0.40575480465970648 -0.30003281612440008 0 0.40620914758426901 -0.29171615775990001 0 0.39355229169741651 -0.29151260492975439 0 0.40598050688836568 -0.28298265250358701 0 0.39355229169741651 -0.29151260492975439 0 0.39513677647519962 -0.27866449289893858 0 0.39355229169741651 -0.29151260492975439 0 0.37994403405950278 -0.28079549332498799 0 0.39513677647519962 -0.27866449289893858 0 0.39355229169741651 -0.29151260492975439 0 0.37994403405950278 -0.28079549332498799 0 0.39355229169741651 -0.29151260492975439 0 0.37994403405950278 -0.28079549332498799 0 0.37405506136938982 -0.29858763803945132 0 0.37994403405950278 -0.28079549332498799 0 0.383999574826556 -0.26784420072476373 0 0.36633577642158921 -0.27007838172022158 0 0.37994403405950278 -0.28079549332498799 0 0.383999574826556 -0.26784420072476373 0 0.39513677647519962 -0.27866449289893858 0 0.37859261976632369 -0.25015333424025871 0 0.393172287008549 -0.25615578623768992 0 0.37304223959798571 -0.25712158659886297 0 0.383999574826556 -0.26784420072476373 0 0.393172287008549 -0.25615578623768992 0 0.37304223959798571 -0.25712158659886297 0 0.393172287008549 -0.25615578623768992 0 0.37304223959798571 -0.25712158659886297 0 0.37745903527997521 -0.24858839775712019 0 0.37304223959798571 -0.25712158659886297 0 0.37745903527997521 -0.24858839775712019 0 0.37859261976632369 -0.25015333424025871 0 0.37304223959798571 -0.25712158659886297 0 0.38811530409825568 -0.2477310732407865 0 0.37859261976632369 -0.25015333424025871 0 0.393172287008549 -0.25615578623768992 0 0.40593425035732228 -0.24173023989624531 0 0.393172287008549 -0.25615578623768992 0 0.41330233441911218 -0.25518998587651681 0 0.393172287008549 -0.25615578623768992 0 0.39835874425925433 -0.26822136056785101 0 0.41184683727343302 -0.26416595597697212 0 0.393172287008549 -0.25615578623768992 0 0.41330233441911218 -0.25518998587651681 0 0.393172287008549 -0.25615578623768992 0 0.41330233441911218 -0.25518998587651681 0 0.41184683727343302 -0.26416595597697212 0 0.383999574826556 -0.26784420072476373 0 0.393172287008549 -0.25615578623768992 0 0.39835874425925433 -0.26822136056785101 0 0.383999574826556 -0.26784420072476373 0 0.39513677647519962 -0.27866449289893858 0 0.39835874425925433 -0.26822136056785101 0 0.39835874425925433 -0.26822136056785101 0 0.40666210367248168 -0.2745680398173716 0 0.41184683727343302 -0.26416595597697212 0 0.40598050688836568 -0.28298265250358701 0 0.39513677647519962 -0.27866449289893858 0 0.40666210367248168 -0.2745680398173716 0 0.39513677647519962 -0.27866449289893858 0 0.39835874425925433 -0.26822136056785101 0 0.40666210367248168 -0.2745680398173716 0 0.41184683727343302 -0.26416595597697212 0 0.42480951756789442 -0.26779616727910183 0 0.41954898709158739 -0.29233655748185838 0 0.40666210367248168 -0.2745680398173716 0 0.41184683727343302 -0.26416595597697212 0 0.41954898709158739 -0.29233655748185838 0 0.41184683727343302 -0.26416595597697212 0 0.41954898709158739 -0.29233655748185838 0 0.41819615469735533 -0.25949408431673571 0 0.4212357442112688 -0.25179690406534228 0 0.42480951756789442 -0.26779616727910183 0 0.41184683727343302 -0.26416595597697212 0 0.41819615469735533 -0.25949408431673571 0 0.42480951756789442 -0.26779616727910183 0 0.41330233441911218 -0.25518998587651681 0 0.41184683727343302 -0.26416595597697212 0 0.41819615469735533 -0.25949408431673571 0 0.41330233441911218 -0.25518998587651681 0 0.41819615469735533 -0.25949408431673571 0 0.4212357442112688 -0.25179690406534228 0 0.4300700480442034 -0.24325577707634541 0 0.42480951756789442 -0.26779616727910183 0 0.4300700480442034 -0.24325577707634541 0 0.4212357442112688 -0.25179690406534228 0 0.42480951756789442 -0.26779616727910183 0 0.4300700480442034 -0.24325577707634541 0 0.43814373428532938 -0.25489963050429248 0 0.42480951756789442 -0.26779616727910183 0 0.44364628216724272 -0.2660609679613678 0 0.43814373428532938 -0.25489963050429248 0 0.42480951756789442 -0.26779616727910183 0 0.42480951756789442 -0.26779616727910183 0 0.41954898709158739 -0.29233655748185838 0 0.42480951756789442 -0.26779616727910183 0 0.43432358956374972 -0.28049250063503373 0 0.41954898709158739 -0.29233655748185838 0 0.44364628216724272 -0.2660609679613678 0 0.42480951756789442 -0.26779616727910183 0 0.43432358956374972 -0.28049250063503373 0 0.43432358956374972 -0.28049250063503373 0 0.43016789659521482 -0.29355212404282521 0 0.41954898709158739 -0.29233655748185838 0 0.44375237875054008 -0.2991015634520568 0 0.43016789659521482 -0.29355212404282521 0 0.43317212010611678 -0.30557857488282603 0 0.4271083027259488 -0.31998474317195252 0 0.43317212010611678 -0.30557857488282603 0 0.41954898709158739 -0.29233655748185838 0 0.4271083027259488 -0.31998474317195252 0 0.41954898709158739 -0.29233655748185838 0 0.43016789659521482 -0.29355212404282521 0 0.43317212010611678 -0.30557857488282603 0 0.41954898709158739 -0.29233655748185838 0 0.41536112286574323 -0.31187295645934932 0 0.41954898709158739 -0.29233655748185838 0 0.39955223612323559 -0.31678504512372779 0 0.40575480465970648 -0.30003281612440008 0 0.41536112286574323 -0.31187295645934932 0 0.4271083027259488 -0.31998474317195252 0 0.41536112286574323 -0.31187295645934932 0 0.41954898709158739 -0.29233655748185838 0 0.40575480465970648 -0.30003281612440008 0 0.41536112286574323 -0.31187295645934932 0 0.41954898709158739 -0.29233655748185838 0 0.40598050688836568 -0.28298265250358701 0 0.40666210367248168 -0.2745680398173716 0 0.41954898709158739 -0.29233655748185838 0 0.40575480465970648 -0.30003281612440008 0 0.40620914758426901 -0.29171615775990001 0 0.41954898709158739 -0.29233655748185838 0 0.40598050688836568 -0.28298265250358701 0 0.40620914758426901 -0.29171615775990001 0 0.41954898709158739 -0.29233655748185838 0 0.44769845608331821 -0.5 0 0.44889380593085298 -0.48263182068477739 0 0.43589520719074842 -0.49010956072825929 0 0.45768093496797158 -0.47084307522877011 0 0.43652140245195659 -0.46690124181353898 0 0.44889380593085298 -0.48263182068477739 0 0.45768093496797158 -0.47084307522877011 0 0.43652140245195659 -0.46690124181353898 0 0.45768093496797158 -0.47084307522877011 0 0.46515818139654558 -0.47982472574570512 0 0.47884046748398662 -0.47478490864400108 0 0.45768093496797158 -0.47084307522877011 0 0.47884046748398662 -0.47478490864400108 0 0.44889380593085298 -0.48263182068477739 0 0.45768093496797158 -0.47084307522877011 0 0.46515818139654558 -0.47982472574570512 0 0.44769845608331821 -0.5 0 0.44889380593085298 -0.48263182068477739 0 0.47229157800854732 -0.49131591034237942 0 0.44889380593085298 -0.48263182068477739 0 0.47229157800854732 -0.49131591034237942 0 0.44769845608331821 -0.5 0 0.47229157800854732 -0.49131591034237942 0 0.47169390308477832 -0.5 0 0.44889380593085298 -0.48263182068477739 0 0.46515818139654558 -0.47982472574570512 0 0.47229157800854732 -0.49131591034237942 0 0.47229157800854732 -0.49131591034237942 0 0.48936427911575447 -0.48896551220912249 0 0.47884046748398662 -0.47478490864400108 0 0.47229157800854732 -0.49131591034237942 0 0.49568935008623849 -0.49999999999999017 0 0.47229157800854732 -0.49131591034237942 0 0.47169390308477832 -0.5 0 0.49568935008623849 -0.49999999999999017 0 0.48936427911575447 -0.48896551220912249 0 0.5 -0.5 0 0.50000000000000155 -0.47872674205923249 0 0.47229157800854732 -0.49131591034237942 0 0.48936427911575447 -0.48896551220912249 0 0.49568935008623849 -0.49999999999999017 0 0.48936427911575447 -0.48896551220912249 0 0.49568935008623849 -0.49999999999999017 0 0.5 -0.5 0 0.48936427911575447 -0.48896551220912249 0 0.50000000000000155 -0.47872674205923249 0 0.47884046748398662 -0.47478490864400108 0 0.50000000000000155 -0.47872674205923249 0 0.47884046748398662 -0.47478490864400108 0 0.50000000000000155 -0.47872674205923249 0 0.47884046748398662 -0.47478490864400108 0 0.5 -0.46271076100012831 0 0.46515818139654558 -0.47982472574570512 0 0.47229157800854732 -0.49131591034237942 0 0.47884046748398662 -0.47478490864400108 0 0.48385669411819432 -0.45899792111832999 0 0.47511746918229758 -0.44492605371200372 0 0.46579729063721248 -0.45846758748605693 0 0.47884046748398662 -0.47478490864400108 0 0.48385669411819432 -0.45899792111832999 0 0.46579729063721248 -0.45846758748605693 0 0.47884046748398662 -0.47478490864400108 0 0.48385669411819432 -0.45899792111832999 0 0.5 -0.46271076100012831 0 0.48385669411819432 -0.45899792111832999 0 0.5 -0.46271076100012831 0 0.49999999999999739 -0.44669477994102402 0 0.49999999999999739 -0.44669477994102402 0 0.47511746918229758 -0.44492605371200372 0 0.48843847816774488 -0.43343413931269359 0 0.48385669411819432 -0.45899792111832999 0 0.49999999999999739 -0.44669477994102402 0 0.47511746918229758 -0.44492605371200372 0 0.49999999999999739 -0.44669477994102402 0 0.47511746918229758 -0.44492605371200372 0 0.47511746918229758 -0.44492605371200372 0 0.45023493836459783 -0.44315732748298298 0 0.47511746918229758 -0.44492605371200372 0 0.45023493836459783 -0.44315732748298298 0 0.45734556526339459 -0.43057748593232831 0 0.47511746918229758 -0.44492605371200372 0 0.46579729063721248 -0.45846758748605693 0 0.45023493836459783 -0.44315732748298298 0 0.46579729063721248 -0.45846758748605693 0 0.44905323970622729 -0.45809623873025362 0 0.45023493836459783 -0.44315732748298298 0 0.45768093496797158 -0.47084307522877011 0 0.47884046748398662 -0.47478490864400108 0 0.46579729063721248 -0.45846758748605693 0 0.45768093496797158 -0.47084307522877011 0 0.46579729063721248 -0.45846758748605693 0 0.44905323970622729 -0.45809623873025362 0 0.45768093496797158 -0.47084307522877011 0 0.44905323970622729 -0.45809623873025362 0 0.43652140245195659 -0.46690124181353898 0 0.44905323970622729 -0.45809623873025362 0 0.43643337378988217 -0.45323981384317052 0 0.43652140245195659 -0.46690124181353898 0 0.44905323970622729 -0.45809623873025362 0 0.45023493836459783 -0.44315732748298298 0 0.43643337378988217 -0.45323981384317052 0 0.45023493836459783 -0.44315732748298298 0 0.43878097380376718 -0.42838356567346619 0 0.4253524075468979 -0.44138860125396229 0 0.45023493836459783 -0.44315732748298298 0 0.4253524075468979 -0.44138860125396229 0 0.45023493836459783 -0.44315732748298298 0 0.43878097380376718 -0.42838356567346619 0 0.45734556526339459 -0.43057748593232831 0 0.43878097380376718 -0.42838356567346619 0 0.44978624962903307 -0.40292930024223428 0 0.4271898336155231 -0.41535740714402858 0 0.43878097380376718 -0.42838356567346619 0 0.45734556526339459 -0.43057748593232831 0 0.44978624962903307 -0.40292930024223428 0 0.45734556526339459 -0.43057748593232831 0 0.4751315549089532 -0.4108571097702669 0 0.44978624962903307 -0.40292930024223428 0 0.45734556526339459 -0.43057748593232831 0 0.44978624962903307 -0.40292930024223428 0 0.45734556526339459 -0.43057748593232831 0 0.47337458174322872 -0.4293806111560719 0 0.4751315549089532 -0.4108571097702669 0 0.47511746918229758 -0.44492605371200372 0 0.45734556526339459 -0.43057748593232831 0 0.47337458174322872 -0.4293806111560719 0 0.47337458174322872 -0.4293806111560719 0 0.48843847816774488 -0.43343413931269359 0 0.4751315549089532 -0.4108571097702669 0 0.47511746918229758 -0.44492605371200372 0 0.47337458174322872 -0.4293806111560719 0 0.48843847816774488 -0.43343413931269359 0 0.49999999999999739 -0.44669477994102402 0 0.48843847816774488 -0.43343413931269359 0 0.5 -0.42017349868436299 0 0.48843847816774488 -0.43343413931269359 0 0.5 -0.42017349868436299 0 0.4751315549089532 -0.4108571097702669 0 0.5 -0.42017349868436299 0 0.4751315549089532 -0.4108571097702669 0 0.5 -0.39365221742770201 0 0.4751315549089532 -0.4108571097702669 0 0.5 -0.39365221742770201 0 0.4729884950483062 -0.38386523202899447 0 0.5 -0.36713093617104098 0 0.5 -0.39365221742770201 0 0.4729884950483062 -0.38386523202899447 0 0.4729884950483062 -0.38386523202899447 0 0.44978624962903307 -0.40292930024223428 0 0.44222693399467172 -0.37528111455214042 0 0.4751315549089532 -0.4108571097702669 0 0.4729884950483062 -0.38386523202899447 0 0.44978624962903307 -0.40292930024223428 0 0.44978624962903307 -0.40292930024223428 0 0.44222693399467172 -0.37528111455214042 0 0.42320171838271492 -0.39865736387118061 0 0.44978624962903307 -0.40292930024223428 0 0.44222693399467172 -0.37528111455214042 0 0.44222693399467172 -0.37528111455214042 0 0.42320171838271492 -0.39865736387118061 0 0.4143685778888439 -0.38229299944697781 0 0.44978624962903307 -0.40292930024223428 0 0.42320171838271492 -0.39865736387118061 0 0.4271898336155231 -0.41535740714402858 0 0.42320171838271492 -0.39865736387118061 0 0.40163760201925519 -0.39631730949482102 0 0.40781947112247702 -0.41855356625945911 0 0.42320171838271492 -0.39865736387118061 0 0.4143685778888439 -0.38229299944697781 0 0.40163760201925519 -0.39631730949482102 0 0.39118135153709721 -0.37499160631328698 0 0.38538372912436702 -0.39403093766065778 0 0.40163760201925519 -0.39631730949482102 0 0.39118135153709721 -0.37499160631328698 0 0.4143685778888439 -0.38229299944697781 0 0.40163760201925519 -0.39631730949482102 0 0.39118135153709721 -0.37499160631328698 0 0.38538372912436702 -0.39403093766065778 0 0.37023720555021111 -0.38874472631070239 0 0.39118135153709721 -0.37499160631328698 0 0.37023720555021111 -0.38874472631070239 0 0.37243329729732361 -0.37088827984250211 0 0.38538372912436702 -0.39403093766065778 0 0.38787076406003163 -0.40937738341736379 0 0.37203598080873579 -0.40458881706514238 0 0.38538372912436702 -0.39403093766065778 0 0.37203598080873579 -0.40458881706514238 0 0.37023720555021111 -0.38874472631070239 0 0.38538372912436702 -0.39403093766065778 0 0.40163760201925519 -0.39631730949482102 0 0.38787076406003163 -0.40937738341736379 0 0.38787076406003163 -0.40937738341736379 0 0.38560340970403251 -0.42781940149892872 0 0.40781947112247702 -0.41855356625945911 0 0.40163760201925519 -0.39631730949482102 0 0.38787076406003163 -0.40937738341736379 0 0.40781947112247702 -0.41855356625945911 0 0.38787076406003163 -0.40937738341736379 0 0.38560340970403251 -0.42781940149892872 0 0.37381439094596441 -0.41700020142736638 0 0.38787076406003163 -0.40937738341736379 0 0.37381439094596441 -0.41700020142736638 0 0.37203598080873579 -0.40458881706514238 0 0.38560340970403251 -0.42781940149892872 0 0.36742076328493117 -0.43326498562245541 0 0.37381439094596441 -0.41700020142736638 0 0.38560340970403251 -0.42781940149892872 0 0.40781947112247702 -0.41855356625945911 0 0.40046987672919793 -0.43961987502494171 0 0.40781947112247702 -0.41855356625945911 0 0.4253524075468979 -0.44138860125396229 0 0.40046987672919793 -0.43961987502494171 0 0.40781947112247702 -0.41855356625945911 0 0.4271898336155231 -0.41535740714402858 0 0.4253524075468979 -0.44138860125396229 0 0.42320171838271492 -0.39865736387118061 0 0.40781947112247702 -0.41855356625945911 0 0.4271898336155231 -0.41535740714402858 0 0.43878097380376718 -0.42838356567346619 0 0.4271898336155231 -0.41535740714402858 0 0.4253524075468979 -0.44138860125396229 0 0.45023493836459783 -0.44315732748298298 0 0.4253524075468979 -0.44138860125396229 0 0.43643337378988217 -0.45323981384317052 0 0.4253524075468979 -0.44138860125396229 0 0.43643337378988217 -0.45323981384317052 0 0.42100488087973142 -0.4566556599351147 0 0.43652140245195659 -0.46690124181353898 0 0.42100488087973142 -0.4566556599351147 0 0.42549603385315848 -0.47394773102717541 0 0.43643337378988217 -0.45323981384317052 0 0.43652140245195659 -0.46690124181353898 0 0.42100488087973142 -0.4566556599351147 0 0.42100488087973142 -0.4566556599351147 0 0.40046987672919793 -0.43961987502494171 0 0.40209826177546409 -0.46526364136957338 0 0.42100488087973142 -0.4566556599351147 0 0.40209826177546409 -0.46526364136957338 0 0.42549603385315848 -0.47394773102717541 0 0.4253524075468979 -0.44138860125396229 0 0.40046987672919793 -0.43961987502494171 0 0.4253524075468979 -0.44138860125396229 0 0.42100488087973142 -0.4566556599351147 0 0.40046987672919793 -0.43961987502494171 0 0.38560340970403251 -0.42781940149892872 0 0.37870048969777032 -0.45657955171196979 0 0.36742076328493117 -0.43326498562245541 0 0.38560340970403251 -0.42781940149892872 0 0.40046987672919793 -0.43961987502494171 0 0.37870048969777032 -0.45657955171196979 0 0.37870048969777032 -0.45657955171196979 0 0.38920402588908393 -0.47828977585598698 0 0.37870048969777032 -0.45657955171196979 0 0.40209826177546409 -0.46526364136957338 0 0.37870048969777032 -0.45657955171196979 0 0.40209826177546409 -0.46526364136957338 0 0.38920402588908393 -0.47828977585598698 0 0.40046987672919793 -0.43961987502494171 0 0.37870048969777032 -0.45657955171196979 0 0.40209826177546409 -0.46526364136957338 0 0.40209826177546409 -0.46526364136957338 0 0.38920402588908393 -0.47828977585598698 0 0.40804177853599238 -0.48350022965054718 0 0.37870048969777032 -0.45657955171196979 0 0.38920402588908393 -0.47828977585598698 0 0.35806679613767961 -0.47491046590942387 0 0.38920402588908393 -0.47828977585598698 0 0.39970756208039782 -0.50000000000000389 0 0.36971519637197148 -0.5 0 0.38920402588908393 -0.47828977585598698 0 0.39970756208039782 -0.50000000000000389 0 0.40804177853599238 -0.48350022965054718 0 0.38920402588908393 -0.47828977585598698 0 0.39970756208039782 -0.50000000000000389 0 0.39970756208039782 -0.50000000000000389 0 0.40804177853599238 -0.48350022965054718 0 0.42370300908185798 -0.5 0 0.40804177853599238 -0.48350022965054718 0 0.42549603385315848 -0.47394773102717541 0 0.42370300908185798 -0.5 0 0.40209826177546409 -0.46526364136957338 0 0.40804177853599238 -0.48350022965054718 0 0.42549603385315848 -0.47394773102717541 0 0.40209826177546409 -0.46526364136957338 0 0.42549603385315848 -0.47394773102717541 0 0.44889380593085298 -0.48263182068477739 0 0.42549603385315848 -0.47394773102717541 0 0.44889380593085298 -0.48263182068477739 0 0.42549603385315848 -0.47394773102717541 0 0.43589520719074842 -0.49010956072825929 0 0.44889380593085298 -0.48263182068477739 0 0.43652140245195659 -0.46690124181353898 0 0.42549603385315848 -0.47394773102717541 0 0.42549603385315848 -0.47394773102717541 0 0.42370300908185798 -0.5 0 0.43589520719074842 -0.49010956072825929 0 0.44769845608331821 -0.5 0 0.42370300908185798 -0.5 0 0.43589520719074842 -0.49010956072825929 0 0.32113837078791768 -0.47644710644787119 0 0.33972283066354508 -0.5 0 0.3097304649551188 -0.5 0 0.32113837078791768 -0.47644710644787119 0 0.31074234752855989 -0.45938424709744319 0 0.30712257972765628 -0.47119894156359071 0 0.32113837078791768 -0.47644710644787119 0 0.33926981713300092 -0.480582220797382 0 0.33751420021265183 -0.46212548844681012 0 0.32113837078791768 -0.47644710644787119 0 0.33926981713300092 -0.480582220797382 0 0.33972283066354508 -0.5 0 0.33972283066354508 -0.5 0 0.36971519637197148 -0.5 0 0.35806679613767961 -0.47491046590942387 0 0.33926981713300092 -0.480582220797382 0 0.33972283066354508 -0.5 0 0.35806679613767961 -0.47491046590942387 0 0.38920402588908393 -0.47828977585598698 0 0.36971519637197148 -0.5 0 0.35806679613767961 -0.47491046590942387 0 0.33926981713300092 -0.480582220797382 0 0.35806679613767961 -0.47491046590942387 0 0.33751420021265183 -0.46212548844681012 0 0.35806679613767961 -0.47491046590942387 0 0.35234101299573239 -0.44679622455381912 0 0.33751420021265183 -0.46212548844681012 0 0.37870048969777032 -0.45657955171196979 0 0.35806679613767961 -0.47491046590942387 0 0.35234101299573239 -0.44679622455381912 0 0.37870048969777032 -0.45657955171196979 0 0.35234101299573239 -0.44679622455381912 0 0.37870048969777032 -0.45657955171196979 0 0.36742076328493117 -0.43326498562245541 0 0.37870048969777032 -0.45657955171196979 0 0.35234101299573239 -0.44679622455381912 0 0.36742076328493117 -0.43326498562245541 0 0.35234101299573239 -0.44679622455381912 0 0.3535392022237539 -0.4342199093836917 0 0.36742076328493117 -0.43326498562245541 0 0.35234101299573239 -0.44679622455381912 0 0.32598153629369531 -0.43701289739566712 0 0.34199580634063792 -0.43025565760406759 0 0.35234101299573239 -0.44679622455381912 0 0.32545017476095789 -0.44476864528362381 0 0.32598153629369531 -0.43701289739566712 0 0.35234101299573239 -0.44679622455381912 0 0.33751420021265183 -0.46212548844681012 0 0.32545017476095789 -0.44476864528362381 0 0.35234101299573239 -0.44679622455381912 0 0.32598153629369531 -0.43701289739566712 0 0.33751420021265183 -0.46212548844681012 0 0.32392612039261309 -0.45826935328437052 0 0.32545017476095789 -0.44476864528362381 0 0.32113837078791768 -0.47644710644787119 0 0.33751420021265183 -0.46212548844681012 0 0.32392612039261309 -0.45826935328437052 0 0.32113837078791768 -0.47644710644787119 0 0.32392612039261309 -0.45826935328437052 0 0.31074234752855989 -0.45938424709744319 0 0.32392612039261309 -0.45826935328437052 0 0.31528310905325541 -0.44938634806320671 0 0.31074234752855989 -0.45938424709744319 0 0.31528310905325541 -0.44938634806320671 0 0.32545017476095789 -0.44476864528362381 0 0.31133004202808878 -0.43990517097962101 0 0.32545017476095789 -0.44476864528362381 0 0.32598153629369531 -0.43701289739566712 0 0.31133004202808878 -0.43990517097962101 0 0.32545017476095789 -0.44476864528362381 0 0.32598153629369531 -0.43701289739566712 0 0.32392612039261309 -0.45826935328437052 0 0.31528310905325541 -0.44938634806320671 0 0.32545017476095789 -0.44476864528362381 0 0.32598153629369531 -0.43701289739566712 0 0.31494503618367919 -0.42213172599165438 0 0.32705275012109508 -0.4213774705392902 0 0.32598153629369531 -0.43701289739566712 0 0.30211338262554138 -0.42815422547906712 0 0.31133004202808878 -0.43990517097962101 0 0.32598153629369531 -0.43701289739566712 0 0.31494503618367919 -0.42213172599165438 0 0.30211338262554138 -0.42815422547906712 0 0.32598153629369531 -0.43701289739566712 0 0.30211338262554138 -0.42815422547906712 0 0.32598153629369531 -0.43701289739566712 0 0.32705275012109508 -0.4213774705392902 0 0.31494503618367919 -0.42213172599165438 0 0.32008082965803109 -0.41617653050303111 0 0.31191144662711012 -0.41271871792565462 0 0.32008082965803109 -0.41617653050303111 0 0.32705275012109508 -0.4213774705392902 0 0.32812396394849469 -0.40574204368291328 0 0.32705275012109508 -0.4213774705392902 0 0.32812396394849469 -0.40574204368291328 0 0.31792331528208118 -0.40954458860781362 0 0.32812396394849469 -0.40574204368291328 0 0.31157702089468903 -0.40354106231965531 0 0.31792331528208118 -0.40954458860781362 0 0.31157702089468903 -0.40354106231965531 0 0.31191144662711012 -0.41271871792565462 0 0.32008082965803109 -0.41617653050303111 0 0.31792331528208118 -0.40954458860781362 0 0.31191144662711012 -0.41271871792565462 0 0.32008082965803109 -0.41617653050303111 0 0.31792331528208118 -0.40954458860781362 0 0.32812396394849469 -0.40574204368291328 0 0.31494503618367919 -0.42213172599165438 0 0.32008082965803109 -0.41617653050303111 0 0.32705275012109508 -0.4213774705392902 0 0.32705275012109508 -0.4213774705392902 0 0.33350724204165189 -0.41396527155726148 0 0.33789866058392332 -0.42125444737563511 0 0.34328026846778797 -0.4129216652254632 0 0.34629917425222739 -0.40795182379133599 0 0.32812396394849469 -0.40574204368291328 0 0.32705275012109508 -0.4213774705392902 0 0.33350724204165189 -0.41396527155726148 0 0.32812396394849469 -0.40574204368291328 0 0.34328026846778797 -0.4129216652254632 0 0.32812396394849469 -0.40574204368291328 0 0.33350724204165189 -0.41396527155726148 0 0.34328026846778797 -0.4129216652254632 0 0.32812396394849469 -0.40574204368291328 0 0.33350724204165189 -0.41396527155726148 0 0.34328026846778797 -0.4129216652254632 0 0.33789866058392332 -0.42125444737563511 0 0.34328026846778797 -0.4129216652254632 0 0.33789866058392332 -0.42125444737563511 0 0.34488165002473142 -0.42038650838727609 0 0.33789866058392332 -0.42125444737563511 0 0.34199580634063792 -0.43025565760406759 0 0.34488165002473142 -0.42038650838727609 0 0.32598153629369531 -0.43701289739566712 0 0.33323218833483792 -0.42747511822866502 0 0.34199580634063792 -0.43025565760406759 0 0.32598153629369531 -0.43701289739566712 0 0.32705275012109508 -0.4213774705392902 0 0.33323218833483792 -0.42747511822866502 0 0.33789866058392332 -0.42125444737563511 0 0.33323218833483792 -0.42747511822866502 0 0.34199580634063792 -0.43025565760406759 0 0.32705275012109508 -0.4213774705392902 0 0.33789866058392332 -0.42125444737563511 0 0.33323218833483792 -0.42747511822866502 0 0.35234101299573239 -0.44679622455381912 0 0.34199580634063792 -0.43025565760406759 0 0.3535392022237539 -0.4342199093836917 0 0.35239742531667873 -0.42291011550410829 0 0.36742076328493117 -0.43326498562245541 0 0.35614103687209098 -0.40995041953294159 0 0.34199580634063792 -0.43025565760406759 0 0.35239742531667873 -0.42291011550410829 0 0.34488165002473142 -0.42038650838727609 0 0.34199580634063792 -0.43025565760406759 0 0.35239742531667873 -0.42291011550410829 0 0.3535392022237539 -0.4342199093836917 0 0.35239742531667873 -0.42291011550410829 0 0.3535392022237539 -0.4342199093836917 0 0.36742076328493117 -0.43326498562245541 0 0.36742076328493117 -0.43326498562245541 0 0.37381439094596441 -0.41700020142736638 0 0.35614103687209098 -0.40995041953294159 0 0.37381439094596441 -0.41700020142736638 0 0.35614103687209098 -0.40995041953294159 0 0.37203598080873579 -0.40458881706514238 0 0.36742076328493117 -0.43326498562245541 0 0.35614103687209098 -0.40995041953294159 0 0.35239742531667873 -0.42291011550410829 0 0.35614103687209098 -0.40995041953294159 0 0.34883608941462912 -0.414590656227106 0 0.35239742531667873 -0.42291011550410829 0 0.34883608941462912 -0.414590656227106 0 0.34488165002473142 -0.42038650838727609 0 0.34328026846778797 -0.4129216652254632 0 0.34883608941462912 -0.414590656227106 0 0.34488165002473142 -0.42038650838727609 0 0.35614103687209098 -0.40995041953294159 0 0.34883608941462912 -0.414590656227106 0 0.34629917425222739 -0.40795182379133599 0 0.34328026846778797 -0.4129216652254632 0 0.34883608941462912 -0.414590656227106 0 0.34629917425222739 -0.40795182379133599 0 0.35614103687209098 -0.40995041953294159 0 0.34486131045925078 -0.38663585344342771 0 0.34166762533084177 -0.39822247195355631 0 0.35614103687209098 -0.40995041953294159 0 0.34629917425222739 -0.40795182379133599 0 0.34166762533084177 -0.39822247195355631 0 0.35614103687209098 -0.40995041953294159 0 0.36029902070265929 -0.39390885976582801 0 0.34486131045925078 -0.38663585344342771 0 0.35614103687209098 -0.40995041953294159 0 0.34486131045925078 -0.38663585344342771 0 0.35614103687209098 -0.40995041953294159 0 0.37203598080873579 -0.40458881706514238 0 0.36029902070265929 -0.39390885976582801 0 0.37203598080873579 -0.40458881706514238 0 0.36029902070265929 -0.39390885976582801 0 0.37023720555021111 -0.38874472631070239 0 0.37023720555021111 -0.38874472631070239 0 0.35821956982300768 -0.37962448247692571 0 0.37243329729732361 -0.37088827984250211 0 0.36029902070265929 -0.39390885976582801 0 0.37023720555021111 -0.38874472631070239 0 0.35821956982300768 -0.37962448247692571 0 0.36029902070265929 -0.39390885976582801 0 0.35821956982300768 -0.37962448247692571 0 0.34486131045925078 -0.38663585344342771 0 0.35821956982300768 -0.37962448247692571 0 0.34486131045925078 -0.38663585344342771 0 0.34434308839012029 -0.37137035879876928 0 0.34486131045925078 -0.38663585344342771 0 0.3297417333155454 -0.38212909735790052 0 0.34434308839012029 -0.37137035879876928 0 0.3297417333155454 -0.38212909735790052 0 0.33578771833392917 -0.39086786222769332 0 0.32868588638501051 -0.3975402291334848 0 0.3297417333155454 -0.38212909735790052 0 0.32868588638501051 -0.3975402291334848 0 0.34486131045925078 -0.38663585344342771 0 0.3297417333155454 -0.38212909735790052 0 0.33578771833392917 -0.39086786222769332 0 0.34629917425222739 -0.40795182379133599 0 0.32868588638501051 -0.3975402291334848 0 0.34629917425222739 -0.40795182379133599 0 0.32868588638501051 -0.3975402291334848 0 0.32812396394849469 -0.40574204368291328 0 0.34629917425222739 -0.40795182379133599 0 0.34166762533084177 -0.39822247195355631 0 0.32868588638501051 -0.3975402291334848 0 0.34486131045925078 -0.38663585344342771 0 0.34166762533084177 -0.39822247195355631 0 0.33578771833392917 -0.39086786222769332 0 0.32868588638501051 -0.3975402291334848 0 0.32812396394849469 -0.40574204368291328 0 0.34166762533084177 -0.39822247195355631 0 0.33578771833392917 -0.39086786222769332 0 0.32868588638501051 -0.3975402291334848 0 0.32868588638501051 -0.3975402291334848 0 0.32812396394849469 -0.40574204368291328 0 0.30639213576444663 -0.39620249590825851 0 0.32812396394849469 -0.40574204368291328 0 0.30639213576444663 -0.39620249590825851 0 0.32868588638501051 -0.3975402291334848 0 0.30474023384857252 -0.38338543702956263 0 0.30639213576444663 -0.39620249590825851 0 0.32812396394849469 -0.40574204368291328 0 0.30639213576444663 -0.39620249590825851 0 0.31157702089468903 -0.40354106231965531 0 0.32868588638501051 -0.3975402291334848 0 0.30474023384857252 -0.38338543702956263 0 0.3297417333155454 -0.38212909735790052 0 0.32868588638501051 -0.3975402291334848 0 0.31924425242398879 -0.38054543704114729 0 0.32868588638501051 -0.3975402291334848 0 0.31924425242398879 -0.38054543704114729 0 0.30474023384857252 -0.38338543702956263 0 0.3297417333155454 -0.38212909735790052 0 0.31924425242398879 -0.38054543704114729 0 0.33079758024607903 -0.36671796558231601 0 0.30474023384857252 -0.38338543702956263 0 0.30639213576444663 -0.39620249590825851 0 0.28519113804577229 -0.38540453717917778 0 0.31924425242398879 -0.38054543704114729 0 0.30474023384857252 -0.38338543702956263 0 0.31212478444524738 -0.36737772692792892 0 0.30639213576444663 -0.39620249590825851 0 0.31157702089468903 -0.40354106231965531 0 0.30494591148475397 -0.40751236299923221 0 0.30639213576444663 -0.39620249590825851 0 0.29231868236092179 -0.40774902473537589 0 0.30494591148475397 -0.40751236299923221 0 0.30639213576444663 -0.39620249590825851 0 0.29231868236092179 -0.40774902473537589 0 0.30639213576444663 -0.39620249590825851 0 0.28519113804577229 -0.38540453717917778 0 0.29231868236092179 -0.40774902473537589 0 0.28519113804577229 -0.38540453717917778 0 0.27498324033842719 -0.40096972964356681 0 0.29231868236092179 -0.40774902473537589 0 0.30639213576444663 -0.39620249590825851 0 0.28519113804577229 -0.38540453717917778 0 0.30474023384857252 -0.38338543702956263 0 0.28519113804577229 -0.38540453717917778 0 0.28079458131213608 -0.36923064492563779 0 0.30474023384857252 -0.38338543702956263 0 0.28079458131213608 -0.36923064492563779 0 0.28519113804577229 -0.38540453717917778 0 0.26372472509441119 -0.37523578392730988 0 0.28079458131213608 -0.36923064492563779 0 0.28519113804577229 -0.38540453717917778 0 0.26372472509441119 -0.37523578392730988 0 0.26184445349525393 -0.39176430216584029 0 0.28519113804577229 -0.38540453717917778 0 0.26372472509441119 -0.37523578392730988 0 0.26372472509441119 -0.37523578392730988 0 0.24225831214304999 -0.36506703067544211 0 0.24606680816782681 -0.38702931327303142 0 0.26372472509441119 -0.37523578392730988 0 0.26184445349525393 -0.39176430216584029 0 0.24606680816782681 -0.38702931327303142 0 0.26184445349525393 -0.39176430216584029 0 0.25249041835959912 -0.40973664839820312 0 0.24606680816782681 -0.38702931327303142 0 0.26184445349525393 -0.39176430216584029 0 0.27498324033842719 -0.40096972964356681 0 0.25249041835959912 -0.40973664839820312 0 0.28519113804577229 -0.38540453717917778 0 0.26184445349525393 -0.39176430216584029 0 0.27498324033842719 -0.40096972964356681 0 0.27498324033842719 -0.40096972964356681 0 0.27824522895738379 -0.41929555356247727 0 0.25249041835959912 -0.40973664839820312 0 0.27824522895738379 -0.41929555356247727 0 0.25249041835959912 -0.40973664839820312 0 0.27824522895738379 -0.41929555356247727 0 0.25249041835959912 -0.40973664839820312 0 0.26231395272875702 -0.43236632837180161 0 0.27824522895738379 -0.41929555356247727 0 0.26231395272875702 -0.43236632837180161 0 0.27824522895738379 -0.41929555356247727 0 0.26231395272875702 -0.43236632837180161 0 0.28226496738075518 -0.43995178334548141 0 0.27824522895738379 -0.41929555356247727 0 0.30211338262554138 -0.42815422547906712 0 0.27824522895738379 -0.41929555356247727 0 0.30211338262554138 -0.42815422547906712 0 0.28226496738075518 -0.43995178334548141 0 0.27498324033842719 -0.40096972964356681 0 0.27824522895738379 -0.41929555356247727 0 0.29231868236092179 -0.40774902473537589 0 0.27824522895738379 -0.41929555356247727 0 0.30074661470656511 -0.41626026844891029 0 0.30211338262554138 -0.42815422547906712 0 0.27824522895738379 -0.41929555356247727 0 0.29231868236092179 -0.40774902473537589 0 0.30074661470656511 -0.41626026844891029 0 0.27824522895738379 -0.41929555356247727 0 0.29231868236092179 -0.40774902473537589 0 0.29231868236092179 -0.40774902473537589 0 0.30074661470656511 -0.41626026844891029 0 0.30494591148475397 -0.40751236299923221 0 0.30074661470656511 -0.41626026844891029 0 0.31191144662711012 -0.41271871792565462 0 0.30494591148475397 -0.40751236299923221 0 0.31157702089468903 -0.40354106231965531 0 0.31191144662711012 -0.41271871792565462 0 0.30494591148475397 -0.40751236299923221 0 0.31494503618367919 -0.42213172599165438 0 0.30074661470656511 -0.41626026844891029 0 0.31191144662711012 -0.41271871792565462 0 0.31494503618367919 -0.42213172599165438 0 0.30074661470656511 -0.41626026844891029 0 0.30211338262554138 -0.42815422547906712 0 0.30211338262554138 -0.42815422547906712 0 0.30053179661117002 -0.44801929401841062 0 0.31133004202808878 -0.43990517097962101 0 0.31528310905325541 -0.44938634806320671 0 0.30053179661117002 -0.44801929401841062 0 0.31133004202808878 -0.43990517097962101 0 0.31528310905325541 -0.44938634806320671 0 0.30053179661117002 -0.44801929401841062 0 0.31074234752855989 -0.45938424709744319 0 0.30053179661117002 -0.44801929401841062 0 0.31074234752855989 -0.45938424709744319 0 0.29670261262845099 -0.46572139149687852 0 0.31074234752855989 -0.45938424709744319 0 0.29670261262845099 -0.46572139149687852 0 0.30712257972765628 -0.47119894156359071 0 0.30053179661117002 -0.44801929401841062 0 0.28504838700325341 -0.45576305992245197 0 0.29670261262845099 -0.46572139149687852 0 0.28504838700325341 -0.45576305992245197 0 0.29670261262845099 -0.46572139149687852 0 0.2794777358125537 -0.47473801129336918 0 0.30053179661117002 -0.44801929401841062 0 0.28504838700325341 -0.45576305992245197 0 0.28226496738075518 -0.43995178334548141 0 0.30211338262554138 -0.42815422547906712 0 0.30053179661117002 -0.44801929401841062 0 0.28226496738075518 -0.43995178334548141 0 0.26231395272875702 -0.43236632837180161 0 0.28226496738075518 -0.43995178334548141 0 0.26955879198285643 -0.45719945673600598 0 0.28504838700325341 -0.45576305992245197 0 0.28226496738075518 -0.43995178334548141 0 0.26955879198285643 -0.45719945673600598 0 0.26231395272875702 -0.43236632837180161 0 0.24638267650011689 -0.44543710318110968 0 0.26231395272875702 -0.43236632837180161 0 0.25444172230484963 -0.4575541863314147 0 0.26955879198285643 -0.45719945673600598 0 0.26231395272875702 -0.43236632837180161 0 0.25444172230484963 -0.4575541863314147 0 0.24638267650011689 -0.44543710318110968 0 0.25444172230484963 -0.4575541863314147 0 0.26047494829615048 -0.47216068603429112 0 0.2464555342082537 -0.46971941230712028 0 0.25444172230484963 -0.4575541863314147 0 0.26955879198285643 -0.45719945673600598 0 0.26047494829615048 -0.47216068603429112 0 0.28504838700325341 -0.45576305992245197 0 0.26955879198285643 -0.45719945673600598 0 0.2794777358125537 -0.47473801129336918 0 0.26955879198285643 -0.45719945673600598 0 0.2794777358125537 -0.47473801129336918 0 0.26047494829615048 -0.47216068603429112 0 0.2794777358125537 -0.47473801129336918 0 0.26047494829615048 -0.47216068603429112 0 0.26326963444063328 -0.48966382703779943 0 0.26047494829615048 -0.47216068603429112 0 0.26326963444063328 -0.48966382703779943 0 0.24847767746719679 -0.48038145090668249 0 0.26047494829615048 -0.47216068603429112 0 0.2464555342082537 -0.46971941230712028 0 0.24847767746719679 -0.48038145090668249 0 0.26326963444063328 -0.48966382703779943 0 0.23739438493372181 -0.49224787027834949 0 0.26326963444063328 -0.48966382703779943 0 0.27973809924669252 -0.5 0 0.2497457335382661 -0.5 0 0.26326963444063328 -0.48966382703779943 0 0.2497457335382661 -0.5 0 0.23739438493372181 -0.49224787027834949 0 0.2794777358125537 -0.47473801129336918 0 0.26326963444063328 -0.48966382703779943 0 0.27973809924669252 -0.5 0 0.27973809924669252 -0.5 0 0.29990698796569648 -0.48324302121216961 0 0.3097304649551188 -0.5 0 0.2794777358125537 -0.47473801129336918 0 0.27973809924669252 -0.5 0 0.29990698796569648 -0.48324302121216961 0 0.29670261262845099 -0.46572139149687852 0 0.2794777358125537 -0.47473801129336918 0 0.29990698796569648 -0.48324302121216961 0 0.29670261262845099 -0.46572139149687852 0 0.29990698796569648 -0.48324302121216961 0 0.30712257972765628 -0.47119894156359071 0 0.32113837078791768 -0.47644710644787119 0 0.29990698796569648 -0.48324302121216961 0 0.30712257972765628 -0.47119894156359071 0 0.32113837078791768 -0.47644710644787119 0 0.29990698796569648 -0.48324302121216961 0 0.3097304649551188 -0.5 0 0.32784220678711751 -0.2882924375966337 0 0.35643943480762691 -0.28919797834968919 0 0.34654309319366489 -0.30831757497915713 0 0.32784220678711751 -0.2882924375966337 0 0.34654309319366489 -0.30831757497915713 0 0.32629676112773959 -0.3142081686705705 0 0.32784220678711751 -0.2882924375966337 0 0.32629676112773959 -0.3142081686705705 0 0.30821235255936652 -0.30336532665875487 0 0.32784220678711751 -0.2882924375966337 0 0.30821235255936652 -0.30336532665875487 0 0.32784220678711751 -0.2882924375966337 0 0.31351795847274128 -0.28553584182575908 0 0.30821235255936652 -0.30336532665875487 0 0.32784220678711751 -0.2882924375966337 0 0.31351795847274128 -0.28553584182575908 0 0.33020808309383842 -0.27383416170664149 0 0.31351795847274128 -0.28553584182575908 0 0.31751426254825438 -0.2687921833066747 0 0.30833940372845631 -0.27404267327089032 0 0.31351795847274128 -0.28553584182575908 0 0.31751426254825438 -0.2687921833066747 0 0.33020808309383842 -0.27383416170664149 0 0.31751426254825438 -0.2687921833066747 0 0.33004520978711799 -0.25918450011683708 0 0.33020808309383842 -0.27383416170664149 0 0.31751426254825438 -0.2687921833066747 0 0.31313229316781188 -0.25520741234458189 0 0.33004520978711799 -0.25918450011683708 0 0.31901868137322448 -0.24453265748771649 0 0.31313229316781188 -0.25520741234458189 0 0.33004520978711799 -0.25918450011683708 0 0.31751426254825438 -0.2687921833066747 0 0.31313229316781188 -0.25520741234458189 0 0.30729344174078832 -0.26605585859635439 0 0.33004520978711799 -0.25918450011683708 0 0.35121346923408497 -0.25816888836976448 0 0.33004520978711799 -0.25918450011683708 0 0.34747206101486833 -0.27321954853451252 0 0.35121346923408497 -0.25816888836976448 0 0.33027118047829868 -0.24167589919900501 0 0.33004520978711799 -0.25918450011683708 0 0.35121346923408497 -0.25816888836976448 0 0.32784220678711751 -0.2882924375966337 0 0.33020808309383842 -0.27383416170664149 0 0.34747206101486833 -0.27321954853451252 0 0.33004520978711799 -0.25918450011683708 0 0.33020808309383842 -0.27383416170664149 0 0.34747206101486833 -0.27321954853451252 0 0.32784220678711751 -0.2882924375966337 0 0.34747206101486833 -0.27321954853451252 0 0.34747206101486833 -0.27321954853451252 0 0.36633577642158921 -0.27007838172022158 0 0.35643943480762691 -0.28919797834968919 0 0.34747206101486833 -0.27321954853451252 0 0.35121346923408497 -0.25816888836976448 0 0.36633577642158921 -0.27007838172022158 0 0.35121346923408497 -0.25816888836976448 0 0.36633577642158921 -0.27007838172022158 0 0.35128925495605978 -0.2467354814207485 0 0.36245181906829399 -0.2497333280551037 0 0.35121346923408497 -0.25816888836976448 0 0.383999574826556 -0.26784420072476373 0 0.37304223959798571 -0.25712158659886297 0 0.36633577642158921 -0.27007838172022158 0 0.36245181906829399 -0.2497333280551037 0 0.35121346923408497 -0.25816888836976448 0 0.37304223959798571 -0.25712158659886297 0 0.35121346923408497 -0.25816888836976448 0 0.37304223959798571 -0.25712158659886297 0 0.35121346923408497 -0.25816888836976448 0 0.37304223959798571 -0.25712158659886297 0 0.36633577642158921 -0.27007838172022158 0 0.37304223959798571 -0.25712158659886297 0 0.36633577642158921 -0.27007838172022158 0 0.3705420184203852 -0.24836784300958969 0 0.37745903527997521 -0.24858839775712019 0 0.37304223959798571 -0.25712158659886297 0 0.36245181906829399 -0.2497333280551037 0 0.3705420184203852 -0.24836784300958969 0 0.37304223959798571 -0.25712158659886297 0 0.36633577642158921 -0.27007838172022158 0 0.35643943480762691 -0.28919797834968919 0 0.37994403405950278 -0.28079549332498799 0 0.36633577642158921 -0.27007838172022158 0 0.36919357666452712 -0.28466487285858749 0 0.37994403405950278 -0.28079549332498799 0 0.36633577642158921 -0.27007838172022158 0 0.37994403405950278 -0.28079549332498799 0 0.36919357666452712 -0.28466487285858749 0 0.37405506136938982 -0.29858763803945132 0 0.36919357666452712 -0.28466487285858749 0 0.35643943480762691 -0.28919797834968919 0 0.37405506136938982 -0.29858763803945132 0 0.36633577642158921 -0.27007838172022158 0 0.36919357666452712 -0.28466487285858749 0 0.35643943480762691 -0.28919797834968919 0 0.32784220678711751 -0.2882924375966337 0 0.34747206101486833 -0.27321954853451252 0 0.35643943480762691 -0.28919797834968919 0 0.35643943480762691 -0.28919797834968919 0 0.34654309319366489 -0.30831757497915713 0 0.36020900627114222 -0.30341301778648411 0 0.34654309319366489 -0.30831757497915713 0 0.36020900627114222 -0.30341301778648411 0 0.36445291417355868 -0.31811631148630842 0 0.35643943480762691 -0.28919797834968919 0 0.34654309319366489 -0.30831757497915713 0 0.3831031607676364 -0.31879127960775 0 0.37405506136938982 -0.29858763803945132 0 0.36445291417355868 -0.31811631148630842 0 0.35643943480762691 -0.28919797834968919 0 0.37405506136938982 -0.29858763803945132 0 0.36020900627114222 -0.30341301778648411 0 0.37405506136938982 -0.29858763803945132 0 0.36020900627114222 -0.30341301778648411 0 0.36445291417355868 -0.31811631148630842 0 0.37876641636483371 -0.33517908000645957 0 0.36445291417355868 -0.31811631148630842 0 0.36279418013058068 -0.34300275722776968 0 0.36445291417355868 -0.31811631148630842 0 0.36279418013058068 -0.34300275722776968 0 0.3505572015158388 -0.33102789622473872 0 0.36279418013058068 -0.34300275722776968 0 0.3505572015158388 -0.33102789622473872 0 0.34268475659997688 -0.35163869910680529 0 0.34654309319366489 -0.30831757497915713 0 0.3505572015158388 -0.33102789622473872 0 0.33822660288618372 -0.32215037231455362 0 0.34654309319366489 -0.30831757497915713 0 0.36445291417355868 -0.31811631148630842 0 0.3505572015158388 -0.33102789622473872 0 0.37745567818242398 -0.35523290955314257 0 0.37243329729732361 -0.37088827984250211 0 0.35975357989686202 -0.36147605482524098 0 0.35821956982300768 -0.37962448247692571 0 0.37243329729732361 -0.37088827984250211 0 0.35975357989686202 -0.36147605482524098 0 0.37745567818242398 -0.35523290955314257 0 0.36279418013058068 -0.34300275722776968 0 0.35975357989686202 -0.36147605482524098 0 0.37745567818242398 -0.35523290955314257 0 0.37876641636483371 -0.33517908000645957 0 0.36279418013058068 -0.34300275722776968 0 0.36279418013058068 -0.34300275722776968 0 0.35975357989686202 -0.36147605482524098 0 0.34268475659997688 -0.35163869910680529 0 0.35975357989686202 -0.36147605482524098 0 0.34434308839012029 -0.37137035879876928 0 0.34268475659997688 -0.35163869910680529 0 0.35821956982300768 -0.37962448247692571 0 0.35975357989686202 -0.36147605482524098 0 0.34434308839012029 -0.37137035879876928 0 0.34434308839012029 -0.37137035879876928 0 0.33079758024607903 -0.36671796558231601 0 0.34268475659997688 -0.35163869910680529 0 0.3297417333155454 -0.38212909735790052 0 0.34434308839012029 -0.37137035879876928 0 0.33079758024607903 -0.36671796558231601 0 0.3297417333155454 -0.38212909735790052 0 0.33079758024607903 -0.36671796558231601 0 0.33079758024607903 -0.36671796558231601 0 0.34268475659997688 -0.35163869910680529 0 0.32042977492702579 -0.35087627488284467 0 0.34268475659997688 -0.35163869910680529 0 0.32042977492702579 -0.35087627488284467 0 0.3295093557074914 -0.33504784938374821 0 0.31924425242398879 -0.38054543704114729 0 0.33079758024607903 -0.36671796558231601 0 0.31212478444524738 -0.36737772692792892 0 0.33079758024607903 -0.36671796558231601 0 0.32042977492702579 -0.35087627488284467 0 0.31212478444524738 -0.36737772692792892 0 0.33822660288618372 -0.32215037231455362 0 0.3295093557074914 -0.33504784938374821 0 0.32629676112773959 -0.3142081686705705 0 0.34654309319366489 -0.30831757497915713 0 0.33822660288618372 -0.32215037231455362 0 0.32629676112773959 -0.3142081686705705 0 0.3505572015158388 -0.33102789622473872 0 0.34268475659997688 -0.35163869910680529 0 0.3295093557074914 -0.33504784938374821 0 0.3505572015158388 -0.33102789622473872 0 0.33822660288618372 -0.32215037231455362 0 0.3295093557074914 -0.33504784938374821 0 0.32042977492702579 -0.35087627488284467 0 0.3295093557074914 -0.33504784938374821 0 0.30672432173701419 -0.33246356861048898 0 0.3295093557074914 -0.33504784938374821 0 0.32629676112773959 -0.3142081686705705 0 0.30672432173701419 -0.33246356861048898 0 0.32629676112773959 -0.3142081686705705 0 0.30672432173701419 -0.33246356861048898 0 0.30821235255936652 -0.30336532665875487 0 0.30672432173701419 -0.33246356861048898 0 0.28858249833161548 -0.31843821572087633 0 0.30821235255936652 -0.30336532665875487 0 0.30672432173701419 -0.33246356861048898 0 0.29119240118779949 -0.33380822067190652 0 0.30073785082634591 -0.3520118396857807 0 0.30672432173701419 -0.33246356861048898 0 0.29119240118779949 -0.33380822067190652 0 0.28858249833161548 -0.31843821572087633 0 0.29119240118779949 -0.33380822067190652 0 0.28421923133036198 -0.3462220096398072 0 0.26895264410386449 -0.33351110478299761 0 0.29119240118779949 -0.33380822067190652 0 0.28858249833161548 -0.31843821572087633 0 0.26895264410386449 -0.33351110478299761 0 0.30474023384857252 -0.38338543702956263 0 0.31212478444524738 -0.36737772692792892 0 0.29745477222610262 -0.3663625410555707 0 0.31212478444524738 -0.36737772692792892 0 0.29745477222610262 -0.3663625410555707 0 0.30073785082634591 -0.3520118396857807 0 0.32042977492702579 -0.35087627488284467 0 0.31212478444524738 -0.36737772692792892 0 0.30073785082634591 -0.3520118396857807 0 0.32042977492702579 -0.35087627488284467 0 0.30672432173701419 -0.33246356861048898 0 0.30073785082634591 -0.3520118396857807 0 0.30073785082634591 -0.3520118396857807 0 0.28421923133036198 -0.3462220096398072 0 0.28671581948195762 -0.35656643551545109 0 0.29119240118779949 -0.33380822067190652 0 0.30073785082634591 -0.3520118396857807 0 0.28421923133036198 -0.3462220096398072 0 0.29745477222610262 -0.3663625410555707 0 0.30073785082634591 -0.3520118396857807 0 0.28671581948195762 -0.35656643551545109 0 0.29745477222610262 -0.3663625410555707 0 0.28671581948195762 -0.35656643551545109 0 0.28079458131213608 -0.36923064492563779 0 0.30474023384857252 -0.38338543702956263 0 0.29745477222610262 -0.3663625410555707 0 0.28079458131213608 -0.36923064492563779 0 0.26372472509441119 -0.37523578392730988 0 0.28079458131213608 -0.36923064492563779 0 0.25684892877569959 -0.35507585282171311 0 0.28079458131213608 -0.36923064492563779 0 0.25684892877569959 -0.35507585282171311 0 0.28079458131213608 -0.36923064492563779 0 0.27037266171484131 -0.34900514227045931 0 0.25684892877569959 -0.35507585282171311 0 0.28421923133036198 -0.3462220096398072 0 0.28671581948195762 -0.35656643551545109 0 0.27037266171484131 -0.34900514227045931 0 0.28671581948195762 -0.35656643551545109 0 0.28079458131213608 -0.36923064492563779 0 0.27037266171484131 -0.34900514227045931 0 0.27037266171484131 -0.34900514227045931 0 0.25684892877569959 -0.35507585282171311 0 0.2460236494544091 -0.3375564272534875 0 0.26372472509441119 -0.37523578392730988 0 0.24225831214304999 -0.36506703067544211 0 0.26372472509441119 -0.37523578392730988 0 0.25684892877569959 -0.35507585282171311 0 0.24225831214304999 -0.36506703067544211 0 0.28858249833161548 -0.31843821572087633 0 0.26895264410386449 -0.33351110478299761 0 0.26293142709565159 -0.31418640562247452 0 0.28858249833161548 -0.31843821572087633 0 0.26895264410386449 -0.33351110478299761 0 0.28421923133036198 -0.3462220096398072 0 0.27037266171484131 -0.34900514227045931 0 0.26895264410386449 -0.33351110478299761 0 0.27037266171484131 -0.34900514227045931 0 0.26895264410386449 -0.33351110478299761 0 0.2460236494544091 -0.3375564272534875 0 0.26895264410386449 -0.33351110478299761 0 0.26293142709565159 -0.31418640562247452 0 0.2460236494544091 -0.3375564272534875 0 0.26293142709565159 -0.31418640562247452 0 0.2460236494544091 -0.3375564272534875 0 0.26293142709565159 -0.31418640562247452 0 0.25387578015120799 -0.28915122570197932 0 0.2383111504597796 -0.30997852068874809 0 0.26293142709565159 -0.31418640562247452 0 0.25387578015120799 -0.28915122570197932 0 0.27983920473689422 -0.29081638399146142 0 0.25387578015120799 -0.28915122570197932 0 0.27983920473689422 -0.29081638399146142 0 0.26944040984263629 -0.26832393071521049 0 0.28858249833161548 -0.31843821572087633 0 0.26293142709565159 -0.31418640562247452 0 0.28783918637600853 -0.30337733701740888 0 0.26293142709565159 -0.31418640562247452 0 0.27983920473689422 -0.29081638399146142 0 0.28783918637600853 -0.30337733701740888 0 0.26293142709565159 -0.31418640562247452 0 0.27983920473689422 -0.29081638399146142 0 0.28858249833161548 -0.31843821572087633 0 0.28783918637600853 -0.30337733701740888 0 0.30821235255936652 -0.30336532665875487 0 0.27983920473689422 -0.29081638399146142 0 0.2996304491565146 -0.29008035309347729 0 0.29702577582612782 -0.27889750781421813 0 0.27983920473689422 -0.29081638399146142 0 0.28783918637600853 -0.30337733701740888 0 0.2996304491565146 -0.29008035309347729 0 0.31351795847274128 -0.28553584182575908 0 0.2996304491565146 -0.29008035309347729 0 0.30821235255936652 -0.30336532665875487 0 0.2996304491565146 -0.29008035309347729 0 0.30534312350555842 -0.28122224072099461 0 0.29702577582612782 -0.27889750781421813 0 0.31351795847274128 -0.28553584182575908 0 0.2996304491565146 -0.29008035309347729 0 0.30534312350555842 -0.28122224072099461 0 0.28783918637600853 -0.30337733701740888 0 0.2996304491565146 -0.29008035309347729 0 0.30821235255936652 -0.30336532665875487 0 0.28858249833161548 -0.31843821572087633 0 0.30821235255936652 -0.30336532665875487 0 0.30325139165799331 -0.25845593270182637 0 0.29674698237813718 -0.26744636236044872 0 0.30325139165799331 -0.25845593270182637 0 0.29960925045778147 -0.26735437586575977 0 0.29674698237813718 -0.26744636236044872 0 0.30325139165799331 -0.25845593270182637 0 0.30729344174078832 -0.26605585859635439 0 0.29960925045778147 -0.26735437586575977 0 0.30325139165799331 -0.25845593270182637 0 0.29674698237813718 -0.26744636236044872 0 0.29193642053282159 -0.25711788536911873 0 0.30325139165799331 -0.25845593270182637 0 0.29581421657553048 -0.25145489687100608 0 0.29193642053282159 -0.25711788536911873 0 0.30377237923722628 -0.2485450890714716 0 0.30325139165799331 -0.25845593270182637 0 0.29581421657553048 -0.25145489687100608 0 0.30377237923722628 -0.2485450890714716 0 0.31313229316781188 -0.25520741234458189 0 0.30325139165799331 -0.25845593270182637 0 0.31313229316781188 -0.25520741234458189 0 0.30325139165799331 -0.25845593270182637 0 0.30729344174078832 -0.26605585859635439 0 0.31751426254825438 -0.2687921833066747 0 0.30729344174078832 -0.26605585859635439 0 0.30833940372845631 -0.27404267327089032 0 0.30729344174078832 -0.26605585859635439 0 0.30833940372845631 -0.27404267327089032 0 0.30271530692565701 -0.27315163148312488 0 0.31351795847274128 -0.28553584182575908 0 0.30534312350555842 -0.28122224072099461 0 0.30833940372845631 -0.27404267327089032 0 0.30534312350555842 -0.28122224072099461 0 0.30833940372845631 -0.27404267327089032 0 0.30271530692565701 -0.27315163148312488 0 0.30534312350555842 -0.28122224072099461 0 0.29702577582612782 -0.27889750781421813 0 0.30271530692565701 -0.27315163148312488 0 0.29702577582612782 -0.27889750781421813 0 0.30271530692565701 -0.27315163148312488 0 0.29902432889692587 -0.27171246938088789 0 0.29702577582612782 -0.27889750781421813 0 0.29902432889692587 -0.27171246938088789 0 0.29674698237813718 -0.26744636236044872 0 0.30729344174078832 -0.26605585859635439 0 0.30271530692565701 -0.27315163148312488 0 0.29960925045778147 -0.26735437586575977 0 0.30271530692565701 -0.27315163148312488 0 0.29902432889692587 -0.27171246938088789 0 0.29960925045778147 -0.26735437586575977 0 0.29902432889692587 -0.27171246938088789 0 0.29960925045778147 -0.26735437586575977 0 0.29674698237813718 -0.26744636236044872 0 0.29960925045778147 -0.26735437586575977 0 0.29674698237813718 -0.26744636236044872 0 0.27983920473689422 -0.29081638399146142 0 0.29674698237813718 -0.26744636236044872 0 0.29674698237813718 -0.26744636236044872 0 0.26944040984263629 -0.26832393071521049 0 0.27983920473689422 -0.29081638399146142 0 0.29674698237813718 -0.26744636236044872 0 0.26944040984263629 -0.26832393071521049 0 0.27983920473689422 -0.29081638399146142 0 0.29702577582612782 -0.27889750781421813 0 0.29674698237813718 -0.26744636236044872 0 0.29674698237813718 -0.26744636236044872 0 0.29193642053282159 -0.25711788536911873 0 0.26944040984263629 -0.26832393071521049 0 0.28369245126452108 -0.24925303235514801 0 0.29193642053282159 -0.25711788536911873 0 0.26944040984263629 -0.26832393071521049 0 0.28369245126452108 -0.24925303235514801 0 0.29581421657553048 -0.25145489687100608 0 0.29193642053282159 -0.25711788536911873 0 0.28369245126452108 -0.24925303235514801 0 0.26944040984263629 -0.26832393071521049 0 0.28369245126452108 -0.24925303235514801 0 0.26613411749903759 -0.25284846400432792 0 0.26944040984263629 -0.26832393071521049 0 0.25387578015120799 -0.28915122570197932 0 0.26944040984263629 -0.26832393071521049 0 0.26944040984263629 -0.26832393071521049 0 0.2412518889732152 -0.26922984279371659 0 0.25387578015120799 -0.28915122570197932 0 0.26944040984263629 -0.26832393071521049 0 0.2412518889732152 -0.26922984279371659 0 0.26944040984263629 -0.26832393071521049 0 0.25474473517218249 -0.25764111100365988 0 0.2412518889732152 -0.26922984279371659 0 0.25674455389328549 -0.2441941701779505 0 0.25474473517218249 -0.25764111100365988 0 0.2409735266212148 -0.25342360310053352 0 0.25674455389328549 -0.2441941701779505 0 0.26613411749903759 -0.25284846400432792 0 0.25474473517218249 -0.25764111100365988 0 0.26613411749903759 -0.25284846400432792 0 0.26944040984263629 -0.26832393071521049 0 0.25474473517218249 -0.25764111100365988 0 0.25474473517218249 -0.25764111100365988 0 0.2409735266212148 -0.25342360310053352 0 0.2412518889732152 -0.26922984279371659 0 0.2409735266212148 -0.25342360310053352 0 0.2412518889732152 -0.26922984279371659 0 0.22652189574155521 -0.25893631533071559 0 0.2412518889732152 -0.26922984279371659 0 0.21306336810379409 -0.27013575487222291 0 0.2285702734733428 -0.2870173244811402 0 0.2412518889732152 -0.26922984279371659 0 0.21306336810379409 -0.27013575487222291 0 0.2412518889732152 -0.26922984279371659 0 0.22652189574155521 -0.25893631533071559 0 0.21306336810379409 -0.27013575487222291 0 0.22652189574155521 -0.25893631533071559 0 0.22414257127257381 -0.24504945416881391 0 0.20889337073700451 -0.24991534030461371 0 0.2409735266212148 -0.25342360310053352 0 0.22652189574155521 -0.25893631533071559 0 0.22414257127257381 -0.24504945416881391 0 0.22652189574155521 -0.25893631533071559 0 0.21306336810379409 -0.27013575487222291 0 0.20889337073700451 -0.24991534030461371 0 0.21306336810379409 -0.27013575487222291 0 0.194815898299073 -0.26863157338941801 0 0.20889337073700451 -0.24991534030461371 0 0.21306336810379409 -0.27013575487222291 0 0.20829036057515751 -0.2838331642808648 0 0.2285702734733428 -0.2870173244811402 0 0.21306336810379409 -0.27013575487222291 0 0.194815898299073 -0.26863157338941801 0 0.20829036057515751 -0.2838331642808648 0 0.194815898299073 -0.26863157338941801 0 0.1944772407425423 -0.28321547348172232 0 0.20829036057515751 -0.2838331642808648 0 0.194815898299073 -0.26863157338941801 0 0.1944772407425423 -0.28321547348172232 0 0.18185619699892089 -0.27894752608387913 0 0.194815898299073 -0.26863157338941801 0 0.1877149783444681 -0.25109313309015618 0 0.20889337073700451 -0.24991534030461371 0 0.20037485513617659 -0.30740015167341489 0 0.1920091846892425 -0.30027812418043681 0 0.20379559187136201 -0.29434568790502408 0 0.20037485513617659 -0.30740015167341489 0 0.1887249449733204 -0.30887292282106149 0 0.1920091846892425 -0.30027812418043681 0 0.20037485513617659 -0.30740015167341489 0 0.1887249449733204 -0.30887292282106149 0 0.19664025118881279 -0.31972023522657972 0 0.1887249449733204 -0.30887292282106149 0 0.1920091846892425 -0.30027812418043681 0 0.18285519589300861 -0.30170805061143052 0 0.1920091846892425 -0.30027812418043681 0 0.20379559187136201 -0.29434568790502408 0 0.18535695630179169 -0.2900766312518287 0 0.20379559187136201 -0.29434568790502408 0 0.18535695630179169 -0.2900766312518287 0 0.1944772407425423 -0.28321547348172232 0 0.20379559187136201 -0.29434568790502408 0 0.18535695630179169 -0.2900766312518287 0 0.1944772407425423 -0.28321547348172232 0 0.18535695630179169 -0.2900766312518287 0 0.1944772407425423 -0.28321547348172232 0 0.20379559187136201 -0.29434568790502408 0 0.20829036057515751 -0.2838331642808648 0 0.20379559187136201 -0.29434568790502408 0 0.20829036057515751 -0.2838331642808648 0 0.2150197909608309 -0.29965317155566179 0 0.20829036057515751 -0.2838331642808648 0 0.2150197909608309 -0.29965317155566179 0 0.2285702734733428 -0.2870173244811402 0 0.20037485513617659 -0.30740015167341489 0 0.2150197909608309 -0.29965317155566179 0 0.2120026946758567 -0.31706383198789012 0 0.20037485513617659 -0.30740015167341489 0 0.20379559187136201 -0.29434568790502408 0 0.2150197909608309 -0.29965317155566179 0 0.2150197909608309 -0.29965317155566179 0 0.2383111504597796 -0.30997852068874809 0 0.2120026946758567 -0.31706383198789012 0 0.2150197909608309 -0.29965317155566179 0 0.2285702734733428 -0.2870173244811402 0 0.2383111504597796 -0.30997852068874809 0 0.25387578015120799 -0.28915122570197932 0 0.2412518889732152 -0.26922984279371659 0 0.2285702734733428 -0.2870173244811402 0 0.25387578015120799 -0.28915122570197932 0 0.2285702734733428 -0.2870173244811402 0 0.2383111504597796 -0.30997852068874809 0 0.25387578015120799 -0.28915122570197932 0 0.2383111504597796 -0.30997852068874809 0 0.2383111504597796 -0.30997852068874809 0 0.2460236494544091 -0.3375564272534875 0 0.22274652076835119 -0.33080581567551692 0 0.26293142709565159 -0.31418640562247452 0 0.2383111504597796 -0.30997852068874809 0 0.2460236494544091 -0.3375564272534875 0 0.2460236494544091 -0.3375564272534875 0 0.22274652076835119 -0.33080581567551692 0 0.22876483778157261 -0.34457763315907081 0 0.22274652076835119 -0.33080581567551692 0 0.22876483778157261 -0.34457763315907081 0 0.2171733090903637 -0.34902184082277832 0 0.2383111504597796 -0.30997852068874809 0 0.22274652076835119 -0.33080581567551692 0 0.2383111504597796 -0.30997852068874809 0 0.22274652076835119 -0.33080581567551692 0 0.2120026946758567 -0.31706383198789012 0 0.25684892877569959 -0.35507585282171311 0 0.2460236494544091 -0.3375564272534875 0 0.24225831214304999 -0.36506703067544211 0 0.2460236494544091 -0.3375564272534875 0 0.22911587181316651 -0.36092644888450071 0 0.2460236494544091 -0.3375564272534875 0 0.24225831214304999 -0.36506703067544211 0 0.22911587181316651 -0.36092644888450071 0 0.2460236494544091 -0.3375564272534875 0 0.22876483778157261 -0.34457763315907081 0 0.22911587181316651 -0.36092644888450071 0 0.22876483778157261 -0.34457763315907081 0 0.22911587181316651 -0.36092644888450071 0 0.2171733090903637 -0.34902184082277832 0 0.22911587181316651 -0.36092644888450071 0 0.21756167889875269 -0.36309528373980771 0 0.2171733090903637 -0.34902184082277832 0 0.24225831214304999 -0.36506703067544211 0 0.22911587181316651 -0.36092644888450071 0 0.2302787836259339 -0.38016301577518569 0 0.22911587181316651 -0.36092644888450071 0 0.21756167889875269 -0.36309528373980771 0 0.2302787836259339 -0.38016301577518569 0 0.21220634582267861 -0.37353866270222191 0 0.21756167889875269 -0.36309528373980771 0 0.2302787836259339 -0.38016301577518569 0 0.21220634582267861 -0.37353866270222191 0 0.20035680216933929 -0.35880717634204667 0 0.19844506261391129 -0.3765682739828527 0 0.21220634582267861 -0.37353866270222191 0 0.21756167889875269 -0.36309528373980771 0 0.20035680216933929 -0.35880717634204667 0 0.21756167889875269 -0.36309528373980771 0 0.2171733090903637 -0.34902184082277832 0 0.20035680216933929 -0.35880717634204667 0 0.2171733090903637 -0.34902184082277832 0 0.20035680216933929 -0.35880717634204667 0 0.2036492932627271 -0.33591905688397089 0 0.20035680216933929 -0.35880717634204667 0 0.18714744266769701 -0.34351604468851132 0 0.18301675425995251 -0.35676850318054532 0 0.20035680216933929 -0.35880717634204667 0 0.2036492932627271 -0.33591905688397089 0 0.18714744266769701 -0.34351604468851132 0 0.20035680216933929 -0.35880717634204667 0 0.18644928972755409 -0.3683962570005993 0 0.18301675425995251 -0.35676850318054532 0 0.20035680216933929 -0.35880717634204667 0 0.18644928972755409 -0.3683962570005993 0 0.19844506261391129 -0.3765682739828527 0 0.2120026946758567 -0.31706383198789012 0 0.2036492932627271 -0.33591905688397089 0 0.19664025118881279 -0.31972023522657972 0 0.22274652076835119 -0.33080581567551692 0 0.2120026946758567 -0.31706383198789012 0 0.2036492932627271 -0.33591905688397089 0 0.22274652076835119 -0.33080581567551692 0 0.2171733090903637 -0.34902184082277832 0 0.2036492932627271 -0.33591905688397089 0 0.2036492932627271 -0.33591905688397089 0 0.18934869132310261 -0.33019626451975193 0 0.18714744266769701 -0.34351604468851132 0 0.2036492932627271 -0.33591905688397089 0 0.18934869132310261 -0.33019626451975193 0 0.19664025118881279 -0.31972023522657972 0 0.18934869132310261 -0.33019626451975193 0 0.19664025118881279 -0.31972023522657972 0 0.18242127723165141 -0.31962459436566959 0 0.20037485513617659 -0.30740015167341489 0 0.2120026946758567 -0.31706383198789012 0 0.19664025118881279 -0.31972023522657972 0 0.1887249449733204 -0.30887292282106149 0 0.19664025118881279 -0.31972023522657972 0 0.18242127723165141 -0.31962459436566959 0 0.18934869132310261 -0.33019626451975193 0 0.18242127723165141 -0.31962459436566959 0 0.17309780662428431 -0.33140104060308317 0 0.1887249449733204 -0.30887292282106149 0 0.18242127723165141 -0.31962459436566959 0 0.17605378055306151 -0.30947190674785402 0 0.18242127723165141 -0.31962459436566959 0 0.17066218872732669 -0.31808519627568771 0 0.17605378055306151 -0.30947190674785402 0 0.18242127723165141 -0.31962459436566959 0 0.17309780662428431 -0.33140104060308317 0 0.17066218872732669 -0.31808519627568771 0 0.18934869132310261 -0.33019626451975193 0 0.18714744266769701 -0.34351604468851132 0 0.17309780662428431 -0.33140104060308317 0 0.18714744266769701 -0.34351604468851132 0 0.17309780662428431 -0.33140104060308317 0 0.17126855897120541 -0.34723400215150768 0 0.17309780662428431 -0.33140104060308317 0 0.16286811158335421 -0.33778931042447141 0 0.17126855897120541 -0.34723400215150768 0 0.16286811158335421 -0.33778931042447141 0 0.1628611332723314 -0.32209646547334531 0 0.15496183358216961 -0.32892125589558402 0 0.17309780662428431 -0.33140104060308317 0 0.16286811158335421 -0.33778931042447141 0 0.1628611332723314 -0.32209646547334531 0 0.16286811158335421 -0.33778931042447141 0 0.15268005817666649 -0.34661630865690268 0 0.15496183358216961 -0.32892125589558402 0 0.1628611332723314 -0.32209646547334531 0 0.15496183358216961 -0.32892125589558402 0 0.15724360898767331 -0.31122620313426519 0 0.17066218872732669 -0.31808519627568771 0 0.17605378055306151 -0.30947190674785402 0 0.15724360898767331 -0.31122620313426519 0 0.1628611332723314 -0.32209646547334531 0 0.17066218872732669 -0.31808519627568771 0 0.15724360898767331 -0.31122620313426519 0 0.17309780662428431 -0.33140104060308317 0 0.1628611332723314 -0.32209646547334531 0 0.17066218872732669 -0.31808519627568771 0 0.18644928972755409 -0.3683962570005993 0 0.16986167776396671 -0.36588903572006121 0 0.18695059779495171 -0.38541152564563408 0 0.18644928972755409 -0.3683962570005993 0 0.18301675425995251 -0.35676850318054532 0 0.16986167776396671 -0.36588903572006121 0 0.18714744266769701 -0.34351604468851132 0 0.18301675425995251 -0.35676850318054532 0 0.17126855897120541 -0.34723400215150768 0 0.18301675425995251 -0.35676850318054532 0 0.17126855897120541 -0.34723400215150768 0 0.16986167776396671 -0.36588903572006121 0 0.17126855897120541 -0.34723400215150768 0 0.16986167776396671 -0.36588903572006121 0 0.15268005817666649 -0.34661630865690268 0 0.16986167776396671 -0.36588903572006121 0 0.15268005817666649 -0.34661630865690268 0 0.16286811158335421 -0.33778931042447141 0 0.17126855897120541 -0.34723400215150768 0 0.15268005817666649 -0.34661630865690268 0 0.16986167776396671 -0.36588903572006121 0 0.1494711759684457 -0.37150102774114452 0 0.17522598656623389 -0.38105993290541001 0 0.16986167776396671 -0.36588903572006121 0 0.1494711759684457 -0.37150102774114452 0 0.15268005817666649 -0.34661630865690268 0 0.1494711759684457 -0.37150102774114452 0 0.12999483985011881 -0.36427238013779301 0 0.1480206089222974 -0.382750101753211 0 0.1494711759684457 -0.37150102774114452 0 0.15268005817666649 -0.34661630865690268 0 0.1494711759684457 -0.37150102774114452 0 0.15268005817666649 -0.34661630865690268 0 0.13824165462539281 -0.35875698967942282 0 0.15268005817666649 -0.34661630865690268 0 0.13824165462539281 -0.35875698967942282 0 0.12933072533465939 -0.3479738934755171 0 0.12933072533465939 -0.3479738934755171 0 0.12999483985011881 -0.36427238013779301 0 0.13824165462539281 -0.35875698967942282 0 0.12933072533465939 -0.3479738934755171 0 0.12999483985011881 -0.36427238013779301 0 0.12999483985011881 -0.36427238013779301 0 0.1218247889582051 -0.33787165633606969 0 0.12933072533465939 -0.3479738934755171 0 0.12999483985011881 -0.36427238013779301 0 0.1218247889582051 -0.33787165633606969 0 0.1494711759684457 -0.37150102774114452 0 0.12999483985011881 -0.36427238013779301 0 0.1494711759684457 -0.37150102774114452 0 0.13824165462539281 -0.35875698967942282 0 0.12999483985011881 -0.36427238013779301 0 0.15496183358216961 -0.32892125589558402 0 0.13562727321866841 -0.32748809618005842 0 0.15724360898767331 -0.31122620313426519 0 0.13562727321866841 -0.32748809618005842 0 0.15724360898767331 -0.31122620313426519 0 0.13562727321866841 -0.32748809618005842 0 0.13698395726491219 -0.31777279061363273 0 0.15724360898767331 -0.31122620313426519 0 0.15496183358216961 -0.32892125589558402 0 0.15724360898767331 -0.31122620313426519 0 0.13698395726491219 -0.31777279061363273 0 0.14239274032198029 -0.31110472937884959 0 0.15724360898767331 -0.31122620313426519 0 0.15268005817666649 -0.34661630865690268 0 0.15496183358216961 -0.32892125589558402 0 0.15268005817666649 -0.34661630865690268 0 0.13562727321866841 -0.32748809618005842 0 0.15268005817666649 -0.34661630865690268 0 0.15496183358216961 -0.32892125589558402 0 0.13562727321866841 -0.32748809618005842 0 0.12933072533465939 -0.3479738934755171 0 0.12892997687224969 -0.33252644856527669 0 0.13562727321866841 -0.32748809618005842 0 0.15268005817666649 -0.34661630865690268 0 0.12933072533465939 -0.3479738934755171 0 0.13562727321866841 -0.32748809618005842 0 0.12933072533465939 -0.3479738934755171 0 0.12892997687224969 -0.33252644856527669 0 0.12933072533465939 -0.3479738934755171 0 0.12892997687224969 -0.33252644856527669 0 0.1218247889582051 -0.33787165633606969 0 0.12892997687224969 -0.33252644856527669 0 0.12444781287719769 -0.32697541088905901 0 0.1218247889582051 -0.33787165633606969 0 0.12892997687224969 -0.33252644856527669 0 0.13562727321866841 -0.32748809618005842 0 0.12892997687224969 -0.33252644856527669 0 0.1218247889582051 -0.33787165633606969 0 0.12892997687224969 -0.33252644856527669 0 0.13562727321866841 -0.32748809618005842 0 0.1285946175066795 -0.31959952354708793 0 0.12892997687224969 -0.33252644856527669 0 0.1285946175066795 -0.31959952354708793 0 0.12892997687224969 -0.33252644856527669 0 0.1285946175066795 -0.31959952354708793 0 0.12444781287719769 -0.32697541088905901 0 0.13562727321866841 -0.32748809618005842 0 0.1285946175066795 -0.31959952354708793 0 0.13562727321866841 -0.32748809618005842 0 0.13698395726491219 -0.31777279061363273 0 0.1285946175066795 -0.31959952354708793 0 0.13698395726491219 -0.31777279061363273 0 0.13347141444141289 -0.31266367529531103 0 0.14239274032198029 -0.31110472937884959 0 0.13698395726491219 -0.31777279061363273 0 0.13347141444141289 -0.31266367529531103 0 0.12851118533225669 -0.31638350642151919 0 0.13698395726491219 -0.31777279061363273 0 0.1285946175066795 -0.31959952354708793 0 0.12851118533225669 -0.31638350642151919 0 0.13347141444141289 -0.31266367529531103 0 0.12851118533225669 -0.31638350642151919 0 0.12648812921392771 -0.30845317583043108 0 0.1285946175066795 -0.31959952354708793 0 0.12851118533225669 -0.31638350642151919 0 0.13347141444141289 -0.31266367529531103 0 0.12648812921392771 -0.30845317583043108 0 0.13329983376080831 -0.30576985970086379 0 0.13768972695614271 -0.29701768848021909 0 0.13329983376080831 -0.30576985970086379 0 0.1245325467552142 -0.29616219588664588 0 0.12648812921392771 -0.30845317583043108 0 0.13329983376080831 -0.30576985970086379 0 0.1245325467552142 -0.29616219588664588 0 0.13768972695614271 -0.29701768848021909 0 0.14012975482899301 -0.30381137855547791 0 0.13329983376080831 -0.30576985970086379 0 0.13347141444141289 -0.31266367529531103 0 0.13329983376080831 -0.30576985970086379 0 0.14239274032198029 -0.31110472937884959 0 0.14012975482899301 -0.30381137855547791 0 0.13329983376080831 -0.30576985970086379 0 0.14239274032198029 -0.31110472937884959 0 0.14012975482899301 -0.30381137855547791 0 0.14239274032198029 -0.31110472937884959 0 0.14713671827704089 -0.30135323666197922 0 0.14239274032198029 -0.31110472937884959 0 0.14713671827704089 -0.30135323666197922 0 0.15127675512152991 -0.30661370261731957 0 0.13768972695614271 -0.29701768848021909 0 0.14012975482899301 -0.30381137855547791 0 0.14713671827704089 -0.30135323666197922 0 0.14713671827704089 -0.30135323666197922 0 0.15127675512152991 -0.30661370261731957 0 0.15833395289942459 -0.30277064129418452 0 0.14713671827704089 -0.30135323666197922 0 0.15396909984834459 -0.29491513286214271 0 0.15833395289942459 -0.30277064129418452 0 0.14239274032198029 -0.31110472937884959 0 0.15127675512152991 -0.30661370261731957 0 0.15724360898767331 -0.31122620313426519 0 0.15127675512152991 -0.30661370261731957 0 0.15724360898767331 -0.31122620313426519 0 0.15833395289942459 -0.30277064129418452 0 0.14288435054944429 -0.29039660867908801 0 0.12960785577212161 -0.2771691648816772 0 0.15748240603695651 -0.28362289806675339 0 0.15396909984834459 -0.29491513286214271 0 0.14288435054944429 -0.29039660867908801 0 0.15748240603695651 -0.28362289806675339 0 0.14713671827704089 -0.30135323666197922 0 0.15396909984834459 -0.29491513286214271 0 0.14288435054944429 -0.29039660867908801 0 0.13768972695614271 -0.29701768848021909 0 0.14713671827704089 -0.30135323666197922 0 0.14288435054944429 -0.29039660867908801 0 0.13269793593213619 -0.28906484527937287 0 0.12960785577212161 -0.2771691648816772 0 0.1245325467552142 -0.29616219588664588 0 0.14288435054944429 -0.29039660867908801 0 0.13269793593213619 -0.28906484527937287 0 0.12960785577212161 -0.2771691648816772 0 0.13768972695614271 -0.29701768848021909 0 0.14288435054944429 -0.29039660867908801 0 0.13269793593213619 -0.28906484527937287 0 0.13768972695614271 -0.29701768848021909 0 0.13269793593213619 -0.28906484527937287 0 0.1245325467552142 -0.29616219588664588 0 0.12960785577212161 -0.2771691648816772 0 0.1435618233942873 -0.26700926031121741 0 0.1241996852211366 -0.25790584062349681 0 0.12960785577212161 -0.2771691648816772 0 0.1435618233942873 -0.26700926031121741 0 0.1435618233942873 -0.26700926031121741 0 0.1241996852211366 -0.25790584062349681 0 0.14393055568318941 -0.24807568983306799 0 0.1435618233942873 -0.26700926031121741 0 0.16205384985086629 -0.26742179363930468 0 0.15751579101645269 -0.25684935574075729 0 0.1435618233942873 -0.26700926031121741 0 0.15751579101645269 -0.25684935574075729 0 0.14393055568318941 -0.24807568983306799 0 0.1435618233942873 -0.26700926031121741 0 0.15751579101645269 -0.25684935574075729 0 0.12960785577212161 -0.2771691648816772 0 0.1435618233942873 -0.26700926031121741 0 0.15748240603695651 -0.28362289806675339 0 0.1435618233942873 -0.26700926031121741 0 0.16205384985086629 -0.26742179363930468 0 0.15748240603695651 -0.28362289806675339 0 0.12960785577212161 -0.2771691648816772 0 0.15748240603695651 -0.28362289806675339 0 0.16205384985086629 -0.26742179363930468 0 0.17714848361424121 -0.26919105422967299 0 0.15748240603695651 -0.28362289806675339 0 0.15751579101645269 -0.25684935574075729 0 0.17120936215439389 -0.25479219535236952 0 0.16044476237192989 -0.24370211007817361 0 0.16205384985086629 -0.26742179363930468 0 0.15751579101645269 -0.25684935574075729 0 0.17120936215439389 -0.25479219535236952 0 0.16205384985086629 -0.26742179363930468 0 0.17120936215439389 -0.25479219535236952 0 0.17714848361424121 -0.26919105422967299 0 0.194815898299073 -0.26863157338941801 0 0.1877149783444681 -0.25109313309015618 0 0.17714848361424121 -0.26919105422967299 0 0.1877149783444681 -0.25109313309015618 0 0.17120936215439389 -0.25479219535236952 0 0.17714848361424121 -0.26919105422967299 0 0.17714848361424121 -0.26919105422967299 0 0.18185619699892089 -0.27894752608387913 0 0.15748240603695651 -0.28362289806675339 0 0.194815898299073 -0.26863157338941801 0 0.17714848361424121 -0.26919105422967299 0 0.18185619699892089 -0.27894752608387913 0 0.1944772407425423 -0.28321547348172232 0 0.18185619699892089 -0.27894752608387913 0 0.18535695630179169 -0.2900766312518287 0 0.18185619699892089 -0.27894752608387913 0 0.18535695630179169 -0.2900766312518287 0 0.15748240603695651 -0.28362289806675339 0 0.18535695630179169 -0.2900766312518287 0 0.17130028264473199 -0.30065141719304628 0 0.16523732082355419 -0.29448834155259579 0 0.18535695630179169 -0.2900766312518287 0 0.17130028264473199 -0.30065141719304628 0 0.1920091846892425 -0.30027812418043681 0 0.18535695630179169 -0.2900766312518287 0 0.18285519589300861 -0.30170805061143052 0 0.18535695630179169 -0.2900766312518287 0 0.18285519589300861 -0.30170805061143052 0 0.17130028264473199 -0.30065141719304628 0 0.1887249449733204 -0.30887292282106149 0 0.18285519589300861 -0.30170805061143052 0 0.17605378055306151 -0.30947190674785402 0 0.18285519589300861 -0.30170805061143052 0 0.17605378055306151 -0.30947190674785402 0 0.17130028264473199 -0.30065141719304628 0 0.17130028264473199 -0.30065141719304628 0 0.15833395289942459 -0.30277064129418452 0 0.16523732082355419 -0.29448834155259579 0 0.17605378055306151 -0.30947190674785402 0 0.17130028264473199 -0.30065141719304628 0 0.15724360898767331 -0.31122620313426519 0 0.17130028264473199 -0.30065141719304628 0 0.15724360898767331 -0.31122620313426519 0 0.17130028264473199 -0.30065141719304628 0 0.15724360898767331 -0.31122620313426519 0 0.15833395289942459 -0.30277064129418452 0 0.15724360898767331 -0.31122620313426519 0 0.15833395289942459 -0.30277064129418452 0 0.15396909984834459 -0.29491513286214271 0 0.15833395289942459 -0.30277064129418452 0 0.16523732082355419 -0.29448834155259579 0 0.18535695630179169 -0.2900766312518287 0 0.15748240603695651 -0.28362289806675339 0 0.16523732082355419 -0.29448834155259579 0 0.18535695630179169 -0.2900766312518287 0 0.15748240603695651 -0.28362289806675339 0 0.15396909984834459 -0.29491513286214271 0 0.15748240603695651 -0.28362289806675339 0 0.16523732082355419 -0.29448834155259579 0 0.18976100212141339 -0.5 0 0.2115191354268102 -0.49483191351889971 0 0.18564388591989869 -0.49741595675944977 0 0.2115191354268102 -0.49483191351889971 0 0.18564388591989869 -0.49741595675944977 0 0.19412853365426461 -0.49226186571663022 0 0.2115191354268102 -0.49483191351889971 0 0.18564388591989869 -0.49741595675944977 0 0.19859749997834 -0.48913746344930659 0 0.19412853365426461 -0.49226186571663022 0 0.2115191354268102 -0.49483191351889971 0 0.19859749997834 -0.48913746344930659 0 0.1941321167014648 -0.48344805374452032 0 0.2016081322921997 -0.48207295382596138 0 0.19859749997834 -0.48913746344930659 0 0.2016081322921997 -0.48207295382596138 0 0.2056554873270659 -0.48769627019522249 0 0.19412853365426461 -0.49226186571663022 0 0.18732044511737889 -0.49208775570165791 0 0.18564388591989869 -0.49741595675944977 0 0.19859749997834 -0.48913746344930659 0 0.19412853365426461 -0.49226186571663022 0 0.18808979838041859 -0.48748958139798271 0 0.19859749997834 -0.48913746344930659 0 0.18808979838041859 -0.48748958139798271 0 0.1941321167014648 -0.48344805374452032 0 0.19412853365426461 -0.49226186571663022 0 0.18808979838041859 -0.48748958139798271 0 0.18732044511737889 -0.49208775570165791 0 0.18808979838041859 -0.48748958139798271 0 0.187638277655854 -0.48040148933259452 0 0.1941321167014648 -0.48344805374452032 0 0.187638277655854 -0.48040148933259452 0 0.1941321167014648 -0.48344805374452032 0 0.19498025022210541 -0.47615743084942391 0 0.19498025022210541 -0.47615743084942391 0 0.19431812496401921 -0.46634832262833498 0 0.18382720487537599 -0.47286027459653962 0 0.187638277655854 -0.48040148933259452 0 0.19498025022210541 -0.47615743084942391 0 0.18382720487537599 -0.47286027459653962 0 0.19498025022210541 -0.47615743084942391 0 0.20513288289171469 -0.47323710459790552 0 0.19431812496401921 -0.46634832262833498 0 0.19498025022210541 -0.47615743084942391 0 0.2016081322921997 -0.48207295382596138 0 0.20513288289171469 -0.47323710459790552 0 0.1941321167014648 -0.48344805374452032 0 0.19498025022210541 -0.47615743084942391 0 0.2016081322921997 -0.48207295382596138 0 0.2016081322921997 -0.48207295382596138 0 0.21115055663250731 -0.48276140011938989 0 0.2056554873270659 -0.48769627019522249 0 0.2016081322921997 -0.48207295382596138 0 0.20513288289171469 -0.47323710459790552 0 0.21115055663250731 -0.48276140011938989 0 0.20513288289171469 -0.47323710459790552 0 0.21115055663250731 -0.48276140011938989 0 0.2198218977388913 -0.47091130716312102 0 0.21115055663250731 -0.48276140011938989 0 0.22293597203783111 -0.48377358999112252 0 0.2198218977388913 -0.47091130716312102 0 0.18976100212141339 -0.5 0 0.2115191354268102 -0.49483191351889971 0 0.2197533678298399 -0.5 0 0.21115055663250731 -0.48276140011938989 0 0.2115191354268102 -0.49483191351889971 0 0.22293597203783111 -0.48377358999112252 0 0.19859749997834 -0.48913746344930659 0 0.2056554873270659 -0.48769627019522249 0 0.2115191354268102 -0.49483191351889971 0 0.21115055663250731 -0.48276140011938989 0 0.2056554873270659 -0.48769627019522249 0 0.2115191354268102 -0.49483191351889971 0 0.2115191354268102 -0.49483191351889971 0 0.23739438493372181 -0.49224787027834949 0 0.22293597203783111 -0.48377358999112252 0 0.2115191354268102 -0.49483191351889971 0 0.23739438493372181 -0.49224787027834949 0 0.2115191354268102 -0.49483191351889971 0 0.2197533678298399 -0.5 0 0.23739438493372181 -0.49224787027834949 0 0.23739438493372181 -0.49224787027834949 0 0.2347938854572249 -0.47811545887585238 0 0.22293597203783111 -0.48377358999112252 0 0.26326963444063328 -0.48966382703779943 0 0.23739438493372181 -0.49224787027834949 0 0.24847767746719679 -0.48038145090668249 0 0.2197533678298399 -0.5 0 0.2497457335382661 -0.5 0 0.23739438493372181 -0.49224787027834949 0 0.2464555342082537 -0.46971941230712028 0 0.2347938854572249 -0.47811545887585238 0 0.23449732624865161 -0.45937231506260551 0 0.2464555342082537 -0.46971941230712028 0 0.24847767746719679 -0.48038145090668249 0 0.2347938854572249 -0.47811545887585238 0 0.23739438493372181 -0.49224787027834949 0 0.24847767746719679 -0.48038145090668249 0 0.2347938854572249 -0.47811545887585238 0 0.2347938854572249 -0.47811545887585238 0 0.2198218977388913 -0.47091130716312102 0 0.23449732624865161 -0.45937231506260551 0 0.2347938854572249 -0.47811545887585238 0 0.22293597203783111 -0.48377358999112252 0 0.2198218977388913 -0.47091130716312102 0 0.2198218977388913 -0.47091130716312102 0 0.21889265028443169 -0.45687917906012188 0 0.23449732624865161 -0.45937231506260551 0 0.21889265028443169 -0.45687917906012188 0 0.23449732624865161 -0.45937231506260551 0 0.22563012106727581 -0.44420553841428118 0 0.25444172230484963 -0.4575541863314147 0 0.23449732624865161 -0.45937231506260551 0 0.24638267650011689 -0.44543710318110968 0 0.25444172230484963 -0.4575541863314147 0 0.2464555342082537 -0.46971941230712028 0 0.23449732624865161 -0.45937231506260551 0 0.23449732624865161 -0.45937231506260551 0 0.24638267650011689 -0.44543710318110968 0 0.22563012106727581 -0.44420553841428118 0 0.24638267650011689 -0.44543710318110968 0 0.22563012106727581 -0.44420553841428118 0 0.23341607914292331 -0.42484604558568212 0 0.20725451775466719 -0.44786944784840138 0 0.1971059918254664 -0.43563732391292032 0 0.21403187808010199 -0.43342024831405462 0 0.22563012106727581 -0.44420553841428118 0 0.20725451775466719 -0.44786944784840138 0 0.21403187808010199 -0.43342024831405462 0 0.21889265028443169 -0.45687917906012188 0 0.22563012106727581 -0.44420553841428118 0 0.20725451775466719 -0.44786944784840138 0 0.21889265028443169 -0.45687917906012188 0 0.20725451775466719 -0.44786944784840138 0 0.20725938861267251 -0.46203728681220008 0 0.2198218977388913 -0.47091130716312102 0 0.21889265028443169 -0.45687917906012188 0 0.20725938861267251 -0.46203728681220008 0 0.20513288289171469 -0.47323710459790552 0 0.2198218977388913 -0.47091130716312102 0 0.20725938861267251 -0.46203728681220008 0 0.20725451775466719 -0.44786944784840138 0 0.20725938861267251 -0.46203728681220008 0 0.19133922143507989 -0.45257149152309539 0 0.20725938861267251 -0.46203728681220008 0 0.19431812496401921 -0.46634832262833498 0 0.19133922143507989 -0.45257149152309539 0 0.20513288289171469 -0.47323710459790552 0 0.20725938861267251 -0.46203728681220008 0 0.19431812496401921 -0.46634832262833498 0 0.19431812496401921 -0.46634832262833498 0 0.19133922143507989 -0.45257149152309539 0 0.18399507559566439 -0.46274441440854203 0 0.19133922143507989 -0.45257149152309539 0 0.1971059918254664 -0.43563732391292032 0 0.17508484469860311 -0.43993777066239492 0 0.20725451775466719 -0.44786944784840138 0 0.19133922143507989 -0.45257149152309539 0 0.1971059918254664 -0.43563732391292032 0 0.1971059918254664 -0.43563732391292032 0 0.2067526806101776 -0.41454288580898802 0 0.18524702014851099 -0.41814105828363579 0 0.2067526806101776 -0.41454288580898802 0 0.19426721219045329 -0.40519802922208481 0 0.18524702014851099 -0.41814105828363579 0 0.19426721219045329 -0.40519802922208481 0 0.1840883508391023 -0.39748933472604081 0 0.18524702014851099 -0.41814105828363579 0 0.1971059918254664 -0.43563732391292032 0 0.2067526806101776 -0.41454288580898802 0 0.21403187808010199 -0.43342024831405462 0 0.2067526806101776 -0.41454288580898802 0 0.21403187808010199 -0.43342024831405462 0 0.23341607914292331 -0.42484604558568212 0 0.22563012106727581 -0.44420553841428118 0 0.21403187808010199 -0.43342024831405462 0 0.23341607914292331 -0.42484604558568212 0 0.25249041835959912 -0.40973664839820312 0 0.26231395272875702 -0.43236632837180161 0 0.23341607914292331 -0.42484604558568212 0 0.26231395272875702 -0.43236632837180161 0 0.24638267650011689 -0.44543710318110968 0 0.23341607914292331 -0.42484604558568212 0 0.25249041835959912 -0.40973664839820312 0 0.23341607914292331 -0.42484604558568212 0 0.22673560776181059 -0.40017774323393862 0 0.2067526806101776 -0.41454288580898802 0 0.23341607914292331 -0.42484604558568212 0 0.22673560776181059 -0.40017774323393862 0 0.25249041835959912 -0.40973664839820312 0 0.22673560776181059 -0.40017774323393862 0 0.24606680816782681 -0.38702931327303142 0 0.25249041835959912 -0.40973664839820312 0 0.22673560776181059 -0.40017774323393862 0 0.24225831214304999 -0.36506703067544211 0 0.24606680816782681 -0.38702931327303142 0 0.2302787836259339 -0.38016301577518569 0 0.22673560776181059 -0.40017774323393862 0 0.2302787836259339 -0.38016301577518569 0 0.2165131253461933 -0.38445498204607181 0 0.21220634582267861 -0.37353866270222191 0 0.2302787836259339 -0.38016301577518569 0 0.2165131253461933 -0.38445498204607181 0 0.22673560776181059 -0.40017774323393862 0 0.24606680816782681 -0.38702931327303142 0 0.2302787836259339 -0.38016301577518569 0 0.21220634582267861 -0.37353866270222191 0 0.20762830602779239 -0.38090424045010879 0 0.2165131253461933 -0.38445498204607181 0 0.21220634582267861 -0.37353866270222191 0 0.20762830602779239 -0.38090424045010879 0 0.19844506261391129 -0.3765682739828527 0 0.20762830602779239 -0.38090424045010879 0 0.2165131253461933 -0.38445498204607181 0 0.20098079716402231 -0.39061883806967429 0 0.22673560776181059 -0.40017774323393862 0 0.20098079716402231 -0.39061883806967429 0 0.22673560776181059 -0.40017774323393862 0 0.2165131253461933 -0.38445498204607181 0 0.20098079716402231 -0.39061883806967429 0 0.2067526806101776 -0.41454288580898802 0 0.22673560776181059 -0.40017774323393862 0 0.20098079716402231 -0.39061883806967429 0 0.20098079716402231 -0.39061883806967429 0 0.18695059779495171 -0.38541152564563408 0 0.1840883508391023 -0.39748933472604081 0 0.19426721219045329 -0.40519802922208481 0 0.20098079716402231 -0.39061883806967429 0 0.1840883508391023 -0.39748933472604081 0 0.2067526806101776 -0.41454288580898802 0 0.19426721219045329 -0.40519802922208481 0 0.20098079716402231 -0.39061883806967429 0 0.20098079716402231 -0.39061883806967429 0 0.18695059779495171 -0.38541152564563408 0 0.18644928972755409 -0.3683962570005993 0 0.19844506261391129 -0.3765682739828527 0 0.18695059779495171 -0.38541152564563408 0 0.20762830602779239 -0.38090424045010879 0 0.19844506261391129 -0.3765682739828527 0 0.20098079716402231 -0.39061883806967429 0 0.19844506261391129 -0.3765682739828527 0 0.20098079716402231 -0.39061883806967429 0 0.18695059779495171 -0.38541152564563408 0 0.17522598656623389 -0.38105993290541001 0 0.18695059779495171 -0.38541152564563408 0 0.1840883508391023 -0.39748933472604081 0 0.16986167776396671 -0.36588903572006121 0 0.18695059779495171 -0.38541152564563408 0 0.16986167776396671 -0.36588903572006121 0 0.17522598656623389 -0.38105993290541001 0 0.18695059779495171 -0.38541152564563408 0 0.17522598656623389 -0.38105993290541001 0 0.18695059779495171 -0.38541152564563408 0 0.17522598656623389 -0.38105993290541001 0 0.1840883508391023 -0.39748933472604081 0 0.17048024347991189 -0.3939987763839416 0 0.1840883508391023 -0.39748933472604081 0 0.17048024347991189 -0.3939987763839416 0 0.17140002058644091 -0.40942658717066732 0 0.17048024347991189 -0.3939987763839416 0 0.15531041272172769 -0.39737767253638451 0 0.17140002058644091 -0.40942658717066732 0 0.17048024347991189 -0.3939987763839416 0 0.16152981661265689 -0.38724677492382059 0 0.15531041272172769 -0.39737767253638451 0 0.1494711759684457 -0.37150102774114452 0 0.17522598656623389 -0.38105993290541001 0 0.16152981661265689 -0.38724677492382059 0 0.1494711759684457 -0.37150102774114452 0 0.17522598656623389 -0.38105993290541001 0 0.17522598656623389 -0.38105993290541001 0 0.17048024347991189 -0.3939987763839416 0 0.16152981661265689 -0.38724677492382059 0 0.1494711759684457 -0.37150102774114452 0 0.16152981661265689 -0.38724677492382059 0 0.1480206089222974 -0.382750101753211 0 0.1494711759684457 -0.37150102774114452 0 0.1480206089222974 -0.382750101753211 0 0.1480206089222974 -0.382750101753211 0 0.13797625257976839 -0.39006353808902661 0 0.15531041272172769 -0.39737767253638451 0 0.16152981661265689 -0.38724677492382059 0 0.1480206089222974 -0.382750101753211 0 0.15531041272172769 -0.39737767253638451 0 0.12999483985011881 -0.36427238013779301 0 0.13046987380314459 -0.39188406372456919 0 0.12999483985011881 -0.36427238013779301 0 0.13046987380314459 -0.39188406372456919 0 0.12315791494570361 -0.3757446494323658 0 0.12999483985011881 -0.36427238013779301 0 0.1480206089222974 -0.382750101753211 0 0.13797625257976839 -0.39006353808902661 0 0.12999483985011881 -0.36427238013779301 0 0.13797625257976839 -0.39006353808902661 0 0.12999483985011881 -0.36427238013779301 0 0.13797625257976839 -0.39006353808902661 0 0.13046987380314459 -0.39188406372456919 0 0.13046987380314459 -0.39188406372456919 0 0.1311885413469441 -0.41958617198678477 0 0.13797625257976839 -0.39006353808902661 0 0.13046987380314459 -0.39188406372456919 0 0.14595766530941651 -0.41585469604026071 0 0.13046987380314459 -0.39188406372456919 0 0.1311885413469441 -0.41958617198678477 0 0.11931097947468421 -0.40465238886033911 0 0.13797625257976839 -0.39006353808902661 0 0.15531041272172769 -0.39737767253638451 0 0.14595766530941651 -0.41585469604026071 0 0.13797625257976839 -0.39006353808902661 0 0.14595766530941651 -0.41585469604026071 0 0.13046987380314459 -0.39188406372456919 0 0.14595766530941651 -0.41585469604026071 0 0.1311885413469441 -0.41958617198678477 0 0.14595766530941651 -0.41585469604026071 0 0.1311885413469441 -0.41958617198678477 0 0.14595766530941651 -0.41585469604026071 0 0.1311885413469441 -0.41958617198678477 0 0.141110748330077 -0.42988985825401788 0 0.1311885413469441 -0.41958617198678477 0 0.1203148460794477 -0.42233345289820817 0 0.13163126500321959 -0.43665161311083311 0 0.12619772204321991 -0.42977679351043868 0 0.1226474527574096 -0.43786673257805908 0 0.13163126500321959 -0.43665161311083311 0 0.12619772204321991 -0.42977679351043868 0 0.131563194440699 -0.43402773214001461 0 0.13163126500321959 -0.43665161311083311 0 0.12619772204321991 -0.42977679351043868 0 0.131563194440699 -0.43402773214001461 0 0.13163126500321959 -0.43665161311083311 0 0.131563194440699 -0.43402773214001461 0 0.12619772204321991 -0.42977679351043868 0 0.1311885413469441 -0.41958617198678477 0 0.131563194440699 -0.43402773214001461 0 0.1311885413469441 -0.41958617198678477 0 0.12619772204321991 -0.42977679351043868 0 0.1203148460794477 -0.42233345289820817 0 0.1311885413469441 -0.41958617198678477 0 0.131563194440699 -0.43402773214001461 0 0.12619772204321991 -0.42977679351043868 0 0.1311885413469441 -0.41958617198678477 0 0.131563194440699 -0.43402773214001461 0 0.141110748330077 -0.42988985825401788 0 0.131563194440699 -0.43402773214001461 0 0.141110748330077 -0.42988985825401788 0 0.14482355255948409 -0.44453360457645269 0 0.14595766530941651 -0.41585469604026071 0 0.15202078799384131 -0.43544708652657682 0 0.16591364296590599 -0.42556727407911887 0 0.14595766530941651 -0.41585469604026071 0 0.141110748330077 -0.42988985825401788 0 0.15202078799384131 -0.43544708652657682 0 0.14595766530941651 -0.41585469604026071 0 0.15202078799384131 -0.43544708652657682 0 0.141110748330077 -0.42988985825401788 0 0.15202078799384131 -0.43544708652657682 0 0.14482355255948409 -0.44453360457645269 0 0.15202078799384131 -0.43544708652657682 0 0.16591364296590599 -0.42556727407911887 0 0.17508484469860311 -0.43993777066239492 0 0.15531041272172769 -0.39737767253638451 0 0.14595766530941651 -0.41585469604026071 0 0.17140002058644091 -0.40942658717066732 0 0.14595766530941651 -0.41585469604026071 0 0.16591364296590599 -0.42556727407911887 0 0.17140002058644091 -0.40942658717066732 0 0.14595766530941651 -0.41585469604026071 0 0.17140002058644091 -0.40942658717066732 0 0.1840883508391023 -0.39748933472604081 0 0.17140002058644091 -0.40942658717066732 0 0.18524702014851099 -0.41814105828363579 0 0.16591364296590599 -0.42556727407911887 0 0.17140002058644091 -0.40942658717066732 0 0.18524702014851099 -0.41814105828363579 0 0.16591364296590599 -0.42556727407911887 0 0.18524702014851099 -0.41814105828363579 0 0.17508484469860311 -0.43993777066239492 0 0.1971059918254664 -0.43563732391292032 0 0.18524702014851099 -0.41814105828363579 0 0.17508484469860311 -0.43993777066239492 0 0.19133922143507989 -0.45257149152309539 0 0.17508484469860311 -0.43993777066239492 0 0.17667650893738621 -0.45443967166144178 0 0.19133922143507989 -0.45257149152309539 0 0.18399507559566439 -0.46274441440854203 0 0.17667650893738621 -0.45443967166144178 0 0.19431812496401921 -0.46634832262833498 0 0.18399507559566439 -0.46274441440854203 0 0.18382720487537599 -0.47286027459653962 0 0.18399507559566439 -0.46274441440854203 0 0.17381431776646089 -0.46750231163329831 0 0.18382720487537599 -0.47286027459653962 0 0.18399507559566439 -0.46274441440854203 0 0.17381431776646089 -0.46750231163329831 0 0.17667650893738621 -0.45443967166144178 0 0.15808391067826769 -0.45503947701289249 0 0.15125230907903081 -0.46671467429475078 0 0.16453106136309309 -0.47587281658323138 0 0.17381431776646089 -0.46750231163329831 0 0.17667650893738621 -0.45443967166144178 0 0.15808391067826769 -0.45503947701289249 0 0.15808391067826769 -0.45503947701289249 0 0.16453106136309309 -0.47587281658323138 0 0.17381431776646089 -0.46750231163329831 0 0.15808391067826769 -0.45503947701289249 0 0.17381431776646089 -0.46750231163329831 0 0.15808391067826769 -0.45503947701289249 0 0.16453106136309309 -0.47587281658323138 0 0.15202078799384131 -0.43544708652657682 0 0.17508484469860311 -0.43993777066239492 0 0.15808391067826769 -0.45503947701289249 0 0.17508484469860311 -0.43993777066239492 0 0.17667650893738621 -0.45443967166144178 0 0.15808391067826769 -0.45503947701289249 0 0.15202078799384131 -0.43544708652657682 0 0.15808391067826769 -0.45503947701289249 0 0.15202078799384131 -0.43544708652657682 0 0.15808391067826769 -0.45503947701289249 0 0.14482355255948409 -0.44453360457645269 0 0.15808391067826769 -0.45503947701289249 0 0.14482355255948409 -0.44453360457645269 0 0.14845675491100641 -0.45493101793384533 0 0.15808391067826769 -0.45503947701289249 0 0.14482355255948409 -0.44453360457645269 0 0.1417685435717019 -0.44947785961525549 0 0.14482355255948409 -0.44453360457645269 0 0.14845675491100641 -0.45493101793384533 0 0.131563194440699 -0.43402773214001461 0 0.14482355255948409 -0.44453360457645269 0 0.13163126500321959 -0.43665161311083311 0 0.1417685435717019 -0.44947785961525549 0 0.13163126500321959 -0.43665161311083311 0 0.13235018112255781 -0.46436330308638157 0 0.13163126500321959 -0.43665161311083311 0 0.1417685435717019 -0.44947785961525549 0 0.13235018112255781 -0.46436330308638157 0 0.13163126500321959 -0.43665161311083311 0 0.13235018112255781 -0.46436330308638157 0 0.1207628721920717 -0.44854027478294328 0 0.13163126500321959 -0.43665161311083311 0 0.1417685435717019 -0.44947785961525549 0 0.14482355255948409 -0.44453360457645269 0 0.131563194440699 -0.43402773214001461 0 0.13163126500321959 -0.43665161311083311 0 0.14482355255948409 -0.44453360457645269 0 0.13163126500321959 -0.43665161311083311 0 0.1226474527574096 -0.43786673257805908 0 0.1207628721920717 -0.44854027478294328 0 0.1417685435717019 -0.44947785961525549 0 0.13235018112255781 -0.46436330308638157 0 0.1428018252009266 -0.4614497636688939 0 0.13235018112255781 -0.46436330308638157 0 0.1428018252009266 -0.4614497636688939 0 0.13998747156975361 -0.47694093525040049 0 0.1428018252009266 -0.4614497636688939 0 0.15125230907903081 -0.46671467429475078 0 0.13998747156975361 -0.47694093525040049 0 0.1428018252009266 -0.4614497636688939 0 0.14845675491100641 -0.45493101793384533 0 0.15125230907903081 -0.46671467429475078 0 0.1417685435717019 -0.44947785961525549 0 0.1428018252009266 -0.4614497636688939 0 0.14845675491100641 -0.45493101793384533 0 0.15808391067826769 -0.45503947701289249 0 0.14845675491100641 -0.45493101793384533 0 0.15125230907903081 -0.46671467429475078 0 0.1533168863408321 -0.47854026237523523 0 0.13998747156975361 -0.47694093525040049 0 0.14803967097421911 -0.4880962340200542 0 0.13998747156975361 -0.47694093525040049 0 0.1403042050541714 -0.48624631642531119 0 0.14803967097421911 -0.4880962340200542 0 0.15125230907903081 -0.46671467429475078 0 0.1533168863408321 -0.47854026237523523 0 0.13998747156975361 -0.47694093525040049 0 0.13235018112255781 -0.46436330308638157 0 0.13306909724189259 -0.49207499306193042 0 0.13235018112255781 -0.46436330308638157 0 0.13306909724189259 -0.49207499306193042 0 0.12184500481864199 -0.47850100604750762 0 0.13235018112255781 -0.46436330308638157 0 0.13998747156975361 -0.47694093525040049 0 0.13306909724189259 -0.49207499306193042 0 0.13306909724189259 -0.49207499306193042 0 0.13351580825859019 -0.5 0 0.12192294641686501 -0.49611427659277152 0 0.13306909724189259 -0.49207499306193042 0 0.1237150093749002 -0.48704073970745138 0 0.12184500481864199 -0.47850100604750762 0 0.13306909724189259 -0.49207499306193042 0 0.1237150093749002 -0.48704073970745138 0 0.12192294641686501 -0.49611427659277152 0 0.1403042050541714 -0.48624631642531119 0 0.13351580825859019 -0.5 0 0.14803967097421911 -0.4880962340200542 0 0.13998747156975361 -0.47694093525040049 0 0.13306909724189259 -0.49207499306193042 0 0.1403042050541714 -0.48624631642531119 0 0.13306909724189259 -0.49207499306193042 0 0.1403042050541714 -0.48624631642531119 0 0.13351580825859019 -0.5 0 0.13351580825859019 -0.5 0 0.14803967097421911 -0.4880962340200542 0 0.15976863641298711 -0.49999999999999989 0 0.14803967097421911 -0.4880962340200542 0 0.15976863641298711 -0.49999999999999989 0 0.15964025936328791 -0.48759159909017469 0 0.1533168863408321 -0.47854026237523523 0 0.14803967097421911 -0.4880962340200542 0 0.15964025936328791 -0.48759159909017469 0 0.15976863641298711 -0.49999999999999989 0 0.17097821204791991 -0.49670615615356972 0 0.15964025936328791 -0.48759159909017469 0 0.17097821204791991 -0.49670615615356972 0 0.15964025936328791 -0.48759159909017469 0 0.16453106136309309 -0.47587281658323138 0 0.17097821204791991 -0.49670615615356972 0 0.16453106136309309 -0.47587281658323138 0 0.17097821204791991 -0.49670615615356972 0 0.16453106136309309 -0.47587281658323138 0 0.17359744974065069 -0.47700517514424801 0 0.1533168863408321 -0.47854026237523523 0 0.15964025936328791 -0.48759159909017469 0 0.16453106136309309 -0.47587281658323138 0 0.15125230907903081 -0.46671467429475078 0 0.1533168863408321 -0.47854026237523523 0 0.16453106136309309 -0.47587281658323138 0 0.17381431776646089 -0.46750231163329831 0 0.16453106136309309 -0.47587281658323138 0 0.17359744974065069 -0.47700517514424801 0 0.17359744974065069 -0.47700517514424801 0 0.1796143168622234 -0.48321354817768331 0 0.18382720487537599 -0.47286027459653962 0 0.17381431776646089 -0.46750231163329831 0 0.17359744974065069 -0.47700517514424801 0 0.18382720487537599 -0.47286027459653962 0 0.187638277655854 -0.48040148933259452 0 0.1796143168622234 -0.48321354817768331 0 0.18382720487537599 -0.47286027459653962 0 0.18808979838041859 -0.48748958139798271 0 0.187638277655854 -0.48040148933259452 0 0.1796143168622234 -0.48321354817768331 0 0.15976863641298711 -0.49999999999999989 0 0.18564388591989869 -0.49741595675944977 0 0.15976863641298711 -0.49999999999999989 0 0.17097821204791991 -0.49670615615356972 0 0.18564388591989869 -0.49741595675944977 0 0.18976100212141339 -0.5 0 0.15976863641298711 -0.49999999999999989 0 0.18564388591989869 -0.49741595675944977 0 0.17097821204791991 -0.49670615615356972 0 0.17359744974065069 -0.47700517514424801 0 0.1796143168622234 -0.48321354817768331 0 0.18808979838041859 -0.48748958139798271 0 0.1796143168622234 -0.48321354817768331 0 0.1814195625149338 -0.49118361893256901 0 0.18808979838041859 -0.48748958139798271 0 0.1814195625149338 -0.49118361893256901 0 0.18732044511737889 -0.49208775570165791 0 0.1814195625149338 -0.49118361893256901 0 0.18732044511737889 -0.49208775570165791 0 0.18564388591989869 -0.49741595675944977 0 0.17097821204791991 -0.49670615615356972 0 0.1814195625149338 -0.49118361893256901 0 0.18564388591989869 -0.49741595675944977 0 0.17097821204791991 -0.49670615615356972 0 0.1796143168622234 -0.48321354817768331 0 0.1814195625149338 -0.49118361893256901 0 0.066977496882078602 -0.48810119257651152 0 0.083023004659989852 -0.48123417466214508 0 0.081010151949796327 -0.5 0 0.066977496882078602 -0.48810119257651152 0 0.081010151949796327 -0.5 0 0.054757323795399333 -0.5 0 0.066977496882078602 -0.48810119257651152 0 0.06619625305036167 -0.47268618034115373 0 0.083023004659989852 -0.48123417466214508 0 0.06619625305036167 -0.47268618034115373 0 0.083023004659989852 -0.48123417466214508 0 0.084197385813002651 -0.46108028986718469 0 0.083023004659989852 -0.48123417466214508 0 0.10306016611493379 -0.47859728322997808 0 0.084197385813002651 -0.46108028986718469 0 0.083023004659989852 -0.48123417466214508 0 0.093589075707228339 -0.4899578644730308 0 0.10306016611493379 -0.47859728322997808 0 0.10306016611493379 -0.47859728322997808 0 0.084197385813002651 -0.46108028986718469 0 0.083023004659989852 -0.48123417466214508 0 0.081010151949796327 -0.5 0 0.093589075707228339 -0.4899578644730308 0 0.093589075707228339 -0.4899578644730308 0 0.1072629801041933 -0.5 0 0.10306016611493379 -0.47859728322997808 0 0.081010151949796327 -0.5 0 0.093589075707228339 -0.4899578644730308 0 0.1072629801041933 -0.5 0 0.12192294641686501 -0.49611427659277152 0 0.10306016611493379 -0.47859728322997808 0 0.1072629801041933 -0.5 0 0.12192294641686501 -0.49611427659277152 0 0.10306016611493379 -0.47859728322997808 0 0.1237150093749002 -0.48704073970745138 0 0.12192294641686501 -0.49611427659277152 0 0.10306016611493379 -0.47859728322997808 0 0.13351580825859019 -0.5 0 0.1072629801041933 -0.5 0 0.12192294641686501 -0.49611427659277152 0 0.1237150093749002 -0.48704073970745138 0 0.12184500481864199 -0.47850100604750762 0 0.10306016611493379 -0.47859728322997808 0 0.12184500481864199 -0.47850100604750762 0 0.10306016611493379 -0.47859728322997808 0 0.1140898415463772 -0.46239284930182539 0 0.10306016611493379 -0.47859728322997808 0 0.1012659424845776 -0.45852640636179842 0 0.084197385813002651 -0.46108028986718469 0 0.10306016611493379 -0.47859728322997808 0 0.1012659424845776 -0.45852640636179842 0 0.1140898415463772 -0.46239284930182539 0 0.1012659424845776 -0.45852640636179842 0 0.095911393093608646 -0.44316334396111329 0 0.084197385813002651 -0.46108028986718469 0 0.1012659424845776 -0.45852640636179842 0 0.1140898415463772 -0.46239284930182539 0 0.10907092585496581 -0.4473982654488905 0 0.13235018112255781 -0.46436330308638157 0 0.1140898415463772 -0.46239284930182539 0 0.1207628721920717 -0.44854027478294328 0 0.13235018112255781 -0.46436330308638157 0 0.12184500481864199 -0.47850100604750762 0 0.1140898415463772 -0.46239284930182539 0 0.1226474527574096 -0.43786673257805908 0 0.1207628721920717 -0.44854027478294328 0 0.117158424761884 -0.44168320813531298 0 0.1207628721920717 -0.44854027478294328 0 0.117158424761884 -0.44168320813531298 0 0.10907092585496581 -0.4473982654488905 0 0.1140898415463772 -0.46239284930182539 0 0.1207628721920717 -0.44854027478294328 0 0.10907092585496581 -0.4473982654488905 0 0.1126829645408845 -0.43858441115904317 0 0.117158424761884 -0.44168320813531298 0 0.1174869797866549 -0.43268177335076557 0 0.1126829645408845 -0.43858441115904317 0 0.117158424761884 -0.44168320813531298 0 0.10907092585496581 -0.4473982654488905 0 0.1126829645408845 -0.43858441115904317 0 0.10907092585496581 -0.4473982654488905 0 0.1068406047362698 -0.43422725959106112 0 0.10907092585496581 -0.4473982654488905 0 0.095911393093608646 -0.44316334396111329 0 0.1068406047362698 -0.43422725959106112 0 0.1012659424845776 -0.45852640636179842 0 0.10907092585496581 -0.4473982654488905 0 0.095911393093608646 -0.44316334396111329 0 0.095911393093608646 -0.44316334396111329 0 0.083192070790715486 -0.43996572251862121 0 0.084197385813002651 -0.46108028986718469 0 0.095911393093608646 -0.44316334396111329 0 0.083192070790715486 -0.43996572251862121 0 0.091800301264605505 -0.42953776226504198 0 0.06619625305036167 -0.47268618034115373 0 0.084197385813002651 -0.46108028986718469 0 0.065334605511071495 -0.44356329650439141 0 0.083192070790715486 -0.43996572251862121 0 0.084197385813002651 -0.46108028986718469 0 0.065334605511071495 -0.44356329650439141 0 0.084197385813002651 -0.46108028986718469 0 0.065334605511071495 -0.44356329650439141 0 0.083192070790715486 -0.43996572251862121 0 0.065334605511071495 -0.44356329650439141 0 0.083933509928942662 -0.42170532050941079 0 0.065334605511071495 -0.44356329650439141 0 0.083933509928942662 -0.42170532050941079 0 0.056072115322839948 -0.42217979448591109 0 0.065334605511071495 -0.44356329650439141 0 0.083933509928942662 -0.42170532050941079 0 0.070678502379137656 -0.41159636028834129 0 0.083933509928942662 -0.42170532050941079 0 0.056072115322839948 -0.42217979448591109 0 0.083933509928942662 -0.42170532050941079 0 0.083597259145155034 -0.40754800855096118 0 0.10256449012083239 -0.39987471907450173 0 0.083933509928942662 -0.42170532050941079 0 0.094610434991990983 -0.41884843789367859 0 0.10256449012083239 -0.39987471907450173 0 0.083933509928942662 -0.42170532050941079 0 0.10256449012083239 -0.39987471907450173 0 0.070678502379137656 -0.41159636028834129 0 0.083933509928942662 -0.42170532050941079 0 0.083597259145155034 -0.40754800855096118 0 0.083192070790715486 -0.43996572251862121 0 0.083933509928942662 -0.42170532050941079 0 0.091800301264605505 -0.42953776226504198 0 0.083933509928942662 -0.42170532050941079 0 0.091800301264605505 -0.42953776226504198 0 0.094610434991990983 -0.41884843789367859 0 0.095911393093608646 -0.44316334396111329 0 0.091800301264605505 -0.42953776226504198 0 0.1068406047362698 -0.43422725959106112 0 0.091800301264605505 -0.42953776226504198 0 0.11765201333141929 -0.4230062278288102 0 0.1014317924461583 -0.42043301467253341 0 0.091800301264605505 -0.42953776226504198 0 0.1068406047362698 -0.43422725959106112 0 0.11765201333141929 -0.4230062278288102 0 0.091800301264605505 -0.42953776226504198 0 0.11765201333141929 -0.4230062278288102 0 0.091800301264605505 -0.42953776226504198 0 0.094610434991990983 -0.41884843789367859 0 0.1014317924461583 -0.42043301467253341 0 0.1068406047362698 -0.43422725959106112 0 0.11765201333141929 -0.4230062278288102 0 0.1174869797866549 -0.43268177335076557 0 0.1126829645408845 -0.43858441115904317 0 0.1068406047362698 -0.43422725959106112 0 0.1174869797866549 -0.43268177335076557 0 0.12619772204321991 -0.42977679351043868 0 0.11765201333141929 -0.4230062278288102 0 0.1174869797866549 -0.43268177335076557 0 0.12619772204321991 -0.42977679351043868 0 0.11765201333141929 -0.4230062278288102 0 0.12619772204321991 -0.42977679351043868 0 0.11765201333141929 -0.4230062278288102 0 0.1203148460794477 -0.42233345289820817 0 0.11765201333141929 -0.4230062278288102 0 0.1203148460794477 -0.42233345289820817 0 0.12619772204321991 -0.42977679351043868 0 0.1203148460794477 -0.42233345289820817 0 0.12619772204321991 -0.42977679351043868 0 0.1226474527574096 -0.43786673257805908 0 0.1174869797866549 -0.43268177335076557 0 0.1226474527574096 -0.43786673257805908 0 0.117158424761884 -0.44168320813531298 0 0.1174869797866549 -0.43268177335076557 0 0.1203148460794477 -0.42233345289820817 0 0.10256449012083239 -0.39987471907450173 0 0.11931097947468421 -0.40465238886033911 0 0.1311885413469441 -0.41958617198678477 0 0.1203148460794477 -0.42233345289820817 0 0.11931097947468421 -0.40465238886033911 0 0.1203148460794477 -0.42233345289820817 0 0.10256449012083239 -0.39987471907450173 0 0.11765201333141929 -0.4230062278288102 0 0.10166442019661789 -0.41033963070260232 0 0.11765201333141929 -0.4230062278288102 0 0.1203148460794477 -0.42233345289820817 0 0.10166442019661789 -0.41033963070260232 0 0.1203148460794477 -0.42233345289820817 0 0.10166442019661789 -0.41033963070260232 0 0.10256449012083239 -0.39987471907450173 0 0.11765201333141929 -0.4230062278288102 0 0.10166442019661789 -0.41033963070260232 0 0.1014317924461583 -0.42043301467253341 0 0.10166442019661789 -0.41033963070260232 0 0.094610434991990983 -0.41884843789367859 0 0.10256449012083239 -0.39987471907450173 0 0.10166442019661789 -0.41033963070260232 0 0.094610434991990983 -0.41884843789367859 0 0.1014317924461583 -0.42043301467253341 0 0.10256449012083239 -0.39987471907450173 0 0.1128612025332678 -0.3878096842534336 0 0.13046987380314459 -0.39188406372456919 0 0.11931097947468421 -0.40465238886033911 0 0.1128612025332678 -0.3878096842534336 0 0.10256449012083239 -0.39987471907450173 0 0.11931097947468421 -0.40465238886033911 0 0.1128612025332678 -0.3878096842534336 0 0.12315791494570361 -0.3757446494323658 0 0.1128612025332678 -0.3878096842534336 0 0.1147894888458639 -0.3702545596457002 0 0.13046987380314459 -0.39188406372456919 0 0.12315791494570361 -0.3757446494323658 0 0.1128612025332678 -0.3878096842534336 0 0.1128612025332678 -0.3878096842534336 0 0.1147894888458639 -0.3702545596457002 0 0.10327140281732509 -0.37257605458878779 0 0.12315791494570361 -0.3757446494323658 0 0.1128612025332678 -0.3878096842534336 0 0.10256449012083239 -0.39987471907450173 0 0.085495982321156669 -0.3782786973195188 0 0.10256449012083239 -0.39987471907450173 0 0.085495982321156669 -0.3782786973195188 0 0.10327140281732509 -0.37257605458878779 0 0.10256449012083239 -0.39987471907450173 0 0.1128612025332678 -0.3878096842534336 0 0.10327140281732509 -0.37257605458878779 0 0.10256449012083239 -0.39987471907450173 0 0.085495982321156669 -0.3782786973195188 0 0.077212534151705522 -0.39701563433159248 0 0.083597259145155034 -0.40754800855096118 0 0.10256449012083239 -0.39987471907450173 0 0.077212534151705522 -0.39701563433159248 0 0.077212534151705522 -0.39701563433159248 0 0.064300246389017518 -0.38184380850235861 0 0.059430080865958107 -0.40033798869518 0 0.070678502379137656 -0.41159636028834129 0 0.077212534151705522 -0.39701563433159248 0 0.059430080865958107 -0.40033798869518 0 0.070678502379137656 -0.41159636028834129 0 0.083597259145155034 -0.40754800855096118 0 0.077212534151705522 -0.39701563433159248 0 0.085495982321156669 -0.3782786973195188 0 0.077212534151705522 -0.39701563433159248 0 0.064300246389017518 -0.38184380850235861 0 0.064300246389017518 -0.38184380850235861 0 0.048009387004576763 -0.39105748759691411 0 0.04506703928133271 -0.37290043929802608 0 0.059430080865958107 -0.40033798869518 0 0.048009387004576763 -0.39105748759691411 0 0.04552400065918099 -0.40906622183542668 0 0.064300246389017518 -0.38184380850235861 0 0.059430080865958107 -0.40033798869518 0 0.048009387004576763 -0.39105748759691411 0 0.048009387004576763 -0.39105748759691411 0 0.024825992749104259 -0.39330984290008608 0 0.04552400065918099 -0.40906622183542668 0 0.048009387004576763 -0.39105748759691411 0 0.024825992749104259 -0.39330984290008608 0 0.04506703928133271 -0.37290043929802608 0 0.024825992749104259 -0.39330984290008608 0 0.04506703928133271 -0.37290043929802608 0 0.016794448569341681 -0.36647243480740332 0 0.024825992749104259 -0.39330984290008608 0 0.016794448569341681 -0.36647243480740332 0 0.0062363939555103148 -0.39102874309929181 0 0.024825992749104259 -0.39330984290008608 0 0.016794448569341681 -0.36647243480740332 0 -0.01036157723351748 -0.37989260571530548 0 0.0062363939555103148 -0.39102874309929181 0 0.016794448569341681 -0.36647243480740332 0 -0.003563252404628626 -0.40258619868273499 0 0.0062363939555103148 -0.39102874309929181 0 0.015904572796124981 -0.40540654665201198 0 0.0062363939555103148 -0.39102874309929181 0 0.024825992749104259 -0.39330984290008608 0 0.015904572796124981 -0.40540654665201198 0 0.015904572796124981 -0.40540654665201198 0 0.0221082374829971 -0.41909729243491711 0 0.03285753692886683 -0.42014725099276901 0 0.024825992749104259 -0.39330984290008608 0 0.015904572796124981 -0.40540654665201198 0 0.03285753692886683 -0.42014725099276901 0 0.024825992749104259 -0.39330984290008608 0 0.03285753692886683 -0.42014725099276901 0 0.015904572796124981 -0.40540654665201198 0 0.0221082374829971 -0.41909729243491711 0 0.0062984901839244593 -0.41786206850074548 0 -0.003563252404628626 -0.40258619868273499 0 0.015904572796124981 -0.40540654665201198 0 0.0062984901839244593 -0.41786206850074548 0 0.0221082374829971 -0.41909729243491711 0 0.0062984901839244593 -0.41786206850074548 0 0.0055422597806522606 -0.43238786138596758 0 0.0221082374829971 -0.41909729243491711 0 0.0055422597806522606 -0.43238786138596758 0 -0.0090545705503197321 -0.43116328283638622 0 0.0062984901839244593 -0.41786206850074548 0 0.0055422597806522606 -0.43238786138596758 0 0.0221082374829971 -0.41909729243491711 0 0.0055422597806522606 -0.43238786138596758 0 0.026174239252683171 -0.42885687318351973 0 0.0055422597806522606 -0.43238786138596758 0 0.026174239252683171 -0.42885687318351973 0 0.024699718644605542 -0.4382440453454135 0 0.0221082374829971 -0.41909729243491711 0 0.026174239252683171 -0.42885687318351973 0 0.03285753692886683 -0.42014725099276901 0 0.026174239252683171 -0.42885687318351973 0 0.03285753692886683 -0.42014725099276901 0 0.040889081108629377 -0.44698465908545182 0 0.045751935066044233 -0.43108957891968491 0 0.03285753692886683 -0.42014725099276901 0 0.040889081108629377 -0.44698465908545182 0 0.03285753692886683 -0.42014725099276901 0 0.040889081108629377 -0.44698465908545182 0 0.045751935066044233 -0.43108957891968491 0 0.03285753692886683 -0.42014725099276901 0 0.044156500488943838 -0.42028294748755168 0 0.024825992749104259 -0.39330984290008608 0 0.03285753692886683 -0.42014725099276901 0 0.04552400065918099 -0.40906622183542668 0 0.03285753692886683 -0.42014725099276901 0 0.04552400065918099 -0.40906622183542668 0 0.044156500488943838 -0.42028294748755168 0 0.04552400065918099 -0.40906622183542668 0 0.044156500488943838 -0.42028294748755168 0 0.056072115322839948 -0.42217979448591109 0 0.070678502379137656 -0.41159636028834129 0 0.059430080865958107 -0.40033798869518 0 0.056072115322839948 -0.42217979448591109 0 0.059430080865958107 -0.40033798869518 0 0.04552400065918099 -0.40906622183542668 0 0.056072115322839948 -0.42217979448591109 0 0.065334605511071495 -0.44356329650439141 0 0.045751935066044233 -0.43108957891968491 0 0.056072115322839948 -0.42217979448591109 0 0.045751935066044233 -0.43108957891968491 0 0.044156500488943838 -0.42028294748755168 0 0.056072115322839948 -0.42217979448591109 0 0.065334605511071495 -0.44356329650439141 0 0.045751935066044233 -0.43108957891968491 0 0.040889081108629377 -0.44698465908545182 0 0.065334605511071495 -0.44356329650439141 0 0.045683682815677931 -0.46652404298475209 0 0.040889081108629377 -0.44698465908545182 0 0.065334605511071495 -0.44356329650439141 0 0.045683682815677931 -0.46652404298475209 0 0.06619625305036167 -0.47268618034115373 0 0.065334605511071495 -0.44356329650439141 0 0.045683682815677931 -0.46652404298475209 0 0.045683682815677931 -0.46652404298475209 0 0.040889081108629377 -0.44698465908545182 0 0.03006513315501633 -0.46120181416863681 0 0.045683682815677931 -0.46652404298475209 0 0.03006513315501633 -0.46120181416863681 0 0.03480995063980262 -0.47192296943164169 0 0.040889081108629377 -0.44698465908545182 0 0.0262728917922876 -0.44937184173327699 0 0.03006513315501633 -0.46120181416863681 0 0.040889081108629377 -0.44698465908545182 0 0.024699718644605542 -0.4382440453454135 0 0.0262728917922876 -0.44937184173327699 0 0.026174239252683171 -0.42885687318351973 0 0.040889081108629377 -0.44698465908545182 0 0.024699718644605542 -0.4382440453454135 0 0.0262728917922876 -0.44937184173327699 0 0.016102641231123212 -0.44497968732938409 0 0.019607884822063559 -0.45544900273749922 0 0.024699718644605542 -0.4382440453454135 0 0.0262728917922876 -0.44937184173327699 0 0.016102641231123212 -0.44497968732938409 0 0.0055422597806522606 -0.43238786138596758 0 0.016102641231123212 -0.44497968732938409 0 0.0068305500740787747 -0.44572951788653398 0 0.0055422597806522606 -0.43238786138596758 0 0.024699718644605542 -0.4382440453454135 0 0.016102641231123212 -0.44497968732938409 0 0.016102641231123212 -0.44497968732938409 0 0.0092587976368021449 -0.45269593478777348 0 0.0068305500740787747 -0.44572951788653398 0 0.016102641231123212 -0.44497968732938409 0 0.0092587976368021449 -0.45269593478777348 0 0.019607884822063559 -0.45544900273749922 0 0.0092587976368021449 -0.45269593478777348 0 0.0068305500740787747 -0.44572951788653398 0 0.002954771646626133 -0.45125111722722028 0 -0.003697900659681546 -0.45228595282283462 0 0.002954771646626133 -0.45125111722722028 0 0.001109291813816354 -0.4456136197789185 0 0.0068305500740787747 -0.44572951788653398 0 0.002954771646626133 -0.45125111722722028 0 0.001109291813816354 -0.4456136197789185 0 0.0055422597806522606 -0.43238786138596758 0 0.0068305500740787747 -0.44572951788653398 0 0.001109291813816354 -0.4456136197789185 0 -0.0060832217725938498 -0.44641364957203589 0 0.0055422597806522606 -0.43238786138596758 0 0.001109291813816354 -0.4456136197789185 0 0.003463759182088915 -0.46399051862450402 0 0.0096247722284088406 -0.46927041955576831 0 0.0028524951045925868 -0.47082587573171919 0 -0.0030467895783102689 -0.46700675432217859 0 0.003463759182088915 -0.46399051862450402 0 0.0028524951045925868 -0.47082587573171919 0 0.0092587976368021449 -0.45269593478777348 0 0.0031655086819135552 -0.45680424098354411 0 0.01050759135441656 -0.46094258004016392 0 -0.0043639564959790751 -0.45919890235763322 0 0.003463759182088915 -0.46399051862450402 0 0.0031655086819135552 -0.45680424098354411 0 -0.003697900659681546 -0.45228595282283462 0 0.002954771646626133 -0.45125111722722028 0 0.0031655086819135552 -0.45680424098354411 0 0.0092587976368021449 -0.45269593478777348 0 0.002954771646626133 -0.45125111722722028 0 0.0031655086819135552 -0.45680424098354411 0 0.003463759182088915 -0.46399051862450402 0 0.0031655086819135552 -0.45680424098354411 0 0.01050759135441656 -0.46094258004016392 0 0.0092587976368021449 -0.45269593478777348 0 0.01050759135441656 -0.46094258004016392 0 0.019607884822063559 -0.45544900273749922 0 0.003463759182088915 -0.46399051862450402 0 0.01050759135441656 -0.46094258004016392 0 0.0096247722284088406 -0.46927041955576831 0 0.01050759135441656 -0.46094258004016392 0 0.017817602994632819 -0.46665629439937673 0 0.0096247722284088406 -0.46927041955576831 0 0.01050759135441656 -0.46094258004016392 0 0.017817602994632819 -0.46665629439937673 0 0.019607884822063559 -0.45544900273749922 0 0.017817602994632819 -0.46665629439937673 0 0.019607884822063559 -0.45544900273749922 0 0.03006513315501633 -0.46120181416863681 0 0.0262728917922876 -0.44937184173327699 0 0.019607884822063559 -0.45544900273749922 0 0.03006513315501633 -0.46120181416863681 0 0.017817602994632819 -0.46665629439937673 0 0.03006513315501633 -0.46120181416863681 0 0.024334872820000731 -0.47433729594401097 0 0.03006513315501633 -0.46120181416863681 0 0.024334872820000731 -0.47433729594401097 0 0.03480995063980262 -0.47192296943164169 0 0.024334872820000731 -0.47433729594401097 0 0.02827781581733289 -0.48033456657580081 0 0.03480995063980262 -0.47192296943164169 0 0.024334872820000731 -0.47433729594401097 0 0.02827781581733289 -0.48033456657580081 0 0.02058545390538739 -0.48209965539742711 0 0.024334872820000731 -0.47433729594401097 0 0.02058545390538739 -0.48209965539742711 0 0.014597537216105809 -0.47614042044261601 0 0.017817602994632819 -0.46665629439937673 0 0.024334872820000731 -0.47433729594401097 0 0.014597537216105809 -0.47614042044261601 0 0.014597537216105809 -0.47614042044261601 0 0.0096247722284088406 -0.46927041955576831 0 0.0057458652085904923 -0.47774714206355767 0 0.017817602994632819 -0.46665629439937673 0 0.014597537216105809 -0.47614042044261601 0 0.0096247722284088406 -0.46927041955576831 0 0.02058545390538739 -0.48209965539742711 0 0.014597537216105809 -0.47614042044261601 0 0.010245142763092369 -0.48527309284833658 0 0.014597537216105809 -0.47614042044261601 0 0.0057458652085904923 -0.47774714206355767 0 0.010245142763092369 -0.48527309284833658 0 -0.0027610362254280808 -0.48246075507540859 0 0.0057458652085904923 -0.47774714206355767 0 0.003362216654060014 -0.48361215564040372 0 0.0057458652085904923 -0.47774714206355767 0 0.003362216654060014 -0.48361215564040372 0 0.010245142763092369 -0.48527309284833658 0 0.0096247722284088406 -0.46927041955576831 0 0.0057458652085904923 -0.47774714206355767 0 0.0028524951045925868 -0.47082587573171919 0 -0.003323180305847316 -0.47421675468790808 0 0.0057458652085904923 -0.47774714206355767 0 0.0028524951045925868 -0.47082587573171919 0 0.0022516674866053239 -0.5 0 0.00063280987308753089 -0.4955285359597546 0 0.02526678041396669 -0.49105707191950698 0 0.00063280987308753089 -0.4955285359597546 0 0.02526678041396669 -0.49105707191950698 0 0.00063280987308753089 -0.4955285359597546 0 0.010245142763092369 -0.48527309284833658 0 0.02526678041396669 -0.49105707191950698 0 0.00063280987308753089 -0.4955285359597546 0 5.8411572622733281e-05 -0.48840353621755528 0 0.010245142763092369 -0.48527309284833658 0 0.003362216654060014 -0.48361215564040372 0 5.8411572622733281e-05 -0.48840353621755528 0 0.010245142763092369 -0.48527309284833658 0 -0.0027610362254280808 -0.48246075507540859 0 0.003362216654060014 -0.48361215564040372 0 5.8411572622733281e-05 -0.48840353621755528 0 0.0022516674866053239 -0.5 0 0.028504495641002329 -0.5 0 0.02526678041396669 -0.49105707191950698 0 0.02058545390538739 -0.48209965539742711 0 0.010245142763092369 -0.48527309284833658 0 0.02526678041396669 -0.49105707191950698 0 0.02827781581733289 -0.48033456657580081 0 0.02058545390538739 -0.48209965539742711 0 0.02526678041396669 -0.49105707191950698 0 0.02827781581733289 -0.48033456657580081 0 0.02526678041396669 -0.49105707191950698 0 0.036392021307507023 -0.48225584018641721 0 0.028504495641002329 -0.5 0 0.054757323795399333 -0.5 0 0.049900750954845849 -0.48658560787925931 0 0.028504495641002329 -0.5 0 0.02526678041396669 -0.49105707191950698 0 0.049900750954845849 -0.48658560787925931 0 0.02526678041396669 -0.49105707191950698 0 0.049900750954845849 -0.48658560787925931 0 0.02526678041396669 -0.49105707191950698 0 0.036392021307507023 -0.48225584018641721 0 0.049900750954845849 -0.48658560787925931 0 0.02827781581733289 -0.48033456657580081 0 0.036392021307507023 -0.48225584018641721 0 0.03480995063980262 -0.47192296943164169 0 0.045683682815677931 -0.46652404298475209 0 0.036392021307507023 -0.48225584018641721 0 0.049900750954845849 -0.48658560787925931 0 0.045683682815677931 -0.46652404298475209 0 0.036392021307507023 -0.48225584018641721 0 0.03480995063980262 -0.47192296943164169 0 0.066977496882078602 -0.48810119257651152 0 0.06619625305036167 -0.47268618034115373 0 0.049900750954845849 -0.48658560787925931 0 0.06619625305036167 -0.47268618034115373 0 0.045683682815677931 -0.46652404298475209 0 0.049900750954845849 -0.48658560787925931 0 0.066977496882078602 -0.48810119257651152 0 0.054757323795399333 -0.5 0 0.049900750954845849 -0.48658560787925931 0 0.091994475929435326 -0.28399541430229203 0 0.088869664248026586 -0.30683070269408252 0 0.07555251039605862 -0.29087815857172739 0 0.091994475929435326 -0.28399541430229203 0 0.07555251039605862 -0.29087815857172739 0 0.079086839006404744 -0.27594046772441788 0 0.088869664248026586 -0.30683070269408252 0 0.07309499060087303 -0.30892671926057808 0 0.07555251039605862 -0.29087815857172739 0 0.088869664248026586 -0.30683070269408252 0 0.07309499060087303 -0.30892671926057808 0 0.086987647538341539 -0.32147553258729228 0 0.07309499060087303 -0.30892671926057808 0 0.057779240448823779 -0.29464321324358378 0 0.056664100064454812 -0.31118135260557811 0 0.07309499060087303 -0.30892671926057808 0 0.07555251039605862 -0.29087815857172739 0 0.057779240448823779 -0.29464321324358378 0 0.07555251039605862 -0.29087815857172739 0 0.057779240448823779 -0.29464321324358378 0 0.058987647090006208 -0.27666789080389198 0 0.078568941076143303 -0.26008548176553592 0 0.058987647090006208 -0.27666789080389198 0 0.07555251039605862 -0.29087815857172739 0 0.079086839006404744 -0.27594046772441788 0 0.058987647090006208 -0.27666789080389198 0 0.078568941076143303 -0.26008548176553592 0 0.079086839006404744 -0.27594046772441788 0 0.058987647090006208 -0.27666789080389198 0 0.078568941076143303 -0.26008548176553592 0 0.060906462792477259 -0.25493015060252638 0 0.079805386254296354 -0.24522208029964529 0 0.078568941076143303 -0.26008548176553592 0 0.060906462792477259 -0.25493015060252638 0 0.058987647090006208 -0.27666789080389198 0 0.078568941076143303 -0.26008548176553592 0 0.090037266249361023 -0.25514449248072618 0 0.079805386254296354 -0.24522208029964529 0 0.078568941076143303 -0.26008548176553592 0 0.090037266249361023 -0.25514449248072618 0 0.090330620540380296 -0.26807539317864237 0 0.078568941076143303 -0.26008548176553592 0 0.079086839006404744 -0.27594046772441788 0 0.090330620540380296 -0.26807539317864237 0 0.091994475929435326 -0.28399541430229203 0 0.079086839006404744 -0.27594046772441788 0 0.090330620540380296 -0.26807539317864237 0 0.091994475929435326 -0.28399541430229203 0 0.090330620540380296 -0.26807539317864237 0 0.10996923815625111 -0.27262227903015951 0 0.090330620540380296 -0.26807539317864237 0 0.1033884089583834 -0.25834275545153779 0 0.10996923815625111 -0.27262227903015951 0 0.090330620540380296 -0.26807539317864237 0 0.10996923815625111 -0.27262227903015951 0 0.090037266249361023 -0.25514449248072618 0 0.1033884089583834 -0.25834275545153779 0 0.098092974417601758 -0.2439967517082699 0 0.090037266249361023 -0.25514449248072618 0 0.090330620540380296 -0.26807539317864237 0 0.1033884089583834 -0.25834275545153779 0 0.1033884089583834 -0.25834275545153779 0 0.1241996852211366 -0.25790584062349681 0 0.10996923815625111 -0.27262227903015951 0 0.1033884089583834 -0.25834275545153779 0 0.1241996852211366 -0.25790584062349681 0 0.11225847534750361 -0.2460906879432018 0 0.12960785577212161 -0.2771691648816772 0 0.10996923815625111 -0.27262227903015951 0 0.12960785577212161 -0.2771691648816772 0 0.1241996852211366 -0.25790584062349681 0 0.10996923815625111 -0.27262227903015951 0 0.12960785577212161 -0.2771691648816772 0 0.10996923815625111 -0.27262227903015951 0 0.1092387600100742 -0.29199993378787997 0 0.12960785577212161 -0.2771691648816772 0 0.1245325467552142 -0.29616219588664588 0 0.1092387600100742 -0.29199993378787997 0 0.12960785577212161 -0.2771691648816772 0 0.1092387600100742 -0.29199993378787997 0 0.091994475929435326 -0.28399541430229203 0 0.10996923815625111 -0.27262227903015951 0 0.1092387600100742 -0.29199993378787997 0 0.091994475929435326 -0.28399541430229203 0 0.088869664248026586 -0.30683070269408252 0 0.1092387600100742 -0.29199993378787997 0 0.088869664248026586 -0.30683070269408252 0 0.1092387600100742 -0.29199993378787997 0 0.10358883313766711 -0.31662941086588842 0 0.088869664248026586 -0.30683070269408252 0 0.1092387600100742 -0.29199993378787997 0 0.1092387600100742 -0.29199993378787997 0 0.1178142872781173 -0.30750716164312858 0 0.10358883313766711 -0.31662941086588842 0 0.1245325467552142 -0.29616219588664588 0 0.1092387600100742 -0.29199993378787997 0 0.1178142872781173 -0.30750716164312858 0 0.12648812921392771 -0.30845317583043108 0 0.1245325467552142 -0.29616219588664588 0 0.1178142872781173 -0.30750716164312858 0 0.12851118533225669 -0.31638350642151919 0 0.12648812921392771 -0.30845317583043108 0 0.1178142872781173 -0.30750716164312858 0 0.1285946175066795 -0.31959952354708793 0 0.12851118533225669 -0.31638350642151919 0 0.1178142872781173 -0.30750716164312858 0 0.1285946175066795 -0.31959952354708793 0 0.1178142872781173 -0.30750716164312858 0 0.1285946175066795 -0.31959952354708793 0 0.1178142872781173 -0.30750716164312858 0 0.1173821690745539 -0.323515762834792 0 0.1173821690745539 -0.323515762834792 0 0.1086815388206894 -0.33326151009809241 0 0.10358883313766711 -0.31662941086588842 0 0.1178142872781173 -0.30750716164312858 0 0.1173821690745539 -0.323515762834792 0 0.10358883313766711 -0.31662941086588842 0 0.1285946175066795 -0.31959952354708793 0 0.12444781287719769 -0.32697541088905901 0 0.1173821690745539 -0.323515762834792 0 0.1218247889582051 -0.33787165633606969 0 0.1086815388206894 -0.33326151009809241 0 0.10102415272701749 -0.35351990150077411 0 0.12444781287719769 -0.32697541088905901 0 0.1173821690745539 -0.323515762834792 0 0.1218247889582051 -0.33787165633606969 0 0.1173821690745539 -0.323515762834792 0 0.1218247889582051 -0.33787165633606969 0 0.1173821690745539 -0.323515762834792 0 0.1218247889582051 -0.33787165633606969 0 0.1086815388206894 -0.33326151009809241 0 0.09676469450499714 -0.3317461911264753 0 0.10102415272701749 -0.35351990150077411 0 0.085685855713445502 -0.3356077662078214 0 0.1086815388206894 -0.33326151009809241 0 0.09676469450499714 -0.3317461911264753 0 0.10102415272701749 -0.35351990150077411 0 0.1086815388206894 -0.33326151009809241 0 0.09676469450499714 -0.3317461911264753 0 0.10358883313766711 -0.31662941086588842 0 0.09676469450499714 -0.3317461911264753 0 0.10358883313766711 -0.31662941086588842 0 0.086987647538341539 -0.32147553258729228 0 0.1147894888458639 -0.3702545596457002 0 0.11538767949317159 -0.35885092848156652 0 0.10327140281732509 -0.37257605458878779 0 0.12999483985011881 -0.36427238013779301 0 0.12315791494570361 -0.3757446494323658 0 0.1147894888458639 -0.3702545596457002 0 0.12999483985011881 -0.36427238013779301 0 0.11538767949317159 -0.35885092848156652 0 0.12999483985011881 -0.36427238013779301 0 0.1147894888458639 -0.3702545596457002 0 0.11538767949317159 -0.35885092848156652 0 0.1218247889582051 -0.33787165633606969 0 0.10102415272701749 -0.35351990150077411 0 0.12999483985011881 -0.36427238013779301 0 0.1218247889582051 -0.33787165633606969 0 0.11538767949317159 -0.35885092848156652 0 0.1218247889582051 -0.33787165633606969 0 0.11538767949317159 -0.35885092848156652 0 0.10102415272701749 -0.35351990150077411 0 0.10102415272701749 -0.35351990150077411 0 0.08775469036467784 -0.36350247116556389 0 0.11538767949317159 -0.35885092848156652 0 0.10102415272701749 -0.35351990150077411 0 0.10102415272701749 -0.35351990150077411 0 0.10327140281732509 -0.37257605458878779 0 0.08775469036467784 -0.36350247116556389 0 0.11538767949317159 -0.35885092848156652 0 0.10102415272701749 -0.35351990150077411 0 0.10327140281732509 -0.37257605458878779 0 0.085495982321156669 -0.3782786973195188 0 0.10327140281732509 -0.37257605458878779 0 0.08775469036467784 -0.36350247116556389 0 0.085495982321156669 -0.3782786973195188 0 0.08775469036467784 -0.36350247116556389 0 0.068427474521479015 -0.35668267556453742 0 0.10102415272701749 -0.35351990150077411 0 0.08775469036467784 -0.36350247116556389 0 0.076191559724409705 -0.3443032776551645 0 0.10102415272701749 -0.35351990150077411 0 0.076191559724409705 -0.3443032776551645 0 0.10102415272701749 -0.35351990150077411 0 0.076191559724409705 -0.3443032776551645 0 0.085685855713445502 -0.3356077662078214 0 0.08775469036467784 -0.36350247116556389 0 0.068427474521479015 -0.35668267556453742 0 0.076191559724409705 -0.3443032776551645 0 0.068427474521479015 -0.35668267556453742 0 0.076191559724409705 -0.3443032776551645 0 0.051358966721801437 -0.33508665380955599 0 0.085495982321156669 -0.3782786973195188 0 0.064300246389017518 -0.38184380850235861 0 0.068427474521479015 -0.35668267556453742 0 0.085495982321156669 -0.3782786973195188 0 0.068427474521479015 -0.35668267556453742 0 0.088869664248026586 -0.30683070269408252 0 0.10358883313766711 -0.31662941086588842 0 0.086987647538341539 -0.32147553258729228 0 0.09676469450499714 -0.3317461911264753 0 0.086987647538341539 -0.32147553258729228 0 0.085685855713445502 -0.3356077662078214 0 0.076191559724409705 -0.3443032776551645 0 0.085685855713445502 -0.3356077662078214 0 0.07392184702503983 -0.32911240536890862 0 0.086987647538341539 -0.32147553258729228 0 0.085685855713445502 -0.3356077662078214 0 0.07392184702503983 -0.32911240536890862 0 0.076191559724409705 -0.3443032776551645 0 0.051358966721801437 -0.33508665380955599 0 0.076191559724409705 -0.3443032776551645 0 0.07392184702503983 -0.32911240536890862 0 0.051358966721801437 -0.33508665380955599 0 0.07309499060087303 -0.30892671926057808 0 0.07392184702503983 -0.32911240536890862 0 0.056664100064454812 -0.31118135260557811 0 0.07309499060087303 -0.30892671926057808 0 0.086987647538341539 -0.32147553258729228 0 0.07392184702503983 -0.32911240536890862 0 0.07392184702503983 -0.32911240536890862 0 0.056664100064454812 -0.31118135260557811 0 0.051358966721801437 -0.33508665380955599 0 0.039058815651985643 -0.31952382118172001 0 0.056664100064454812 -0.31118135260557811 0 0.07392184702503983 -0.32911240536890862 0 0.051358966721801437 -0.33508665380955599 0 0.056664100064454812 -0.31118135260557811 0 0.051358966721801437 -0.33508665380955599 0 0.033596879412945993 -0.35025111929787439 0 0.0300295627018414 -0.32717023953568891 0 0.051358966721801437 -0.33508665380955599 0 0.0300295627018414 -0.32717023953568891 0 0.039058815651985643 -0.31952382118172001 0 0.040471983350619412 -0.30697911554585777 0 0.056664100064454812 -0.31118135260557811 0 0.051358966721801437 -0.33508665380955599 0 0.039058815651985643 -0.31952382118172001 0 0.0300295627018414 -0.32717023953568891 0 0.039058815651985643 -0.31952382118172001 0 0.0300295627018414 -0.32717023953568891 0 0.026758664582168131 -0.30396098855388531 0 0.051358966721801437 -0.33508665380955599 0 0.039058815651985643 -0.31952382118172001 0 0.064300246389017518 -0.38184380850235861 0 0.068427474521479015 -0.35668267556453742 0 0.04506703928133271 -0.37290043929802608 0 0.068427474521479015 -0.35668267556453742 0 0.050047254052643063 -0.35346662137072921 0 0.04506703928133271 -0.37290043929802608 0 0.068427474521479015 -0.35668267556453742 0 0.051358966721801437 -0.33508665380955599 0 0.068427474521479015 -0.35668267556453742 0 0.051358966721801437 -0.33508665380955599 0 0.050047254052643063 -0.35346662137072921 0 0.050047254052643063 -0.35346662137072921 0 0.033596879412945993 -0.35025111929787439 0 0.04506703928133271 -0.37290043929802608 0 0.051358966721801437 -0.33508665380955599 0 0.050047254052643063 -0.35346662137072921 0 0.033596879412945993 -0.35025111929787439 0 0.033596879412945993 -0.35025111929787439 0 0.04506703928133271 -0.37290043929802608 0 0.016794448569341681 -0.36647243480740332 0 0.033596879412945993 -0.35025111929787439 0 0.016794448569341681 -0.36647243480740332 0 0.0087629043895791105 -0.33963502671472029 0 -0.0039234005137417502 -0.35918784498975409 0 0.016794448569341681 -0.36647243480740332 0 0.0087629043895791105 -0.33963502671472029 0 0.016794448569341681 -0.36647243480740332 0 0.0087629043895791105 -0.33963502671472029 0 -0.0039234005137417502 -0.35918784498975409 0 -0.01036157723351748 -0.37989260571530548 0 0.016794448569341681 -0.36647243480740332 0 0.0300295627018414 -0.32717023953568891 0 0.0087001586818807805 -0.31925382526182278 0 0.026758664582168131 -0.30396098855388531 0 0.0300295627018414 -0.32717023953568891 0 0.0087001586818807805 -0.31925382526182278 0 0.033596879412945993 -0.35025111929787439 0 0.0300295627018414 -0.32717023953568891 0 0.0087629043895791105 -0.33963502671472029 0 0.0300295627018414 -0.32717023953568891 0 0.0087629043895791105 -0.33963502671472029 0 0.0087001586818807805 -0.31925382526182278 0 -0.0070930087833613034 -0.33262826124676459 0 0.0087629043895791105 -0.33963502671472029 0 0.0087001586818807805 -0.31925382526182278 0 -0.0070930087833613034 -0.33262826124676459 0 0.0087001586818807805 -0.31925382526182278 0 0.0087001586818807805 -0.31925382526182278 0 0.003586410024286505 -0.30265422310255369 0 0.026758664582168131 -0.30396098855388531 0 0.017221196884693118 -0.29189365599619937 0 0.020056441936385418 -0.27314545771526799 0 0.007683729187216326 -0.27982632343851499 0 -0.0071670476770255027 -0.27572650538435378 0 0.002408624111097153 -0.28821755391332921 0 0.007683729187216326 -0.27982632343851499 0 0.003586410024286505 -0.30265422310255369 0 0.002408624111097153 -0.28821755391332921 0 0.017221196884693118 -0.29189365599619937 0 0.002408624111097153 -0.28821755391332921 0 0.017221196884693118 -0.29189365599619937 0 0.007683729187216326 -0.27982632343851499 0 0.017221196884693118 -0.29189365599619937 0 0.007683729187216326 -0.27982632343851499 0 0.017221196884693118 -0.29189365599619937 0 0.039406353103869113 -0.29325029984224799 0 0.020056441936385418 -0.27314545771526799 0 0.039406353103869113 -0.29325029984224799 0 0.020056441936385418 -0.27314545771526799 0 0.017221196884693118 -0.29189365599619937 0 0.026758664582168131 -0.30396098855388531 0 0.039406353103869113 -0.29325029984224799 0 0.0087001586818807805 -0.31925382526182278 0 0.026758664582168131 -0.30396098855388531 0 0.003586410024286505 -0.30265422310255369 0 0.017221196884693118 -0.29189365599619937 0 0.026758664582168131 -0.30396098855388531 0 0.017221196884693118 -0.29189365599619937 0 0.026758664582168131 -0.30396098855388531 0 0.039058815651985643 -0.31952382118172001 0 0.026758664582168131 -0.30396098855388531 0 0.039058815651985643 -0.31952382118172001 0 0.026758664582168131 -0.30396098855388531 0 0.040471983350619412 -0.30697911554585777 0 0.040471983350619412 -0.30697911554585777 0 0.039406353103869113 -0.29325029984224799 0 0.056664100064454812 -0.31118135260557811 0 0.026758664582168131 -0.30396098855388531 0 0.040471983350619412 -0.30697911554585777 0 0.039406353103869113 -0.29325029984224799 0 0.026758664582168131 -0.30396098855388531 0 0.039406353103869113 -0.29325029984224799 0 0.039406353103869113 -0.29325029984224799 0 0.058987647090006208 -0.27666789080389198 0 0.039406353103869113 -0.29325029984224799 0 0.057779240448823779 -0.29464321324358378 0 0.058987647090006208 -0.27666789080389198 0 0.039406353103869113 -0.29325029984224799 0 0.056664100064454812 -0.31118135260557811 0 0.039406353103869113 -0.29325029984224799 0 0.057779240448823779 -0.29464321324358378 0 0.056664100064454812 -0.31118135260557811 0 0.060906462792477259 -0.25493015060252638 0 0.040881062128331723 -0.27092328587783893 0 0.042928267483213343 -0.25101542558750528 0 0.060906462792477259 -0.25493015060252638 0 0.058987647090006208 -0.27666789080389198 0 0.040881062128331723 -0.27092328587783893 0 0.039406353103869113 -0.29325029984224799 0 0.040881062128331723 -0.27092328587783893 0 0.020056441936385418 -0.27314545771526799 0 0.039406353103869113 -0.29325029984224799 0 0.058987647090006208 -0.27666789080389198 0 0.040881062128331723 -0.27092328587783893 0 0.040881062128331723 -0.27092328587783893 0 0.042928267483213343 -0.25101542558750528 0 0.026132727482686739 -0.2575098886510116 0 0.026132727482686739 -0.2575098886510116 0 0.020056441936385418 -0.27314545771526799 0 0.00070653076890110633 -0.25304061558828861 0 0.040881062128331723 -0.27092328587783893 0 0.026132727482686739 -0.2575098886510116 0 0.020056441936385418 -0.27314545771526799 0 -0.0071670476770255027 -0.27572650538435378 0 0.007683729187216326 -0.27982632343851499 0 0.00070653076890110633 -0.25304061558828861 0 0.020056441936385418 -0.27314545771526799 0 0.007683729187216326 -0.27982632343851499 0 0.00070653076890110633 -0.25304061558828861 0 0.020056441936385418 -0.27314545771526799 0 0.00070653076890110633 -0.25304061558828861 0 0.00070653076890110633 -0.25304061558828861 0 0.0085470182469993446 -0.2218765293599092 0 0.026091335096602108 -0.23942465848615721 0 0.0085470182469993446 -0.2218765293599092 0 0.027762866710953241 -0.22382026810493491 0 0.026091335096602108 -0.23942465848615721 0 0.026132727482686739 -0.2575098886510116 0 0.00070653076890110633 -0.25304061558828861 0 0.026091335096602108 -0.23942465848615721 0 0.0029720146869214479 -0.20011297445348411 0 0.018581300131520338 -0.18229716120063419 0 -0.0021093230274114999 -0.1802765795252658 0 0.0029720146869214479 -0.20011297445348411 0 0.018581300131520338 -0.18229716120063419 0 -0.0021093230274114999 -0.1802765795252658 0 0.0029720146869214479 -0.20011297445348411 0 0.0029720146869214479 -0.20011297445348411 0 0.017361630565953589 -0.19810257891844171 0 0.018581300131520338 -0.18229716120063419 0 0.0085470182469993446 -0.2218765293599092 0 0.0029720146869214479 -0.20011297445348411 0 0.017361630565953589 -0.19810257891844171 0 -0.010153179246198201 -0.21509354514327769 0 0.0085470182469993446 -0.2218765293599092 0 0.0029720146869214479 -0.20011297445348411 0 0.0085470182469993446 -0.2218765293599092 0 0.0029720146869214479 -0.20011297445348411 0 0.0085470182469993446 -0.2218765293599092 0 0.027762866710953241 -0.22382026810493491 0 0.029154490564058 -0.2081166708726544 0 0.0085470182469993446 -0.2218765293599092 0 0.029154490564058 -0.2081166708726544 0 0.017361630565953589 -0.19810257891844171 0 0.029154490564058 -0.2081166708726544 0 0.017361630565953589 -0.19810257891844171 0 0.0348924040363712 -0.19437671712295301 0 0.017361630565953589 -0.19810257891844171 0 0.0348924040363712 -0.19437671712295301 0 0.018581300131520338 -0.18229716120063419 0 0.044227612103689418 -0.18814846681850059 0 0.0348924040363712 -0.19437671712295301 0 0.051588978389093709 -0.20071100181453261 0 0.029154490564058 -0.2081166708726544 0 0.0348924040363712 -0.19437671712295301 0 0.051588978389093709 -0.20071100181453261 0 0.044227612103689418 -0.18814846681850059 0 0.0348924040363712 -0.19437671712295301 0 0.033589315604843718 -0.18139889835195849 0 0.029154490564058 -0.2081166708726544 0 0.051588978389093709 -0.20071100181453261 0 0.047258622936153523 -0.22586321370101889 0 0.051588978389093709 -0.20071100181453261 0 0.047258622936153523 -0.22586321370101889 0 0.069159158205027646 -0.21580907262472329 0 0.051588978389093709 -0.20071100181453261 0 0.047258622936153523 -0.22586321370101889 0 0.051588978389093709 -0.20071100181453261 0 0.07164491563534689 -0.19159859164215831 0 0.055919333842034152 -0.17555878992804641 0 0.051588978389093709 -0.20071100181453261 0 0.055919333842034152 -0.17555878992804641 0 0.044227612103689418 -0.18814846681850059 0 0.051588978389093709 -0.20071100181453261 0 0.055919333842034152 -0.17555878992804641 0 0.042928267483213343 -0.25101542558750528 0 0.047258622936153523 -0.22586321370101889 0 0.042928267483213343 -0.25101542558750528 0 0.026091335096602108 -0.23942465848615721 0 0.047258622936153523 -0.22586321370101889 0 0.042928267483213343 -0.25101542558750528 0 0.026132727482686739 -0.2575098886510116 0 0.026091335096602108 -0.23942465848615721 0 0.027762866710953241 -0.22382026810493491 0 0.026091335096602108 -0.23942465848615721 0 0.047258622936153523 -0.22586321370101889 0 0.027762866710953241 -0.22382026810493491 0 0.029154490564058 -0.2081166708726544 0 0.047258622936153523 -0.22586321370101889 0 0.047258622936153523 -0.22586321370101889 0 0.062928769407861698 -0.2375038224985149 0 0.069159158205027646 -0.21580907262472329 0 0.042928267483213343 -0.25101542558750528 0 0.047258622936153523 -0.22586321370101889 0 0.062928769407861698 -0.2375038224985149 0 0.060906462792477259 -0.25493015060252638 0 0.042928267483213343 -0.25101542558750528 0 0.062928769407861698 -0.2375038224985149 0 0.062928769407861698 -0.2375038224985149 0 0.079805386254296354 -0.24522208029964529 0 0.077802051062457189 -0.230584770650617 0 0.060906462792477259 -0.25493015060252638 0 0.062928769407861698 -0.2375038224985149 0 0.079805386254296354 -0.24522208029964529 0 0.079805386254296354 -0.24522208029964529 0 0.089684071100228718 -0.2341429663934653 0 0.098092974417601758 -0.2439967517082699 0 0.090037266249361023 -0.25514449248072618 0 0.079805386254296354 -0.24522208029964529 0 0.098092974417601758 -0.2439967517082699 0 0.079805386254296354 -0.24522208029964529 0 0.089684071100228718 -0.2341429663934653 0 0.077802051062457189 -0.230584770650617 0 0.087432870344871558 -0.220245911436736 0 0.077802051062457189 -0.230584770650617 0 0.069159158205027646 -0.21580907262472329 0 0.087432870344871558 -0.220245911436736 0 0.089684071100228718 -0.2341429663934653 0 0.077802051062457189 -0.230584770650617 0 0.062928769407861698 -0.2375038224985149 0 0.077802051062457189 -0.230584770650617 0 0.069159158205027646 -0.21580907262472329 0 0.051588978389093709 -0.20071100181453261 0 0.069159158205027646 -0.21580907262472329 0 0.07164491563534689 -0.19159859164215831 0 0.069159158205027646 -0.21580907262472329 0 0.07164491563534689 -0.19159859164215831 0 0.085011858112142083 -0.20011841608308431 0 0.085011858112142083 -0.20011841608308431 0 0.09658335816515666 -0.1838924841106083 0 0.084514376949187814 -0.1834626525576524 0 0.07164491563534689 -0.19159859164215831 0 0.085011858112142083 -0.20011841608308431 0 0.084514376949187814 -0.1834626525576524 0 0.087432870344871558 -0.220245911436736 0 0.085011858112142083 -0.20011841608308431 0 0.1018887246178807 -0.20591331863835449 0 0.087432870344871558 -0.220245911436736 0 0.069159158205027646 -0.21580907262472329 0 0.085011858112142083 -0.20011841608308431 0 0.087432870344871558 -0.220245911436736 0 0.1018887246178807 -0.20591331863835449 0 0.10583969580047679 -0.2282281416501451 0 0.1018887246178807 -0.20591331863835449 0 0.1123050233560689 -0.19592379321311559 0 0.09658335816515666 -0.1838924841106083 0 0.085011858112142083 -0.20011841608308431 0 0.1018887246178807 -0.20591331863835449 0 0.09658335816515666 -0.1838924841106083 0 0.1123050233560689 -0.19592379321311559 0 0.12533150932209791 -0.20996265198638769 0 0.12541650131914051 -0.18392671811711181 0 0.1123050233560689 -0.19592379321311559 0 0.09658335816515666 -0.1838924841106083 0 0.12541650131914051 -0.18392671811711181 0 0.1018887246178807 -0.20591331863835449 0 0.1123050233560689 -0.19592379321311559 0 0.12533150932209791 -0.20996265198638769 0 0.1018887246178807 -0.20591331863835449 0 0.10583969580047679 -0.2282281416501451 0 0.12533150932209791 -0.20996265198638769 0 0.10583969580047679 -0.2282281416501451 0 0.12524651732505679 -0.23599858585566369 0 0.12533150932209791 -0.20996265198638769 0 0.1241996852211366 -0.25790584062349681 0 0.11225847534750361 -0.2460906879432018 0 0.12524651732505679 -0.23599858585566369 0 0.11225847534750361 -0.2460906879432018 0 0.10583969580047679 -0.2282281416501451 0 0.12524651732505679 -0.23599858585566369 0 0.089684071100228718 -0.2341429663934653 0 0.098092974417601758 -0.2439967517082699 0 0.10583969580047679 -0.2282281416501451 0 0.11225847534750361 -0.2460906879432018 0 0.098092974417601758 -0.2439967517082699 0 0.10583969580047679 -0.2282281416501451 0 0.1033884089583834 -0.25834275545153779 0 0.11225847534750361 -0.2460906879432018 0 0.098092974417601758 -0.2439967517082699 0 0.087432870344871558 -0.220245911436736 0 0.089684071100228718 -0.2341429663934653 0 0.10583969580047679 -0.2282281416501451 0 0.095861747079200962 -0.15313859888536621 0 0.1083774411480336 -0.14566989758226689 0 0.086353909913009716 -0.1431477206069946 0 0.1083774411480336 -0.14566989758226689 0 0.086353909913009716 -0.1431477206069946 0 0.095861747079200962 -0.15313859888536621 0 0.1083774411480336 -0.14566989758226689 0 0.1041809370452219 -0.16293663295421251 0 0.1083774411480336 -0.14566989758226689 0 0.1041809370452219 -0.16293663295421251 0 0.1083774411480336 -0.14566989758226689 0 0.10251836692103219 -0.1306873772657822 0 0.114627617686511 -0.11995321968231799 0 0.10251836692103219 -0.1306873772657822 0 0.086353909913009716 -0.1431477206069946 0 0.093318446847450748 -0.1230107901652696 0 0.1083774411480336 -0.14566989758226689 0 0.10251836692103219 -0.1306873772657822 0 0.086353909913009716 -0.1431477206069946 0 0.1184201700305904 -0.13404526796551791 0 0.12562544935498551 -0.119918841695805 0 0.12553497303128919 -0.14763481099268089 0 0.1083774411480336 -0.14566989758226689 0 0.1184201700305904 -0.13404526796551791 0 0.114627617686511 -0.11995321968231799 0 0.1083774411480336 -0.14566989758226689 0 0.114627617686511 -0.11995321968231799 0 0.1083774411480336 -0.14566989758226689 0 0.1184201700305904 -0.13404526796551791 0 0.12553497303128919 -0.14763481099268089 0 0.1083774411480336 -0.14566989758226689 0 0.12553497303128919 -0.14763481099268089 0 0.1083774411480336 -0.14566989758226689 0 0.1106908983048407 -0.16123404233436611 0 0.12553497303128919 -0.14763481099268089 0 0.11618210891865979 -0.16633880562699471 0 0.12547573717521451 -0.16578076455489629 0 0.12553497303128919 -0.14763481099268089 0 0.11618210891865979 -0.16633880562699471 0 0.1106908983048407 -0.16123404233436611 0 0.12553497303128919 -0.14763481099268089 0 0.11618210891865979 -0.16633880562699471 0 0.11665031094880859 -0.17147110056772241 0 0.12547573717521451 -0.16578076455489629 0 0.11665031094880859 -0.17147110056772241 0 0.10966863614574179 -0.16746392997205559 0 0.10814129112212829 -0.1749566320237522 0 0.11618210891865979 -0.16633880562699471 0 0.11665031094880859 -0.17147110056772241 0 0.10966863614574179 -0.16746392997205559 0 0.11618210891865979 -0.16633880562699471 0 0.10966863614574179 -0.16746392997205559 0 0.1106908983048407 -0.16123404233436611 0 0.10814129112212829 -0.1749566320237522 0 0.09658335816515666 -0.1838924841106083 0 0.12541650131914051 -0.18392671811711181 0 0.09658335816515666 -0.1838924841106083 0 0.12541650131914051 -0.18392671811711181 0 0.11665031094880859 -0.17147110056772241 0 0.10814129112212829 -0.1749566320237522 0 0.12541650131914051 -0.18392671811711181 0 0.11665031094880859 -0.17147110056772241 0 0.12541650131914051 -0.18392671811711181 0 0.12547573717521451 -0.16578076455489629 0 0.10814129112212829 -0.1749566320237522 0 0.099482054585618845 -0.17564334542818991 0 0.102840590657369 -0.16845155819169549 0 0.10814129112212829 -0.1749566320237522 0 0.099482054585618845 -0.17564334542818991 0 0.09658335816515666 -0.1838924841106083 0 0.099482054585618845 -0.17564334542818991 0 0.102840590657369 -0.16845155819169549 0 0.091586127878902829 -0.17287912853473589 0 0.099482054585618845 -0.17564334542818991 0 0.09658335816515666 -0.1838924841106083 0 0.091586127878902829 -0.17287912853473589 0 0.1083774411480336 -0.14566989758226689 0 0.1106908983048407 -0.16123404233436611 0 0.1041809370452219 -0.16293663295421251 0 0.1106908983048407 -0.16123404233436611 0 0.1041809370452219 -0.16293663295421251 0 0.10966863614574179 -0.16746392997205559 0 0.1106908983048407 -0.16123404233436611 0 0.1041809370452219 -0.16293663295421251 0 0.10966863614574179 -0.16746392997205559 0 0.1041809370452219 -0.16293663295421251 0 0.102840590657369 -0.16845155819169549 0 0.10966863614574179 -0.16746392997205559 0 0.10814129112212829 -0.1749566320237522 0 0.102840590657369 -0.16845155819169549 0 0.1041809370452219 -0.16293663295421251 0 0.102840590657369 -0.16845155819169549 0 0.1041809370452219 -0.16293663295421251 0 0.102840590657369 -0.16845155819169549 0 0.091586127878902829 -0.17287912853473589 0 0.1041809370452219 -0.16293663295421251 0 0.080050135443628087 -0.16924771144112971 0 0.091586127878902829 -0.17287912853473589 0 0.1041809370452219 -0.16293663295421251 0 0.080050135443628087 -0.16924771144112971 0 0.095861747079200962 -0.15313859888536621 0 0.1041809370452219 -0.16293663295421251 0 0.080050135443628087 -0.16924771144112971 0 0.07164491563534689 -0.19159859164215831 0 0.080050135443628087 -0.16924771144112971 0 0.084514376949187814 -0.1834626525576524 0 0.09658335816515666 -0.1838924841106083 0 0.091586127878902829 -0.17287912853473589 0 0.084514376949187814 -0.1834626525576524 0 0.080050135443628087 -0.16924771144112971 0 0.091586127878902829 -0.17287912853473589 0 0.084514376949187814 -0.1834626525576524 0 0.080050135443628087 -0.16924771144112971 0 0.055919333842034152 -0.17555878992804641 0 0.07164491563534689 -0.19159859164215831 0 0.080050135443628087 -0.16924771144112971 0 0.055919333842034152 -0.17555878992804641 0 0.080050135443628087 -0.16924771144112971 0 0.055919333842034152 -0.17555878992804641 0 0.056345088285201558 -0.1730858599151312 0 0.080050135443628087 -0.16924771144112971 0 0.064900378975139048 -0.1607486892021365 0 0.070692249854562447 -0.15151306858964919 0 0.080050135443628087 -0.16924771144112971 0 0.056345088285201558 -0.1730858599151312 0 0.060801921970479712 -0.16697181866128341 0 0.080050135443628087 -0.16924771144112971 0 0.064900378975139048 -0.1607486892021365 0 0.060801921970479712 -0.16697181866128341 0 0.070692249854562447 -0.15151306858964919 0 0.065409156465312771 -0.12884972144208079 0 0.059577581614033273 -0.15164622354279789 0 0.070692249854562447 -0.15151306858964919 0 0.086353909913009716 -0.1431477206069946 0 0.065409156465312771 -0.12884972144208079 0 0.064900378975139048 -0.1607486892021365 0 0.070692249854562447 -0.15151306858964919 0 0.059577581614033273 -0.15164622354279789 0 0.080050135443628087 -0.16924771144112971 0 0.070692249854562447 -0.15151306858964919 0 0.086353909913009716 -0.1431477206069946 0 0.095861747079200962 -0.15313859888536621 0 0.080050135443628087 -0.16924771144112971 0 0.086353909913009716 -0.1431477206069946 0 0.086353909913009716 -0.1431477206069946 0 0.093318446847450748 -0.1230107901652696 0 0.078712252926286419 -0.1222921300632003 0 0.086353909913009716 -0.1431477206069946 0 0.065409156465312771 -0.12884972144208079 0 0.078712252926286419 -0.1222921300632003 0 0.065409156465312771 -0.12884972144208079 0 0.048424348975729781 -0.1330430576767565 0 0.049799871020715293 -0.14666553469493199 0 0.065409156465312771 -0.12884972144208079 0 0.049799871020715293 -0.14666553469493199 0 0.065409156465312771 -0.12884972144208079 0 0.048424348975729781 -0.1330430576767565 0 0.049611181369722417 -0.1203957987229575 0 0.065409156465312771 -0.12884972144208079 0 0.059577581614033273 -0.15164622354279789 0 0.049799871020715293 -0.14666553469493199 0 0.059577581614033273 -0.15164622354279789 0 0.049799871020715293 -0.14666553469493199 0 0.049774639945275791 -0.15989909168711869 0 0.049799871020715293 -0.14666553469493199 0 0.039449940307705177 -0.1435551084538324 0 0.036642185916154292 -0.1504581446233727 0 0.048424348975729781 -0.1330430576767565 0 0.049799871020715293 -0.14666553469493199 0 0.039449940307705177 -0.1435551084538324 0 0.049799871020715293 -0.14666553469493199 0 0.036642185916154292 -0.1504581446233727 0 0.034190585576117823 -0.1644813479477831 0 0.049799871020715293 -0.14666553469493199 0 0.034190585576117823 -0.1644813479477831 0 0.036642185916154292 -0.1504581446233727 0 0.032314867705270013 -0.14314797224998649 0 0.02968791147172169 -0.15473891749012081 0 0.039449940307705177 -0.1435551084538324 0 0.032314867705270013 -0.14314797224998649 0 0.039449940307705177 -0.1435551084538324 0 0.036642185916154292 -0.1504581446233727 0 0.032314867705270013 -0.14314797224998649 0 0.039449940307705177 -0.1435551084538324 0 0.032314867705270013 -0.14314797224998649 0 0.037574509635310359 -0.12793024820200741 0 0.048424348975729781 -0.1330430576767565 0 0.037574509635310359 -0.12793024820200741 0 0.049611181369722417 -0.1203957987229575 0 0.048424348975729781 -0.1330430576767565 0 0.039449940307705177 -0.1435551084538324 0 0.037574509635310359 -0.12793024820200741 0 0.055919333842034152 -0.17555878992804641 0 0.056345088285201558 -0.1730858599151312 0 0.054105601516723452 -0.17307882629007529 0 0.055919333842034152 -0.17555878992804641 0 0.056345088285201558 -0.1730858599151312 0 0.056345088285201558 -0.1730858599151312 0 0.054105601516723452 -0.17307882629007529 0 0.054063002668095141 -0.1703877360378159 0 0.055919333842034152 -0.17555878992804641 0 0.054105601516723452 -0.17307882629007529 0 0.050094981271562963 -0.17328291927930781 0 0.054105601516723452 -0.17307882629007529 0 0.050094981271562963 -0.17328291927930781 0 0.054063002668095141 -0.1703877360378159 0 0.050094981271562963 -0.17328291927930781 0 0.052532950673243532 -0.16642194243208869 0 0.045518585783875652 -0.1670506176770658 0 0.052532950673243532 -0.16642194243208869 0 0.049774639945275791 -0.15989909168711869 0 0.045518585783875652 -0.1670506176770658 0 0.050094981271562963 -0.17328291927930781 0 0.052532950673243532 -0.16642194243208869 0 0.054063002668095141 -0.1703877360378159 0 0.056345088285201558 -0.1730858599151312 0 0.054063002668095141 -0.1703877360378159 0 0.060801921970479712 -0.16697181866128341 0 0.052532950673243532 -0.16642194243208869 0 0.054063002668095141 -0.1703877360378159 0 0.060801921970479712 -0.16697181866128341 0 0.052532950673243532 -0.16642194243208869 0 0.060801921970479712 -0.16697181866128341 0 0.05691997577757086 -0.16193897293939871 0 0.059577581614033273 -0.15164622354279789 0 0.05691997577757086 -0.16193897293939871 0 0.049774639945275791 -0.15989909168711869 0 0.064900378975139048 -0.1607486892021365 0 0.059577581614033273 -0.15164622354279789 0 0.05691997577757086 -0.16193897293939871 0 0.064900378975139048 -0.1607486892021365 0 0.060801921970479712 -0.16697181866128341 0 0.05691997577757086 -0.16193897293939871 0 0.052532950673243532 -0.16642194243208869 0 0.05691997577757086 -0.16193897293939871 0 0.049774639945275791 -0.15989909168711869 0 0.049799871020715293 -0.14666553469493199 0 0.049774639945275791 -0.15989909168711869 0 0.034190585576117823 -0.1644813479477831 0 0.049774639945275791 -0.15989909168711869 0 0.034190585576117823 -0.1644813479477831 0 0.045518585783875652 -0.1670506176770658 0 0.036642185916154292 -0.1504581446233727 0 0.034190585576117823 -0.1644813479477831 0 0.02968791147172169 -0.15473891749012081 0 0.034190585576117823 -0.1644813479477831 0 0.040999771453178152 -0.17116778703903071 0 0.045518585783875652 -0.1670506176770658 0 0.050094981271562963 -0.17328291927930781 0 0.040999771453178152 -0.17116778703903071 0 0.045518585783875652 -0.1670506176770658 0 0.055919333842034152 -0.17555878992804641 0 0.033589315604843718 -0.18139889835195849 0 0.034190585576117823 -0.1644813479477831 0 0.040999771453178152 -0.17116778703903071 0 0.033589315604843718 -0.18139889835195849 0 0.050094981271562963 -0.17328291927930781 0 0.040999771453178152 -0.17116778703903071 0 0.033589315604843718 -0.18139889835195849 0 0.055919333842034152 -0.17555878992804641 0 0.050094981271562963 -0.17328291927930781 0 0.033589315604843718 -0.18139889835195849 0 0.044227612103689418 -0.18814846681850059 0 0.055919333842034152 -0.17555878992804641 0 0.033589315604843718 -0.18139889835195849 0 0.034190585576117823 -0.1644813479477831 0 0.033589315604843718 -0.18139889835195849 0 0.018581300131520338 -0.18229716120063419 0 0.034190585576117823 -0.1644813479477831 0 0.018581300131520338 -0.18229716120063419 0 0.0348924040363712 -0.19437671712295301 0 0.033589315604843718 -0.18139889835195849 0 0.018581300131520338 -0.18229716120063419 0 0.034190585576117823 -0.1644813479477831 0 0.018581300131520338 -0.18229716120063419 0 0.022377447300459971 -0.16326827787319201 0 0.018581300131520338 -0.18229716120063419 0 0.022377447300459971 -0.16326827787319201 0 0.010062219946327869 -0.16388657961306519 0 0.022377447300459971 -0.16326827787319201 0 0.02968791147172169 -0.15473891749012081 0 0.02242833850643795 -0.15141464797752999 0 0.034190585576117823 -0.1644813479477831 0 0.022377447300459971 -0.16326827787319201 0 0.02968791147172169 -0.15473891749012081 0 0.022377447300459971 -0.16326827787319201 0 0.010062219946327869 -0.16388657961306519 0 0.02242833850643795 -0.15141464797752999 0 -0.0071906607417434182 -0.16044018459704729 0 -0.0021093230274114999 -0.1802765795252658 0 0.010062219946327869 -0.16388657961306519 0 -0.0006726916903996423 -0.15009547999259859 0 -0.0071906607417434182 -0.16044018459704729 0 0.010062219946327869 -0.16388657961306519 0 -0.0021093230274114999 -0.1802765795252658 0 0.018581300131520338 -0.18229716120063419 0 0.010062219946327869 -0.16388657961306519 0 0.032314867705270013 -0.14314797224998649 0 0.020280747203350831 -0.1202696443472204 0 0.032314867705270013 -0.14314797224998649 0 0.010021434624597699 -0.14187588095940559 0 0.020280747203350831 -0.1202696443472204 0 0.032314867705270013 -0.14314797224998649 0 0.037574509635310359 -0.12793024820200741 0 0.020280747203350831 -0.1202696443472204 0 0.032314867705270013 -0.14314797224998649 0 0.02242833850643795 -0.15141464797752999 0 0.010021434624597699 -0.14187588095940559 0 0.032314867705270013 -0.14314797224998649 0 0.010021434624597699 -0.14187588095940559 0 0.032314867705270013 -0.14314797224998649 0 0.02968791147172169 -0.15473891749012081 0 0.02242833850643795 -0.15141464797752999 0 0.010062219946327869 -0.16388657961306519 0 0.02242833850643795 -0.15141464797752999 0 0.010021434624597699 -0.14187588095940559 0 -0.0006726916903996423 -0.15009547999259859 0 0.010062219946327869 -0.16388657961306519 0 0.010021434624597699 -0.14187588095940559 0 -0.00083279118012277449 -0.1268033360194091 0 0.010021434624597699 -0.14187588095940559 0 0.020280747203350831 -0.1202696443472204 0 -0.0045536602266862316 -0.1116209113216069 0 0.020280747203350831 -0.1202696443472204 0 0.0082466267014323184 -0.097391316444453951 0 -0.0045536602266862316 -0.1116209113216069 0 -0.00083279118012277449 -0.1268033360194091 0 0.020280747203350831 -0.1202696443472204 0 0.037574509635310359 -0.12793024820200741 0 0.020280747203350831 -0.1202696443472204 0 0.035695742891542002 -0.1109130942074613 0 0.020280747203350831 -0.1202696443472204 0 0.0082466267014323184 -0.097391316444453951 0 0.035695742891542002 -0.1109130942074613 0 0.0082466267014323184 -0.097391316444453951 0 0.037727010116391957 -0.091999819185217852 0 0.0082466267014323184 -0.097391316444453951 0 0.037727010116391957 -0.091999819185217852 0 0.035695742891542002 -0.1109130942074613 0 0.020280747203350831 -0.1202696443472204 0 0.0082466267014323184 -0.097391316444453951 0 0.0082466267014323184 -0.097391316444453951 0 0.00066019677475892134 -0.082968589711235788 0 0.015914607620945199 -0.081007992634883119 0 0.0082466267014323184 -0.097391316444453951 0 0.00066019677475892134 -0.082968589711235788 0 -8.8213611018634307e-05 -0.081545770469152831 0 0.00066019677475892134 -0.082968589711235788 0 0.015914607620945199 -0.081007992634883119 0 -8.8213611018634307e-05 -0.081545770469152831 0 0.015914607620945199 -0.081007992634883119 0 -8.8213611018634307e-05 -0.081545770469152831 0 0.013991710901115371 -0.077352331909828889 0 0.015914607620945199 -0.081007992634883119 0 -8.8213611018634307e-05 -0.081545770469152831 0 0.00066019677475892134 -0.082968589711235788 0 -0.0039340070506783762 -0.074234449019045287 0 0.013991710901115371 -0.077352331909828889 0 0.00067646690987842946 -0.062900983789534709 0 -0.0039340070506783762 -0.074234449019045287 0 -8.8213611018634307e-05 -0.081545770469152831 0 0.013991710901115371 -0.077352331909828889 0 0.013991710901115371 -0.077352331909828889 0 0.00067646690987842946 -0.062900983789534709 0 0.011491633677806871 -0.054296682095431967 0 -0.0039340070506783762 -0.074234449019045287 0 0.013991710901115371 -0.077352331909828889 0 0.013991710901115371 -0.077352331909828889 0 0.011491633677806871 -0.054296682095431967 0 0.027647451553000409 -0.062084676751860059 0 0.013991710901115371 -0.077352331909828889 0 0.031917428852909019 -0.080470214800613143 0 0.027647451553000409 -0.062084676751860059 0 0.0082466267014323184 -0.097391316444453951 0 0.015914607620945199 -0.081007992634883119 0 0.037727010116391957 -0.091999819185217852 0 0.015914607620945199 -0.081007992634883119 0 0.031917428852909019 -0.080470214800613143 0 0.013991710901115371 -0.077352331909828889 0 0.015914607620945199 -0.081007992634883119 0 0.031917428852909019 -0.080470214800613143 0 0.015914607620945199 -0.081007992634883119 0 0.031917428852909019 -0.080470214800613143 0 0.037727010116391957 -0.091999819185217852 0 0.013991710901115371 -0.077352331909828889 0 0.031917428852909019 -0.080470214800613143 0 0.031917428852909019 -0.080470214800613143 0 0.037727010116391957 -0.091999819185217852 0 0.049562411192130097 -0.083539268363298308 0 0.031917428852909019 -0.080470214800613143 0 0.049562411192130097 -0.083539268363298308 0 0.031917428852909019 -0.080470214800613143 0 0.054121882704183027 -0.079724029929196305 0 0.031917428852909019 -0.080470214800613143 0 0.049562411192130097 -0.083539268363298308 0 0.054121882704183027 -0.079724029929196305 0 0.031917428852909019 -0.080470214800613143 0 0.041602381735084008 -0.068842513133224689 0 0.054121882704183027 -0.079724029929196305 0 0.031917428852909019 -0.080470214800613143 0 0.041602381735084008 -0.068842513133224689 0 0.027647451553000409 -0.062084676751860059 0 0.041602381735084008 -0.068842513133224689 0 0.052645811701544871 -0.065773380027856515 0 0.054121882704183027 -0.079724029929196305 0 0.052645811701544871 -0.065773380027856515 0 0.054121882704183027 -0.079724029929196305 0 0.064821251657305595 -0.067362968289117961 0 0.052645811701544871 -0.065773380027856515 0 0.057944107862718731 -0.055949351126936338 0 0.064821251657305595 -0.067362968289117961 0 0.037727010116391957 -0.091999819185217852 0 0.067207393531351411 -0.086608321925982057 0 0.049562411192130097 -0.083539268363298308 0 0.054121882704183027 -0.079724029929196305 0 0.067207393531351411 -0.086608321925982057 0 0.049562411192130097 -0.083539268363298308 0 0.067207393531351411 -0.086608321925982057 0 0.037727010116391957 -0.091999819185217852 0 0.049562411192130097 -0.083539268363298308 0 0.067207393531351411 -0.086608321925982057 0 0.037727010116391957 -0.091999819185217852 0 0.060734382323043852 -0.1074917383429093 0 0.067207393531351411 -0.086608321925982057 0 0.065409156465312771 -0.12884972144208079 0 0.060734382323043852 -0.1074917383429093 0 0.049611181369722417 -0.1203957987229575 0 0.060734382323043852 -0.1074917383429093 0 0.049611181369722417 -0.1203957987229575 0 0.035695742891542002 -0.1109130942074613 0 0.037574509635310359 -0.12793024820200741 0 0.049611181369722417 -0.1203957987229575 0 0.035695742891542002 -0.1109130942074613 0 0.037727010116391957 -0.091999819185217852 0 0.060734382323043852 -0.1074917383429093 0 0.035695742891542002 -0.1109130942074613 0 2.2740406854876442e-05 0.0043645874611814451 0 0.02677639717049712 0.0040628374229603461 0 0.02412865877089251 -0.016529903817385269 0 -0.0050843613286547787 -0.015010017962203489 0 2.2740406854876442e-05 0.0043645874611814451 0 0.02412865877089251 -0.016529903817385269 0 -0.0050843613286547787 -0.015010017962203489 0 0.02412865877089251 -0.016529903817385269 0 0.0046704263767485821 -0.032252231063261472 0 0.02412865877089251 -0.016529903817385269 0 0.0046704263767485821 -0.032252231063261472 0 0.02412865877089251 -0.016529903817385269 0 0.024374452762266609 -0.040214416885223071 0 0.034581031349303772 -0.027448430927641491 0 0.02412865877089251 -0.016529903817385269 0 0.024374452762266609 -0.040214416885223071 0 0.0046704263767485821 -0.032252231063261472 0 -0.0018447850692904339 -0.051540691110315763 0 0.0046704263767485821 -0.032252231063261472 0 0.011491633677806871 -0.054296682095431967 0 0.024374452762266609 -0.040214416885223071 0 0.0046704263767485821 -0.032252231063261472 0 0.011491633677806871 -0.054296682095431967 0 -0.0018447850692904339 -0.051540691110315763 0 0.00067646690987842946 -0.062900983789534709 0 0.011491633677806871 -0.054296682095431967 0 0.024374452762266609 -0.040214416885223071 0 0.011491633677806871 -0.054296682095431967 0 0.027647451553000409 -0.062084676751860059 0 0.024374452762266609 -0.040214416885223071 0 0.027647451553000409 -0.062084676751860059 0 0.042507101388820578 -0.05133190168683871 0 0.041602381735084008 -0.068842513133224689 0 0.052645811701544871 -0.065773380027856515 0 0.042507101388820578 -0.05133190168683871 0 0.041602381735084008 -0.068842513133224689 0 0.027647451553000409 -0.062084676751860059 0 0.042507101388820578 -0.05133190168683871 0 0.052645811701544871 -0.065773380027856515 0 0.042507101388820578 -0.05133190168683871 0 0.057944107862718731 -0.055949351126936338 0 0.057944107862718731 -0.055949351126936338 0 0.057593746343652788 -0.042609991329628748 0 0.071737517330721229 -0.052549541609257802 0 0.042507101388820578 -0.05133190168683871 0 0.057944107862718731 -0.055949351126936338 0 0.057593746343652788 -0.042609991329628748 0 0.057593746343652788 -0.042609991329628748 0 0.049775261701062709 -0.027881582052606241 0 0.076010614014250535 -0.024545102131369529 0 0.042507101388820578 -0.05133190168683871 0 0.057593746343652788 -0.042609991329628748 0 0.049775261701062709 -0.027881582052606241 0 0.042507101388820578 -0.05133190168683871 0 0.034581031349303772 -0.027448430927641491 0 0.049775261701062709 -0.027881582052606241 0 0.024374452762266609 -0.040214416885223071 0 0.042507101388820578 -0.05133190168683871 0 0.034581031349303772 -0.027448430927641491 0 0.02412865877089251 -0.016529903817385269 0 0.034581031349303772 -0.027448430927641491 0 0.041380348951894519 -0.016967954037550331 0 0.034581031349303772 -0.027448430927641491 0 0.041380348951894519 -0.016967954037550331 0 0.049775261701062709 -0.027881582052606241 0 0.041380348951894519 -0.016967954037550331 0 0.049775261701062709 -0.027881582052606241 0 0.054829901773177078 -0.012172276818609631 0 0.049775261701062709 -0.027881582052606241 0 0.054829901773177078 -0.012172276818609631 0 0.076010614014250535 -0.024545102131369529 0 0.053530053934139413 0.0037610873847392472 0 0.054829901773177078 -0.012172276818609631 0 0.066490165548172497 -0.0053167695305632789 0 0.053530053934139413 0.0037610873847392472 0 0.054829901773177078 -0.012172276818609631 0 0.043586891165036501 -0.00080757657150902495 0 0.02412865877089251 -0.016529903817385269 0 0.043586891165036501 -0.00080757657150902495 0 0.041380348951894519 -0.016967954037550331 0 0.054829901773177078 -0.012172276818609631 0 0.043586891165036501 -0.00080757657150902495 0 0.02677639717049712 0.0040628374229603461 0 0.02412865877089251 -0.016529903817385269 0 0.043586891165036501 -0.00080757657150902495 0 0.02412865877089251 -0.016529903817385269 0 0.041380348951894519 -0.016967954037550331 0 0.043586891165036501 -0.00080757657150902495 0 0.080283710697781729 0.0034593373465184158 0 0.091440396207303098 0.0033335029490501392 0 0.094246035646055729 -0.01446366386845005 0 0.080283710697781729 0.0034593373465184158 0 0.076010614014250535 -0.024545102131369529 0 0.080283710697781729 0.0034593373465184158 0 0.076010614014250535 -0.024545102131369529 0 0.094246035646055729 -0.01446366386845005 0 0.080283710697781729 0.0034593373465184158 0 0.066490165548172497 -0.0053167695305632789 0 0.076010614014250535 -0.024545102131369529 0 0.054829901773177078 -0.012172276818609631 0 0.066490165548172497 -0.0053167695305632789 0 0.076010614014250535 -0.024545102131369529 0 0.076010614014250535 -0.024545102131369529 0 0.09938311213751265 -0.039355755222716927 0 0.094246035646055729 -0.01446366386845005 0 0.076010614014250535 -0.024545102131369529 0 0.085641939673685469 -0.045852012626984559 0 0.09938311213751265 -0.039355755222716927 0 0.057593746343652788 -0.042609991329628748 0 0.076010614014250535 -0.024545102131369529 0 0.071737517330721229 -0.052549541609257802 0 0.076010614014250535 -0.024545102131369529 0 0.085641939673685469 -0.045852012626984559 0 0.071737517330721229 -0.052549541609257802 0 0.076010614014250535 -0.024545102131369529 0 0.071737517330721229 -0.052549541609257802 0 0.057944107862718731 -0.055949351126936338 0 0.071737517330721229 -0.052549541609257802 0 0.064821251657305595 -0.067362968289117961 0 0.071737517330721229 -0.052549541609257802 0 0.064821251657305595 -0.067362968289117961 0 0.076170133749790092 -0.067001375770650934 0 0.071737517330721229 -0.052549541609257802 0 0.08309404436593576 -0.058288935483897533 0 0.076170133749790092 -0.067001375770650934 0 0.085641939673685469 -0.045852012626984559 0 0.093587777457369015 -0.056400426613986497 0 0.09938311213751265 -0.039355755222716927 0 0.085641939673685469 -0.045852012626984559 0 0.071737517330721229 -0.052549541609257802 0 0.08309404436593576 -0.058288935483897533 0 0.085641939673685469 -0.045852012626984559 0 0.08309404436593576 -0.058288935483897533 0 0.093587777457369015 -0.056400426613986497 0 0.08309404436593576 -0.058288935483897533 0 0.093587777457369015 -0.056400426613986497 0 0.086907501246874713 -0.066922444039888007 0 0.1033694319805436 -0.056801024238754168 0 0.11614746475614279 -0.056095695900382742 0 0.09938311213751265 -0.039355755222716927 0 0.093587777457369015 -0.056400426613986497 0 0.1033694319805436 -0.056801024238754168 0 0.09938311213751265 -0.039355755222716927 0 0.093587777457369015 -0.056400426613986497 0 0.1033694319805436 -0.056801024238754168 0 0.098672540115490259 -0.065734850030070041 0 0.1033694319805436 -0.056801024238754168 0 0.11614746475614279 -0.056095695900382742 0 0.1090562654362032 -0.066418393426614653 0 0.11614746475614279 -0.056095695900382742 0 0.11614498489507689 -0.033840795922921572 0 0.09938311213751265 -0.039355755222716927 0 0.11614746475614279 -0.056095695900382742 0 0.11614498489507689 -0.033840795922921572 0 0.12793195072969021 -0.046661603991712319 0 0.11614498489507689 -0.033840795922921572 0 0.09938311213751265 -0.039355755222716927 0 0.10649303656856041 -0.023891925897048451 0 0.09938311213751265 -0.039355755222716927 0 0.10649303656856041 -0.023891925897048451 0 0.094246035646055729 -0.01446366386845005 0 0.10649303656856041 -0.023891925897048451 0 0.11410962032397309 -0.01507089496933327 0 0.1045409870136835 -0.01454552744353373 0 0.10649303656856041 -0.023891925897048451 0 0.1045409870136835 -0.01454552744353373 0 0.094246035646055729 -0.01446366386845005 0 0.11614498489507689 -0.033840795922921572 0 0.11869554604269721 -0.023669707467529801 0 0.1330846993019191 -0.032439528125002642 0 0.11614498489507689 -0.033840795922921572 0 0.10649303656856041 -0.023891925897048451 0 0.11869554604269721 -0.023669707467529801 0 0.11869554604269721 -0.023669707467529801 0 0.11410962032397309 -0.01507089496933327 0 0.12364538912395651 -0.013105392423343061 0 0.10649303656856041 -0.023891925897048451 0 0.11869554604269721 -0.023669707467529801 0 0.11410962032397309 -0.01507089496933327 0 0.12476049303783231 0.0027968485244255609 0 0.11410962032397309 -0.01507089496933327 0 0.12364538912395651 -0.013105392423343061 0 0.1114232486001219 0.011528551377156729 0 0.11410962032397309 -0.01507089496933327 0 0.12476049303783231 0.0027968485244255609 0 0.1114232486001219 0.011528551377156729 0 0.11410962032397309 -0.01507089496933327 0 0.1114232486001219 0.011528551377156729 0 0.11410962032397309 -0.01507089496933327 0 0.1033152555161449 -0.0047556250393031539 0 0.091440396207303098 0.0033335029490501392 0 0.1033152555161449 -0.0047556250393031539 0 0.094246035646055729 -0.01446366386845005 0 0.11410962032397309 -0.01507089496933327 0 0.1033152555161449 -0.0047556250393031539 0 0.1045409870136835 -0.01454552744353373 0 0.1033152555161449 -0.0047556250393031539 0 0.1045409870136835 -0.01454552744353373 0 0.094246035646055729 -0.01446366386845005 0 0.082592591006809477 -0.1079771953262489 0 0.088664280855592581 -0.10040499339879159 0 0.073283200717600236 -0.098456818931505555 0 0.088664280855592581 -0.10040499339879159 0 0.073283200717600236 -0.098456818931505555 0 0.083002851230833591 -0.08935568119191431 0 0.088664280855592581 -0.10040499339879159 0 0.083002851230833591 -0.08935568119191431 0 0.096198547069577256 -0.092986999695841344 0 0.082592591006809477 -0.1079771953262489 0 0.088664280855592581 -0.10040499339879159 0 0.096393687620848781 -0.11074788010198749 0 0.082592591006809477 -0.1079771953262489 0 0.093318446847450748 -0.1230107901652696 0 0.096393687620848781 -0.11074788010198749 0 0.082592591006809477 -0.1079771953262489 0 0.093318446847450748 -0.1230107901652696 0 0.078712252926286419 -0.1222921300632003 0 0.065409156465312771 -0.12884972144208079 0 0.060734382323043852 -0.1074917383429093 0 0.078712252926286419 -0.1222921300632003 0 0.060734382323043852 -0.1074917383429093 0 0.082592591006809477 -0.1079771953262489 0 0.078712252926286419 -0.1222921300632003 0 0.060734382323043852 -0.1074917383429093 0 0.073283200717600236 -0.098456818931505555 0 0.067207393531351411 -0.086608321925982057 0 0.060734382323043852 -0.1074917383429093 0 0.082592591006809477 -0.1079771953262489 0 0.073283200717600236 -0.098456818931505555 0 0.054121882704183027 -0.079724029929196305 0 0.076326336555456939 -0.078977845057779314 0 0.073283200717600236 -0.098456818931505555 0 0.067207393531351411 -0.086608321925982057 0 0.083002851230833591 -0.08935568119191431 0 0.054121882704183027 -0.079724029929196305 0 0.067207393531351411 -0.086608321925982057 0 0.076326336555456939 -0.078977845057779314 0 0.067207393531351411 -0.086608321925982057 0 0.083002851230833591 -0.08935568119191431 0 0.054121882704183027 -0.079724029929196305 0 0.076326336555456939 -0.078977845057779314 0 0.064821251657305595 -0.067362968289117961 0 0.076326336555456939 -0.078977845057779314 0 0.064821251657305595 -0.067362968289117961 0 0.076170133749790092 -0.067001375770650934 0 0.076326336555456939 -0.078977845057779314 0 0.092776775784489424 -0.072552622173305423 0 0.086907501246874713 -0.066922444039888007 0 0.076326336555456939 -0.078977845057779314 0 0.092776775784489424 -0.072552622173305423 0 0.098530790406730906 -0.078231660186362323 0 0.08309404436593576 -0.058288935483897533 0 0.076170133749790092 -0.067001375770650934 0 0.086907501246874713 -0.066922444039888007 0 0.076326336555456939 -0.078977845057779314 0 0.076170133749790092 -0.067001375770650934 0 0.086907501246874713 -0.066922444039888007 0 0.093587777457369015 -0.056400426613986497 0 0.086907501246874713 -0.066922444039888007 0 0.098672540115490259 -0.065734850030070041 0 0.092776775784489424 -0.072552622173305423 0 0.086907501246874713 -0.066922444039888007 0 0.098672540115490259 -0.065734850030070041 0 0.076326336555456939 -0.078977845057779314 0 0.098530790406730906 -0.078231660186362323 0 0.067207393531351411 -0.086608321925982057 0 0.094402382265667828 -0.081634787316126833 0 0.067207393531351411 -0.086608321925982057 0 0.076326336555456939 -0.078977845057779314 0 0.094402382265667828 -0.081634787316126833 0 0.067207393531351411 -0.086608321925982057 0 0.083002851230833591 -0.08935568119191431 0 0.094402382265667828 -0.081634787316126833 0 0.076326336555456939 -0.078977845057779314 0 0.098530790406730906 -0.078231660186362323 0 0.094402382265667828 -0.081634787316126833 0 0.083002851230833591 -0.08935568119191431 0 0.096198547069577256 -0.092986999695841344 0 0.094402382265667828 -0.081634787316126833 0 0.098530790406730906 -0.078231660186362323 0 0.094402382265667828 -0.081634787316126833 0 0.1215973709999843 -0.076661252706272096 0 0.096198547069577256 -0.092986999695841344 0 0.094402382265667828 -0.081634787316126833 0 0.1049469324857234 -0.089782661249858883 0 0.094402382265667828 -0.081634787316126833 0 0.1049469324857234 -0.089782661249858883 0 0.11477940075979801 -0.086586375547491795 0 0.094402382265667828 -0.081634787316126833 0 0.1215973709999843 -0.076661252706272096 0 0.096198547069577256 -0.092986999695841344 0 0.1049469324857234 -0.089782661249858883 0 0.1045188326901093 -0.096114942639314471 0 0.1049469324857234 -0.089782661249858883 0 0.1122406319606314 -0.093762893754051571 0 0.1045188326901093 -0.096114942639314471 0 0.098530790406730906 -0.078231660186362323 0 0.1041267485485797 -0.071919755704525121 0 0.1215973709999843 -0.076661252706272096 0 0.092776775784489424 -0.072552622173305423 0 0.098672540115490259 -0.065734850030070041 0 0.1041267485485797 -0.071919755704525121 0 0.092776775784489424 -0.072552622173305423 0 0.098530790406730906 -0.078231660186362323 0 0.1041267485485797 -0.071919755704525121 0 0.1033694319805436 -0.056801024238754168 0 0.098672540115490259 -0.065734850030070041 0 0.1090562654362032 -0.066418393426614653 0 0.098672540115490259 -0.065734850030070041 0 0.1041267485485797 -0.071919755704525121 0 0.1090562654362032 -0.066418393426614653 0 0.11614746475614279 -0.056095695900382742 0 0.12578044597350699 -0.072438115859574576 0 0.13175859521543021 -0.059158336183592418 0 0.11614746475614279 -0.056095695900382742 0 0.1215973709999843 -0.076661252706272096 0 0.1041267485485797 -0.071919755704525121 0 0.1090562654362032 -0.066418393426614653 0 0.1215973709999843 -0.076661252706272096 0 0.11614746475614279 -0.056095695900382742 0 0.1090562654362032 -0.066418393426614653 0 0.1215973709999843 -0.076661252706272096 0 0.11614746475614279 -0.056095695900382742 0 0.1215973709999843 -0.076661252706272096 0 0.12578044597350699 -0.072438115859574576 0 0.1215973709999843 -0.076661252706272096 0 0.12578044597350699 -0.072438115859574576 0 0.1257691505092064 -0.075898300017580009 0 0.1215973709999843 -0.076661252706272096 0 0.1257691505092064 -0.075898300017580009 0 0.1215973709999843 -0.076661252706272096 0 0.1257159256786817 -0.09220287239892902 0 0.1257691505092064 -0.075898300017580009 0 0.094402382265667828 -0.081634787316126833 0 0.1215973709999843 -0.076661252706272096 0 0.11477940075979801 -0.086586375547491795 0 0.1049469324857234 -0.089782661249858883 0 0.11477940075979801 -0.086586375547491795 0 0.1122406319606314 -0.093762893754051571 0 0.11477940075979801 -0.086586375547491795 0 0.12087779422498809 -0.094236541782369065 0 0.1122406319606314 -0.093762893754051571 0 0.1215973709999843 -0.076661252706272096 0 0.11477940075979801 -0.086586375547491795 0 0.1257159256786817 -0.09220287239892902 0 0.1215973709999843 -0.076661252706272096 0 0.1257159256786817 -0.09220287239892902 0 0.11477940075979801 -0.086586375547491795 0 0.12087779422498809 -0.094236541782369065 0 0.1257159256786817 -0.09220287239892902 0 0.12087779422498809 -0.094236541782369065 0 0.1128663437642243 -0.1035568826348751 0 0.114627617686511 -0.11995321968231799 0 0.12087779422498809 -0.094236541782369065 0 0.12562544935498551 -0.119918841695805 0 0.1257159256786817 -0.09220287239892902 0 0.12087779422498809 -0.094236541782369065 0 0.114627617686511 -0.11995321968231799 0 0.1128663437642243 -0.1035568826348751 0 0.10870855739538381 -0.1001112020781434 0 0.10787711755360729 -0.1097205558774933 0 0.1128663437642243 -0.1035568826348751 0 0.1122406319606314 -0.093762893754051571 0 0.10870855739538381 -0.1001112020781434 0 0.12087779422498809 -0.094236541782369065 0 0.1128663437642243 -0.1035568826348751 0 0.1122406319606314 -0.093762893754051571 0 0.1045188326901093 -0.096114942639314471 0 0.10870855739538381 -0.1001112020781434 0 0.1005148074878861 -0.10290538514525201 0 0.1122406319606314 -0.093762893754051571 0 0.1045188326901093 -0.096114942639314471 0 0.10870855739538381 -0.1001112020781434 0 0.10870855739538381 -0.1001112020781434 0 0.1005148074878861 -0.10290538514525201 0 0.10787711755360729 -0.1097205558774933 0 0.1005148074878861 -0.10290538514525201 0 0.096393687620848781 -0.11074788010198749 0 0.10787711755360729 -0.1097205558774933 0 0.088664280855592581 -0.10040499339879159 0 0.1005148074878861 -0.10290538514525201 0 0.096393687620848781 -0.11074788010198749 0 0.088664280855592581 -0.10040499339879159 0 0.096198547069577256 -0.092986999695841344 0 0.1005148074878861 -0.10290538514525201 0 0.096198547069577256 -0.092986999695841344 0 0.1045188326901093 -0.096114942639314471 0 0.1005148074878861 -0.10290538514525201 0 0.093318446847450748 -0.1230107901652696 0 0.096393687620848781 -0.11074788010198749 0 0.1037126892395869 -0.11969802784810341 0 0.10251836692103219 -0.1306873772657822 0 0.093318446847450748 -0.1230107901652696 0 0.1037126892395869 -0.11969802784810341 0 0.10787711755360729 -0.1097205558774933 0 0.1037126892395869 -0.11969802784810341 0 0.114627617686511 -0.11995321968231799 0 0.096393687620848781 -0.11074788010198749 0 0.10787711755360729 -0.1097205558774933 0 0.1037126892395869 -0.11969802784810341 0 0.10251836692103219 -0.1306873772657822 0 0.1037126892395869 -0.11969802784810341 0 0.114627617686511 -0.11995321968231799 0 0.12087779422498809 -0.094236541782369065 0 0.114627617686511 -0.11995321968231799 0 0.12562544935498551 -0.119918841695805 0 0.1128663437642243 -0.1035568826348751 0 0.10787711755360729 -0.1097205558774933 0 0.114627617686511 -0.11995321968231799 0 0.1184201700305904 -0.13404526796551791 0 0.114627617686511 -0.11995321968231799 0 0.12562544935498551 -0.119918841695805 0 0.12562544935498551 -0.119918841695805 0 0.13329341413820331 -0.12079699170803621 0 0.1257159256786817 -0.09220287239892902 0 0.13329341413820331 -0.12079699170803621 0 0.15562538676663459 -0.1154585712547703 0 0.15317075581650019 -0.13456528180322411 0 0.13329341413820331 -0.12079699170803621 0 0.15562538676663459 -0.1154585712547703 0 0.13922219339108249 -0.1002855692345762 0 0.15562538676663459 -0.1154585712547703 0 0.13922219339108249 -0.1002855692345762 0 0.15562538676663459 -0.1154585712547703 0 0.13922219339108249 -0.1002855692345762 0 0.1499819971963201 -0.093721343680644331 0 0.13329341413820331 -0.12079699170803621 0 0.1257159256786817 -0.09220287239892902 0 0.13329341413820331 -0.12079699170803621 0 0.13922219339108249 -0.1002855692345762 0 0.1257159256786817 -0.09220287239892902 0 0.12562544935498551 -0.119918841695805 0 0.1257159256786817 -0.09220287239892902 0 0.1257159256786817 -0.09220287239892902 0 0.1257691505092064 -0.075898300017580009 0 0.1257159256786817 -0.09220287239892902 0 0.13897961522156521 -0.085748053601617649 0 0.1257691505092064 -0.075898300017580009 0 0.13922219339108249 -0.1002855692345762 0 0.1257159256786817 -0.09220287239892902 0 0.13897961522156521 -0.085748053601617649 0 0.12578044597350699 -0.072438115859574576 0 0.15196331965784229 -0.071107799528322801 0 0.13175859521543021 -0.059158336183592418 0 0.1257691505092064 -0.075898300017580009 0 0.15196331965784229 -0.071107799528322801 0 0.13897961522156521 -0.085748053601617649 0 0.1257691505092064 -0.075898300017580009 0 0.15196331965784229 -0.071107799528322801 0 0.12578044597350699 -0.072438115859574576 0 0.1257691505092064 -0.075898300017580009 0 0.15196331965784229 -0.071107799528322801 0 0.12578044597350699 -0.072438115859574576 0 0.1257691505092064 -0.075898300017580009 0 0.13897961522156521 -0.085748053601617649 0 0.15196331965784229 -0.071107799528322801 0 0.1499819971963201 -0.093721343680644331 0 0.15196331965784229 -0.071107799528322801 0 0.1499819971963201 -0.093721343680644331 0 0.1641194709444756 -0.096006724783934141 0 0.13922219339108249 -0.1002855692345762 0 0.13897961522156521 -0.085748053601617649 0 0.1499819971963201 -0.093721343680644331 0 0.15196331965784229 -0.071107799528322801 0 0.1641194709444756 -0.096006724783934141 0 0.15196331965784229 -0.071107799528322801 0 0.1788051212118828 -0.066198857284439083 0 0.16475020409286659 -0.052141498083087108 0 0.15196331965784229 -0.071107799528322801 0 0.1788051212118828 -0.066198857284439083 0 0.1641194709444756 -0.096006724783934141 0 0.15196331965784229 -0.071107799528322801 0 0.1788051212118828 -0.066198857284439083 0 0.1788051212118828 -0.066198857284439083 0 0.184790682544486 -0.087669380283697307 0 0.1641194709444756 -0.096006724783934141 0 0.184790682544486 -0.087669380283697307 0 0.1762756222311069 -0.1209056500395467 0 0.1641194709444756 -0.096006724783934141 0 0.184790682544486 -0.087669380283697307 0 0.1762756222311069 -0.1209056500395467 0 0.19909785644965869 -0.1124407769003834 0 0.15562538676663459 -0.1154585712547703 0 0.1762756222311069 -0.1209056500395467 0 0.17202858014218661 -0.1306315732749645 0 0.15562538676663459 -0.1154585712547703 0 0.1762756222311069 -0.1209056500395467 0 0.1641194709444756 -0.096006724783934141 0 0.15562538676663459 -0.1154585712547703 0 0.17202858014218661 -0.1306315732749645 0 0.15562538676663459 -0.1154585712547703 0 0.1499819971963201 -0.093721343680644331 0 0.1641194709444756 -0.096006724783934141 0 0.1762756222311069 -0.1209056500395467 0 0.1641194709444756 -0.096006724783934141 0 0.13801378204512321 -0.0044740867696424066 0 0.14134737690479909 -0.018296722210984231 0 0.1581495078418457 -0.0061234651867359997 0 0.12476049303783231 0.0027968485244255609 0 0.12364538912395651 -0.013105392423343061 0 0.13801378204512321 -0.0044740867696424066 0 0.12364538912395651 -0.013105392423343061 0 0.13801378204512321 -0.0044740867696424066 0 0.14134737690479909 -0.018296722210984231 0 0.12364538912395651 -0.013105392423343061 0 0.1330846993019191 -0.032439528125002642 0 0.12364538912395651 -0.013105392423343061 0 0.14134737690479909 -0.018296722210984231 0 0.1330846993019191 -0.032439528125002642 0 0.11869554604269721 -0.023669707467529801 0 0.12364538912395651 -0.013105392423343061 0 0.1330846993019191 -0.032439528125002642 0 0.14134737690479909 -0.018296722210984231 0 0.15677330279962129 -0.02998805749977489 0 0.1581495078418457 -0.0061234651867359997 0 0.14134737690479909 -0.018296722210984231 0 0.1330846993019191 -0.032439528125002642 0 0.15677330279962129 -0.02998805749977489 0 0.14252400947988181 -0.051773663826662208 0 0.16475020409286659 -0.052141498083087108 0 0.15677330279962129 -0.02998805749977489 0 0.1330846993019191 -0.032439528125002642 0 0.14252400947988181 -0.051773663826662208 0 0.15677330279962129 -0.02998805749977489 0 0.1330846993019191 -0.032439528125002642 0 0.12793195072969021 -0.046661603991712319 0 0.14252400947988181 -0.051773663826662208 0 0.11614498489507689 -0.033840795922921572 0 0.1330846993019191 -0.032439528125002642 0 0.12793195072969021 -0.046661603991712319 0 0.1330846993019191 -0.032439528125002642 0 0.14252400947988181 -0.051773663826662208 0 0.12793195072969021 -0.046661603991712319 0 0.13175859521543021 -0.059158336183592418 0 0.14252400947988181 -0.051773663826662208 0 0.11614746475614279 -0.056095695900382742 0 0.12793195072969021 -0.046661603991712319 0 0.13175859521543021 -0.059158336183592418 0 0.15196331965784229 -0.071107799528322801 0 0.14252400947988181 -0.051773663826662208 0 0.16475020409286659 -0.052141498083087108 0 0.15196331965784229 -0.071107799528322801 0 0.13175859521543021 -0.059158336183592418 0 0.14252400947988181 -0.051773663826662208 0 0.15196331965784229 -0.071107799528322801 0 0.14252400947988181 -0.051773663826662208 0 0.1788051212118828 -0.066198857284439083 0 0.16475020409286659 -0.052141498083087108 0 0.18976831647951639 -0.05030579994905978 0 0.16475020409286659 -0.052141498083087108 0 0.18055517669395801 -0.033338213873436648 0 0.18976831647951639 -0.05030579994905978 0 0.16475020409286659 -0.052141498083087108 0 0.18055517669395801 -0.033338213873436648 0 0.15677330279962129 -0.02998805749977489 0 0.15677330279962129 -0.02998805749977489 0 0.179066037949701 -0.014043485404871939 0 0.1581495078418457 -0.0061234651867359997 0 0.18055517669395801 -0.033338213873436648 0 0.15677330279962129 -0.02998805749977489 0 0.179066037949701 -0.014043485404871939 0 0.18478110282549029 0.0042166180743495223 0 0.179066037949701 -0.014043485404871939 0 0.1581495078418457 -0.0061234651867359997 0 0.18478110282549029 0.0042166180743495223 0 0.179066037949701 -0.014043485404871939 0 0.2047437083246624 -0.01368012143010814 0 0.18055517669395801 -0.033338213873436648 0 0.2047437083246624 -0.01368012143010814 0 0.207219719502202 -0.039973643412014599 0 0.18055517669395801 -0.033338213873436648 0 0.179066037949701 -0.014043485404871939 0 0.2047437083246624 -0.01368012143010814 0 0.2047437083246624 -0.01368012143010814 0 0.207219719502202 -0.039973643412014599 0 0.23011546842918931 -0.02484683738225776 0 0.18055517669395801 -0.033338213873436648 0 0.207219719502202 -0.039973643412014599 0 0.18976831647951639 -0.05030579994905978 0 0.207219719502202 -0.039973643412014599 0 0.18976831647951639 -0.05030579994905978 0 0.20564692276592311 -0.061289915040554803 0 0.1788051212118828 -0.066198857284439083 0 0.18976831647951639 -0.05030579994905978 0 0.20564692276592311 -0.061289915040554803 0 0.207219719502202 -0.039973643412014599 0 0.20564692276592311 -0.061289915040554803 0 0.23248872431996331 -0.056380972796670502 0 0.207219719502202 -0.039973643412014599 0 0.23248872431996331 -0.056380972796670502 0 0.23011546842918931 -0.02484683738225776 0 0.23248872431996331 -0.056380972796670502 0 0.24900823948062889 -0.034363300222288069 0 0.23011546842918931 -0.02484683738225776 0 0.20564692276592311 -0.061289915040554803 0 0.23248872431996331 -0.056380972796670502 0 0.25073443116223543 -0.064105873279468886 0 0.25365537509746539 -0.050099484109068428 0 0.23248872431996331 -0.056380972796670502 0 0.25365537509746539 -0.050099484109068428 0 0.23248872431996331 -0.056380972796670502 0 0.24900823948062889 -0.034363300222288069 0 0.25224907986928918 -0.004282503037371696 0 0.24900823948062889 -0.034363300222288069 0 0.23011546842918931 -0.02484683738225776 0 0.25224907986928918 -0.004282503037371696 0 0.23011546842918931 -0.02484683738225776 0 0.22767587784724139 -0.001729027059641961 0 0.2047437083246624 -0.01368012143010814 0 0.23011546842918931 -0.02484683738225776 0 0.22767587784724139 -0.001729027059641961 0 0.19909785644965869 -0.1124407769003834 0 0.20729848609265 -0.092919307400703158 0 0.22436019066367399 -0.1060611541978215 0 0.20729848609265 -0.092919307400703158 0 0.22448555651140981 -0.091326438572593066 0 0.22436019066367399 -0.1060611541978215 0 0.19909785644965869 -0.1124407769003834 0 0.22436019066367399 -0.1060611541978215 0 0.21153578518989061 -0.12807117233087531 0 0.1762756222311069 -0.1209056500395467 0 0.19909785644965869 -0.1124407769003834 0 0.19670852723780491 -0.13391013176343319 0 0.19909785644965869 -0.1124407769003834 0 0.21153578518989061 -0.12807117233087531 0 0.19670852723780491 -0.13391013176343319 0 0.184790682544486 -0.087669380283697307 0 0.19909785644965869 -0.1124407769003834 0 0.20729848609265 -0.092919307400703158 0 0.184790682544486 -0.087669380283697307 0 0.20564692276592311 -0.061289915040554803 0 0.20729848609265 -0.092919307400703158 0 0.20564692276592311 -0.061289915040554803 0 0.20729848609265 -0.092919307400703158 0 0.22149260972679821 -0.076898346852042873 0 0.1788051212118828 -0.066198857284439083 0 0.184790682544486 -0.087669380283697307 0 0.20564692276592311 -0.061289915040554803 0 0.1788051212118828 -0.066198857284439083 0 0.20564692276592311 -0.061289915040554803 0 0.20729848609265 -0.092919307400703158 0 0.22448555651140981 -0.091326438572593066 0 0.22149260972679821 -0.076898346852042873 0 0.22149260972679821 -0.076898346852042873 0 0.24123985224124961 -0.074257226044191355 0 0.23878168512702291 -0.088945225393297356 0 0.22448555651140981 -0.091326438572593066 0 0.22149260972679821 -0.076898346852042873 0 0.23878168512702291 -0.088945225393297356 0 0.23248872431996331 -0.056380972796670502 0 0.22149260972679821 -0.076898346852042873 0 0.24123985224124961 -0.074257226044191355 0 0.20564692276592311 -0.061289915040554803 0 0.23248872431996331 -0.056380972796670502 0 0.22149260972679821 -0.076898346852042873 0 0.25073443116223543 -0.064105873279468886 0 0.23248872431996331 -0.056380972796670502 0 0.24123985224124961 -0.074257226044191355 0 0.25230875027751692 -0.074521009261218005 0 0.25073443116223543 -0.064105873279468886 0 0.24123985224124961 -0.074257226044191355 0 0.25230875027751692 -0.074521009261218005 0 0.24123985224124961 -0.074257226044191355 0 0.2491286830161604 -0.08533139218327758 0 0.24123985224124961 -0.074257226044191355 0 0.23878168512702291 -0.088945225393297356 0 0.2491286830161604 -0.08533139218327758 0 0.23878168512702291 -0.088945225393297356 0 0.2491286830161604 -0.08533139218327758 0 0.24757665490382699 -0.095280823708961432 0 0.23973755099972779 -0.1020740388305237 0 0.22436019066367399 -0.1060611541978215 0 0.24187640099909399 -0.1157802675365063 0 0.25460912307471922 -0.1079661395208884 0 0.24757665490382699 -0.095280823708961432 0 0.23973755099972779 -0.1020740388305237 0 0.25460912307471922 -0.1079661395208884 0 0.23973755099972779 -0.1020740388305237 0 0.24187640099909399 -0.1157802675365063 0 0.23878168512702291 -0.088945225393297356 0 0.24757665490382699 -0.095280823708961432 0 0.23973755099972779 -0.1020740388305237 0 0.22448555651140981 -0.091326438572593066 0 0.23973755099972779 -0.1020740388305237 0 0.22436019066367399 -0.1060611541978215 0 0.22448555651140981 -0.091326438572593066 0 0.23878168512702291 -0.088945225393297356 0 0.23973755099972779 -0.1020740388305237 0 0.22436019066367399 -0.1060611541978215 0 0.22969429258711721 -0.12580032775196359 0 0.21153578518989061 -0.12807117233087531 0 0.22436019066367399 -0.1060611541978215 0 0.24187640099909399 -0.1157802675365063 0 0.22969429258711721 -0.12580032775196359 0 0.24187640099909399 -0.1157802675365063 0 0.24175700748349291 -0.12664897338878939 0 0.22969429258711721 -0.12580032775196359 0 0.25381727155527312 -0.11530888960249901 0 0.24187640099909399 -0.1157802675365063 0 0.24880922466885569 -0.122664717008275 0 0.24187640099909399 -0.1157802675365063 0 0.24880922466885569 -0.122664717008275 0 0.24175700748349291 -0.12664897338878939 0 0.25275135178836439 -0.12960470140332181 0 0.24880922466885569 -0.122664717008275 0 0.24175700748349291 -0.12664897338878939 0 0.25275135178836439 -0.12960470140332181 0 0.23907213117666329 -0.13755898481518231 0 0.24175700748349291 -0.12664897338878939 0 0.25275135178836439 -0.12960470140332181 0 0.25020245477452041 -0.14682414257693721 0 0.23907213117666329 -0.13755898481518231 0 0.25275135178836439 -0.12960470140332181 0 0.23907213117666329 -0.13755898481518231 0 0.23907213117666329 -0.13755898481518231 0 0.24175700748349291 -0.12664897338878939 0 0.22969429258711721 -0.12580032775196359 0 0.25020245477452041 -0.14682414257693721 0 0.23907213117666329 -0.13755898481518231 0 0.23586443755601039 -0.1544753877207769 0 0.25255911421028421 -0.16171640417641181 0 0.25020245477452041 -0.14682414257693721 0 0.23586443755601039 -0.1544753877207769 0 0.23586443755601039 -0.1544753877207769 0 0.21949838945202441 -0.1548345459820423 0 0.22389586516465559 -0.14034997462961071 0 0.23907213117666329 -0.13755898481518231 0 0.23586443755601039 -0.1544753877207769 0 0.22389586516465559 -0.14034997462961071 0 0.22969429258711721 -0.12580032775196359 0 0.22389586516465559 -0.14034997462961071 0 0.21153578518989061 -0.12807117233087531 0 0.23907213117666329 -0.13755898481518231 0 0.22969429258711721 -0.12580032775196359 0 0.22389586516465559 -0.14034997462961071 0 0.22389586516465559 -0.14034997462961071 0 0.21153578518989061 -0.12807117233087531 0 0.20914202487020039 -0.14424893825732871 0 0.21153578518989061 -0.12807117233087531 0 0.20914202487020039 -0.14424893825732871 0 0.19670852723780491 -0.13391013176343319 0 0.21949838945202441 -0.1548345459820423 0 0.22389586516465559 -0.14034997462961071 0 0.20914202487020039 -0.14424893825732871 0 0.21949838945202441 -0.1548345459820423 0 0.20914202487020039 -0.14424893825732871 0 0.20689068791753659 -0.15643271231597741 0 0.20914202487020039 -0.14424893825732871 0 0.19565364460650331 -0.1524848272504106 0 0.20689068791753659 -0.15643271231597741 0 0.18843177351773849 -0.145804575295159 0 0.19776144045149821 -0.16491413342470621 0 0.19565364460650331 -0.1524848272504106 0 0.18843177351773849 -0.145804575295159 0 0.19776144045149821 -0.16491413342470621 0 0.20914202487020039 -0.14424893825732871 0 0.19565364460650331 -0.1524848272504106 0 0.19670852723780491 -0.13391013176343319 0 0.19565364460650331 -0.1524848272504106 0 0.18843177351773849 -0.145804575295159 0 0.19670852723780491 -0.13391013176343319 0 0.19565364460650331 -0.1524848272504106 0 0.18843177351773849 -0.145804575295159 0 0.19776144045149821 -0.16491413342470621 0 0.20709110738525779 -0.18402369155425341 0 0.19776144045149821 -0.16491413342470621 0 0.20709110738525779 -0.18402369155425341 0 0.17986623869655199 -0.1839913670752063 0 0.20709110738525779 -0.18402369155425341 0 0.17986623869655199 -0.1839913670752063 0 0.18843177351773849 -0.145804575295159 0 0.19776144045149821 -0.16491413342470621 0 0.17884487140284999 -0.16313333598301699 0 0.19565364460650331 -0.1524848272504106 0 0.19776144045149821 -0.16491413342470621 0 0.20689068791753659 -0.15643271231597741 0 0.19776144045149821 -0.16491413342470621 0 0.21239794020745639 -0.16568111666539939 0 0.21179331699731971 -0.17464816031738681 0 0.19776144045149821 -0.16491413342470621 0 0.20689068791753659 -0.15643271231597741 0 0.21239794020745639 -0.16568111666539939 0 0.21949838945202441 -0.1548345459820423 0 0.20689068791753659 -0.15643271231597741 0 0.21239794020745639 -0.16568111666539939 0 0.21949838945202441 -0.1548345459820423 0 0.21239794020745639 -0.16568111666539939 0 0.22225572901029261 -0.16828383871029931 0 0.21239794020745639 -0.16568111666539939 0 0.21179331699731971 -0.17464816031738681 0 0.22225572901029261 -0.16828383871029931 0 0.19776144045149821 -0.16491413342470621 0 0.21179331699731971 -0.17464816031738681 0 0.20709110738525779 -0.18402369155425341 0 0.21179331699731971 -0.17464816031738681 0 0.21797054877775651 -0.18403660887184661 0 0.22225572901029261 -0.16828383871029931 0 0.20709110738525779 -0.18402369155425341 0 0.20970232696163191 -0.1893721410367476 0 0.20709110738525779 -0.18402369155425341 0 0.21797054877775651 -0.18403660887184661 0 0.20970232696163191 -0.1893721410367476 0 0.21179331699731971 -0.17464816031738681 0 0.20709110738525779 -0.18402369155425341 0 0.21797054877775651 -0.18403660887184661 0 0.21797054877775651 -0.18403660887184661 0 0.20970232696163191 -0.1893721410367476 0 0.20709110738525779 -0.18402369155425341 0 0.21797054877775651 -0.18403660887184661 0 0.21797054877775651 -0.18403660887184661 0 0.22263897976957611 -0.18404215176726191 0 0.21987041318054229 -0.189405873322955 0 0.21797054877775651 -0.18403660887184661 0 0.22263897976957611 -0.18404215176726191 0 0.23526483149401969 -0.1728765065241282 0 0.21797054877775651 -0.18403660887184661 0 0.22225572901029261 -0.16828383871029931 0 0.23526483149401969 -0.1728765065241282 0 0.21797054877775651 -0.18403660887184661 0 0.23526483149401969 -0.1728765065241282 0 0.21797054877775651 -0.18403660887184661 0 0.22263897976957611 -0.18404215176726191 0 0.22263897976957611 -0.18404215176726191 0 0.23249347126983069 -0.18548576588856169 0 0.2269656320849959 -0.19214253827107339 0 0.22263897976957611 -0.18404215176726191 0 0.23249347126983069 -0.18548576588856169 0 0.23526483149401969 -0.1728765065241282 0 0.23586443755601039 -0.1544753877207769 0 0.22225572901029261 -0.16828383871029931 0 0.23526483149401969 -0.1728765065241282 0 0.23586443755601039 -0.1544753877207769 0 0.21949838945202441 -0.1548345459820423 0 0.22225572901029261 -0.16828383871029931 0 0.25255911421028421 -0.16171640417641181 0 0.23586443755601039 -0.1544753877207769 0 0.23526483149401969 -0.1728765065241282 0 0.25289684666260293 -0.17763593045602541 0 0.25255911421028421 -0.16171640417641181 0 0.23526483149401969 -0.1728765065241282 0 0.25255911421028421 -0.16171640417641181 0 0.23526483149401969 -0.1728765065241282 0 0.25289684666260293 -0.17763593045602541 0 0.23526483149401969 -0.1728765065241282 0 0.2436416827555791 -0.18708054626310039 0 0.23249347126983069 -0.18548576588856169 0 0.23526483149401969 -0.1728765065241282 0 0.2436416827555791 -0.18708054626310039 0 0.25898222028543172 -0.1920392038074645 0 0.2436416827555791 -0.18708054626310039 0 0.2449176157384754 -0.20037723063933571 0 0.2436416827555791 -0.18708054626310039 0 0.23532845288055529 -0.19289689999799339 0 0.2449176157384754 -0.20037723063933571 0 0.23249347126983069 -0.18548576588856169 0 0.2436416827555791 -0.18708054626310039 0 0.23532845288055529 -0.19289689999799339 0 0.23532845288055529 -0.19289689999799339 0 0.2449176157384754 -0.20037723063933571 0 0.2314025620108614 -0.20151603580961869 0 0.2596801777785484 -0.21286766494136891 0 0.2449176157384754 -0.20037723063933571 0 0.23985842826464671 -0.21599547639803601 0 0.2449176157384754 -0.20037723063933571 0 0.23985842826464671 -0.21599547639803601 0 0.2314025620108614 -0.20151603580961869 0 0.23985842826464671 -0.21599547639803601 0 0.2201260601814925 -0.21072262839134309 0 0.2314025620108614 -0.20151603580961869 0 0.221219182915003 -0.196961441159931 0 0.2269656320849959 -0.19214253827107339 0 0.2314025620108614 -0.20151603580961869 0 0.2201260601814925 -0.21072262839134309 0 0.221219182915003 -0.196961441159931 0 0.2314025620108614 -0.20151603580961869 0 0.22263897976957611 -0.18404215176726191 0 0.21987041318054229 -0.189405873322955 0 0.2269656320849959 -0.19214253827107339 0 0.221219182915003 -0.196961441159931 0 0.21987041318054229 -0.189405873322955 0 0.2269656320849959 -0.19214253827107339 0 0.23249347126983069 -0.18548576588856169 0 0.23532845288055529 -0.19289689999799339 0 0.2269656320849959 -0.19214253827107339 0 0.23532845288055529 -0.19289689999799339 0 0.2269656320849959 -0.19214253827107339 0 0.2314025620108614 -0.20151603580961869 0 0.2409735266212148 -0.25342360310053352 0 0.23054979340135359 -0.2320731157459382 0 0.2409735266212148 -0.25342360310053352 0 0.2439690038215078 -0.23687255988838279 0 0.23054979340135359 -0.2320731157459382 0 0.25674455389328549 -0.2441941701779505 0 0.2409735266212148 -0.25342360310053352 0 0.2439690038215078 -0.23687255988838279 0 0.25332741694679661 -0.2282976981265426 0 0.23985842826464671 -0.21599547639803601 0 0.2439690038215078 -0.23687255988838279 0 0.23985842826464671 -0.21599547639803601 0 0.2439690038215078 -0.23687255988838279 0 0.23054979340135359 -0.2320731157459382 0 0.2201260601814925 -0.21072262839134309 0 0.23054979340135359 -0.2320731157459382 0 0.21409320921820069 -0.22981806737782071 0 0.23985842826464671 -0.21599547639803601 0 0.2201260601814925 -0.21072262839134309 0 0.23054979340135359 -0.2320731157459382 0 0.2201260601814925 -0.21072262839134309 0 0.23054979340135359 -0.2320731157459382 0 0.2409735266212148 -0.25342360310053352 0 0.23054979340135359 -0.2320731157459382 0 0.22414257127257381 -0.24504945416881391 0 0.23054979340135359 -0.2320731157459382 0 0.22414257127257381 -0.24504945416881391 0 0.21409320921820069 -0.22981806737782071 0 0.20889337073700451 -0.24991534030461371 0 0.21409320921820069 -0.22981806737782071 0 0.19716870243514381 -0.22855518766927571 0 0.22414257127257381 -0.24504945416881391 0 0.20889337073700451 -0.24991534030461371 0 0.21409320921820069 -0.22981806737782071 0 0.21409320921820069 -0.22981806737782071 0 0.19716870243514381 -0.22855518766927571 0 0.2036787572816364 -0.21259267798693959 0 0.19716870243514381 -0.22855518766927571 0 0.2036787572816364 -0.21259267798693959 0 0.18901886283383521 -0.21610238324740341 0 0.19716870243514381 -0.22855518766927571 0 0.18901886283383521 -0.21610238324740341 0 0.176352113831858 -0.23355860345497231 0 0.1877149783444681 -0.25109313309015618 0 0.20889337073700451 -0.24991534030461371 0 0.19716870243514381 -0.22855518766927571 0 0.2201260601814925 -0.21072262839134309 0 0.20970232696163191 -0.1893721410367476 0 0.2201260601814925 -0.21072262839134309 0 0.221219182915003 -0.196961441159931 0 0.20970232696163191 -0.1893721410367476 0 0.221219182915003 -0.196961441159931 0 0.21987041318054229 -0.189405873322955 0 0.20970232696163191 -0.1893721410367476 0 0.21797054877775651 -0.18403660887184661 0 0.21987041318054229 -0.189405873322955 0 0.20970232696163191 -0.1893721410367476 0 0.2201260601814925 -0.21072262839134309 0 0.20970232696163191 -0.1893721410367476 0 0.2036787572816364 -0.21259267798693959 0 0.2201260601814925 -0.21072262839134309 0 0.21409320921820069 -0.22981806737782071 0 0.2036787572816364 -0.21259267798693959 0 0.2036787572816364 -0.21259267798693959 0 0.18901886283383521 -0.21610238324740341 0 0.192151184469427 -0.20069799650851891 0 0.20709110738525779 -0.18402369155425341 0 0.192151184469427 -0.20069799650851891 0 0.17986623869655199 -0.1839913670752063 0 0.20970232696163191 -0.1893721410367476 0 0.2036787572816364 -0.21259267798693959 0 0.192151184469427 -0.20069799650851891 0 0.20970232696163191 -0.1893721410367476 0 0.192151184469427 -0.20069799650851891 0 0.20709110738525779 -0.18402369155425341 0 0.20970232696163191 -0.1893721410367476 0 0.192151184469427 -0.20069799650851891 0 0.192151184469427 -0.20069799650851891 0 0.17460004197722201 -0.21202385198029011 0 0.16686705343525959 -0.196060231226521 0 0.192151184469427 -0.20069799650851891 0 0.16686705343525959 -0.196060231226521 0 0.17986623869655199 -0.1839913670752063 0 0.18901886283383521 -0.21610238324740341 0 0.192151184469427 -0.20069799650851891 0 0.17460004197722201 -0.21202385198029011 0 0.192151184469427 -0.20069799650851891 0 0.17460004197722201 -0.21202385198029011 0 0.17460004197722201 -0.21202385198029011 0 0.15201352036679039 -0.22874326676849671 0 0.15260670302918281 -0.20660910347222541 0 0.17460004197722201 -0.21202385198029011 0 0.16686705343525959 -0.196060231226521 0 0.15260670302918281 -0.20660910347222541 0 0.16686705343525959 -0.196060231226521 0 0.15260670302918281 -0.20660910347222541 0 0.15264137000784619 -0.18395904259615911 0 0.16686705343525959 -0.196060231226521 0 0.15264137000784619 -0.18395904259615911 0 0.17986623869655199 -0.1839913670752063 0 0.1877149783444681 -0.25109313309015618 0 0.19716870243514381 -0.22855518766927571 0 0.176352113831858 -0.23355860345497231 0 0.1877149783444681 -0.25109313309015618 0 0.17120936215439389 -0.25479219535236952 0 0.176352113831858 -0.23355860345497231 0 0.18901886283383521 -0.21610238324740341 0 0.17460004197722201 -0.21202385198029011 0 0.176352113831858 -0.23355860345497231 0 0.17460004197722201 -0.21202385198029011 0 0.176352113831858 -0.23355860345497231 0 0.15201352036679039 -0.22874326676849671 0 0.17120936215439389 -0.25479219535236952 0 0.176352113831858 -0.23355860345497231 0 0.16044476237192989 -0.24370211007817361 0 0.176352113831858 -0.23355860345497231 0 0.16044476237192989 -0.24370211007817361 0 0.15201352036679039 -0.22874326676849671 0 0.16044476237192989 -0.24370211007817361 0 0.14393055568318941 -0.24807568983306799 0 0.15201352036679039 -0.22874326676849671 0 0.15751579101645269 -0.25684935574075729 0 0.16044476237192989 -0.24370211007817361 0 0.14393055568318941 -0.24807568983306799 0 0.15201352036679039 -0.22874326676849671 0 0.12524651732505679 -0.23599858585566369 0 0.12533150932209791 -0.20996265198638769 0 0.12524651732505679 -0.23599858585566369 0 0.12533150932209791 -0.20996265198638769 0 0.1241996852211366 -0.25790584062349681 0 0.14393055568318941 -0.24807568983306799 0 0.12524651732505679 -0.23599858585566369 0 0.14393055568318941 -0.24807568983306799 0 0.15201352036679039 -0.22874326676849671 0 0.12524651732505679 -0.23599858585566369 0 0.15260670302918281 -0.20660910347222541 0 0.13757957906800439 -0.1969845290647608 0 0.15264137000784619 -0.18395904259615911 0 0.15201352036679039 -0.22874326676849671 0 0.15260670302918281 -0.20660910347222541 0 0.12533150932209791 -0.20996265198638769 0 0.15260670302918281 -0.20660910347222541 0 0.12533150932209791 -0.20996265198638769 0 0.13757957906800439 -0.1969845290647608 0 0.12533150932209791 -0.20996265198638769 0 0.12541650131914051 -0.18392671811711181 0 0.12533150932209791 -0.20996265198638769 0 0.13757957906800439 -0.1969845290647608 0 0.12541650131914051 -0.18392671811711181 0 0.13757957906800439 -0.1969845290647608 0 0.12541650131914051 -0.18392671811711181 0 0.15264137000784619 -0.18395904259615911 0 0.12541650131914051 -0.18392671811711181 0 0.15264137000784619 -0.18395904259615911 0 0.1432431481819216 -0.1685423474484101 0 0.12541650131914051 -0.18392671811711181 0 0.1432431481819216 -0.1685423474484101 0 0.12547573717521451 -0.16578076455489629 0 0.12541650131914051 -0.18392671811711181 0 0.12547573717521451 -0.16578076455489629 0 0.12541650131914051 -0.18392671811711181 0 0.15264137000784619 -0.18395904259615911 0 0.15264137000784619 -0.18395904259615911 0 0.1432431481819216 -0.1685423474484101 0 0.1633862545600675 -0.1688275321078137 0 0.1524333784636657 -0.1580193310102114 0 0.1432431481819216 -0.1685423474484101 0 0.1633862545600675 -0.1688275321078137 0 0.1524333784636657 -0.1580193310102114 0 0.1432431481819216 -0.1685423474484101 0 0.14330158511438429 -0.15895415666654489 0 0.1432431481819216 -0.1685423474484101 0 0.14330158511438429 -0.15895415666654489 0 0.1355349112605479 -0.1596756166411554 0 0.1432431481819216 -0.1685423474484101 0 0.1355349112605479 -0.1596756166411554 0 0.12547573717521451 -0.16578076455489629 0 0.12547573717521451 -0.16578076455489629 0 0.12553497303128919 -0.14763481099268089 0 0.1355349112605479 -0.1596756166411554 0 0.12547573717521451 -0.16578076455489629 0 0.12553497303128919 -0.14763481099268089 0 0.14330158511438429 -0.15895415666654489 0 0.1355349112605479 -0.1596756166411554 0 0.14087090259772389 -0.14939111101714361 0 0.12553497303128919 -0.14763481099268089 0 0.14087090259772389 -0.14939111101714361 0 0.1355349112605479 -0.1596756166411554 0 0.12553497303128919 -0.14763481099268089 0 0.14087090259772389 -0.14939111101714361 0 0.12562544935498551 -0.119918841695805 0 0.13329341413820331 -0.12079699170803621 0 0.12553497303128919 -0.14763481099268089 0 0.13329341413820331 -0.12079699170803621 0 0.12553497303128919 -0.14763481099268089 0 0.14087090259772389 -0.14939111101714361 0 0.13329341413820331 -0.12079699170803621 0 0.14087090259772389 -0.14939111101714361 0 0.12562544935498551 -0.119918841695805 0 0.12553497303128919 -0.14763481099268089 0 0.13329341413820331 -0.12079699170803621 0 0.15317075581650019 -0.13456528180322411 0 0.14087090259772389 -0.14939111101714361 0 0.1524333784636657 -0.1580193310102114 0 0.14087090259772389 -0.14939111101714361 0 0.16477864978839429 -0.15212907201219969 0 0.15317075581650019 -0.13456528180322411 0 0.14087090259772389 -0.14939111101714361 0 0.16477864978839429 -0.15212907201219969 0 0.14087090259772389 -0.14939111101714361 0 0.16477864978839429 -0.15212907201219969 0 0.1524333784636657 -0.1580193310102114 0 0.14330158511438429 -0.15895415666654489 0 0.14087090259772389 -0.14939111101714361 0 0.15317075581650019 -0.13456528180322411 0 0.16477864978839429 -0.15212907201219969 0 0.1655552467059774 -0.14015889629968201 0 0.15562538676663459 -0.1154585712547703 0 0.15317075581650019 -0.13456528180322411 0 0.17202858014218661 -0.1306315732749645 0 0.15317075581650019 -0.13456528180322411 0 0.1655552467059774 -0.14015889629968201 0 0.17202858014218661 -0.1306315732749645 0 0.1762756222311069 -0.1209056500395467 0 0.18843177351773849 -0.145804575295159 0 0.18843177351773849 -0.145804575295159 0 0.17202858014218661 -0.1306315732749645 0 0.1762756222311069 -0.1209056500395467 0 0.18843177351773849 -0.145804575295159 0 0.19670852723780491 -0.13391013176343319 0 0.18843177351773849 -0.145804575295159 0 0.1655552467059774 -0.14015889629968201 0 0.17202858014218661 -0.1306315732749645 0 0.1762756222311069 -0.1209056500395467 0 0.18843177351773849 -0.145804575295159 0 0.17202858014218661 -0.1306315732749645 0 0.18843177351773849 -0.145804575295159 0 0.16477864978839429 -0.15212907201219969 0 0.17884487140284999 -0.16313333598301699 0 0.18843177351773849 -0.145804575295159 0 0.16477864978839429 -0.15212907201219969 0 0.1655552467059774 -0.14015889629968201 0 0.19776144045149821 -0.16491413342470621 0 0.17884487140284999 -0.16313333598301699 0 0.17986623869655199 -0.1839913670752063 0 0.17884487140284999 -0.16313333598301699 0 0.17986623869655199 -0.1839913670752063 0 0.1633862545600675 -0.1688275321078137 0 0.15264137000784619 -0.18395904259615911 0 0.17986623869655199 -0.1839913670752063 0 0.1633862545600675 -0.1688275321078137 0 0.15264137000784619 -0.18395904259615911 0 0.17986623869655199 -0.1839913670752063 0 0.16477864978839429 -0.15212907201219969 0 0.17884487140284999 -0.16313333598301699 0 0.1633862545600675 -0.1688275321078137 0 0.1524333784636657 -0.1580193310102114 0 0.16477864978839429 -0.15212907201219969 0 0.1633862545600675 -0.1688275321078137 0 
</DataArray>
</Points>
<Cells>
<DataArray type="UInt32" Name="connectivity" format="ascii">
0 1 2 3 4 5 6 7 8 9 10 11 12 13 14 15 16 17 18 19 20 21 22 23 24 25 26 27 28 29 30 31 32 33 34 35 36 37 38 39 40 41 42 43 44 45 46 47 48 49 50 51 52 53 54 55 56 57 58 59 60 61 62 63 64 65 66 67 68 69 70 71 72 73 74 75 76 77 78 79 80 81 82 83 84 85 86 87 88 89 90 91 92 93 94 95 96 97 98 99 100 101 102 103 104 105 106 107 108 109 110 111 112 113 114 115 116 117 118 119 120 121 122 123 124 125 126 127 128 129 130 131 132 133 134 135 136 137 138 139 140 141 142 143 144 145 146 147 148 149 150 151 152 153 154 155 156 157 158 159 160 161 162 163 164 165 166 167 168 169 170 171 172 173 174 175 176 177 178 179 180 181 182 183 184 185 186 187 188 189 190 191 192 193 194 195 196 197 198 199 200 201 202 203 204 205 206 207 208 209 210 211 212 213 214 215 216 217 218 219 220 221 222 223 224 225 226 227 228 229 230 231 232 233 234 235 236 237 238 239 240 241 242 243 244 245 246 247 248 249 250 251 252 253 254 255 256 257 258 259 260 261 262 263 264 265 266 267 268 269 270 271 272 273 274 275 276 277 278 279 280 281 282 283 284 285 286 287 288 289 290 291 292 293 294 295 296 297 298 299 300 301 302 303 304 305 306 307 308 309 310 311 312 313 314 315 316 317 318 319 320 321 322 323 324 325 326 327 328 329 330 331 332 333 334 335 336 337 338 339 340 341 342 343 344 345 346 347 348 349 350 351 352 353 354 355 356 357 358 359 360 361 362 363 364 365 366 367 368 369 370 371 372 373 374 375 376 377 378 379 380 381 382 383 384 385 386 387 388 389 390 391 392 393 394 395 396 397 398 399 400 401 402 403 404 405 406 407 408 409 410 411 412 413 414 415 416 417 418 419 420 421 422 423 424 425 426 427 428 429 430 431 432 433 434 435 436 437 438 439 440 441 442 443 444 445 446 447 448 449 450 451 452 453 454 455 456 457 458 459 460 461 462 463 464 465 466 467 468 469 470 471 472 473 474 475 476 477 478 479 480 481 482 483 484 485 486 487 488 489 490 491 492 493 494 495 496 497 498 499 500 501 502 503 504 505 506 507 508 509 510 511 512 513 514 515 516 517 518 519 520 521 522 523 524 525 526 527 528 529 530 531 532 533 534 535 536 537 538 539 540 541 542 543 544 545 546 547 548 549 550 551 552 553 554 555 556 557 558 559 560 561 562 563 564 565 566 567 568 569 570 571 572 573 574 575 576 577 578 579 580 581 582 583 584 585 586 587 588 589 590 591 592 593 594 595 596 597 598 599 600 601 602 603 604 605 606 607 608 609 610 611 612 613 614 615 616 617 618 619 620 621 622 623 624 625 626 627 628 629 630 631 632 633 634 635 636 637 638 639 640 641 642 643 644 645 646 647 648 649 650 651 652 653 654 655 656 657 658 659 660 661 662 663 664 665 666 667 668 669 670 671 672 673 674 675 676 677 678 679 680 681 682 683 684 685 686 687 688 689 690 691 692 693 694 695 696 697 698 699 700 701 702 703 704 705 706 707 708 709 710 711 712 713 714 715 716 717 718 719 720 721 722 723 724 725 726 727 728 729 730 731 732 733 734 735 736 737 738 739 740 741 742 743 744 745 746 747 748 749 750 751 752 753 754 755 756 757 758 759 760 761 762 763 764 765 766 767 768 769 770 771 772 773 774 775 776 777 778 779 780 781 782 783 784 785 786 787 788 789 790 791 792 793 794 795 796 797 798 799 800 801 802 803 804 805 806 807 808 809 810 811 812 813 814 815 816 817 818 819 820 821 822 823 824 825 826 827 828 829 830 831 832 833 834 835 836 837 838 839 840 841 842 843 844 845 846 847 848 849 850 851 852 853 854 855 856 857 858 859 860 861 862 863 864 865 866 867 868 869 870 871 872 873 874 875 876 877 878 879 880 881 882 883 884 885 886 887 888 889 890 891 892 893 894 895 896 897 898 899 900 901 902 903 904 905 906 907 908 909 910 911 912 913 914 915 916 917 918 919 920 921 922 923 924 925 926 927 928 929 930 931 932 933 934 935 936 937 938 939 940 941 942 943 944 945 946 947 948 949 950 951 952 953 954 955 956 957 958 959 960 961 962 963 964 965 966 967 968 969 970 971 972 973 974 975 976 977 978 979 980 981 982 983 984 985 986 987 988 989 990 991 992 993 994 995 996 997 998 999 1000 1001 1002 1003 1004 1005 1006 1007 1008 1009 1010 1011 1012 1013 1014 1015 1016 1017 1018 1019 1020 1021 1022 1023 1024 1025 1026 1027 1028 1029 1030 1031 1032 1033 1034 1035 1036 1037 1038 1039 1040 1041 1042 1043 1044 1045 1046 1047 1048 1049 1050 1051 1052 1053 1054 1055 1056 1057 1058 1059 1060 1061 1062 1063 1064 1065 1066 1067 1068 1069 1070 1071 1072 1073 1074 1075 1076 1077 1078 1079 1080 1081 1082 1083 1084 1085 1086 1087 1088 1089 1090 1091 1092 1093 1094 1095 1096 1097 1098 1099 1100 1101 1102 1103 1104 1105 1106 1107 1108 1109 1110 1111 1112 1113 1114 1115 1116 1117 1118 1119 1120 1121 1122 1123 1124 1125 1126 1127 1128 1129 1130 1131 1132 1133 1134 1135 1136 1137 1138 1139 1140 1141 1142 1143 1144 1145 1146 1147 1148 1149 1150 1151 1152 1153 1154 1155 1156 1157 1158 1159 1160 1161 1162 1163 1164 1165 1166 1167 1168 1169 1170 1171 1172 1173 1174 1175 1176 1177 1178 1179 1180 1181 1182 1183 1184 1185 1186 1187 1188 1189 1190 1191 1192 1193 1194 1195 1196 1197 1198 1199 1200 1201 1202 1203 1204 1205 1206 1207 1208 1209 1210 1211 1212 1213 1214 1215 1216 1217 1218 1219 1220 1221 1222 1223 1224 1225 1226 1227 1228 1229 1230 1231 1232 1233 1234 1235 1236 1237 1238 1239 1240 1241 1242 1243 1244 1245 1246 1247 1248 1249 1250 1251 1252 1253 1254 1255 1256 1257 1258 1259 1260 1261 1262 1263 1264 1265 1266 1267 1268 1269 1270 1271 1272 1273 1274 1275 1276 1277 1278 1279 1280 1281 1282 1283 1284 1285 1286 1287 1288 1289 1290 1291 1292 1293 1294 1295 1296 1297 1298 1299 1300 1301 1302 1303 1304 1305 1306 1307 1308 1309 1310 1311 1312 1313 1314 1315 1316 1317 1318 1319 1320 1321 1322 1323 1324 1325 1326 1327 1328 1329 1330 1331 1332 1333 1334 1335 1336 1337 1338 1339 1340 1341 1342 1343 1344 1345 1346 1347 1348 1349 1350 1351 1352 1353 1354 1355 1356 1357 1358 1359 1360 1361 1362 1363 1364 1365 1366 1367 1368 1369 1370 1371 1372 1373 1374 1375 1376 1377 1378 1379 1380 1381 1382 1383 1384 1385 1386 1387 1388 1389 1390 1391 1392 1393 1394 1395 1396 1397 1398 1399 1400 1401 1402 1403 1404 1405 1406 1407 1408 1409 1410 1411 1412 1413 1414 1415 1416 1417 1418 1419 1420 1421 1422 1423 1424 1425 1426 1427 1428 1429 1430 1431 1432 1433 1434 1435 1436 1437 1438 1439 1440 1441 1442 1443 1444 1445 1446 1447 1448 1449 1450 1451 1452 1453 1454 1455 1456 1457 1458 1459 1460 1461 1462 1463 1464 1465 1466 1467 1468 1469 1470 1471 1472 1473 1474 1475 1476 1477 1478 1479 1480 1481 1482 1483 1484 1485 1486 1487 1488 1489 1490 1491 1492 1493 1494 1495 1496 1497 1498 1499 1500 1501 1502 1503 1504 1505 1506 1507 1508 1509 1510 1511 1512 1513 1514 1515 1516 1517 1518 1519 1520 1521 1522 1523 1524 1525 1526 1527 1528 1529 1530 1531 1532 1533 1534 1535 1536 1537 1538 1539 1540 1541 1542 1543 1544 1545 1546 1547 1548 1549 1550 1551 1552 1553 1554 1555 1556 1557 1558 1559 1560 1561 1562 1563 1564 1565 1566 1567 1568 1569 1570 1571 1572 1573 1574 1575 1576 1577 1578 1579 1580 1581 1582 1583 1584 1585 1586 1587 1588 1589 1590 1591 1592 1593 1594 1595 1596 1597 1598 1599 1600 1601 1602 1603 1604 1605 1606 1607 1608 1609 1610 1611 1612 1613 1614 1615 1616 1617 1618 1619 1620 1621 1622 1623 1624 1625 1626 1627 1628 1629 1630 1631 1632 1633 1634 1635 1636 1637 1638 1639 1640 1641 1642 1643 1644 1645 1646 1647 1648 1649 1650 1651 1652 1653 1654 1655 1656 1657 1658 1659 1660 1661 1662 1663 1664 1665 1666 1667 1668 1669 1670 1671 1672 1673 1674 1675 1676 1677 1678 1679 1680 1681 1682 1683 1684 1685 1686 1687 1688 1689 1690 1691 1692 1693 1694 1695 1696 1697 1698 1699 1700 1701 1702 1703 1704 1705 1706 1707 1708 1709 1710 1711 1712 1713 1714 1715 1716 1717 1718 1719 1720 1721 1722 1723 1724 1725 1726 1727 1728 1729 1730 1731 1732 1733 1734 1735 1736 1737 1738 1739 1740 1741 1742 1743 1744 1745 1746 1747 1748 1749 1750 1751 1752 1753 1754 1755 1756 1757 1758 1759 1760 1761 1762 1763 1764 1765 1766 1767 1768 1769 1770 1771 1772 1773 1774 1775 1776 1777 1778 1779 1780 1781 1782 1783 1784 1785 1786 1787 1788 1789 1790 1791 1792 1793 1794 1795 1796 1797 1798 1799 1800 1801 1802 1803 1804 1805 1806 1807 1808 1809 1810 1811 1812 1813 1814 1815 1816 1817 1818 1819 1820 1821 1822 1823 1824 1825 1826 1827 1828 1829 1830 1831 1832 1833 1834 1835 1836 1837 1838 1839 1840 1841 1842 1843 1844 1845 1846 1847 1848 1849 1850 1851 1852 1853 1854 1855 1856 1857 1858 1859 1860 1861 1862 1863 1864 1865 1866 1867 1868 1869 1870 1871 1872 1873 1874 1875 1876 1877 1878 1879 1880 1881 1882 1883 1884 1885 1886 1887 1888 1889 1890 1891 1892 1893 1894 1895 1896 1897 1898 1899 1900 1901 1902 1903 1904 1905 1906 1907 1908 1909 1910 1911 1912 1913 1914 1915 1916 1917 1918 1919 1920 1921 1922 1923 1924 1925 1926 1927 1928 1929 1930 1931 1932 1933 1934 1935 1936 1937 1938 1939 1940 1941 1942 1943 1944 1945 1946 1947 1948 1949 1950 1951 1952 1953 1954 1955 1956 1957 1958 1959 1960 1961 1962 1963 1964 1965 1966 1967 1968 1969 1970 1971 1972 1973 1974 1975 1976 1977 1978 1979 1980 1981 1982 1983 1984 1985 1986 1987 1988 1989 1990 1991 1992 1993 1994 1995 1996 1997 1998 1999 2000 2001 2002 2003 2004 2005 2006 2007 2008 2009 2010 2011 2012 2013 2014 2015 2016 2017 2018 2019 2020 2021 2022 2023 2024 2025 2026 2027 2028 2029 2030 2031 2032 2033 2034 2035 2036 2037 2038 2039 2040 2041 2042 2043 2044 2045 2046 2047 2048 2049 2050 2051 2052 2053 2054 2055 2056 2057 2058 2059 2060 2061 2062 2063 2064 2065 2066 2067 2068 2069 2070 2071 2072 2073 2074 2075 2076 2077 2078 2079 2080 2081 2082 2083 2084 2085 2086 2087 2088 2089 2090 2091 2092 2093 2094 2095 2096 2097 2098 2099 2100 2101 2102 2103 2104 2105 2106 2107 2108 2109 2110 2111 2112 2113 2114 2115 2116 2117 2118 2119 2120 2121 2122 2123 2124 2125 2126 2127 2128 2129 2130 2131 2132 2133 2134 2135 2136 2137 2138 2139 2140 2141 2142 2143 2144 2145 2146 2147 2148 2149 2150 2151 2152 2153 2154 2155 2156 2157 2158 2159 2160 2161 2162 2163 2164 2165 2166 2167 2168 2169 2170 2171 2172 2173 2174 2175 2176 2177 2178 2179 2180 2181 2182 2183 2184 2185 2186 2187 2188 2189 2190 2191 2192 2193 2194 2195 2196 2197 2198 2199 2200 2201 2202 2203 2204 2205 2206 2207 2208 2209 2210 2211 2212 2213 2214 2215 2216 2217 2218 2219 2220 2221 2222 2223 2224 2225 2226 2227 2228 2229 2230 2231 2232 2233 2234 2235 2236 2237 2238 2239 2240 2241 2242 2243 2244 2245 2246 2247 2248 2249 2250 2251 2252 2253 2254 2255 2256 2257 2258 2259 2260 2261 2262 2263 2264 2265 2266 2267 2268 2269 2270 2271 2272 2273 2274 2275 2276 2277 2278 2279 2280 2281 2282 2283 2284 2285 2286 2287 2288 2289 2290 2291 2292 2293 2294 2295 2296 2297 2298 2299 2300 2301 2302 2303 2304 2305 2306 2307 2308 2309 2310 2311 2312 2313 2314 2315 2316 2317 2318 2319 2320 2321 2322 2323 2324 2325 2326 2327 2328 2329 2330 2331 2332 2333 2334 2335 2336 2337 2338 2339 2340 2341 2342 2343 2344 2345 2346 2347 2348 2349 2350 2351 2352 2353 2354 2355 2356 2357 2358 2359 2360 2361 2362 2363 2364 2365 2366 2367 2368 2369 2370 2371 2372 2373 2374 2375 2376 2377 2378 2379 2380 2381 2382 2383 2384 2385 2386 2387 2388 2389 2390 2391 2392 2393 2394 2395 2396 2397 2398 2399 2400 2401 2402 2403 2404 2405 2406 2407 2408 2409 2410 2411 2412 2413 2414 2415 2416 2417 2418 2419 2420 2421 2422 2423 2424 2425 2426 2427 2428 2429 2430 2431 2432 2433 2434 2435 2436 2437 2438 2439 2440 2441 2442 2443 2444 2445 2446 2447 2448 2449 2450 2451 2452 2453 2454 2455 2456 2457 2458 2459 2460 2461 2462 2463 2464 2465 2466 2467 2468 2469 2470 2471 2472 2473 2474 2475 2476 2477 2478 2479 2480 2481 2482 2483 2484 2485 2486 2487 2488 2489 2490 2491 2492 2493 2494 2495 2496 2497 2498 2499 2500 2501 2502 2503 2504 2505 2506 2507 2508 2509 2510 2511 2512 2513 2514 2515 2516 2517 2518 2519 2520 2521 2522 2523 2524 2525 2526 2527 2528 2529 2530 2531 2532 2533 2534 2535 2536 2537 2538 2539 2540 2541 2542 2543 2544 2545 2546 2547 2548 2549 2550 2551 2552 2553 2554 2555 2556 2557 2558 2559 2560 2561 2562 2563 2564 2565 2566 2567 2568 2569 2570 2571 2572 2573 2574 2575 2576 2577 2578 2579 2580 2581 2582 2583 2584 2585 2586 2587 2588 2589 2590 2591 2592 2593 2594 2595 2596 2597 2598 2599 2600 2601 2602 2603 2604 2605 2606 2607 2608 2609 2610 2611 2612 2613 2614 2615 2616 2617 2618 2619 2620 2621 2622 2623 2624 2625 2626 2627 2628 2629 2630 2631 2632 2633 2634 2635 2636 2637 2638 2639 2640 2641 2642 2643 2644 2645 2646 2647 2648 2649 2650 2651 2652 2653 2654 2655 2656 2657 2658 2659 2660 2661 2662 2663 2664 2665 2666 2667 2668 2669 2670 2671 2672 2673 2674 2675 2676 2677 2678 2679 2680 2681 2682 2683 2684 2685 2686 2687 2688 2689 2690 2691 2692 2693 2694 2695 2696 2697 2698 2699 2700 2701 2702 2703 2704 2705 2706 2707 2708 2709 2710 2711 2712 2713 2714 2715 2716 2717 2718 2719 2720 2721 2722 2723 2724 2725 2726 2727 2728 2729 2730 2731 2732 2733 2734 2735 2736 2737 2738 2739 2740 2741 2742 2743 2744 2745 2746 2747 2748 2749 2750 2751 2752 2753 2754 2755 2756 2757 2758 2759 2760 2761 2762 2763 2764 2765 2766 2767 2768 2769 2770 2771 2772 2773 2774 2775 2776 2777 2778 2779 2780 2781 2782 2783 2784 2785 2786 2787 2788 2789 2790 2791 2792 2793 2794 2795 2796 2797 2798 2799 2800 2801 2802 2803 2804 2805 2806 2807 2808 2809 2810 2811 2812 2813 2814 2815 2816 2817 2818 2819 2820 2821 2822 2823 2824 2825 2826 2827 2828 2829 2830 2831 2832 2833 2834 2835 2836 2837 2838 2839 2840 2841 2842 2843 2844 2845 2846 2847 2848 2849 2850 2851 2852 2853 2854 2855 2856 2857 2858 2859 2860 2861 2862 2863 2864 2865 2866 2867 2868 2869 2870 2871 2872 2873 2874 2875 2876 2877 2878 2879 2880 2881 2882 2883 2884 2885 2886 2887 2888 2889 2890 2891 2892 2893 2894 2895 2896 2897 2898 2899 2900 2901 2902 2903 2904 2905 2906 2907 2908 2909 2910 2911 2912 2913 2914 2915 2916 2917 2918 2919 2920 2921 2922 2923 2924 2925 2926 2927 2928 2929 2930 2931 2932 2933 2934 2935 2936 2937 2938 2939 2940 2941 2942 2943 2944 2945 2946 2947 2948 2949 2950 2951 2952 2953 2954 2955 2956 2957 2958 2959 2960 2961 2962 2963 2964 2965 2966 2967 2968 2969 2970 2971 2972 2973 2974 2975 2976 2977 2978 2979 2980 2981 2982 2983 2984 2985 2986 2987 2988 2989 2990 2991 2992 2993 2994 2995 2996 2997 2998 2999 3000 3001 3002 3003 3004 3005 3006 3007 3008 3009 3010 3011 3012 3013 3014 3015 3016 3017 3018 3019 3020 3021 3022 3023 3024 3025 3026 3027 3028 3029 3030 3031 3032 3033 3034 3035 3036 3037 3038 3039 3040 3041 3042 3043 3044 3045 3046 3047 3048 3049 3050 3051 3052 3053 3054 3055 3056 3057 3058 3059 3060 3061 3062 3063 3064 3065 3066 3067 3068 3069 3070 3071 3072 3073 3074 3075 3076 3077 3078 3079 3080 3081 3082 3083 3084 3085 3086 3087 3088 3089 3090 3091 3092 3093 3094 3095 3096 3097 3098 3099 3100 3101 3102 3103 3104 3105 3106 3107 3108 3109 3110 3111 3112 3113 3114 3115 3116 3117 3118 3119 3120 3121 3122 3123 3124 3125 3126 3127 3128 3129 3130 3131 3132 3133 3134 3135 3136 3137 3138 3139 3140 3141 3142 3143 3144 3145 3146 3147 3148 3149 3150 3151 3152 3153 3154 3155 3156 3157 3158 3159 3160 3161 3162 3163 3164 3165 3166 3167 3168 3169 3170 3171 3172 3173 3174 3175 3176 3177 3178 3179 3180 3181 3182 3183 3184 3185 3186 3187 3188 3189 3190 3191 3192 3193 3194 3195 3196 3197 3198 3199 3200 3201 3202 3203 3204 3205 3206 3207 3208 3209 3210 3211 3212 3213 3214 3215 3216 3217 3218 3219 3220 3221 3222 3223 3224 3225 3226 3227 3228 3229 3230 3231 3232 3233 3234 3235 3236 3237 3238 3239 3240 3241 3242 3243 3244 3245 3246 3247 3248 3249 3250 3251 3252 3253 3254 3255 3256 3257 3258 3259 3260 3261 3262 3263 3264 3265 3266 3267 3268 3269 3270 3271 3272 3273 3274 3275 3276 3277 3278 3279 3280 3281 3282 3283 3284 3285 3286 3287 3288 3289 3290 3291 3292 3293 3294 3295 3296 3297 3298 3299 3300 3301 3302 3303 3304 3305 3306 3307 3308 3309 3310 3311 3312 3313 3314 3315 3316 3317 3318 3319 3320 3321 3322 3323 3324 3325 3326 3327 3328 3329 3330 3331 3332 3333 3334 3335 3336 3337 3338 3339 3340 3341 3342 3343 3344 3345 3346 3347 3348 3349 3350 3351 3352 3353 3354 3355 3356 3357 3358 3359 3360 3361 3362 3363 3364 3365 3366 3367 3368 3369 3370 3371 3372 3373 3374 3375 3376 3377 3378 3379 3380 3381 3382 3383 3384 3385 3386 3387 3388 3389 3390 3391 3392 3393 3394 3395 3396 3397 3398 3399 3400 3401 3402 3403 3404 3405 3406 3407 3408 3409 3410 3411 3412 3413 3414 3415 3416 3417 3418 3419 3420 3421 3422 3423 3424 3425 3426 3427 3428 3429 3430 3431 3432 3433 3434 3435 3436 3437 3438 3439 3440 3441 3442 3443 3444 3445 3446 3447 3448 3449 3450 3451 3452 3453 3454 3455 3456 3457 3458 3459 3460 3461 3462 3463 3464 3465 3466 3467 3468 3469 3470 3471 3472 3473 3474 3475 3476 3477 3478 3479 3480 3481 3482 3483 3484 3485 3486 3487 3488 3489 3490 3491 3492 3493 3494 3495 3496 3497 3498 3499 3500 3501 3502 3503 3504 3505 3506 3507 3508 3509 3510 3511 3512 3513 3514 3515 3516 3517 3518 3519 3520 3521 3522 3523 3524 3525 3526 3527 3528 3529 3530 3531 3532 3533 3534 3535 3536 3537 3538 3539 3540 3541 3542 3543 3544 3545 3546 3547 3548 3549 3550 3551 3552 3553 3554 3555 3556 3557 3558 3559 3560 3561 3562 3563 3564 3565 3566 3567 3568 3569 3570 3571 3572 3573 3574 3575 3576 3577 3578 3579 3580 3581 3582 3583 3584 3585 3586 3587 3588 3589 3590 3591 3592 3593 3594 3595 3596 3597 3598 3599 3600 3601 3602 3603 3604 3605 3606 3607 3608 3609 3610 3611 3612 3613 3614 3615 3616 3617 3618 3619 3620 3621 3622 3623 3624 3625 3626 3627 3628 3629 3630 3631 3632 3633 3634 3635 3636 3637 3638 3639 3640 3641 3642 3643 3644 3645 3646 3647 3648 3649 3650 3651 3652 3653 3654 3655 3656 3657 3658 3659 3660 3661 3662 3663 3664 3665 3666 3667 3668 3669 3670 3671 3672 3673 3674 3675 3676 3677 3678 3679 3680 3681 3682 3683 3684 3685 3686 3687 3688 3689 3690 3691 3692 3693 3694 3695 3696 3697 3698 3699 3700 3701 3702 3703 3704 3705 3706 3707 3708 3709 3710 3711 3712 3713 3714 3715 3716 3717 3718 3719 3720 3721 3722 3723 3724 3725 3726 3727 3728 3729 3730 3731 3732 3733 3734 3735 3736 3737 3738 3739 3740 3741 3742 3743 3744 3745 3746 3747 3748 3749 3750 3751 3752 3753 3754 3755 3756 3757 3758 3759 3760 3761 3762 3763 3764 3765 3766 3767 3768 3769 3770 3771 3772 3773 3774 3775 3776 3777 3778 3779 3780 3781 3782 3783 3784 3785 3786 3787 3788 3789 3790 3791 3792 3793 3794 3795 3796 3797 3798 3799 3800 3801 3802 3803 3804 3805 3806 3807 3808 3809 3810 3811 3812 3813 3814 3815 3816 3817 3818 3819 3820 3821 3822 3823 3824 3825 3826 3827 3828 3829 3830 3831 3832 3833 3834 3835 3836 3837 3838 3839 3840 3841 3842 3843 3844 3845 3846 3847 3848 3849 3850 3851 3852 3853 3854 3855 3856 3857 3858 3859 3860 3861 3862 3863 3864 3865 3866 3867 3868 3869 3870 3871 3872 3873 3874 3875 3876 3877 3878 3879 3880 3881 3882 3883 3884 3885 3886 3887 3888 3889 3890 3891 3892 3893 3894 3895 3896 3897 3898 3899 3900 3901 3902 3903 3904 3905 3906 3907 3908 3909 3910 3911 3912 3913 3914 3915 3916 3917 3918 3919 3920 3921 3922 3923 3924 3925 3926 3927 3928 3929 3930 3931 3932 3933 3934 3935 3936 3937 3938 3939 3940 3941 3942 3943 3944 3945 3946 3947 3948 3949 3950 3951 3952 3953 3954 3955 3956 3957 3958 3959 3960 3961 3962 3963 3964 3965 3966 3967 3968 3969 3970 3971 3972 3973 3974 3975 3976 3977 3978 3979 3980 3981 3982 3983 3984 3985 3986 3987 3988 3989 3990 3991 3992 3993 3994 3995 3996 3997 3998 3999 4000 4001 4002 4003 4004 4005 4006 4007 4008 4009 4010 4011 4012 4013 4014 4015 4016 4017 4018 4019 4020 4021 4022 4023 4024 4025 4026 4027 4028 4029 4030 4031 4032 4033 4034 4035 4036 4037 4038 4039 4040 4041 4042 4043 4044 4045 4046 4047 4048 4049 4050 4051 4052 4053 4054 4055 4056 4057 4058 4059 4060 4061 4062 4063 4064 4065 4066 4067 4068 4069 4070 4071 4072 4073 4074 4075 4076 4077 4078 4079 4080 4081 4082 4083 4084 4085 4086 4087 4088 4089 4090 4091 4092 4093 4094 4095 4096 4097 4098 4099 4100 4101 4102 4103 4104 4105 4106 4107 4108 4109 4110 4111 4112 4113 4114 4115 4116 4117 4118 4119 4120 4121 4122 4123 4124 4125 4126 4127 4128 4129 4130 4131 4132 4133 4134 4135 4136 4137 4138 4139 4140 4141 4142 4143 4144 4145 4146 4147 4148 4149 4150 4151 4152 4153 4154 4155 4156 4157 4158 4159 4160 4161 4162 4163 4164 4165 4166 4167 4168 4169 4170 4171 4172 4173 4174 4175 4176 4177 4178 4179 4180 4181 4182 4183 4184 4185 4186 4187 4188 4189 4190 4191 4192 4193 4194 4195 4196 4197 4198 4199 4200 4201 4202 4203 4204 4205 4206 4207 4208 4209 4210 4211 4212 4213 4214 4215 4216 4217 4218 4219 4220 4221 4222 4223 4224 4225 4226 4227 4228 4229 4230 4231 4232 4233 4234 4235 4236 4237 4238 4239 4240 4241 4242 4243 4244 4245 4246 4247 4248 4249 4250 4251 4252 4253 4254 4255 4256 4257 4258 4259 4260 4261 4262 4263 4264 4265 4266 4267 4268 4269 4270 4271 4272 4273 4274 4275 4276 4277 4278 4279 4280 4281 4282 4283 4284 4285 4286 4287 4288 4289 4290 4291 4292 4293 4294 4295 4296 4297 4298 4299 4300 4301 4302 4303 4304 4305 4306 4307 4308 4309 4310 4311 4312 4313 4314 4315 4316 4317 4318 4319 4320 4321 4322 4323 4324 4325 4326 4327 4328 4329 4330 4331 4332 4333 4334 4335 4336 4337 4338 4339 4340 4341 4342 4343 4344 4345 4346 4347 4348 4349 4350 4351 4352 4353 4354 4355 4356 4357 4358 4359 4360 4361 4362 4363 4364 4365 4366 4367 4368 4369 4370 4371 4372 4373 4374 4375 4376 4377 4378 4379 4380 4381 4382 4383 4384 4385 4386 4387 4388 4389 4390 4391 4392 4393 4394 4395 4396 4397 4398 4399 4400 4401 4402 4403 4404 4405 4406 4407 4408 4409 4410 4411 4412 4413 4414 4415 4416 4417 4418 4419 4420 4421 4422 4423 4424 4425 4426 4427 4428 4429 4430 4431 4432 4433 4434 4435 4436 4437 4438 4439 4440 4441 4442 4443 4444 4445 4446 4447 4448 4449 4450 4451 4452 4453 4454 4455 4456 4457 4458 4459 4460 4461 4462 4463 4464 4465 4466 4467 4468 4469 4470 4471 4472 4473 4474 4475 4476 4477 4478 4479 4480 4481 4482 4483 4484 4485 4486 4487 4488 4489 4490 4491 4492 4493 4494 4495 4496 4497 4498 4499 4500 4501 4502 4503 4504 4505 4506 4507 4508 4509 4510 4511 4512 4513 4514 4515 4516 4517 4518 4519 4520 4521 4522 4523 4524 4525 4526 4527 4528 4529 4530 4531 4532 4533 4534 4535 4536 4537 4538 4539 4540 4541 4542 4543 4544 4545 4546 4547 4548 4549 4550 4551 4552 4553 4554 4555 4556 4557 4558 4559 4560 4561 4562 4563 4564 4565 4566 4567 4568 4569 4570 4571 4572 4573 4574 4575 4576 4577 4578 4579 4580 4581 4582 4583 4584 4585 4586 4587 4588 4589 4590 4591 4592 4593 4594 4595 4596 4597 4598 4599 4600 4601 4602 4603 4604 4605 4606 4607 4608 4609 4610 4611 4612 4613 4614 4615 4616 4617 4618 4619 4620 4621 4622 4623 4624 4625 4626 4627 4628 4629 4630 4631 4632 4633 4634 4635 4636 4637 4638 4639 4640 4641 4642 4643 4644 4645 4646 4647 4648 4649 4650 4651 4652 4653 4654 4655 4656 4657 4658 4659 4660 4661 4662 4663 4664 4665 4666 4667 4668 4669 4670 4671 4672 4673 4674 4675 4676 4677 4678 4679 4680 4681 4682 4683 4684 4685 4686 4687 4688 4689 4690 4691 4692 4693 4694 4695 4696 4697 4698 4699 4700 4701 4702 4703 4704 4705 4706 4707 4708 4709 4710 4711 4712 4713 4714 4715 4716 4717 4718 4719 4720 4721 4722 4723 4724 4725 4726 4727 4728 4729 4730 4731 4732 4733 4734 4735 4736 4737 4738 4739 4740 4741 4742 4743 4744 4745 4746 4747 4748 4749 4750 4751 4752 4753 4754 4755 4756 4757 4758 4759 4760 4761 4762 4763 4764 4765 4766 4767 4768 4769 4770 4771 4772 4773 4774 4775 4776 4777 4778 4779 4780 4781 4782 4783 4784 4785 4786 4787 4788 4789 4790 4791 4792 4793 4794 4795 4796 4797 4798 4799 4800 4801 4802 4803 4804 4805 4806 4807 4808 4809 4810 4811 4812 4813 4814 4815 4816 4817 4818 4819 4820 4821 4822 4823 4824 4825 4826 4827 4828 4829 4830 4831 4832 4833 4834 4835 4836 4837 4838 4839 4840 4841 4842 4843 4844 4845 4846 4847 4848 4849 4850 4851 4852 4853 4854 4855 4856 4857 4858 4859 4860 4861 4862 4863 4864 4865 4866 4867 4868 4869 4870 4871 4872 4873 4874 4875 4876 4877 4878 4879 4880 4881 4882 4883 4884 4885 4886 4887 4888 4889 4890 4891 4892 4893 4894 4895 4896 4897 4898 4899 4900 4901 4902 4903 4904 4905 4906 4907 4908 4909 4910 4911 4912 4913 4914 4915 4916 4917 4918 4919 4920 4921 4922 4923 4924 4925 4926 4927 4928 4929 4930 4931 4932 4933 4934 4935 4936 4937 4938 4939 4940 4941 4942 4943 4944 4945 4946 4947 4948 4949 4950 4951 4952 4953 4954 4955 4956 4957 4958 4959 4960 4961 4962 4963 4964 4965 4966 4967 4968 4969 4970 4971 4972 4973 4974 4975 4976 4977 4978 4979 4980 4981 4982 4983 4984 4985 4986 4987 4988 4989 4990 4991 4992 4993 4994 4995 4996 4997 4998 4999 5000 5001 5002 5003 5004 5005 5006 5007 5008 5009 5010 5011 5012 5013 5014 5015 5016 5017 5018 5019 5020 5021 5022 5023 5024 5025 5026 5027 5028 5029 5030 5031 5032 5033 5034 5035 5036 5037 5038 5039 5040 5041 5042 5043 5044 5045 5046 5047 5048 5049 5050 5051 5052 5053 5054 5055 5056 5057 5058 5059 5060 5061 5062 5063 5064 5065 5066 5067 5068 5069 5070 5071 5072 5073 5074 5075 5076 5077 5078 5079 5080 5081 5082 5083 5084 5085 5086 5087 5088 5089 5090 5091 5092 5093 5094 5095 5096 5097 5098 5099 5100 5101 5102 5103 5104 5105 5106 5107 5108 5109 5110 5111 5112 5113 5114 5115 5116 5117 5118 5119 5120 5121 5122 5123 5124 5125 5126 5127 5128 5129 5130 5131 5132 5133 5134 5135 5136 5137 5138 5139 5140 5141 5142 5143 5144 5145 5146 5147 5148 5149 5150 5151 5152 5153 5154 5155 5156 5157 5158 5159 5160 5161 5162 5163 5164 5165 5166 5167 5168 5169 5170 5171 5172 5173 5174 5175 5176 5177 5178 5179 5180 5181 5182 5183 5184 5185 5186 5187 5188 5189 5190 5191 5192 5193 5194 5195 5196 5197 5198 5199 5200 5201 5202 5203 5204 5205 5206 5207 5208 5209 5210 5211 5212 5213 5214 5215 5216 5217 5218 5219 5220 5221 5222 5223 5224 5225 5226 5227 5228 5229 5230 5231 5232 5233 5234 5235 5236 5237 5238 5239 5240 5241 5242 5243 5244 5245 5246 5247 5248 5249 5250 5251 5252 5253 5254 5255 5256 5257 5258 5259 5260 5261 5262 5263 5264 5265 5266 5267 5268 5269 5270 5271 5272 5273 5274 5275 5276 5277 5278 5279 5280 5281 5282 5283 5284 5285 5286 5287 5288 5289 5290 5291 5292 5293 5294 5295 5296 5297 5298 5299 5300 5301 5302 5303 5304 5305 5306 5307 5308 5309 5310 5311 5312 5313 5314 5315 5316 5317 5318 5319 5320 5321 5322 5323 5324 5325 5326 5327 5328 5329 5330 5331 5332 5333 5334 5335 5336 5337 5338 5339 5340 5341 5342 5343 5344 5345 5346 5347 5348 5349 5350 5351 5352 5353 5354 5355 5356 5357 5358 5359 5360 5361 5362 5363 5364 5365 5366 5367 5368 5369 5370 5371 5372 5373 5374 5375 5376 5377 5378 5379 5380 5381 5382 5383 5384 5385 5386 5387 5388 5389 5390 5391 5392 5393 5394 5395 5396 5397 5398 5399 5400 5401 5402 5403 5404 5405 5406 5407 5408 5409 5410 5411 5412 5413 5414 5415 5416 5417 5418 5419 5420 5421 5422 5423 5424 5425 5426 5427 5428 5429 5430 5431 5432 5433 5434 5435 5436 5437 5438 5439 5440 5441 5442 5443 5444 5445 5446 5447 5448 5449 5450 5451 5452 5453 5454 5455 5456 5457 5458 5459 5460 5461 5462 5463 5464 5465 5466 5467 5468 5469 5470 5471 5472 5473 5474 5475 5476 5477 5478 5479 5480 5481 5482 5483 5484 5485 5486 5487 5488 5489 5490 5491 5492 5493 5494 5495 5496 5497 5498 5499 5500 5501 5502 5503 5504 5505 5506 5507 5508 5509 5510 5511 5512 5513 5514 5515 5516 5517 5518 5519 5520 5521 5522 5523 5524 5525 5526 5527 5528 5529 5530 5531 5532 5533 5534 5535 5536 5537 5538 5539 5540 5541 5542 5543 5544 5545 5546 5547 5548 5549 5550 5551 5552 5553 5554 5555 5556 5557 5558 5559 5560 5561 5562 5563 5564 5565 5566 5567 5568 5569 5570 5571 5572 5573 5574 5575 5576 5577 5578 5579 5580 5581 5582 5583 5584 5585 5586 5587 5588 5589 5590 5591 5592 5593 5594 5595 5596 5597 5598 5599 5600 5601 5602 5603 5604 5605 5606 5607 5608 5609 5610 5611 5612 5613 5614 5615 5616 5617 5618 5619 5620 5621 5622 5623 5624 5625 5626 5627 5628 5629 5630 5631 5632 5633 5634 5635 5636 5637 5638 5639 5640 5641 5642 5643 5644 5645 5646 5647 5648 5649 5650 5651 5652 5653 5654 5655 5656 5657 5658 5659 5660 5661 5662 5663 5664 5665 5666 5667 5668 5669 5670 5671 5672 5673 5674 5675 5676 5677 5678 5679 5680 5681 5682 5683 5684 5685 5686 5687 5688 5689 5690 5691 5692 5693 5694 5695 5696 5697 5698 5699 5700 5701 5702 5703 5704 5705 5706 5707 5708 5709 5710 5711 5712 5713 5714 5715 5716 5717 5718 5719 5720 5721 5722 5723 5724 5725 5726 5727 5728 5729 5730 5731 5732 5733 5734 5735 5736 5737 5738 5739 5740 5741 5742 5743 5744 5745 5746 5747 5748 5749 5750 5751 5752 5753 5754 5755 5756 5757 5758 5759 5760 5761 5762 5763 5764 5765 5766 5767 5768 5769 5770 5771 5772 5773 5774 5775 5776 5777 5778 5779 5780 5781 5782 5783 5784 5785 5786 5787 5788 5789 5790 5791 5792 5793 5794 5795 5796 5797 5798 5799 5800 5801 5802 5803 5804 5805 5806 5807 5808 5809 5810 5811 5812 5813 5814 5815 5816 5817 5818 5819 5820 5821 5822 5823 5824 5825 5826 5827 5828 5829 5830 5831 5832 5833 5834 5835 5836 5837 5838 5839 5840 5841 5842 5843 5844 5845 5846 5847 5848 5849 5850 5851 5852 5853 5854 5855 5856 5857 5858 5859 5860 5861 5862 5863 5864 5865 5866 5867 5868 5869 5870 5871 5872 5873 5874 5875 5876 5877 5878 5879 5880 5881 5882 5883 5884 5885 5886 5887 5888 5889 5890 5891 5892 5893 5894 5895 5896 5897 5898 5899 5900 5901 5902 5903 5904 5905 5906 5907 5908 5909 5910 5911 5912 5913 5914 5915 5916 5917 5918 5919 5920 5921 5922 5923 5924 5925 5926 5927 5928 5929 5930 5931 5932 5933 5934 5935 5936 5937 5938 5939 5940 5941 5942 5943 5944 5945 5946 5947 5948 5949 5950 5951 5952 5953 5954 5955 5956 5957 5958 5959 5960 5961 5962 5963 5964 5965 5966 5967 5968 5969 5970 5971 5972 5973 5974 5975 5976 5977 5978 5979 5980 5981 5982 5983 5984 5985 5986 5987 5988 5989 5990 5991 5992 5993 5994 5995 5996 5997 5998 5999 6000 6001 6002 6003 6004 6005 6006 6007 6008 6009 6010 6011 6012 6013 6014 6015 6016 6017 6018 6019 6020 6021 6022 6023 6024 6025 6026 6027 6028 6029 6030 6031 6032 6033 6034 6035 6036 6037 6038 6039 6040 6041 6042 6043 6044 6045 6046 6047 6048 6049 6050 6051 6052 6053 6054 6055 6056 6057 6058 6059 6060 6061 6062 6063 6064 6065 6066 6067 6068 6069 6070 6071 6072 6073 6074 6075 6076 6077 6078 6079 6080 6081 6082 6083 6084 6085 6086 6087 6088 6089 6090 6091 6092 6093 6094 6095 6096 6097 6098 6099 6100 6101 6102 6103 6104 6105 6106 6107 6108 6109 6110 6111 6112 6113 6114 6115 6116 6117 6118 6119 6120 6121 6122 6123 6124 6125 6126 6127 6128 6129 6130 6131 6132 6133 6134 6135 6136 6137 6138 6139 6140 6141 6142 6143 6144 6145 6146 6147 6148 6149 6150 6151 6152 6153 6154 6155 6156 6157 6158 6159 6160 6161 6162 6163 6164 6165 6166 6167 6168 6169 6170 6171 6172 6173 6174 6175 6176 6177 6178 6179 6180 6181 6182 6183 6184 6185 6186 6187 6188 6189 6190 6191 6192 6193 6194 6195 6196 6197 6198 6199 6200 6201 6202 6203 6204 6205 6206 6207 6208 6209 6210 6211 6212 6213 6214 6215 6216 6217 6218 6219 6220 6221 6222 6223 6224 6225 6226 6227 6228 6229 6230 6231 6232 6233 6234 6235 6236 6237 6238 6239 6240 6241 6242 6243 6244 6245 6246 6247 6248 6249 6250 6251 6252 6253 6254 6255 6256 6257 6258 6259 6260 6261 6262 6263 6264 6265 6266 6267 6268 6269 6270 6271 6272 6273 6274 6275 6276 6277 6278 6279 6280 6281 6282 6283 6284 6285 6286 6287 6288 6289 6290 6291 6292 6293 6294 6295 6296 6297 6298 6299 6300 6301 6302 6303 6304 6305 6306 6307 6308 6309 6310 6311 6312 6313 6314 6315 6316 6317 6318 6319 6320 6321 6322 6323 6324 6325 6326 6327 6328 6329 6330 6331 6332 6333 6334 6335 6336 6337 6338 6339 6340 6341 6342 6343 6344 6345 6346 6347 6348 6349 6350 6351 6352 6353 6354 6355 6356 6357 6358 6359 6360 6361 6362 6363 6364 6365 6366 6367 6368 6369 6370 6371 6372 6373 6374 6375 6376 6377 6378 6379 6380 6381 6382 6383 6384 6385 6386 6387 6388 6389 6390 6391 6392 6393 6394 6395 6396 6397 6398 6399 6400 6401 6402 6403 6404 6405 6406 6407 6408 6409 6410 6411 6412 6413 6414 6415 6416 6417 6418 6419 6420 6421 6422 6423 6424 6425 6426 6427 6428 6429 6430 6431 6432 6433 6434 6435 6436 6437 6438 6439 6440 6441 6442 6443 6444 6445 6446 6447 6448 6449 6450 6451 6452 6453 6454 6455 6456 6457 6458 6459 6460 6461 6462 6463 6464 6465 6466 6467 6468 6469 6470 6471 6472 6473 6474 6475 6476 6477 6478 6479 6480 6481 6482 6483 6484 6485 6486 6487 6488 6489 6490 6491 6492 6493 6494 6495 6496 6497 6498 6499 6500 6501 6502 6503 6504 6505 6506 6507 6508 6509 6510 6511 6512 6513 6514 6515 6516 6517 6518 6519 6520 6521 6522 6523 6524 6525 6526 6527 6528 6529 6530 6531 6532 6533 6534 6535 6536 6537 6538 6539 6540 6541 6542 6543 6544 6545 6546 6547 6548 6549 6550 6551 6552 6553 6554 6555 6556 6557 6558 6559 6560 6561 6562 6563 6564 6565 6566 6567 6568 6569 6570 6571 6572 6573 6574 6575 6576 6577 6578 6579 6580 6581 6582 6583 6584 6585 6586 6587 6588 6589 6590 6591 6592 6593 6594 6595 6596 6597 6598 6599 6600 6601 6602 6603 6604 6605 6606 6607 6608 6609 6610 6611 6612 6613 6614 6615 6616 6617 6618 6619 6620 6621 6622 6623 6624 6625 6626 6627 6628 6629 6630 6631 6632 6633 6634 6635 6636 6637 6638 6639 6640 6641 6642 6643 6644 6645 6646 6647 6648 6649 6650 6651 6652 6653 6654 6655 6656 6657 6658 6659 6660 6661 6662 6663 6664 6665 6666 6667 6668 6669 6670 6671 6672 6673 6674 6675 6676 6677 6678 6679 6680 6681 6682 6683 6684 6685 6686 6687 6688 6689 6690 6691 6692 6693 6694 6695 6696 6697 6698 6699 6700 6701 6702 6703 6704 6705 6706 6707 6708 6709 6710 6711 6712 6713 6714 6715 6716 6717 6718 6719 6720 6721 6722 6723 6724 6725 6726 6727 6728 6729 6730 6731 6732 6733 6734 6735 6736 6737 6738 6739 6740 6741 6742 6743 6744 6745 6746 6747 6748 6749 6750 6751 6752 6753 6754 6755 6756 6757 6758 6759 6760 6761 6762 6763 6764 6765 6766 6767 6768 6769 6770 6771 6772 6773 6774 6775 6776 6777 6778 6779 6780 6781 6782 6783 6784 6785 6786 6787 6788 6789 6790 6791 6792 6793 6794 6795 6796 6797 6798 6799 6800 6801 6802 6803 6804 6805 6806 6807 6808 6809 6810 6811 6812 6813 6814 6815 6816 6817 6818 6819 6820 6821 6822 6823 6824 6825 6826 6827 6828 6829 6830 6831 6832 6833 6834 6835 6836 6837 6838 6839 6840 6841 6842 6843 6844 6845 6846 6847 6848 6849 6850 6851 6852 6853 6854 6855 6856 6857 6858 6859 6860 6861 6862 6863 6864 6865 6866 6867 6868 6869 6870 6871 6872 6873 6874 6875 6876 6877 6878 6879 6880 6881 6882 6883 6884 6885 6886 6887 6888 6889 6890 6891 6892 6893 6894 6895 6896 6897 6898 6899 6900 6901 6902 6903 6904 6905 6906 6907 6908 6909 6910 6911 6912 6913 6914 6915 6916 6917 6918 6919 6920 6921 6922 6923 6924 6925 6926 6927 6928 6929 6930 6931 6932 6933 6934 6935 6936 6937 6938 6939 6940 6941 6942 6943 6944 6945 6946 6947 6948 6949 6950 6951 6952 6953 6954 6955 6956 6957 6958 6959 6960 6961 6962 6963 6964 6965 6966 6967 6968 6969 6970 6971 6972 6973 6974 6975 6976 6977 6978 6979 6980 6981 6982 6983 6984 6985 6986 6987 6988 6989 6990 6991 6992 6993 6994 6995 6996 6997 6998 6999 7000 7001 7002 7003 7004 7005 7006 7007 7008 7009 7010 7011 7012 7013 7014 7015 7016 7017 7018 7019 7020 7021 7022 7023 7024 7025 7026 7027 7028 7029 7030 7031 7032 7033 7034 7035 7036 7037 7038 7039 7040 7041 7042 7043 7044 7045 7046 7047 7048 7049 7050 7051 7052 7053 7054 7055 7056 7057 7058 7059 7060 7061 7062 7063 7064 7065 7066 7067 7068 7069 7070 7071 7072 7073 7074 7075 7076 7077 7078 7079 7080 7081 7082 7083 7084 7085 7086 7087 7088 7089 7090 7091 7092 7093 7094 7095 7096 7097 7098 7099 7100 7101 7102 7103 7104 7105 7106 7107 7108 7109 7110 7111 7112 7113 7114 7115 7116 7117 7118 7119 7120 7121 7122 7123 7124 7125 7126 7127 7128 7129 7130 7131 7132 7133 7134 7135 7136 7137 7138 7139 7140 7141 7142 7143 7144 7145 7146 7147 7148 7149 7150 7151 7152 7153 7154 7155 7156 7157 7158 7159 7160 7161 7162 7163 7164 7165 7166 7167 7168 7169 7170 7171 7172 7173 7174 7175 7176 7177 7178 7179 7180 7181 7182 7183 7184 7185 7186 7187 7188 7189 7190 7191 7192 7193 7194 7195 7196 7197 7198 7199 7200 7201 7202 7203 7204 7205 7206 7207 7208 7209 7210 7211 7212 7213 7214 7215 7216 7217 7218 7219 7220 7221 7222 7223 7224 7225 7226 7227 7228 7229 7230 7231 7232 7233 7234 7235 7236 7237 7238 7239 7240 7241 7242 7243 7244 7245 7246 7247 7248 7249 7250 7251 7252 7253 7254 7255 7256 7257 7258 7259 7260 7261 7262 7263 7264 7265 7266 7267 7268 7269 7270 7271 7272 7273 7274 7275 7276 7277 7278 7279 7280 7281 7282 7283 7284 7285 7286 7287 7288 7289 7290 7291 7292 7293 7294 7295 7296 7297 7298 7299 7300 7301 7302 7303 7304 7305 7306 7307 7308 7309 7310 7311 7312 7313 7314 7315 7316 7317 7318 7319 7320 7321 7322 7323 7324 7325 7326 7327 7328 7329 7330 7331 7332 7333 7334 7335 7336 7337 7338 7339 7340 7341 7342 7343 7344 7345 7346 7347 7348 7349 7350 7351 7352 7353 7354 7355 7356 7357 7358 7359 7360 7361 7362 7363 7364 7365 7366 7367 7368 7369 7370 7371 7372 7373 7374 7375 7376 7377 7378 7379 7380 7381 7382 7383 7384 7385 7386 7387 7388 7389 7390 7391 7392 7393 7394 7395 7396 7397 7398 7399 7400 7401 7402 7403 7404 7405 7406 7407 7408 7409 7410 7411 7412 7413 7414 7415 7416 7417 7418 7419 7420 7421 7422 7423 7424 7425 7426 7427 7428 7429 7430 7431 7432 7433 7434 7435 7436 7437 7438 7439 7440 7441 7442 7443 7444 7445 7446 7447 7448 7449 7450 7451 7452 7453 7454 7455 7456 7457 7458 7459 7460 7461 7462 7463 7464 7465 7466 7467 7468 7469 7470 7471 7472 7473 7474 7475 7476 7477 7478 7479 7480 7481 7482 7483 7484 7485 7486 7487 7488 7489 7490 7491 7492 7493 7494 7495 7496 7497 7498 7499 7500 7501 7502 7503 7504 7505 7506 7507 7508 7509 7510 7511 7512 7513 7514 7515 7516 7517 7518 7519 7520 7521 7522 7523 7524 7525 7526 7527 7528 7529 7530 7531 7532 7533 7534 7535 7536 7537 7538 7539 7540 7541 7542 7543 7544 7545 7546 7547 7548 7549 7550 7551 7552 7553 7554 7555 7556 7557 7558 7559 7560 7561 7562 7563 7564 7565 7566 7567 7568 7569 7570 7571 7572 7573 7574 7575 7576 7577 7578 7579 7580 7581 7582 7583 7584 7585 7586 7587 7588 7589 7590 7591 7592 7593 7594 7595 7596 7597 7598 7599 7600 7601 7602 7603 7604 7605 7606 7607 7608 7609 7610 7611 7612 7613 7614 7615 7616 7617 7618 7619 7620 7621 7622 7623 7624 7625 7626 7627 7628 7629 7630 7631 7632 7633 7634 7635 7636 7637 7638 7639 7640 7641 7642 7643 7644 7645 7646 7647 7648 7649 7650 7651 7652 7653 7654 7655 7656 7657 7658 7659 7660 7661 7662 7663 7664 7665 7666 7667 7668 7669 7670 7671 7672 7673 7674 7675 7676 7677 7678 7679 7680 7681 7682 7683 7684 7685 7686 7687 7688 7689 7690 7691 7692 7693 7694 7695 7696 7697 7698 7699 7700 7701 7702 7703 7704 7705 7706 7707 7708 7709 7710 7711 7712 7713 7714 7715 7716 7717 7718 7719 7720 7721 7722 7723 7724 7725 7726 7727 7728 7729 7730 7731 7732 7733 7734 7735 7736 7737 7738 7739 7740 7741 7742 7743 7744 7745 7746 7747 7748 7749 7750 7751 7752 7753 7754 7755 7756 7757 7758 7759 7760 7761 7762 7763 7764 7765 7766 7767 7768 7769 7770 7771 7772 7773 7774 7775 7776 7777 7778 7779 7780 7781 7782 7783 7784 7785 7786 7787 7788 7789 7790 7791 7792 7793 7794 7795 7796 7797 7798 7799 7800 7801 7802 7803 7804 7805 7806 7807 7808 7809 7810 7811 7812 7813 7814 7815 7816 7817 7818 7819 7820 7821 7822 7823 7824 7825 7826 7827 7828 7829 7830 7831 7832 7833 7834 7835 7836 7837 7838 7839 7840 7841 7842 7843 7844 7845 7846 7847 7848 7849 7850 7851 7852 7853 7854 7855 7856 7857 7858 7859 7860 7861 7862 7863 7864 7865 7866 7867 7868 7869 7870 7871 7872 7873 7874 7875 7876 7877 7878 7879 7880 7881 7882 7883 7884 7885 7886 7887 7888 7889 7890 7891 7892 7893 7894 7895 7896 7897 7898 7899 7900 7901 7902 7903 7904 7905 7906 7907 7908 7909 7910 7911 7912 7913 7914 7915 7916 7917 7918 7919 7920 7921 7922 7923 7924 7925 7926 7927 7928 7929 7930 7931 7932 7933 7934 7935 7936 7937 7938 7939 7940 7941 7942 7943 7944 7945 7946 7947 7948 7949 7950 7951 7952 7953 7954 7955 7956 7957 7958 7959 7960 7961 7962 7963 7964 7965 7966 7967 7968 7969 7970 7971 7972 7973 7974 7975 7976 7977 7978 7979 7980 7981 7982 7983 7984 7985 7986 7987 7988 7989 7990 7991 7992 7993 7994 7995 7996 7997 7998 7999 8000 8001 8002 8003 8004 8005 8006 8007 8008 8009 8010 8011 8012 8013 8014 8015 8016 8017 8018 8019 8020 8021 8022 8023 8024 8025 8026 8027 8028 8029 8030 8031 8032 8033 8034 8035 8036 8037 8038 8039 8040 8041 8042 8043 8044 8045 8046 8047 8048 8049 8050 8051 8052 8053 8054 8055 8056 8057 8058 8059 8060 8061 8062 8063 8064 8065 8066 8067 8068 8069 8070 8071 8072 8073 8074 8075 8076 8077 8078 8079 8080 8081 8082 8083 8084 8085 8086 8087 8088 8089 8090 8091 8092 8093 8094 8095 8096 8097 8098 8099 8100 8101 8102 8103 8104 8105 8106 8107 8108 8109 8110 8111 8112 8113 8114 8115 8116 8117 8118 8119 8120 8121 8122 8123 8124 8125 8126 8127 8128 8129 8130 8131 8132 8133 8134 8135 8136 8137 8138 8139 8140 8141 8142 8143 8144 8145 8146 8147 8148 8149 8150 8151 8152 8153 8154 8155 8156 8157 8158 8159 8160 8161 8162 8163 8164 8165 8166 8167 8168 8169 8170 8171 8172 8173 8174 8175 8176 8177 8178 8179 8180 8181 8182 8183 8184 8185 8186 8187 8188 8189 8190 8191 8192 8193 8194 8195 8196 8197 8198 8199 8200 8201 8202 8203 8204 8205 8206 8207 8208 8209 8210 8211 8212 8213 8214 8215 8216 8217 8218 8219 8220 8221 8222 8223 8224 8225 8226 8227 8228 8229 8230 8231 8232 8233 8234 8235 8236 8237 8238 8239 8240 8241 8242 8243 8244 8245 8246 8247 8248 8249 8250 8251 8252 8253 8254 8255 8256 8257 8258 8259 8260 8261 8262 8263 8264 8265 8266 8267 8268 8269 8270 8271 8272 8273 8274 8275 8276 8277 8278 8279 8280 8281 8282 8283 8284 8285 8286 8287 8288 8289 8290 8291 8292 8293 8294 8295 8296 8297 8298 8299 8300 8301 8302 8303 8304 8305 8306 8307 8308 8309 8310 8311 8312 8313 8314 8315 8316 8317 8318 8319 8320 8321 8322 8323 8324 8325 8326 8327 8328 8329 8330 8331 8332 8333 8334 8335 8336 8337 8338 8339 8340 8341 8342 8343 8344 8345 8346 8347 8348 8349 8350 8351 8352 8353 8354 8355 8356 8357 8358 8359 8360 8361 8362 8363 8364 8365 8366 8367 8368 8369 8370 8371 8372 8373 8374 8375 8376 8377 8378 8379 8380 8381 8382 8383 8384 8385 8386 8387 8388 8389 8390 8391 8392 8393 8394 8395 8396 8397 8398 8399 8400 8401 8402 8403 8404 8405 8406 8407 8408 8409 8410 8411 8412 8413 8414 8415 8416 8417 8418 8419 8420 8421 8422 8423 8424 8425 8426 8427 8428 8429 8430 8431 8432 8433 8434 8435 8436 8437 8438 8439 8440 8441 8442 8443 8444 8445 8446 8447 8448 8449 8450 8451 8452 8453 8454 8455 8456 8457 8458 8459 8460 8461 8462 8463 8464 8465 8466 8467 8468 8469 8470 8471 8472 8473 8474 8475 8476 8477 8478 8479 8480 8481 8482 8483 8484 8485 8486 8487 8488 8489 8490 8491 8492 8493 8494 8495 8496 8497 8498 8499 8500 8501 8502 8503 8504 8505 8506 8507 8508 8509 8510 8511 8512 8513 8514 8515 8516 8517 8518 8519 8520 8521 8522 8523 8524 8525 8526 8527 8528 8529 8530 8531 8532 8533 8534 8535 8536 8537 8538 8539 8540 8541 8542 8543 8544 8545 8546 8547 8548 8549 8550 8551 8552 8553 8554 8555 8556 8557 8558 8559 8560 8561 8562 8563 8564 8565 8566 8567 8568 8569 8570 8571 8572 8573 8574 8575 8576 8577 8578 8579 8580 8581 8582 8583 8584 8585 8586 8587 8588 8589 8590 8591 8592 8593 8594 8595 8596 8597 8598 8599 8600 8601 8602 8603 8604 8605 8606 8607 8608 8609 8610 8611 8612 8613 8614 8615 8616 8617 8618 8619 8620 8621 8622 8623 8624 8625 8626 8627 8628 8629 8630 8631 8632 8633 8634 8635 8636 8637 8638 8639 8640 8641 8642 8643 8644 8645 8646 8647 8648 8649 8650 8651 8652 8653 8654 8655 8656 8657 8658 8659 8660 8661 8662 8663 8664 8665 8666 8667 8668 8669 8670 8671 8672 8673 8674 8675 8676 8677 8678 8679 8680 8681 8682 8683 8684 8685 8686 8687 8688 8689 8690 8691 8692 8693 8694 8695 8696 8697 8698 8699 8700 8701 8702 8703 8704 8705 8706 8707 8708 8709 8710 8711 8712 8713 8714 8715 8716 8717 8718 8719 8720 8721 8722 8723 8724 8725 8726 8727 8728 8729 8730 8731 8732 8733 8734 8735 8736 8737 8738 8739 8740 8741 8742 8743 8744 8745 8746 8747 8748 8749 8750 8751 8752 8753 8754 8755 8756 8757 8758 8759 8760 8761 8762 8763 8764 8765 8766 8767 8768 8769 8770 8771 8772 8773 8774 8775 8776 8777 8778 8779 8780 8781 8782 8783 8784 8785 8786 8787 8788 8789 8790 8791 8792 8793 8794 8795 8796 8797 8798 8799 8800 8801 8802 8803 8804 8805 8806 8807 8808 8809 8810 8811 8812 8813 8814 8815 8816 8817 8818 8819 8820 8821 8822 8823 8824 8825 8826 8827 8828 8829 8830 8831 8832 8833 8834 8835 8836 8837 8838 8839 8840 8841 8842 8843 8844 8845 8846 8847 8848 8849 8850 8851 8852 8853 8854 8855 8856 8857 8858 8859 8860 8861 8862 8863 8864 8865 8866 8867 8868 8869 8870 8871 8872 8873 8874 8875 8876 8877 8878 8879 8880 8881 8882 8883 8884 8885 8886 8887 8888 8889 8890 8891 8892 8893 8894 8895 8896 8897 8898 8899 8900 8901 8902 8903 8904 8905 8906 8907 8908 8909 8910 8911 8912 8913 8914 8915 8916 8917 8918 8919 8920 8921 8922 8923 8924 8925 8926 8927 8928 8929 8930 8931 8932 8933 8934 8935 8936 8937 8938 8939 8940 8941 8942 8943 8944 8945 8946 8947 8948 8949 8950 8951 8952 8953 8954 8955 8956 8957 8958 8959 8960 8961 8962 8963 8964 8965 8966 8967 8968 8969 8970 8971 8972 8973 8974 8975 8976 8977 8978 8979 8980 8981 8982 8983 8984 8985 8986 8987 8988 8989 8990 8991 8992 8993 8994 8995 8996 8997 8998 8999 9000 9001 9002 9003 9004 9005 9006 9007 9008 9009 9010 9011 9012 9013 9014 9015 9016 9017 9018 9019 9020 9021 9022 9023 9024 9025 9026 9027 9028 9029 9030 9031 9032 9033 9034 9035 9036 9037 9038 9039 9040 9041 9042 9043 9044 9045 9046 9047 9048 9049 9050 9051 9052 9053 9054 9055 9056 9057 9058 9059 9060 9061 9062 9063 9064 9065 9066 9067 9068 9069 9070 9071 9072 9073 9074 9075 9076 9077 9078 9079 9080 9081 9082 9083 9084 9085 9086 9087 9088 9089 9090 9091 9092 9093 9094 9095 9096 9097 9098 9099 9100 9101 9102 9103 9104 9105 9106 9107 9108 9109 9110 9111 9112 9113 9114 9115 9116 9117 9118 9119 9120 9121 9122 9123 9124 9125 9126 9127 9128 9129 9130 9131 9132 9133 9134 9135 9136 9137 9138 9139 9140 9141 9142 9143 9144 9145 9146 9147 9148 9149 9150 9151 9152 9153 9154 9155 9156 9157 9158 9159 9160 9161 9162 9163 9164 9165 9166 9167 9168 9169 9170 9171 9172 9173 9174 9175 9176 9177 9178 9179 9180 9181 9182 9183 9184 9185 9186 9187 9188 9189 9190 9191 9192 9193 9194 9195 9196 9197 9198 9199 9200 9201 9202 9203 9204 9205 9206 9207 9208 9209 9210 9211 9212 9213 9214 9215 9216 9217 9218 9219 9220 9221 9222 9223 9224 9225 9226 9227 9228 9229 9230 9231 9232 9233 9234 9235 9236 9237 9238 9239 9240 9241 9242 9243 9244 9245 9246 9247 9248 9249 9250 9251 9252 9253 9254 9255 9256 9257 9258 9259 9260 9261 9262 9263 9264 9265 9266 9267 9268 9269 9270 9271 9272 9273 9274 9275 9276 9277 9278 9279 9280 9281 9282 9283 9284 9285 9286 9287 9288 9289 9290 9291 9292 9293 9294 9295 9296 9297 9298 9299 9300 9301 9302 9303 9304 9305 9306 9307 9308 9309 9310 9311 9312 9313 9314 9315 9316 9317 9318 9319 9320 9321 9322 9323 9324 9325 9326 9327 9328 9329 9330 9331 9332 9333 9334 9335 9336 9337 9338 9339 9340 9341 9342 9343 9344 9345 9346 9347 9348 9349 9350 9351 9352 9353 9354 9355 9356 9357 9358 9359 9360 9361 9362 9363 9364 9365 9366 9367 9368 9369 9370 9371 9372 9373 9374 9375 9376 9377 9378 9379 9380 9381 9382 9383 9384 9385 9386 9387 9388 9389 9390 9391 9392 9393 9394 9395 9396 9397 9398 9399 9400 9401 9402 9403 9404 9405 9406 9407 9408 9409 9410 9411 9412 9413 9414 9415 9416 9417 9418 9419 9420 9421 9422 9423 9424 9425 9426 9427 9428 9429 9430 9431 9432 9433 9434 9435 9436 9437 9438 9439 9440 9441 9442 9443 9444 9445 9446 9447 9448 9449 9450 9451 9452 9453 9454 9455 9456 9457 9458 9459 9460 9461 9462 9463 9464 9465 9466 9467 9468 9469 9470 9471 9472 9473 9474 9475 9476 9477 9478 9479 9480 9481 9482 9483 9484 9485 9486 9487 9488 9489 9490 9491 9492 9493 9494 9495 9496 9497 9498 9499 9500 9501 9502 9503 9504 9505 9506 9507 9508 9509 9510 9511 9512 9513 9514 9515 9516 9517 9518 9519 9520 9521 9522 9523 9524 9525 9526 9527 9528 9529 9530 9531 9532 9533 9534 9535 9536 9537 9538 9539 9540 9541 9542 9543 9544 9545 9546 9547 9548 9549 9550 9551 9552 9553 9554 9555 9556 9557 9558 9559 9560 9561 9562 9563 9564 9565 9566 9567 9568 9569 9570 9571 9572 9573 9574 9575 9576 9577 9578 9579 9580 9581 9582 9583 9584 9585 9586 9587 9588 9589 9590 9591 9592 9593 9594 9595 9596 9597 9598 9599 9600 9601 9602 9603 9604 9605 9606 9607 9608 9609 9610 9611 9612 9613 9614 9615 9616 9617 9618 9619 9620 9621 9622 9623 9624 9625 9626 9627 9628 9629 9630 9631 9632 9633 9634 9635 9636 9637 9638 9639 9640 9641 9642 9643 9644 9645 9646 9647 9648 9649 9650 9651 9652 9653 9654 9655 9656 9657 9658 9659 9660 9661 9662 9663 9664 9665 9666 9667 9668 9669 9670 9671 9672 9673 9674 9675 9676 9677 9678 9679 9680 9681 9682 9683 9684 9685 9686 9687 9688 9689 9690 9691 9692 9693 9694 9695 9696 9697 9698 9699 9700 9701 9702 9703 9704 9705 9706 9707 9708 9709 9710 9711 9712 9713 9714 9715 9716 9717 9718 9719 9720 9721 9722 9723 9724 9725 9726 9727 9728 9729 9730 9731 9732 9733 9734 9735 9736 9737 9738 9739 9740 9741 9742 9743 9744 9745 9746 9747 9748 9749 9750 9751 9752 9753 9754 9755 9756 9757 9758 9759 9760 9761 9762 9763 9764 9765 9766 9767 9768 9769 9770 9771 9772 9773 9774 9775 9776 9777 9778 9779 9780 9781 9782 9783 9784 9785 9786 9787 9788 9789 9790 9791 9792 9793 9794 9795 9796 9797 9798 9799 9800 9801 9802 9803 9804 9805 9806 9807 9808 9809 9810 9811 9812 9813 9814 9815 9816 9817 9818 9819 9820 9821 9822 9823 9824 9825 9826 9827 9828 9829 9830 9831 9832 9833 9834 9835 9836 9837 9838 9839 9840 9841 9842 9843 9844 9845 9846 9847 9848 9849 9850 9851 9852 9853 9854 9855 9856 9857 9858 9859 9860 9861 9862 9863 9864 9865 9866 9867 9868 9869 9870 9871 9872 9873 9874 9875 9876 9877 9878 9879 9880 9881 9882 9883 9884 9885 9886 9887 9888 9889 9890 9891 9892 9893 9894 9895 9896 9897 9898 9899 9900 9901 9902 9903 9904 9905 9906 9907 9908 9909 9910 9911 9912 9913 9914 9915 9916 9917 9918 9919 9920 9921 9922 9923 9924 9925 9926 9927 9928 9929 9930 9931 9932 9933 9934 9935 9936 9937 9938 9939 9940 9941 9942 9943 9944 9945 9946 9947 9948 9949 9950 9951 9952 9953 9954 9955 9956 9957 9958 9959 9960 9961 9962 9963 9964 9965 9966 9967 9968 9969 9970 9971 9972 9973 9974 9975 9976 9977 9978 9979 9980 9981 9982 9983 9984 9985 9986 9987 9988 9989 9990 9991 9992 9993 9994 9995 9996 9997 9998 9999 10000 10001 10002 10003 10004 10005 10006 10007 10008 10009 10010 10011 10012 10013 10014 10015 10016 10017 10018 10019 10020 10021 10022 10023 10024 10025 10026 10027 10028 10029 10030 10031 10032 10033 10034 10035 10036 10037 10038 10039 10040 10041 10042 10043 10044 10045 10046 10047 10048 10049 10050 10051 10052 10053 10054 10055 10056 10057 10058 10059 10060 10061 10062 10063 10064 10065 10066 10067 10068 10069 10070 10071 10072 10073 10074 10075 10076 10077 10078 10079 10080 10081 10082 10083 10084 10085 10086 10087 10088 10089 10090 10091 10092 10093 10094 10095 10096 10097 10098 10099 10100 10101 10102 10103 10104 10105 10106 10107 10108 10109 10110 10111 10112 10113 10114 10115 10116 10117 10118 10119 10120 10121 10122 10123 10124 10125 10126 10127 10128 10129 10130 10131 10132 10133 10134 10135 10136 10137 10138 10139 10140 10141 10142 10143 10144 10145 10146 10147 10148 10149 10150 10151 10152 10153 10154 10155 10156 10157 10158 10159 10160 10161 10162 10163 10164 10165 10166 10167 10168 10169 10170 10171 10172 10173 10174 10175 10176 10177 10178 10179 10180 10181 10182 10183 10184 10185 10186 10187 10188 10189 10190 10191 10192 10193 10194 10195 10196 10197 10198 10199 10200 10201 10202 10203 10204 10205 10206 10207 10208 10209 10210 10211 10212 10213 10214 10215 10216 10217 10218 10219 10220 10221 10222 10223 10224 10225 10226 10227 10228 10229 10230 10231 10232 10233 10234 10235 10236 10237 10238 10239 10240 10241 10242 10243 10244 10245 10246 10247 10248 10249 10250 10251 10252 10253 10254 10255 10256 10257 10258 10259 10260 10261 10262 10263 10264 10265 10266 10267 10268 10269 10270 10271 10272 10273 10274 10275 10276 10277 10278 10279 10280 10281 10282 10283 10284 10285 10286 10287 10288 10289 10290 10291 10292 10293 10294 10295 10296 10297 10298 10299 10300 10301 10302 10303 10304 10305 10306 10307 10308 10309 10310 10311 10312 10313 10314 10315 10316 10317 10318 10319 10320 10321 10322 10323 10324 10325 10326 10327 10328 10329 10330 10331 10332 10333 10334 10335 10336 10337 10338 10339 10340 10341 10342 10343 10344 10345 10346 10347 10348 10349 10350 10351 10352 10353 10354 10355 10356 10357 10358 10359 10360 10361 10362 10363 10364 10365 10366 10367 10368 10369 10370 10371 10372 10373 10374 10375 10376 10377 10378 10379 10380 10381 10382 10383 10384 10385 10386 10387 10388 10389 10390 10391 10392 10393 10394 10395 10396 10397 10398 10399 10400 10401 10402 10403 10404 10405 10406 10407 10408 10409 10410 10411 10412 10413 10414 10415 10416 10417 10418 10419 10420 10421 10422 10423 10424 10425 10426 10427 10428 10429 10430 10431 10432 10433 10434 10435 10436 10437 10438 10439 10440 10441 10442 10443 10444 10445 10446 10447 10448 10449 10450 10451 10452 10453 10454 10455 10456 10457 10458 10459 10460 10461 10462 10463 10464 10465 10466 10467 10468 10469 10470 10471 10472 10473 10474 10475 10476 10477 10478 10479 10480 10481 10482 10483 10484 10485 10486 10487 10488 10489 10490 10491 10492 10493 10494 10495 10496 10497 10498 10499 10500 10501 10502 10503 10504 10505 10506 10507 10508 10509 10510 10511 10512 10513 10514 10515 10516 10517 10518 10519 10520 10521 10522 10523 10524 10525 10526 10527 10528 10529 10530 10531 10532 10533 10534 10535 10536 10537 10538 10539 10540 10541 10542 10543 10544 10545 10546 10547 10548 10549 10550 10551 10552 10553 10554 10555 10556 10557 10558 10559 10560 10561 10562 10563 10564 10565 10566 10567 10568 10569 10570 10571 10572 10573 10574 10575 10576 10577 10578 10579 10580 10581 10582 10583 10584 10585 10586 10587 10588 10589 10590 10591 10592 10593 10594 10595 10596 10597 10598 10599 10600 10601 10602 10603 10604 10605 10606 10607 10608 10609 10610 10611 10612 10613 10614 10615 10616 10617 10618 10619 10620 10621 10622 10623 10624 10625 10626 10627 10628 10629 10630 10631 10632 10633 10634 10635 10636 10637 10638 10639 10640 10641 10642 10643 10644 10645 10646 10647 10648 10649 10650 10651 10652 10653 10654 10655 10656 10657 10658 10659 10660 10661 10662 10663 10664 10665 10666 10667 10668 10669 10670 10671 10672 10673 10674 10675 10676 10677 10678 10679 10680 10681 10682 10683 10684 10685 10686 10687 10688 10689 10690 10691 10692 10693 10694 10695 10696 10697 10698 10699 10700 10701 10702 10703 10704 10705 10706 10707 10708 10709 10710 10711 10712 10713 10714 10715 10716 10717 10718 10719 10720 10721 10722 10723 10724 10725 10726 10727 10728 10729 10730 10731 10732 10733 10734 10735 10736 10737 10738 10739 10740 10741 10742 10743 10744 10745 10746 10747 10748 10749 10750 10751 10752 10753 10754 10755 10756 10757 10758 10759 10760 10761 10762 10763 10764 10765 10766 10767 10768 10769 10770 10771 10772 10773 10774 10775 10776 10777 10778 10779 10780 10781 10782 10783 10784 10785 10786 10787 10788 10789 10790 10791 10792 10793 10794 10795 10796 10797 10798 10799 10800 10801 10802 10803 10804 10805 10806 10807 10808 10809 10810 10811 10812 10813 10814 10815 10816 10817 10818 10819 10820 10821 10822 10823 10824 10825 10826 10827 10828 10829 10830 10831 10832 10833 10834 10835 10836 10837 10838 10839 10840 10841 10842 10843 10844 10845 10846 10847 10848 10849 10850 10851 10852 10853 10854 10855 10856 10857 10858 10859 10860 10861 10862 10863 10864 10865 10866 10867 10868 10869 10870 10871 10872 10873 10874 10875 10876 10877 10878 10879 10880 10881 10882 10883 10884 10885 10886 10887 10888 10889 10890 10891 10892 10893 10894 10895 10896 10897 10898 10899 10900 10901 10902 10903 10904 10905 10906 10907 10908 10909 10910 10911 10912 10913 10914 10915 10916 10917 10918 10919 10920 10921 10922 10923 10924 10925 10926 10927 10928 10929 10930 10931 10932 10933 10934 10935 10936 10937 10938 10939 10940 10941 10942 10943 10944 10945 10946 10947 10948 10949 10950 10951 10952 10953 10954 10955 10956 10957 10958 10959 10960 10961 10962 10963 10964 10965 10966 10967 10968 10969 10970 10971 10972 10973 10974 10975 10976 10977 10978 10979 10980 10981 10982 10983 10984 10985 10986 10987 10988 10989 10990 10991 10992 10993 10994 10995 10996 10997 10998 10999 11000 11001 11002 11003 11004 11005 11006 11007 11008 11009 11010 11011 11012 11013 11014 11015 11016 11017 11018 11019 11020 11021 11022 11023 11024 11025 11026 11027 11028 11029 11030 11031 11032 11033 11034 11035 11036 11037 11038 11039 11040 11041 11042 11043 11044 11045 11046 11047 11048 11049 11050 11051 11052 11053 11054 11055 11056 11057 11058 11059 11060 11061 11062 11063 11064 11065 11066 11067 11068 11069 11070 11071 11072 11073 11074 11075 11076 11077 11078 11079 11080 11081 11082 11083 11084 11085 11086 11087 11088 11089 11090 11091 11092 11093 11094 11095 11096 11097 11098 11099 11100 11101 11102 11103 11104 11105 11106 11107 11108 11109 11110 11111 11112 11113 11114 11115 11116 11117 11118 11119 11120 11121 11122 11123 11124 11125 11126 11127 11128 11129 11130 11131 11132 11133 11134 11135 11136 11137 11138 11139 11140 11141 11142 11143 11144 11145 11146 11147 11148 11149 11150 11151 11152 11153 11154 11155 11156 11157 11158 11159 11160 11161 11162 11163 11164 11165 11166 11167 11168 11169 11170 11171 11172 11173 11174 11175 11176 11177 11178 11179 11180 11181 11182 11183 11184 11185 11186 11187 11188 11189 11190 11191 11192 11193 11194 11195 11196 11197 11198 11199 11200 11201 11202 11203 11204 11205 11206 11207 11208 11209 11210 11211 11212 11213 11214 11215 11216 11217 11218 11219 11220 11221 11222 11223 11224 11225 11226 11227 11228 11229 11230 11231 11232 11233 11234 11235 11236 11237 11238 11239 11240 11241 11242 11243 11244 11245 11246 11247 11248 11249 11250 11251 11252 11253 11254 11255 11256 11257 11258 11259 11260 11261 11262 11263 11264 11265 11266 11267 11268 11269 11270 11271 11272 11273 11274 11275 11276 11277 11278 11279 11280 11281 11282 11283 11284 11285 11286 11287 11288 11289 11290 11291 11292 11293 11294 11295 11296 11297 11298 11299 11300 11301 11302 11303 11304 11305 11306 11307 11308 11309 11310 11311 11312 11313 11314 11315 11316 11317 11318 11319 11320 11321 11322 11323 11324 11325 11326 11327 11328 11329 11330 11331 11332 11333 11334 11335 11336 11337 11338 11339 11340 11341 11342 11343 11344 11345 11346 11347 11348 11349 11350 11351 11352 11353 11354 11355 11356 11357 11358 11359 11360 11361 11362 11363 11364 11365 11366 11367 11368 11369 11370 11371 11372 11373 11374 11375 11376 11377 11378 11379 11380 11381 11382 11383 11384 11385 11386 11387 11388 11389 11390 11391 11392 11393 11394 11395 11396 11397 11398 11399 11400 11401 11402 11403 11404 11405 11406 11407 11408 11409 11410 11411 11412 11413 11414 11415 11416 11417 11418 11419 11420 11421 11422 11423 11424 11425 11426 11427 11428 11429 11430 11431 11432 11433 11434 11435 11436 11437 11438 11439 11440 11441 11442 11443 11444 11445 11446 11447 11448 11449 11450 11451 11452 11453 11454 11455 11456 11457 11458 11459 11460 11461 11462 11463 11464 11465 11466 11467 11468 11469 11470 11471 11472 11473 11474 11475 11476 11477 11478 11479 11480 11481 11482 11483 11484 11485 11486 11487 11488 11489 11490 11491 11492 11493 11494 11495 11496 11497 11498 11499 11500 11501 11502 11503 11504 11505 11506 11507 11508 11509 11510 11511 11512 11513 11514 11515 11516 11517 11518 11519 11520 11521 11522 11523 11524 11525 11526 11527 11528 11529 11530 11531 11532 11533 11534 11535 11536 11537 11538 11539 11540 11541 11542 11543 11544 11545 11546 11547 11548 11549 11550 11551 11552 11553 11554 11555 11556 11557 11558 11559 11560 11561 11562 11563 11564 11565 11566 11567 11568 11569 11570 11571 11572 11573 11574 11575 11576 11577 11578 11579 11580 11581 11582 11583 11584 11585 11586 11587 11588 11589 11590 11591 11592 11593 11594 11595 11596 11597 11598 11599 11600 11601 11602 11603 11604 11605 11606 11607 11608 11609 11610 11611 11612 11613 11614 11615 11616 11617 11618 11619 11620 11621 11622 11623 11624 11625 11626 11627 11628 11629 11630 11631 11632 11633 11634 11635 11636 11637 11638 11639 11640 11641 11642 11643 11644 11645 11646 11647 11648 11649 11650 11651 11652 11653 11654 11655 11656 11657 11658 11659 11660 11661 11662 11663 11664 11665 11666 11667 11668 11669 11670 11671 11672 11673 11674 11675 11676 11677 11678 11679 11680 11681 11682 11683 11684 11685 11686 11687 11688 11689 11690 11691 11692 11693 11694 11695 11696 11697 11698 11699 11700 11701 11702 11703 11704 11705 11706 11707 11708 11709 11710 11711 11712 11713 11714 11715 11716 11717 11718 11719 11720 11721 11722 11723 11724 11725 11726 11727 11728 11729 11730 11731 11732 11733 11734 11735 11736 11737 11738 11739 11740 11741 11742 11743 11744 11745 11746 11747 11748 11749 11750 11751 11752 11753 11754 11755 11756 11757 11758 11759 11760 11761 11762 11763 11764 11765 11766 11767 11768 11769 11770 11771 11772 11773 11774 11775 11776 11777 11778 11779 11780 11781 11782 11783 11784 11785 11786 11787 11788 11789 11790 11791 11792 11793 11794 11795 11796 11797 11798 11799 11800 11801 11802 11803 11804 11805 11806 11807 11808 11809 11810 11811 11812 11813 11814 11815 11816 11817 11818 11819 11820 11821 11822 11823 11824 11825 11826 11827 11828 11829 11830 11831 11832 11833 11834 11835 11836 11837 11838 11839 11840 11841 11842 11843 11844 11845 11846 11847 11848 11849 11850 11851 11852 11853 11854 11855 11856 11857 11858 11859 11860 11861 11862 11863 11864 11865 11866 11867 11868 11869 11870 11871 11872 11873 11874 11875 11876 11877 11878 11879 11880 11881 11882 11883 11884 11885 11886 11887 11888 11889 11890 11891 11892 11893 11894 11895 11896 11897 11898 11899 11900 11901 11902 11903 11904 11905 11906 11907 11908 11909 11910 11911 11912 11913 11914 11915 11916 11917 11918 11919 11920 11921 11922 11923 11924 11925 11926 11927 11928 11929 11930 11931 11932 11933 11934 11935 11936 11937 11938 11939 11940 11941 11942 11943 11944 11945 11946 11947 11948 11949 11950 11951 11952 11953 11954 11955 11956 11957 11958 11959 11960 11961 11962 11963 11964 11965 11966 11967 11968 11969 11970 11971 11972 11973 11974 11975 11976 11977 11978 11979 11980 11981 11982 11983 11984 11985 11986 11987 11988 11989 11990 11991 11992 11993 11994 11995 11996 11997 11998 11999 12000 12001 12002 12003 12004 12005 12006 12007 12008 12009 12010 12011 12012 12013 12014 12015 12016 12017 12018 12019 12020 12021 12022 12023 12024 12025 12026 12027 12028 12029 12030 12031 12032 12033 12034 12035 12036 12037 12038 12039 12040 12041 12042 12043 12044 12045 12046 12047 12048 12049 12050 12051 12052 12053 12054 12055 12056 12057 12058 12059 12060 12061 12062 12063 12064 12065 12066 12067 12068 12069 12070 12071 12072 12073 12074 12075 12076 12077 12078 12079 12080 12081 12082 12083 12084 12085 12086 12087 12088 12089 12090 12091 12092 12093 12094 12095 12096 12097 12098 12099 12100 12101 12102 12103 12104 12105 12106 12107 12108 12109 12110 12111 12112 12113 12114 12115 12116 12117 12118 12119 12120 12121 12122 12123 12124 12125 12126 12127 12128 12129 12130 12131 12132 12133 12134 12135 12136 12137 12138 12139 12140 12141 12142 12143 12144 12145 12146 12147 12148 12149 12150 12151 12152 12153 12154 12155 12156 12157 12158 12159 12160 12161 12162 12163 12164 12165 12166 12167 12168 12169 12170 12171 12172 12173 12174 12175 12176 12177 12178 12179 12180 12181 12182 12183 12184 12185 12186 12187 12188 12189 12190 12191 12192 12193 12194 12195 12196 12197 12198 12199 12200 12201 12202 12203 12204 12205 12206 12207 12208 12209 12210 12211 12212 12213 12214 12215 12216 12217 12218 12219 12220 12221 12222 12223 12224 12225 12226 12227 12228 12229 12230 12231 12232 12233 12234 12235 12236 12237 12238 12239 12240 12241 12242 12243 12244 12245 12246 12247 12248 12249 12250 12251 12252 12253 12254 12255 12256 12257 12258 12259 12260 12261 12262 12263 12264 12265 12266 12267 12268 12269 12270 12271 12272 12273 12274 12275 12276 12277 12278 12279 12280 12281 12282 12283 12284 12285 12286 12287 12288 12289 12290 12291 12292 12293 12294 12295 12296 12297 12298 12299 12300 12301 12302 12303 12304 12305 12306 12307 12308 12309 12310 12311 12312 12313 12314 12315 12316 12317 12318 12319 12320 12321 12322 12323 12324 12325 12326 12327 12328 12329 12330 12331 12332 12333 12334 12335 12336 12337 12338 12339 12340 12341 12342 12343 12344 12345 12346 12347 12348 12349 12350 12351 12352 12353 12354 12355 12356 12357 12358 12359 12360 12361 12362 12363 12364 12365 12366 12367 12368 12369 12370 12371 12372 12373 12374 12375 12376 12377 12378 12379 12380 12381 12382 12383 12384 12385 12386 12387 12388 12389 12390 12391 12392 12393 12394 12395 12396 12397 12398 12399 12400 12401 12402 12403 12404 12405 12406 12407 12408 12409 12410 12411 12412 12413 12414 12415 12416 12417 12418 12419 12420 12421 12422 12423 12424 12425 12426 12427 12428 12429 12430 12431 12432 12433 12434 12435 12436 12437 12438 12439 12440 12441 12442 12443 12444 12445 12446 12447 12448 12449 12450 12451 12452 12453 12454 12455 12456 12457 12458 12459 12460 12461 12462 12463 12464 12465 12466 12467 12468 12469 12470 12471 12472 12473 12474 12475 12476 12477 12478 12479 12480 12481 12482 12483 12484 12485 12486 12487 12488 12489 12490 12491 12492 12493 12494 12495 12496 12497 12498 12499 12500 12501 12502 12503 12504 12505 12506 12507 12508 12509 12510 12511 12512 12513 12514 12515 12516 12517 12518 12519 12520 12521 12522 12523 12524 12525 12526 12527 12528 12529 12530 12531 12532 12533 12534 12535 12536 12537 12538 12539 12540 12541 12542 12543 12544 12545 12546 12547 12548 12549 12550 12551 12552 12553 12554 12555 12556 12557 12558 12559 12560 12561 12562 12563 12564 12565 12566 12567 12568 12569 12570 12571 12572 12573 12574 12575 12576 12577 12578 12579 12580 12581 12582 12583 12584 12585 12586 12587 12588 12589 12590 12591 12592 12593 12594 12595 12596 12597 12598 12599 12600 12601 12602 12603 12604 12605 12606 12607 12608 12609 12610 12611 12612 12613 12614 12615 12616 12617 12618 12619 12620 12621 12622 12623 12624 12625 12626 12627 12628 12629 12630 12631 12632 12633 12634 12635 12636 12637 12638 12639 12640 12641 12642 12643 12644 12645 12646 12647 12648 12649 12650 12651 12652 12653 12654 12655 12656 12657 12658 12659 12660 12661 12662 12663 12664 12665 12666 12667 12668 12669 12670 12671 12672 12673 12674 12675 12676 12677 12678 12679 12680 12681 12682 12683 12684 12685 12686 12687 12688 12689 12690 12691 12692 12693 12694 12695 12696 12697 12698 12699 12700 12701 12702 12703 12704 12705 12706 12707 12708 12709 12710 12711 12712 12713 12714 12715 12716 12717 12718 12719 12720 12721 12722 12723 12724 12725 12726 12727 12728 12729 12730 12731 12732 12733 12734 12735 12736 12737 12738 12739 12740 12741 12742 12743 12744 12745 12746 12747 12748 12749 12750 12751 12752 12753 12754 12755 12756 12757 12758 12759 12760 12761 12762 12763 12764 12765 12766 12767 12768 12769 12770 12771 12772 12773 12774 12775 12776 12777 12778 12779 12780 12781 12782 12783 12784 12785 12786 12787 12788 12789 12790 12791 12792 12793 12794 12795 12796 12797 12798 12799 12800 12801 12802 12803 12804 12805 12806 12807 12808 12809 12810 12811 12812 12813 12814 12815 12816 12817 12818 12819 12820 12821 12822 12823 12824 12825 12826 12827 12828 12829 12830 12831 12832 12833 12834 12835 12836 12837 12838 12839 12840 12841 12842 12843 12844 12845 12846 12847 12848 12849 12850 12851 12852 12853 12854 12855 12856 12857 12858 12859 12860 12861 12862 12863 12864 12865 12866 12867 12868 12869 12870 12871 12872 12873 12874 12875 12876 12877 12878 12879 12880 12881 12882 12883 12884 12885 12886 12887 12888 12889 12890 12891 12892 12893 12894 12895 12896 12897 12898 12899 12900 12901 12902 12903 12904 12905 12906 12907 12908 12909 12910 12911 12912 12913 12914 12915 12916 12917 12918 12919 12920 12921 12922 12923 12924 12925 12926 12927 12928 12929 12930 12931 12932 12933 12934 12935 12936 12937 12938 12939 12940 12941 12942 12943 12944 12945 12946 12947 12948 12949 12950 12951 12952 12953 12954 12955 12956 12957 12958 12959 12960 12961 12962 12963 12964 12965 12966 12967 12968 12969 12970 12971 12972 12973 12974 12975 12976 12977 12978 12979 12980 12981 12982 12983 12984 12985 12986 12987 12988 12989 12990 12991 12992 12993 12994 12995 12996 12997 12998 12999 13000 13001 13002 13003 13004 13005 13006 13007 13008 13009 13010 13011 13012 13013 13014 13015 13016 13017 13018 13019 13020 13021 13022 13023 13024 13025 13026 13027 13028 13029 13030 13031 13032 13033 13034 13035 13036 13037 13038 13039 13040 13041 13042 13043 13044 13045 13046 13047 13048 13049 13050 13051 13052 13053 13054 13055 13056 13057 13058 13059 13060 13061 13062 13063 13064 13065 13066 13067 13068 13069 13070 13071 13072 13073 13074 13075 13076 13077 13078 13079 13080 13081 13082 13083 13084 13085 13086 13087 13088 13089 13090 13091 13092 13093 13094 13095 13096 13097 13098 13099 13100 13101 13102 13103 13104 13105 13106 13107 13108 13109 13110 13111 13112 13113 13114 13115 13116 13117 13118 13119 13120 13121 13122 13123 13124 13125 13126 13127 13128 13129 13130 13131 13132 13133 13134 13135 13136 13137 13138 13139 13140 13141 13142 13143 13144 13145 13146 13147 13148 13149 13150 13151 13152 13153 13154 13155 13156 13157 13158 13159 13160 13161 13162 13163 13164 13165 13166 13167 13168 13169 13170 13171 13172 13173 13174 13175 13176 13177 13178 13179 13180 13181 13182 13183 13184 13185 13186 13187 13188 13189 13190 13191 13192 13193 13194 13195 13196 13197 13198 13199 13200 13201 13202 13203 13204 13205 13206 13207 13208 13209 13210 13211 13212 13213 13214 13215 13216 13217 13218 13219 13220 13221 13222 13223 13224 13225 13226 13227 13228 13229 13230 13231 13232 13233 13234 13235 13236 13237 13238 13239 13240 13241 13242 13243 13244 13245 13246 13247 13248 13249 13250 13251 13252 13253 13254 13255 13256 13257 13258 13259 13260 13261 13262 13263 13264 13265 13266 13267 13268 13269 13270 13271 13272 13273 13274 13275 13276 13277 13278 13279 13280 13281 13282 13283 13284 13285 13286 13287 13288 13289 13290 13291 13292 13293 13294 13295 13296 13297 13298 13299 13300 13301 13302 13303 13304 13305 13306 13307 13308 13309 13310 13311 13312 13313 13314 13315 13316 13317 13318 13319 13320 13321 13322 13323 13324 13325 13326 13327 13328 13329 13330 13331 13332 13333 13334 13335 13336 13337 13338 13339 13340 13341 13342 13343 13344 13345 13346 13347 13348 13349 13350 13351 13352 13353 13354 13355 13356 13357 13358 13359 13360 13361 13362 13363 13364 13365 13366 13367 13368 13369 13370 13371 13372 13373 13374 13375 13376 13377 13378 13379 13380 13381 13382 13383 13384 13385 13386 13387 13388 13389 13390 13391 13392 13393 13394 13395 13396 13397 13398 13399 13400 13401 13402 13403 13404 13405 13406 13407 13408 13409 13410 13411 13412 13413 13414 13415 13416 13417 13418 13419 13420 13421 13422 13423 13424 13425 13426 13427 13428 13429 13430 13431 13432 13433 13434 13435 13436 13437 13438 13439 13440 13441 13442 13443 13444 13445 13446 13447 13448 13449 13450 13451 13452 13453 13454 13455 13456 13457 13458 13459 13460 13461 13462 13463 13464 13465 13466 13467 13468 13469 13470 13471 13472 13473 13474 13475 13476 13477 13478 13479 13480 13481 13482 13483 13484 13485 13486 13487 13488 13489 13490 13491 13492 13493 13494 13495 13496 13497 13498 13499 13500 13501 13502 13503 13504 13505 13506 13507 13508 13509 13510 13511 13512 13513 13514 13515 13516 13517 13518 13519 13520 13521 13522 13523 13524 13525 13526 13527 13528 13529 13530 13531 13532 13533 13534 13535 13536 13537 13538 13539 13540 13541 13542 13543 13544 13545 13546 13547 13548 13549 13550 13551 13552 13553 13554 13555 13556 13557 13558 13559 13560 13561 13562 13563 13564 13565 13566 13567 13568 13569 13570 13571 13572 13573 13574 13575 13576 13577 13578 13579 13580 13581 13582 13583 13584 13585 13586 13587 13588 13589 13590 13591 13592 13593 13594 13595 13596 13597 13598 13599 13600 13601 13602 13603 13604 13605 13606 13607 13608 13609 13610 13611 13612 13613 13614 13615 13616 13617 13618 13619 13620 13621 13622 13623 13624 13625 13626 13627 13628 13629 13630 13631 13632 13633 13634 13635 13636 13637 13638 13639 13640 13641 13642 13643 13644 13645 13646 13647 13648 13649 13650 13651 13652 13653 13654 13655 13656 13657 13658 13659 13660 13661 13662 13663 13664 13665 13666 13667 13668 13669 13670 13671 13672 13673 13674 13675 13676 13677 13678 13679 13680 13681 13682 13683 13684 13685 13686 13687 13688 13689 13690 13691 13692 13693 13694 13695 13696 13697 13698 13699 13700 13701 13702 13703 13704 13705 13706 13707 13708 13709 13710 13711 13712 13713 13714 13715 13716 13717 13718 13719 13720 13721 13722 13723 13724 13725 13726 13727 13728 13729 13730 13731 13732 13733 13734 13735 13736 13737 13738 13739 13740 13741 13742 13743 13744 13745 13746 13747 13748 13749 13750 13751 13752 13753 13754 13755 13756 13757 13758 13759 13760 13761 13762 13763 13764 13765 13766 13767 13768 13769 13770 13771 13772 13773 13774 13775 13776 13777 13778 13779 13780 13781 13782 13783 13784 13785 13786 13787 13788 13789 13790 13791 13792 13793 13794 13795 13796 13797 13798 13799 13800 13801 13802 13803 13804 13805 13806 13807 13808 13809 13810 13811 13812 13813 13814 13815 13816 13817 13818 13819 13820 13821 13822 13823 13824 13825 13826 13827 13828 13829 13830 13831 13832 13833 13834 13835 13836 13837 13838 13839 13840 13841 13842 13843 13844 13845 13846 13847 13848 13849 13850 13851 13852 13853 13854 13855 13856 13857 13858 13859 13860 13861 13862 13863 13864 13865 13866 13867 13868 13869 13870 13871 13872 13873 13874 13875 13876 13877 13878 13879 13880 13881 13882 13883 13884 13885 13886 13887 13888 13889 13890 13891 13892 13893 13894 13895 13896 13897 13898 13899 13900 13901 13902 13903 13904 13905 13906 13907 13908 13909 13910 13911 13912 13913 13914 13915 13916 13917 13918 13919 13920 13921 13922 13923 13924 13925 13926 13927 13928 13929 13930 13931 13932 13933 13934 13935 13936 13937 13938 13939 13940 13941 13942 13943 13944 13945 13946 13947 13948 13949 13950 13951 13952 13953 13954 13955 13956 13957 13958 13959 13960 13961 13962 13963 13964 13965 13966 13967 13968 13969 13970 13971 13972 13973 13974 13975 13976 13977 13978 13979 13980 13981 13982 13983 13984 13985 13986 13987 13988 13989 13990 13991 13992 13993 13994 13995 13996 13997 13998 13999 14000 14001 14002 14003 14004 14005 14006 14007 14008 14009 14010 14011 14012 14013 14014 14015 14016 14017 14018 14019 14020 14021 14022 14023 14024 14025 14026 14027 14028 14029 14030 14031 14032 14033 14034 14035 14036 14037 14038 14039 14040 14041 14042 14043 14044 14045 14046 14047 14048 14049 14050 14051 14052 14053 14054 14055 14056 14057 14058 14059 14060 14061 14062 14063 14064 14065 14066 14067 14068 14069 14070 14071 14072 14073 14074 14075 14076 14077 14078 14079 14080 14081 14082 14083 14084 14085 14086 14087 14088 14089 14090 14091 14092 14093 14094 14095 14096 14097 14098 14099 14100 14101 14102 14103 14104 14105 14106 14107 14108 14109 14110 14111 14112 14113 14114 14115 14116 14117 14118 14119 14120 14121 14122 14123 14124 14125 14126 14127 14128 14129 14130 14131 14132 14133 14134 14135 14136 14137 14138 14139 14140 14141 14142 14143 14144 14145 14146 14147 14148 14149 14150 14151 14152 14153 14154 14155 14156 14157 14158 14159 14160 14161 14162 14163 14164 14165 14166 14167 14168 14169 14170 14171 14172 14173 14174 14175 14176 14177 14178 14179 14180 14181 14182 14183 14184 14185 14186 14187 14188 14189 14190 14191 14192 14193 14194 14195 14196 14197 14198 14199 14200 14201 14202 14203 14204 14205 14206 14207 14208 14209 14210 14211 14212 14213 14214 14215 14216 14217 14218 14219 14220 14221 14222 14223 14224 14225 14226 14227 14228 14229 14230 14231 14232 14233 14234 14235 14236 14237 14238 14239 14240 14241 14242 14243 14244 14245 14246 14247 14248 14249 14250 14251 14252 14253 14254 14255 14256 14257 14258 14259 14260 14261 14262 14263 14264 14265 14266 14267 14268 14269 14270 14271 14272 14273 14274 14275 14276 14277 14278 14279 14280 14281 14282 14283 14284 14285 14286 14287 14288 14289 14290 14291 14292 14293 14294 14295 14296 14297 14298 14299 14300 14301 14302 14303 14304 14305 14306 14307 14308 14309 14310 14311 14312 14313 14314 14315 14316 14317 14318 14319 14320 14321 14322 14323 14324 14325 14326 14327 14328 14329 14330 14331 14332 14333 14334 14335 14336 14337 14338 14339 14340 14341 14342 14343 14344 14345 14346 14347 14348 14349 14350 14351 14352 14353 14354 14355 14356 14357 14358 14359 14360 14361 14362 14363 14364 14365 14366 14367 14368 14369 14370 14371 14372 14373 14374 14375 14376 14377 14378 14379 14380 14381 14382 14383 14384 14385 14386 14387 14388 14389 14390 14391 14392 14393 14394 14395 14396 14397 14398 14399 14400 14401 14402 14403 14404 14405 14406 14407 14408 14409 14410 14411 14412 14413 14414 14415 14416 14417 14418 14419 14420 14421 14422 14423 14424 14425 14426 14427 14428 14429 14430 14431 14432 14433 14434 14435 14436 14437 14438 14439 14440 14441 14442 14443 14444 14445 14446 14447 14448 14449 14450 14451 14452 14453 14454 14455 14456 14457 14458 14459 14460 14461 14462 14463 14464 14465 14466 14467 14468 14469 14470 14471 14472 14473 14474 14475 14476 14477 14478 14479 14480 14481 14482 14483 14484 14485 14486 14487 14488 14489 14490 14491 14492 14493 14494 14495 14496 14497 14498 14499 14500 14501 14502 14503 14504 14505 14506 14507 14508 14509 14510 14511 14512 14513 14514 14515 14516 14517 14518 14519 14520 14521 14522 14523 14524 14525 14526 14527 14528 14529 14530 14531 14532 14533 14534 14535 14536 14537 14538 14539 14540 14541 14542 14543 14544 14545 14546 14547 14548 14549 14550 14551 14552 14553 14554 14555 14556 14557 14558 14559 14560 14561 14562 14563 14564 14565 14566 14567 14568 14569 14570 14571 14572 14573 14574 14575 14576 14577 14578 14579 14580 14581 14582 14583 14584 14585 14586 14587 14588 14589 14590 14591 14592 14593 14594 14595 14596 14597 14598 14599 14600 14601 14602 14603 14604 14605 14606 14607 14608 14609 14610 14611 14612 14613 14614 14615 14616 14617 14618 14619 14620 14621 14622 14623 14624 14625 14626 14627 14628 14629 14630 14631 14632 14633 14634 14635 14636 14637 14638 14639 14640 14641 14642 14643 14644 14645 14646 14647 14648 14649 14650 14651 14652 14653 14654 14655 14656 14657 14658 14659 14660 14661 14662 14663 14664 14665 14666 14667 14668 14669 14670 14671 14672 14673 14674 14675 14676 14677 14678 14679 14680 14681 14682 14683 14684 14685 14686 14687 14688 14689 14690 14691 14692 14693 14694 14695 14696 14697 14698 14699 14700 14701 14702 14703 14704 14705 14706 14707 14708 14709 14710 14711 14712 14713 14714 14715 14716 14717 14718 14719 14720 14721 14722 14723 14724 14725 14726 14727 14728 14729 14730 14731 14732 14733 14734 14735 14736 14737 14738 14739 14740 14741 14742 14743 14744 14745 14746 14747 14748 14749 14750 14751 14752 14753 14754 14755 14756 14757 14758 14759 14760 14761 14762 14763 14764 14765 14766 14767 14768 14769 14770 14771 14772 14773 14774 14775 14776 14777 14778 14779 14780 14781 14782 14783 14784 14785 14786 14787 14788 14789 14790 14791 14792 14793 14794 14795 14796 14797 14798 14799 14800 14801 14802 14803 14804 14805 14806 14807 14808 14809 14810 14811 14812 14813 14814 14815 14816 14817 14818 14819 14820 14821 14822 14823 14824 14825 14826 14827 14828 14829 14830 14831 14832 14833 14834 14835 14836 14837 14838 14839 14840 14841 14842 14843 14844 14845 14846 14847 14848 14849 14850 14851 14852 14853 14854 14855 14856 14857 14858 14859 14860 14861 14862 14863 14864 14865 14866 14867 14868 14869 14870 14871 14872 14873 14874 14875 14876 14877 14878 14879 14880 14881 14882 14883 14884 14885 14886 14887 14888 14889 14890 14891 14892 14893 14894 14895 14896 14897 14898 14899 14900 14901 14902 14903 14904 14905 14906 14907 14908 14909 14910 14911 14912 14913 14914 14915 14916 14917 14918 14919 14920 14921 14922 14923 14924 14925 14926 14927 14928 14929 14930 14931 14932 14933 14934 14935 14936 14937 14938 14939 14940 14941 14942 14943 14944 14945 14946 14947 14948 14949 14950 14951 14952 14953 14954 14955 14956 14957 14958 14959 14960 14961 14962 14963 14964 14965 14966 14967 14968 14969 14970 14971 14972 14973 14974 14975 14976 14977 14978 14979 14980 14981 14982 14983 14984 14985 14986 14987 14988 14989 14990 14991 14992 14993 14994 14995 14996 14997 14998 14999 15000 15001 15002 15003 15004 15005 15006 15007 15008 15009 15010 15011 15012 15013 15014 15015 15016 15017 15018 15019 15020 15021 15022 15023 15024 15025 15026 15027 15028 15029 15030 15031 15032 15033 15034 15035 15036 15037 15038 15039 15040 15041 15042 15043 15044 15045 15046 15047 15048 15049 15050 15051 15052 15053 15054 15055 15056 15057 15058 15059 15060 15061 15062 15063 15064 15065 15066 15067 15068 15069 15070 15071 15072 15073 15074 15075 15076 15077 15078 15079 15080 15081 15082 15083 15084 15085 15086 15087 15088 15089 15090 15091 15092 15093 15094 15095 15096 15097 15098 15099 15100 15101 15102 15103 15104 15105 15106 15107 15108 15109 15110 15111 15112 15113 15114 15115 15116 15117 15118 15119 15120 15121 15122 15123 15124 15125 15126 15127 15128 15129 15130 15131 15132 15133 15134 15135 15136 15137 15138 15139 15140 15141 15142 15143 15144 15145 15146 15147 15148 15149 15150 15151 15152 15153 15154 15155 15156 15157 15158 15159 15160 15161 15162 15163 15164 15165 15166 15167 15168 15169 15170 15171 15172 15173 15174 15175 15176 15177 15178 15179 15180 15181 15182 15183 15184 15185 15186 15187 15188 15189 15190 15191 15192 15193 15194 15195 15196 15197 15198 15199 15200 15201 15202 15203 15204 15205 15206 15207 15208 15209 15210 15211 15212 15213 15214 15215 15216 15217 15218 15219 15220 15221 15222 15223 15224 15225 15226 15227 15228 15229 15230 15231 15232 15233 15234 15235 15236 15237 15238 15239 15240 15241 15242 15243 15244 15245 15246 15247 15248 15249 15250 15251 15252 15253 15254 15255 15256 15257 15258 15259 15260 15261 15262 15263 15264 15265 15266 15267 15268 15269 15270 15271 15272 15273 15274 15275 15276 15277 15278 15279 15280 15281 15282 15283 15284 15285 15286 15287 15288 15289 15290 15291 15292 15293 15294 15295 15296 15297 15298 15299 15300 15301 15302 15303 15304 15305 15306 15307 15308 15309 15310 15311 15312 15313 15314 15315 15316 15317 15318 15319 15320 15321 15322 15323 15324 15325 15326 15327 15328 15329 15330 15331 15332 15333 15334 15335 15336 15337 15338 15339 15340 15341 15342 15343 15344 15345 15346 15347 15348 15349 15350 15351 15352 15353 15354 15355 15356 15357 15358 15359 15360 15361 15362 15363 15364 15365 15366 15367 15368 15369 15370 15371 15372 15373 15374 15375 15376 15377 15378 15379 15380 15381 15382 15383 15384 15385 15386 15387 15388 15389 15390 15391 15392 15393 15394 15395 15396 15397 15398 15399 15400 15401 15402 15403 15404 15405 15406 15407 15408 15409 15410 15411 15412 15413 15414 15415 15416 15417 15418 15419 15420 15421 15422 15423 15424 15425 15426 15427 15428 15429 15430 15431 15432 15433 15434 15435 15436 15437 15438 15439 15440 15441 15442 15443 15444 15445 15446 15447 15448 15449 15450 15451 15452 15453 15454 15455 15456 15457 15458 15459 15460 15461 15462 15463 15464 15465 15466 15467 15468 15469 15470 15471 15472 15473 15474 15475 15476 15477 15478 15479 15480 15481 15482 15483 15484 15485 15486 15487 15488 15489 15490 15491 15492 15493 15494 15495 15496 15497 15498 15499 15500 15501 15502 15503 15504 15505 15506 15507 15508 15509 15510 15511 15512 15513 15514 15515 15516 15517 15518 15519 15520 15521 15522 15523 15524 15525 15526 15527 15528 15529 15530 15531 15532 15533 15534 15535 15536 15537 15538 15539 15540 15541 15542 15543 15544 15545 15546 15547 15548 15549 15550 15551 15552 15553 15554 15555 15556 15557 15558 15559 15560 15561 15562 15563 15564 15565 15566 15567 15568 15569 15570 15571 15572 15573 15574 15575 15576 15577 15578 15579 15580 15581 15582 15583 15584 15585 15586 15587 15588 15589 15590 15591 15592 15593 15594 15595 15596 15597 15598 15599 15600 15601 15602 15603 15604 15605 15606 15607 15608 15609 15610 15611 15612 15613 15614 15615 15616 15617 15618 15619 15620 15621 15622 15623 15624 15625 15626 15627 15628 15629 15630 15631 15632 15633 15634 15635 15636 15637 15638 15639 15640 15641 15642 15643 15644 15645 15646 15647 15648 15649 15650 15651 15652 15653 15654 15655 15656 15657 15658 15659 15660 15661 15662 15663 15664 15665 15666 15667 15668 15669 15670 15671 15672 15673 15674 15675 15676 15677 15678 15679 15680 15681 15682 15683 15684 15685 15686 15687 15688 15689 15690 15691 15692 15693 15694 15695 15696 15697 15698 15699 15700 15701 15702 15703 15704 15705 15706 15707 15708 15709 15710 15711 15712 15713 15714 15715 15716 15717 15718 15719 15720 15721 15722 15723 15724 15725 15726 15727 15728 15729 15730 15731 15732 15733 15734 15735 15736 15737 15738 15739 15740 15741 15742 15743 15744 15745 15746 15747 15748 15749 15750 15751 15752 15753 15754 15755 15756 15757 15758 15759 15760 15761 15762 15763 15764 15765 15766 15767 15768 15769 15770 15771 15772 15773 15774 15775 15776 15777 15778 15779 15780 15781 15782 15783 15784 15785 15786 15787 15788 15789 15790 15791 15792 15793 15794 15795 15796 15797 15798 15799 15800 15801 15802 15803 15804 15805 15806 15807 15808 15809 15810 15811 15812 15813 15814 15815 15816 15817 15818 15819 15820 15821 15822 15823 15824 15825 15826 15827 15828 15829 15830 15831 15832 15833 15834 15835 15836 15837 15838 15839 15840 15841 15842 15843 15844 15845 15846 15847 15848 15849 15850 15851 15852 15853 15854 15855 15856 15857 15858 15859 15860 15861 15862 15863 15864 15865 15866 15867 15868 15869 15870 15871 15872 15873 15874 15875 15876 15877 15878 15879 15880 15881 15882 15883 15884 15885 15886 15887 15888 15889 15890 15891 15892 15893 15894 15895 15896 15897 15898 15899 15900 15901 15902 15903 15904 15905 15906 15907 15908 15909 15910 15911 15912 15913 15914 15915 15916 15917 15918 15919 15920 15921 15922 15923 15924 15925 15926 15927 15928 15929 15930 15931 15932 15933 15934 15935 15936 15937 15938 15939 15940 15941 15942 15943 15944 15945 15946 15947 15948 15949 15950 15951 15952 15953 15954 15955 15956 15957 15958 15959 15960 15961 15962 15963 15964 15965 15966 15967 15968 15969 15970 15971 15972 15973 15974 15975 15976 15977 15978 15979 15980 15981 15982 15983 15984 15985 15986 15987 15988 15989 15990 15991 15992 15993 15994 15995 15996 15997 15998 15999 16000 16001 16002 16003 16004 16005 16006 16007 16008 16009 16010 16011 16012 16013 16014 16015 16016 16017 16018 16019 16020 16021 16022 16023 16024 16025 16026 16027 16028 16029 16030 16031 16032 16033 16034 16035 16036 16037 16038 16039 16040 16041 16042 16043 16044 16045 16046 16047 16048 16049 16050 16051 16052 16053 16054 16055 16056 16057 16058 16059 16060 16061 16062 16063 16064 16065 16066 16067 16068 16069 16070 16071 16072 16073 16074 16075 16076 16077 16078 16079 16080 16081 16082 16083 16084 16085 16086 16087 16088 16089 16090 16091 16092 16093 16094 16095 16096 16097 16098 16099 16100 16101 16102 16103 16104 16105 16106 16107 16108 16109 16110 16111 16112 16113 16114 16115 16116 16117 16118 16119 16120 16121 16122 16123 16124 16125 16126 16127 16128 16129 16130 16131 16132 16133 16134 16135 16136 16137 16138 16139 16140 16141 16142 16143 16144 16145 16146 16147 16148 16149 16150 16151 16152 16153 16154 16155 16156 16157 16158 16159 16160 16161 16162 16163 16164 16165 16166 16167 16168 16169 16170 16171 16172 16173 16174 16175 16176 16177 16178 16179 16180 16181 16182 16183 16184 16185 16186 16187 16188 16189 16190 16191 16192 16193 16194 16195 16196 16197 16198 16199 16200 16201 16202 16203 16204 16205 16206 16207 16208 16209 16210 16211 16212 16213 16214 16215 16216 16217 16218 16219 16220 16221 16222 16223 16224 16225 16226 16227 16228 16229 16230 16231 16232 16233 16234 16235 16236 16237 16238 16239 16240 16241 16242 16243 16244 16245 16246 16247 16248 16249 16250 16251 16252 16253 16254 16255 16256 16257 16258 16259 16260 16261 16262 16263 16264 16265 16266 16267 16268 16269 16270 16271 16272 16273 16274 16275 16276 16277 16278 16279 16280 16281 16282 16283 16284 16285 16286 16287 16288 16289 16290 16291 16292 16293 16294 16295 16296 16297 16298 16299 16300 16301 16302 16303 16304 16305 16306 16307 16308 16309 16310 16311 16312 16313 16314 16315 16316 16317 16318 16319 16320 16321 16322 16323 16324 16325 16326 16327 16328 16329 16330 16331 16332 16333 16334 16335 16336 16337 16338 16339 16340 16341 16342 16343 16344 16345 16346 16347 16348 16349 16350 16351 16352 16353 16354 16355 16356 16357 16358 16359 16360 16361 16362 16363 16364 16365 16366 16367 16368 16369 16370 16371 16372 16373 16374 16375 16376 16377 16378 16379 16380 16381 16382 16383 16384 16385 16386 16387 16388 16389 16390 16391 16392 16393 16394 16395 16396 16397 16398 16399 16400 16401 16402 16403 16404 16405 16406 16407 16408 16409 16410 16411 16412 16413 16414 16415 16416 16417 16418 16419 16420 16421 16422 16423 16424 16425 16426 16427 16428 16429 16430 16431 16432 16433 16434 16435 16436 16437 16438 16439 16440 16441 16442 16443 16444 16445 16446 16447 16448 16449 16450 16451 16452 16453 16454 16455 16456 16457 16458 16459 16460 16461 16462 16463 16464 16465 16466 16467 16468 16469 16470 16471 16472 16473 16474 16475 16476 16477 16478 16479 16480 16481 16482 16483 16484 16485 16486 16487 16488 16489 16490 16491 16492 16493 16494 16495 16496 16497 16498 16499 16500 16501 16502 16503 16504 16505 16506 16507 16508 16509 16510 16511 16512 16513 16514 16515 16516 16517 16518 16519 16520 16521 16522 16523 16524 16525 16526 16527 16528 16529 16530 16531 16532 16533 16534 16535 16536 16537 16538 16539 16540 16541 16542 16543 16544 16545 16546 16547 16548 16549 16550 16551 16552 16553 16554 16555 16556 16557 16558 16559 16560 16561 16562 16563 16564 16565 16566 16567 16568 16569 16570 16571 16572 16573 16574 16575 16576 16577 16578 16579 16580 16581 16582 16583 16584 16585 16586 16587 16588 16589 16590 16591 16592 16593 16594 16595 16596 16597 16598 16599 16600 16601 16602 16603 16604 16605 16606 16607 16608 16609 16610 16611 16612 16613 16614 16615 16616 16617 16618 16619 16620 16621 16622 16623 16624 16625 16626 16627 16628 16629 16630 16631 16632 16633 16634 16635 16636 16637 16638 16639 16640 16641 16642 16643 16644 16645 16646 16647 16648 16649 16650 16651 16652 16653 16654 16655 16656 16657 16658 16659 16660 16661 16662 16663 16664 16665 16666 16667 16668 16669 16670 16671 16672 16673 16674 16675 16676 16677 16678 16679 16680 16681 16682 16683 16684 16685 16686 16687 16688 16689 16690 16691 16692 16693 16694 16695 16696 16697 16698 16699 16700 16701 16702 16703 16704 16705 16706 16707 16708 16709 16710 16711 16712 16713 16714 16715 16716 16717 16718 16719 16720 16721 16722 16723 16724 16725 16726 16727 16728 16729 16730 16731 16732 16733 16734 16735 16736 16737 16738 16739 16740 16741 16742 16743 16744 16745 16746 16747 16748 16749 16750 16751 16752 16753 16754 16755 16756 16757 16758 16759 16760 16761 16762 16763 16764 16765 16766 16767 16768 16769 16770 16771 16772 16773 16774 16775 16776 16777 16778 16779 16780 16781 16782 16783 16784 16785 16786 16787 16788 16789 16790 16791 16792 16793 16794 16795 16796 16797 16798 16799 16800 16801 16802 16803 16804 16805 16806 16807 16808 16809 16810 16811 16812 16813 16814 16815 16816 16817 16818 16819 16820 16821 16822 16823 16824 16825 16826 16827 16828 16829 16830 16831 16832 16833 16834 16835 16836 16837 16838 16839 16840 16841 16842 16843 16844 16845 16846 16847 16848 16849 16850 16851 16852 16853 16854 16855 16856 16857 16858 16859 16860 16861 16862 16863 16864 16865 16866 16867 16868 16869 16870 16871 16872 16873 16874 16875 16876 16877 16878 16879 16880 16881 16882 16883 16884 16885 16886 16887 16888 16889 16890 16891 16892 16893 16894 16895 16896 16897 16898 16899 16900 16901 16902 16903 16904 16905 16906 16907 16908 16909 16910 16911 16912 16913 16914 16915 16916 16917 16918 16919 16920 16921 16922 16923 16924 16925 16926 16927 16928 16929 16930 16931 16932 16933 16934 16935 16936 16937 16938 16939 16940 16941 16942 16943 16944 16945 16946 16947 16948 16949 16950 16951 16952 16953 16954 16955 16956 16957 16958 16959 16960 16961 16962 16963 16964 16965 16966 16967 16968 16969 16970 16971 16972 16973 16974 16975 16976 16977 16978 16979 16980 16981 16982 16983 16984 16985 16986 16987 16988 16989 16990 16991 16992 16993 16994 16995 16996 16997 16998 16999 17000 17001 17002 17003 17004 17005 17006 17007 17008 17009 17010 17011 17012 17013 17014 17015 17016 17017 17018 17019 17020 17021 17022 17023 17024 17025 17026 17027 17028 17029 17030 17031 17032 17033 17034 17035 17036 17037 17038 17039 17040 17041 17042 17043 17044 17045 17046 17047 17048 17049 17050 17051 17052 17053 17054 17055 17056 17057 17058 17059 17060 17061 17062 17063 17064 17065 17066 17067 17068 17069 17070 17071 17072 17073 17074 17075 17076 17077 17078 17079 17080 17081 17082 17083 17084 17085 17086 17087 17088 17089 17090 17091 17092 17093 17094 17095 17096 17097 17098 17099 17100 17101 17102 17103 17104 17105 17106 17107 17108 17109 17110 17111 17112 17113 17114 17115 17116 17117 17118 17119 17120 17121 17122 17123 17124 17125 17126 17127 17128 17129 17130 17131 17132 17133 17134 17135 17136 17137 17138 17139 17140 17141 17142 17143 17144 17145 17146 17147 17148 17149 17150 17151 17152 17153 17154 17155 17156 17157 17158 17159 17160 17161 17162 17163 17164 17165 17166 17167 17168 17169 17170 17171 17172 17173 17174 17175 17176 17177 17178 17179 17180 17181 17182 17183 17184 17185 17186 17187 17188 17189 17190 17191 17192 17193 17194 17195 17196 17197 17198 17199 17200 17201 17202 17203 17204 17205 17206 17207 17208 17209 17210 17211 17212 17213 17214 17215 17216 17217 17218 17219 17220 17221 17222 17223 17224 17225 17226 17227 17228 17229 17230 17231 17232 17233 17234 17235 17236 17237 17238 17239 17240 17241 17242 17243 17244 17245 17246 17247 17248 17249 17250 17251 17252 17253 17254 17255 17256 17257 17258 17259 17260 17261 17262 17263 17264 17265 17266 17267 17268 17269 17270 17271 17272 17273 17274 17275 17276 17277 17278 17279 17280 17281 17282 17283 17284 17285 17286 17287 17288 17289 17290 17291 17292 17293 17294 17295 17296 17297 17298 17299 17300 17301 17302 17303 17304 17305 17306 17307 17308 17309 17310 17311 17312 17313 17314 17315 17316 17317 17318 17319 17320 17321 17322 17323 17324 17325 17326 17327 17328 17329 17330 17331 17332 17333 17334 17335 17336 17337 17338 17339 17340 17341 17342 17343 17344 17345 17346 17347 17348 17349 17350 17351 17352 17353 17354 17355 17356 17357 17358 17359 17360 17361 17362 17363 17364 17365 17366 17367 17368 17369 17370 17371 17372 17373 17374 17375 17376 17377 17378 17379 17380 17381 17382 17383 17384 17385 17386 17387 17388 17389 17390 17391 17392 17393 17394 17395 17396 17397 17398 17399 17400 17401 17402 17403 17404 17405 17406 17407 17408 17409 17410 17411 17412 17413 17414 17415 17416 17417 17418 17419 17420 17421 17422 17423 17424 17425 17426 17427 17428 17429 17430 17431 17432 17433 17434 17435 17436 17437 17438 17439 17440 17441 17442 17443 17444 17445 17446 17447 17448 17449 17450 17451 17452 17453 17454 17455 17456 17457 17458 17459 17460 17461 17462 17463 17464 17465 17466 17467 17468 17469 17470 17471 17472 17473 17474 17475 17476 17477 17478 17479 17480 17481 17482 17483 17484 17485 17486 17487 17488 17489 17490 17491 17492 17493 17494 17495 17496 17497 17498 17499 17500 17501 17502 17503 17504 17505 17506 17507 17508 17509 17510 17511 17512 17513 17514 17515 17516 17517 17518 17519 17520 17521 17522 17523 17524 17525 17526 17527 17528 17529 17530 17531 17532 17533 17534 17535 17536 17537 17538 17539 17540 17541 17542 17543 17544 17545 17546 17547 17548 17549 17550 17551 17552 17553 17554 17555 17556 17557 17558 17559 17560 17561 17562 17563 17564 17565 17566 17567 17568 17569 17570 17571 17572 17573 17574 17575 17576 17577 17578 17579 17580 17581 17582 17583 17584 17585 17586 17587 17588 17589 17590 17591 17592 17593 17594 17595 17596 17597 17598 17599 17600 17601 17602 17603 17604 17605 17606 17607 17608 17609 17610 17611 17612 17613 17614 17615 17616 17617 17618 17619 17620 17621 17622 17623 17624 17625 17626 17627 17628 17629 17630 17631 17632 17633 17634 17635 17636 17637 17638 17639 17640 17641 17642 17643 17644 17645 17646 17647 17648 17649 17650 17651 17652 17653 17654 17655 17656 17657 17658 17659 17660 17661 17662 17663 17664 17665 17666 17667 17668 17669 17670 17671 17672 17673 17674 17675 17676 17677 17678 17679 17680 17681 17682 17683 17684 17685 17686 17687 17688 17689 17690 17691 17692 17693 17694 17695 17696 17697 17698 17699 17700 17701 17702 17703 17704 17705 17706 17707 17708 17709 17710 17711 17712 17713 17714 17715 17716 17717 17718 17719 17720 17721 17722 17723 17724 17725 17726 17727 17728 17729 17730 17731 17732 17733 17734 17735 17736 17737 17738 17739 17740 17741 17742 17743 17744 17745 17746 17747 17748 17749 17750 17751 17752 17753 17754 17755 17756 17757 17758 17759 17760 17761 17762 17763 17764 17765 17766 17767 17768 17769 17770 17771 17772 17773 17774 17775 17776 17777 17778 17779 17780 17781 17782 17783 17784 17785 17786 17787 17788 17789 17790 17791 17792 17793 17794 17795 17796 17797 17798 17799 17800 17801 17802 17803 17804 17805 17806 17807 17808 17809 17810 17811 17812 17813 17814 17815 17816 17817 17818 17819 17820 17821 17822 17823 17824 17825 17826 17827 17828 17829 17830 17831 17832 17833 17834 17835 17836 17837 17838 17839 17840 17841 17842 17843 17844 17845 17846 17847 17848 17849 17850 17851 17852 17853 17854 17855 17856 17857 17858 17859 17860 17861 17862 17863 17864 17865 17866 17867 17868 17869 17870 17871 17872 17873 17874 17875 17876 17877 17878 17879 17880 17881 17882 17883 17884 17885 17886 17887 17888 17889 17890 17891 17892 17893 17894 17895 17896 17897 17898 17899 17900 17901 17902 17903 17904 17905 17906 17907 17908 17909 17910 17911 17912 17913 17914 17915 17916 17917 17918 17919 17920 17921 17922 17923 17924 17925 17926 17927 17928 17929 17930 17931 17932 17933 17934 17935 17936 17937 17938 17939 17940 17941 17942 17943 17944 17945 17946 17947 17948 17949 17950 17951 17952 17953 17954 17955 17956 17957 17958 17959 17960 17961 17962 17963 17964 17965 17966 17967 17968 17969 17970 17971 17972 17973 17974 17975 17976 17977 17978 17979 17980 17981 17982 17983 17984 17985 17986 17987 17988 17989 17990 17991 17992 17993 17994 17995 17996 17997 17998 17999 18000 18001 18002 18003 18004 18005 18006 18007 18008 18009 18010 18011 18012 18013 18014 18015 18016 18017 18018 18019 18020 18021 18022 18023 18024 18025 18026 18027 18028 18029 18030 18031 18032 18033 18034 18035 18036 18037 18038 18039 18040 18041 18042 18043 18044 18045 18046 18047 18048 18049 18050 18051 18052 18053 18054 18055 18056 18057 18058 18059 18060 18061 18062 18063 18064 18065 18066 18067 18068 18069 18070 18071 18072 18073 18074 18075 18076 18077 18078 18079 18080 18081 18082 18083 18084 18085 18086 18087 18088 18089 18090 18091 18092 18093 18094 18095 18096 18097 18098 18099 18100 18101 18102 18103 18104 18105 18106 18107 18108 18109 18110 18111 18112 18113 18114 18115 18116 18117 18118 18119 18120 18121 18122 18123 18124 18125 18126 18127 18128 18129 18130 18131 18132 18133 18134 18135 18136 18137 18138 18139 18140 18141 18142 18143 18144 18145 18146 18147 18148 18149 18150 18151 18152 18153 18154 18155 18156 18157 18158 18159 18160 18161 18162 18163 18164 18165 18166 18167 18168 18169 18170 18171 18172 18173 18174 18175 18176 18177 18178 18179 18180 18181 18182 18183 18184 18185 18186 18187 18188 18189 18190 18191 18192 18193 18194 18195 18196 18197 18198 18199 18200 18201 18202 18203 18204 18205 18206 18207 18208 18209 18210 18211 18212 18213 18214 18215 18216 18217 18218 18219 18220 18221 18222 18223 18224 18225 18226 18227 18228 18229 18230 18231 18232 18233 18234 18235 18236 18237 18238 18239 18240 18241 18242 18243 18244 18245 18246 18247 18248 18249 18250 18251 18252 18253 18254 18255 18256 18257 18258 18259 18260 18261 18262 18263 18264 18265 18266 18267 18268 18269 18270 18271 18272 18273 18274 18275 18276 18277 18278 18279 18280 18281 18282 18283 18284 18285 18286 18287 18288 18289 18290 18291 18292 18293 18294 18295 18296 18297 18298 18299 18300 18301 18302 18303 18304 18305 18306 18307 18308 18309 18310 18311 18312 18313 18314 18315 18316 18317 18318 18319 18320 18321 18322 18323 18324 18325 18326 18327 18328 18329 18330 18331 18332 18333 18334 18335 18336 18337 18338 18339 18340 18341 18342 18343 18344 18345 18346 18347 18348 18349 18350 18351 18352 18353 18354 18355 18356 18357 18358 18359 18360 18361 18362 18363 18364 18365 18366 18367 18368 18369 18370 18371 18372 18373 18374 18375 18376 18377 18378 18379 18380 18381 18382 18383 18384 18385 18386 18387 18388 18389 18390 18391 18392 18393 18394 18395 18396 18397 18398 18399 18400 18401 18402 18403 18404 18405 18406 18407 18408 18409 18410 18411 18412 18413 18414 18415 18416 18417 18418 18419 18420 18421 18422 18423 18424 18425 18426 18427 18428 18429 18430 18431 18432 18433 18434 18435 18436 18437 18438 18439 18440 18441 18442 18443 18444 18445 18446 18447 18448 18449 18450 18451 18452 18453 18454 18455 18456 18457 18458 18459 18460 18461 18462 18463 18464 18465 18466 18467 18468 18469 18470 18471 18472 18473 18474 18475 18476 18477 18478 18479 18480 18481 18482 18483 18484 18485 18486 18487 18488 18489 18490 18491 18492 18493 18494 18495 18496 18497 18498 18499 18500 18501 18502 18503 18504 18505 18506 18507 18508 18509 18510 18511 18512 18513 18514 18515 18516 18517 18518 18519 18520 18521 18522 18523 18524 18525 18526 18527 18528 18529 18530 18531 18532 18533 18534 18535 18536 18537 18538 18539 18540 18541 18542 18543 18544 18545 18546 18547 18548 18549 18550 18551 18552 18553 18554 18555 18556 18557 18558 18559 18560 18561 18562 18563 18564 18565 18566 18567 18568 18569 18570 18571 18572 18573 18574 18575 18576 18577 18578 18579 18580 18581 18582 18583 18584 18585 18586 18587 18588 18589 18590 18591 18592 18593 18594 18595 18596 18597 18598 18599 18600 18601 18602 18603 18604 18605 18606 18607 18608 18609 18610 18611 18612 18613 18614 18615 18616 18617 18618 18619 18620 18621 18622 18623 18624 18625 18626 18627 18628 18629 18630 18631 18632 18633 18634 18635 18636 18637 18638 18639 18640 18641 18642 18643 18644 18645 18646 18647 18648 18649 18650 18651 18652 18653 18654 18655 18656 18657 18658 18659 18660 18661 18662 18663 18664 18665 18666 18667 18668 18669 18670 18671 18672 18673 18674 18675 18676 18677 18678 18679 18680 18681 18682 18683 18684 18685 18686 18687 18688 18689 18690 18691 18692 18693 18694 18695 18696 18697 18698 18699 18700 18701 18702 18703 18704 18705 18706 18707 18708 18709 18710 18711 18712 18713 18714 18715 18716 18717 18718 18719 18720 18721 18722 18723 18724 18725 18726 18727 18728 18729 18730 18731 18732 18733 18734 18735 18736 18737 18738 18739 18740 18741 18742 18743 18744 18745 18746 18747 18748 18749 18750 18751 18752 18753 18754 18755 18756 18757 18758 18759 18760 18761 18762 18763 18764 18765 18766 18767 18768 18769 18770 18771 18772 18773 18774 18775 18776 18777 18778 18779 18780 18781 18782 18783 18784 18785 18786 18787 18788 18789 18790 18791 18792 18793 18794 18795 18796 18797 18798 18799 18800 18801 18802 18803 18804 18805 18806 18807 18808 18809 18810 18811 18812 18813 18814 18815 18816 18817 18818 18819 18820 18821 18822 18823 18824 18825 18826 18827 18828 18829 18830 18831 18832 18833 18834 18835 18836 18837 18838 18839 18840 18841 18842 18843 18844 18845 18846 18847 18848 18849 18850 18851 18852 18853 18854 18855 18856 18857 18858 18859 18860 18861 18862 18863 18864 18865 18866 18867 18868 18869 18870 18871 18872 18873 18874 18875 18876 18877 18878 18879 18880 18881 18882 18883 18884 18885 18886 18887 18888 18889 18890 18891 18892 18893 18894 18895 18896 18897 18898 18899 18900 18901 18902 18903 18904 18905 18906 18907 18908 18909 18910 18911 18912 18913 18914 18915 18916 18917 18918 18919 18920 18921 18922 18923 18924 18925 18926 18927 18928 18929 18930 18931 18932 18933 18934 18935 18936 18937 18938 18939 18940 18941 18942 18943 18944 18945 18946 18947 18948 18949 18950 18951 18952 18953 18954 18955 18956 18957 18958 18959 18960 18961 18962 18963 18964 18965 18966 18967 18968 18969 18970 18971 18972 18973 18974 18975 18976 18977 18978 18979 18980 18981 18982 18983 18984 18985 18986 18987 18988 18989 18990 18991 18992 18993 18994 18995 18996 18997 18998 18999 19000 19001 19002 19003 19004 19005 19006 19007 19008 19009 19010 19011 19012 19013 19014 19015 19016 19017 19018 19019 19020 19021 19022 19023 19024 19025 19026 19027 19028 19029 19030 19031 19032 19033 19034 19035 19036 19037 19038 19039 19040 19041 19042 19043 19044 19045 19046 19047 19048 19049 19050 19051 19052 19053 19054 19055 19056 19057 19058 19059 19060 19061 19062 19063 19064 19065 19066 19067 19068 19069 19070 19071 19072 19073 19074 19075 19076 19077 19078 19079 19080 19081 19082 19083 19084 19085 19086 19087 19088 19089 19090 19091 19092 19093 19094 19095 19096 19097 19098 19099 19100 19101 19102 19103 19104 19105 19106 19107 19108 19109 19110 19111 19112 19113 19114 19115 19116 19117 19118 19119 19120 19121 19122 19123 19124 19125 19126 19127 19128 19129 19130 19131 19132 19133 19134 19135 19136 19137 19138 19139 19140 19141 19142 19143 19144 19145 19146 19147 19148 19149 19150 19151 19152 19153 19154 19155 19156 19157 19158 19159 19160 19161 19162 19163 19164 19165 19166 19167 19168 19169 19170 19171 19172 19173 19174 19175 19176 19177 19178 19179 19180 19181 19182 19183 19184 19185 19186 19187 19188 19189 19190 19191 19192 19193 19194 19195 19196 19197 19198 19199 19200 19201 19202 19203 19204 19205 19206 19207 19208 19209 19210 19211 19212 19213 19214 19215 19216 19217 19218 19219 19220 19221 19222 19223 19224 19225 19226 19227 19228 19229 19230 19231 19232 19233 19234 19235 19236 19237 19238 19239 19240 19241 19242 19243 19244 19245 19246 19247 19248 19249 19250 19251 19252 19253 19254 19255 19256 19257 19258 19259 19260 19261 19262 19263 19264 19265 19266 19267 19268 19269 19270 19271 19272 19273 19274 19275 19276 19277 19278 19279 19280 19281 19282 19283 19284 19285 19286 19287 19288 19289 19290 19291 19292 19293 19294 19295 19296 19297 19298 19299 19300 19301 19302 19303 19304 19305 19306 19307 19308 19309 19310 19311 19312 19313 19314 19315 19316 19317 19318 19319 19320 19321 19322 19323 19324 19325 19326 19327 19328 19329 19330 19331 19332 19333 19334 19335 19336 19337 19338 19339 19340 19341 19342 19343 19344 19345 19346 19347 19348 19349 19350 19351 19352 19353 19354 19355 19356 19357 19358 19359 19360 19361 19362 19363 19364 19365 19366 19367 19368 19369 19370 19371 19372 19373 19374 19375 19376 19377 19378 19379 19380 19381 19382 19383 19384 19385 19386 19387 19388 19389 19390 19391 19392 19393 19394 19395 19396 19397 19398 19399 19400 19401 19402 19403 19404 19405 19406 19407 19408 19409 19410 19411 19412 19413 19414 19415 19416 19417 19418 19419 19420 19421 19422 19423 19424 19425 19426 19427 19428 19429 19430 19431 19432 19433 19434 19435 19436 19437 19438 19439 19440 19441 19442 19443 19444 19445 19446 19447 19448 19449 19450 19451 19452 19453 19454 19455 19456 19457 19458 19459 19460 19461 19462 19463 19464 19465 19466 19467 19468 19469 19470 19471 19472 19473 19474 19475 19476 19477 19478 19479 19480 19481 19482 19483 19484 19485 19486 19487 19488 19489 19490 19491 19492 19493 19494 19495 19496 19497 19498 19499 19500 19501 19502 19503 19504 19505 19506 19507 19508 19509 19510 19511 19512 19513 19514 19515 19516 19517 19518 19519 19520 19521 19522 19523 19524 19525 19526 19527 19528 19529 19530 19531 19532 19533 19534 19535 19536 19537 19538 19539 19540 19541 19542 19543 19544 19545 19546 19547 19548 19549 19550 19551 19552 19553 19554 19555 19556 19557 19558 19559 19560 19561 19562 19563 19564 19565 19566 19567 19568 19569 19570 19571 19572 19573 19574 19575 19576 19577 19578 19579 19580 19581 19582 19583 19584 19585 19586 19587 19588 19589 19590 19591 19592 19593 19594 19595 19596 19597 19598 19599 19600 19601 19602 19603 19604 19605 19606 19607 19608 19609 19610 19611 19612 19613 19614 19615 19616 19617 19618 19619 19620 19621 19622 19623 19624 19625 19626 19627 19628 19629 19630 19631 19632 19633 19634 19635 19636 19637 19638 19639 19640 19641 19642 19643 19644 19645 19646 19647 19648 19649 19650 19651 19652 19653 19654 19655 19656 19657 19658 19659 19660 19661 19662 19663 19664 19665 19666 19667 19668 19669 19670 19671 19672 19673 19674 19675 19676 19677 19678 19679 19680 19681 19682 19683 19684 19685 19686 19687 19688 19689 19690 19691 19692 19693 19694 19695 19696 19697 19698 19699 19700 19701 19702 19703 19704 19705 19706 19707 19708 19709 19710 19711 19712 19713 19714 19715 19716 19717 19718 19719 19720 19721 19722 19723 19724 19725 19726 19727 19728 19729 19730 19731 19732 19733 19734 19735 19736 19737 19738 19739 19740 19741 19742 19743 19744 19745 19746 19747 19748 19749 19750 19751 19752 19753 19754 19755 19756 19757 19758 19759 19760 19761 19762 19763 19764 19765 19766 19767 19768 19769 19770 19771 19772 19773 19774 19775 19776 19777 19778 19779 19780 19781 19782 19783 19784 19785 19786 19787 19788 19789 19790 19791 19792 19793 19794 19795 19796 19797 19798 19799 19800 19801 19802 19803 19804 19805 19806 19807 19808 19809 19810 19811 19812 19813 19814 19815 19816 19817 19818 19819 19820 19821 19822 19823 19824 19825 19826 19827 19828 19829 19830 19831 19832 19833 19834 19835 19836 19837 19838 19839 19840 19841 19842 19843 19844 19845 19846 19847 19848 19849 19850 19851 19852 19853 19854 19855 19856 19857 19858 19859 19860 19861 19862 19863 19864 19865 19866 19867 19868 19869 19870 19871 19872 19873 19874 19875 19876 19877 19878 19879 19880 19881 19882 19883 19884 19885 19886 19887 19888 19889 19890 19891 19892 19893 19894 19895 19896 19897 19898 19899 19900 19901 19902 19903 19904 19905 19906 19907 19908 19909 19910 19911 19912 19913 19914 19915 19916 19917 19918 19919 19920 19921 19922 19923 19924 19925 19926 19927 19928 19929 19930 19931 19932 19933 19934 19935 19936 19937 19938 19939 19940 19941 19942 19943 19944 19945 19946 19947 19948 19949 19950 19951 19952 19953 19954 19955 19956 19957 19958 19959 19960 19961 19962 19963 19964 19965 19966 19967 19968 19969 19970 19971 19972 19973 19974 19975 19976 19977 19978 19979 19980 19981 19982 19983 19984 19985 19986 19987 19988 19989 19990 19991 19992 19993 19994 19995 19996 19997 19998 19999 20000 20001 20002 20003 20004 20005 20006 20007 20008 20009 20010 20011 20012 20013 20014 20015 20016 20017 20018 20019 20020 20021 20022 20023 20024 20025 20026 20027 20028 20029 20030 20031 20032 20033 20034 20035 20036 20037 20038 20039 20040 20041 20042 20043 20044 20045 20046 20047 20048 20049 20050 20051 20052 20053 20054 20055 20056 20057 20058 20059 20060 20061 20062 20063 20064 20065 20066 20067 20068 20069 20070 20071 20072 20073 20074 20075 20076 20077 20078 20079 20080 20081 20082 20083 20084 20085 20086 20087 20088 20089 20090 20091 20092 20093 20094 20095 20096 20097 20098 20099 20100 20101 20102 20103 20104 20105 20106 20107 20108 20109 20110 20111 20112 20113 20114 20115 20116 20117 20118 20119 20120 20121 20122 20123 20124 20125 20126 20127 20128 20129 20130 20131 20132 20133 20134 20135 20136 20137 20138 20139 20140 20141 20142 20143 20144 20145 20146 20147 20148 20149 20150 20151 20152 20153 20154 20155 20156 20157 20158 20159 20160 20161 20162 20163 20164 20165 20166 20167 20168 20169 20170 20171 20172 20173 20174 20175 20176 20177 20178 20179 20180 20181 20182 20183 20184 20185 20186 20187 20188 20189 20190 20191 20192 20193 20194 20195 20196 20197 20198 20199 20200 20201 20202 20203 20204 20205 20206 20207 20208 20209 20210 20211 20212 20213 20214 20215 20216 20217 20218 20219 20220 20221 20222 20223 20224 20225 20226 20227 20228 20229 20230 20231 20232 20233 20234 20235 20236 20237 20238 20239 20240 20241 20242 20243 20244 20245 20246 20247 20248 20249 20250 20251 20252 20253 20254 20255 20256 20257 20258 20259 20260 20261 20262 20263 20264 20265 20266 20267 20268 20269 20270 20271 20272 20273 20274 20275 20276 20277 20278 20279 20280 20281 20282 20283 20284 20285 20286 20287 20288 20289 20290 20291 20292 20293 20294 20295 20296 20297 20298 20299 20300 20301 20302 20303 20304 20305 20306 20307 20308 20309 20310 20311 20312 20313 20314 20315 20316 20317 20318 20319 20320 20321 20322 20323 20324 20325 20326 20327 20328 20329 20330 20331 20332 20333 20334 20335 20336 20337 20338 20339 20340 20341 20342 20343 20344 20345 20346 20347 20348 20349 20350 20351 20352 20353 20354 20355 20356 20357 20358 20359 20360 20361 20362 20363 20364 20365 20366 20367 20368 20369 20370 20371 20372 20373 20374 20375 20376 20377 20378 20379 20380 20381 20382 20383 20384 20385 20386 20387 20388 20389 20390 20391 20392 20393 20394 20395 20396 20397 20398 20399 20400 20401 20402 20403 20404 20405 20406 20407 20408 20409 20410 20411 20412 20413 20414 20415 20416 20417 20418 20419 20420 20421 20422 20423 20424 20425 20426 20427 20428 20429 20430 20431 20432 20433 20434 20435 20436 20437 20438 20439 20440 20441 20442 20443 20444 20445 20446 20447 20448 20449 20450 20451 20452 20453 20454 20455 20456 20457 20458 20459 20460 20461 20462 20463 20464 20465 20466 20467 20468 20469 20470 20471 20472 20473 20474 20475 20476 20477 20478 20479 20480 20481 20482 20483 20484 20485 20486 20487 20488 20489 20490 20491 20492 20493 20494 20495 20496 20497 20498 20499 20500 20501 20502 20503 20504 20505 20506 20507 20508 20509 20510 20511 20512 20513 20514 20515 20516 20517 20518 20519 20520 20521 20522 20523 20524 20525 20526 20527 20528 20529 20530 20531 20532 20533 20534 20535 20536 20537 20538 20539 20540 20541 20542 20543 20544 20545 20546 20547 20548 20549 20550 20551 20552 20553 20554 20555 20556 20557 20558 20559 20560 20561 20562 20563 20564 20565 20566 20567 20568 20569 20570 20571 20572 20573 20574 20575 20576 20577 20578 20579 20580 20581 20582 20583 20584 20585 20586 20587 20588 20589 20590 20591 20592 20593 20594 20595 20596 20597 20598 20599 20600 20601 20602 20603 20604 20605 20606 20607 20608 20609 20610 20611 20612 20613 20614 20615 20616 20617 20618 20619 20620 20621 20622 20623 20624 20625 20626 20627 20628 20629 20630 20631 20632 20633 20634 20635 20636 20637 20638 20639 20640 20641 20642 20643 20644 20645 20646 20647 20648 20649 20650 20651 20652 20653 20654 20655 20656 20657 20658 20659 20660 20661 20662 20663 20664 20665 20666 20667 20668 20669 20670 20671 20672 20673 20674 20675 20676 20677 20678 20679 20680 20681 20682 20683 20684 20685 20686 20687 20688 20689 20690 20691 20692 20693 20694 20695 20696 20697 20698 20699 20700 20701 20702 20703 20704 20705 20706 20707 20708 20709 20710 20711 20712 20713 20714 20715 20716 20717 20718 20719 20720 20721 20722 20723 20724 20725 20726 20727 20728 20729 20730 20731 20732 20733 20734 20735 20736 20737 20738 20739 20740 20741 20742 20743 20744 20745 20746 20747 20748 20749 20750 20751 20752 20753 20754 20755 20756 20757 20758 20759 20760 20761 20762 20763 20764 20765 20766 20767 20768 20769 20770 20771 20772 20773 20774 20775 20776 20777 20778 20779 20780 20781 20782 20783 20784 20785 20786 20787 20788 20789 20790 20791 20792 20793 20794 20795 20796 20797 20798 20799 20800 20801 20802 20803 20804 20805 20806 20807 20808 20809 20810 20811 20812 20813 20814 20815 20816 20817 20818 20819 20820 20821 20822 20823 20824 20825 20826 20827 20828 20829 20830 20831 20832 20833 20834 20835 20836 20837 20838 20839 20840 20841 20842 20843 20844 20845 20846 20847 20848 20849 20850 20851 20852 20853 20854 20855 20856 20857 20858 20859 20860 20861 20862 20863 20864 20865 20866 20867 20868 20869 20870 20871 20872 20873 20874 20875 20876 20877 20878 20879 20880 20881 20882 20883 20884 20885 20886 20887 20888 20889 20890 20891 20892 20893 20894 20895 20896 20897 20898 20899 20900 20901 20902 20903 20904 20905 20906 20907 20908 20909 20910 20911 20912 20913 20914 20915 20916 20917 20918 20919 20920 20921 20922 20923 20924 20925 20926 20927 20928 20929 20930 20931 20932 20933 20934 20935 20936 20937 20938 20939 20940 20941 20942 20943 20944 20945 20946 20947 20948 20949 20950 20951 20952 20953 20954 20955 20956 20957 20958 20959 20960 20961 20962 20963 20964 20965 20966 20967 20968 20969 20970 20971 20972 20973 20974 20975 20976 20977 20978 20979 20980 20981 20982 20983 20984 20985 20986 20987 20988 20989 20990 20991 20992 20993 20994 20995 20996 20997 20998 20999 21000 21001 21002 21003 21004 21005 21006 21007 21008 21009 21010 21011 21012 21013 21014 21015 21016 21017 21018 21019 21020 21021 21022 21023 21024 21025 21026 21027 21028 21029 21030 21031 21032 21033 21034 21035 21036 21037 21038 21039 21040 21041 21042 21043 21044 21045 21046 21047 21048 21049 21050 21051 21052 21053 21054 21055 21056 21057 21058 21059 21060 21061 21062 21063 21064 21065 21066 21067 21068 21069 21070 21071 21072 21073 21074 21075 21076 21077 21078 21079 21080 21081 21082 21083 21084 21085 21086 21087 21088 21089 21090 21091 21092 21093 21094 21095 21096 21097 21098 21099 21100 21101 21102 21103 21104 21105 21106 21107 21108 21109 21110 21111 21112 21113 21114 21115 21116 21117 21118 21119 21120 21121 21122 21123 21124 21125 21126 21127 21128 21129 21130 21131 21132 21133 21134 21135 21136 21137 21138 21139 21140 21141 21142 21143 21144 21145 21146 21147 21148 21149 21150 21151 21152 21153 21154 21155 21156 21157 21158 21159 21160 21161 21162 21163 21164 21165 21166 21167 21168 21169 21170 21171 21172 21173 21174 21175 21176 21177 21178 21179 21180 21181 21182 21183 21184 21185 21186 21187 21188 21189 21190 21191 21192 21193 21194 21195 21196 21197 21198 21199 21200 21201 21202 21203 21204 21205 21206 21207 21208 21209 21210 21211 21212 21213 21214 21215 21216 21217 21218 21219 21220 21221 21222 21223 21224 21225 21226 21227 21228 21229 21230 21231 21232 21233 21234 21235 21236 21237 21238 21239 21240 21241 21242 21243 21244 21245 21246 21247 21248 21249 21250 21251 21252 21253 21254 21255 21256 21257 21258 21259 21260 21261 21262 21263 21264 21265 21266 21267 21268 21269 21270 21271 21272 21273 21274 21275 21276 21277 21278 21279 21280 21281 21282 21283 21284 21285 21286 21287 21288 21289 21290 21291 21292 21293 21294 21295 21296 21297 21298 21299 21300 21301 21302 21303 21304 21305 21306 21307 21308 21309 21310 21311 21312 21313 21314 21315 21316 21317 21318 21319 21320 21321 21322 21323 21324 21325 21326 21327 21328 21329 21330 21331 21332 21333 21334 21335 21336 21337 21338 21339 21340 21341 21342 21343 21344 21345 21346 21347 21348 21349 21350 21351 21352 21353 21354 21355 21356 21357 21358 21359 21360 21361 21362 21363 21364 21365 21366 21367 21368 21369 21370 21371 21372 21373 21374 21375 21376 21377 21378 21379 21380 21381 21382 21383 21384 21385 21386 21387 21388 21389 21390 21391 21392 21393 21394 21395 21396 21397 21398 21399 21400 21401 21402 21403 21404 21405 21406 21407 21408 21409 21410 21411 21412 21413 21414 21415 21416 21417 21418 21419 21420 21421 21422 21423 21424 21425 21426 21427 21428 21429 21430 21431 21432 21433 21434 21435 21436 21437 21438 21439 21440 21441 21442 21443 21444 21445 21446 21447 21448 21449 21450 21451 21452 21453 21454 21455 21456 21457 21458 21459 21460 21461 21462 21463 21464 21465 21466 21467 21468 21469 21470 21471 21472 21473 21474 21475 21476 21477 21478 21479 21480 21481 21482 21483 21484 21485 21486 21487 21488 21489 21490 21491 21492 21493 21494 21495 21496 21497 21498 21499 21500 21501 21502 21503 21504 21505 21506 21507 21508 21509 21510 21511 21512 21513 21514 21515 21516 21517 21518 21519 21520 21521 21522 21523 21524 21525 21526 21527 21528 21529 21530 21531 21532 21533 21534 21535 21536 21537 21538 21539 21540 21541 21542 21543 21544 21545 21546 21547 21548 21549 21550 21551 21552 21553 21554 21555 21556 21557 21558 21559 21560 21561 21562 21563 21564 21565 21566 21567 21568 21569 21570 21571 21572 21573 21574 21575 21576 21577 21578 21579 21580 21581 21582 21583 21584 21585 21586 21587 21588 21589 21590 21591 21592 21593 21594 21595 21596 21597 21598 21599 21600 21601 21602 21603 21604 21605 21606 21607 21608 21609 21610 21611 21612 21613 21614 21615 21616 21617 21618 21619 21620 21621 21622 21623 21624 21625 21626 21627 21628 21629 21630 21631 21632 21633 21634 21635 21636 21637 21638 21639 21640 21641 21642 21643 21644 21645 21646 21647 21648 21649 21650 21651 21652 21653 21654 21655 21656 21657 21658 21659 21660 21661 21662 21663 21664 21665 21666 21667 21668 21669 21670 21671 21672 21673 21674 21675 21676 21677 21678 21679 21680 21681 21682 21683 21684 21685 21686 21687 21688 21689 21690 21691 21692 21693 21694 21695 21696 21697 21698 21699 21700 21701 21702 21703 21704 21705 21706 21707 21708 21709 21710 21711 21712 21713 21714 21715 21716 21717 21718 21719 21720 21721 21722 21723 21724 21725 21726 21727 21728 21729 21730 21731 21732 21733 21734 21735 21736 21737 21738 21739 21740 21741 21742 21743 21744 21745 21746 21747 21748 21749 21750 21751 21752 21753 21754 21755 21756 21757 21758 21759 21760 21761 21762 21763 21764 21765 21766 21767 21768 21769 21770 21771 21772 21773 21774 21775 21776 21777 21778 21779 21780 21781 21782 21783 21784 21785 21786 21787 21788 21789 21790 21791 21792 21793 21794 21795 21796 21797 21798 21799 21800 21801 21802 21803 21804 21805 21806 21807 21808 21809 21810 21811 21812 21813 21814 21815 21816 21817 21818 21819 21820 21821 21822 21823 21824 21825 21826 21827 21828 21829 21830 21831 21832 21833 21834 21835 21836 21837 21838 21839 21840 21841 21842 21843 21844 21845 21846 21847 21848 21849 21850 21851 21852 21853 21854 21855 21856 21857 21858 21859 21860 21861 21862 21863 21864 21865 21866 21867 21868 21869 21870 21871 21872 21873 21874 21875 21876 21877 21878 21879 21880 21881 21882 21883 21884 21885 21886 21887 21888 21889 21890 21891 21892 21893 21894 21895 21896 21897 21898 21899 21900 21901 21902 21903 21904 21905 21906 21907 21908 21909 21910 21911 21912 21913 21914 21915 21916 21917 21918 21919 21920 21921 21922 21923 21924 21925 21926 21927 21928 21929 21930 21931 21932 21933 21934 21935 21936 21937 21938 21939 21940 21941 21942 21943 21944 21945 21946 21947 21948 21949 21950 21951 21952 21953 21954 21955 21956 21957 21958 21959 21960 21961 21962 21963 21964 21965 21966 21967 21968 21969 21970 21971 21972 21973 21974 21975 21976 21977 21978 21979 21980 21981 21982 21983 21984 21985 21986 21987 21988 21989 21990 21991 21992 21993 21994 21995 21996 21997 21998 21999 22000 22001 22002 22003 22004 22005 22006 22007 22008 22009 22010 22011 22012 22013 22014 22015 22016 22017 22018 22019 22020 22021 22022 22023 22024 22025 22026 22027 22028 22029 22030 22031 22032 22033 22034 22035 22036 22037 22038 22039 22040 22041 22042 22043 22044 22045 22046 22047 22048 22049 22050 22051 22052 22053 22054 22055 22056 22057 22058 22059 22060 22061 22062 22063 22064 22065 22066 22067 22068 22069 22070 22071 22072 22073 22074 22075 22076 22077 22078 22079 22080 22081 22082 22083 22084 22085 22086 22087 22088 22089 22090 22091 22092 22093 22094 22095 22096 22097 22098 22099 22100 22101 22102 22103 22104 22105 22106 22107 22108 22109 22110 22111 22112 22113 22114 22115 22116 22117 22118 22119 22120 22121 22122 22123 22124 22125 22126 22127 22128 22129 22130 22131 22132 22133 22134 22135 22136 22137 22138 22139 22140 22141 22142 22143 22144 22145 22146 22147 22148 22149 22150 22151 22152 22153 22154 22155 22156 22157 22158 22159 22160 22161 22162 22163 22164 22165 22166 22167 22168 22169 22170 22171 22172 22173 22174 22175 22176 22177 22178 22179 22180 22181 22182 22183 22184 22185 22186 22187 22188 22189 22190 22191 22192 22193 22194 22195 22196 22197 22198 22199 22200 22201 22202 22203 22204 22205 22206 22207 22208 22209 22210 22211 22212 22213 22214 22215 22216 22217 22218 22219 22220 22221 22222 22223 22224 22225 22226 22227 22228 22229 22230 22231 22232 22233 22234 22235 22236 22237 22238 22239 22240 22241 22242 22243 22244 22245 22246 22247 22248 22249 22250 22251 22252 22253 22254 22255 22256 22257 22258 22259 22260 22261 22262 22263 22264 22265 22266 22267 22268 22269 22270 22271 22272 22273 22274 22275 22276 22277 22278 22279 22280 22281 22282 22283 22284 22285 22286 22287 22288 22289 22290 22291 22292 22293 22294 22295 22296 22297 22298 22299 22300 22301 22302 22303 22304 22305 22306 22307 22308 22309 22310 22311 22312 22313 22314 22315 22316 22317 22318 22319 22320 22321 22322 22323 22324 22325 22326 22327 22328 22329 22330 22331 22332 22333 22334 22335 22336 22337 22338 22339 22340 22341 22342 22343 22344 22345 22346 22347 22348 22349 22350 22351 22352 22353 22354 22355 22356 22357 22358 22359 22360 22361 22362 22363 22364 22365 22366 22367 22368 22369 22370 22371 22372 22373 22374 22375 22376 22377 22378 22379 22380 22381 22382 22383 22384 22385 22386 22387 22388 22389 22390 22391 22392 22393 22394 22395 22396 22397 22398 22399 22400 22401 22402 22403 22404 22405 22406 22407 22408 22409 22410 22411 22412 22413 22414 22415 22416 22417 22418 22419 22420 22421 22422 22423 22424 22425 22426 22427 22428 22429 22430 22431 22432 22433 22434 22435 22436 22437 22438 22439 22440 22441 22442 22443 22444 22445 22446 22447 22448 22449 22450 22451 22452 22453 22454 22455 22456 22457 22458 22459 22460 22461 22462 22463 22464 22465 22466 22467 22468 22469 22470 22471 22472 22473 22474 22475 22476 22477 22478 22479 22480 22481 22482 22483 22484 22485 22486 22487 22488 22489 22490 22491 22492 22493 22494 22495 22496 22497 22498 22499 22500 22501 22502 22503 22504 22505 22506 22507 22508 22509 22510 22511 22512 22513 22514 22515 22516 22517 22518 22519 22520 22521 22522 22523 22524 22525 22526 22527 22528 22529 22530 22531 22532 22533 22534 22535 22536 22537 22538 22539 22540 22541 22542 22543 22544 22545 22546 22547 22548 22549 22550 22551 22552 22553 22554 22555 22556 22557 22558 22559 22560 22561 22562 22563 22564 22565 22566 22567 22568 22569 22570 22571 22572 22573 22574 22575 22576 22577 22578 22579 22580 22581 22582 22583 22584 22585 22586 22587 22588 22589 22590 22591 22592 22593 22594 22595 22596 22597 22598 22599 22600 22601 22602 22603 22604 22605 22606 22607 22608 22609 22610 22611 22612 22613 22614 22615 22616 22617 22618 22619 22620 22621 22622 22623 22624 22625 22626 22627 22628 22629 22630 22631 22632 22633 22634 22635 22636 22637 22638 22639 22640 22641 22642 22643 22644 22645 22646 22647 22648 22649 22650 22651 22652 22653 22654 22655 22656 22657 22658 22659 22660 22661 22662 22663 22664 22665 22666 22667 22668 22669 22670 22671 22672 22673 22674 22675 22676 22677 22678 22679 22680 22681 22682 22683 22684 22685 22686 22687 22688 22689 22690 22691 22692 22693 22694 22695 22696 22697 22698 22699 22700 22701 22702 22703 22704 22705 22706 22707 22708 22709 22710 22711 22712 22713 22714 22715 22716 22717 22718 22719 22720 22721 22722 22723 22724 22725 22726 22727 22728 22729 22730 22731 22732 22733 22734 22735 22736 22737 22738 22739 22740 22741 22742 22743 22744 22745 22746 22747 22748 22749 22750 22751 22752 22753 22754 22755 22756 22757 22758 22759 22760 22761 22762 22763 22764 22765 22766 22767 22768 22769 22770 22771 22772 22773 22774 22775 22776 22777 22778 22779 22780 22781 22782 22783 22784 22785 22786 22787 22788 22789 22790 22791 22792 22793 22794 22795 22796 22797 22798 22799 22800 22801 22802 22803 22804 22805 22806 22807 22808 22809 22810 22811 22812 22813 22814 22815 22816 22817 22818 22819 22820 22821 22822 22823 22824 22825 22826 22827 22828 22829 22830 22831 22832 22833 22834 22835 22836 22837 22838 22839 22840 22841 22842 22843 22844 22845 22846 22847 22848 22849 22850 22851 22852 22853 22854 22855 22856 22857 22858 22859 22860 22861 22862 22863 22864 22865 22866 22867 22868 22869 22870 22871 22872 22873 22874 22875 22876 22877 22878 22879 22880 22881 22882 22883 22884 22885 22886 22887 22888 22889 22890 22891 22892 22893 22894 22895 22896 22897 22898 22899 22900 22901 22902 22903 22904 22905 22906 22907 22908 22909 22910 22911 22912 22913 22914 22915 22916 22917 22918 22919 22920 22921 22922 22923 22924 22925 22926 22927 22928 22929 22930 22931 22932 22933 22934 22935 22936 22937 22938 22939 22940 22941 22942 22943 22944 22945 22946 22947 22948 22949 22950 22951 22952 22953 22954 22955 22956 22957 22958 22959 22960 22961 22962 22963 22964 22965 22966 22967 22968 22969 22970 22971 22972 22973 22974 22975 22976 22977 22978 22979 22980 22981 22982 22983 22984 22985 22986 22987 22988 22989 22990 22991 22992 22993 22994 22995 22996 22997 22998 22999 23000 23001 23002 23003 23004 23005 23006 23007 23008 23009 23010 23011 23012 23013 23014 23015 23016 23017 23018 23019 23020 23021 23022 23023 23024 23025 23026 23027 23028 23029 23030 23031 23032 23033 23034 23035 23036 23037 23038 23039 23040 23041 23042 23043 23044 23045 23046 23047 23048 23049 23050 23051 23052 23053 23054 23055 23056 23057 23058 23059 23060 23061 23062 23063 23064 23065 23066 23067 23068 23069 23070 23071 23072 23073 23074 23075 23076 23077 23078 23079 23080 23081 23082 23083 23084 23085 23086 23087 23088 23089 23090 23091 23092 23093 23094 23095 23096 23097 23098 23099 23100 23101 23102 23103 23104 23105 23106 23107 23108 23109 23110 23111 23112 23113 23114 23115 23116 23117 23118 23119 23120 23121 23122 23123 23124 23125 23126 23127 23128 23129 23130 23131 23132 23133 23134 23135 23136 23137 23138 23139 23140 23141 23142 23143 23144 23145 23146 23147 23148 23149 23150 23151 23152 23153 23154 23155 23156 23157 23158 23159 23160 23161 23162 23163 23164 23165 23166 23167 23168 23169 23170 23171 23172 23173 23174 23175 23176 23177 23178 23179 23180 23181 23182 23183 23184 23185 23186 23187 23188 23189 23190 23191 23192 23193 23194 23195 23196 23197 23198 23199 23200 23201 23202 23203 23204 23205 23206 23207 23208 23209 23210 23211 23212 23213 23214 23215 23216 23217 23218 23219 23220 23221 23222 23223 23224 23225 23226 23227 23228 23229 23230 23231 23232 23233 23234 23235 23236 23237 23238 23239 23240 23241 23242 23243 23244 23245 23246 23247 23248 23249 23250 23251 23252 23253 23254 23255 23256 23257 23258 23259 23260 23261 23262 23263 23264 23265 23266 23267 23268 23269 23270 23271 23272 23273 23274 23275 23276 23277 23278 23279 23280 23281 23282 23283 23284 23285 23286 23287 23288 23289 23290 23291 23292 23293 23294 23295 23296 23297 23298 23299 23300 23301 23302 23303 23304 23305 23306 23307 23308 23309 23310 23311 23312 23313 23314 23315 23316 23317 23318 23319 23320 23321 23322 23323 23324 23325 23326 23327 23328 23329 23330 23331 23332 23333 23334 23335 23336 23337 23338 23339 23340 23341 23342 23343 23344 23345 23346 23347 23348 23349 23350 23351 23352 23353 23354 23355 23356 23357 23358 23359 23360 23361 23362 23363 23364 23365 23366 23367 23368 23369 23370 23371 23372 23373 23374 23375 23376 23377 23378 23379 23380 23381 23382 23383 23384 23385 23386 23387 23388 23389 23390 23391 23392 23393 23394 23395 23396 23397 23398 23399 23400 23401 23402 23403 23404 23405 23406 23407 23408 23409 23410 23411 23412 23413 23414 23415 23416 23417 23418 23419 23420 23421 23422 23423 23424 23425 23426 23427 23428 23429 23430 23431 23432 23433 23434 23435 23436 23437 23438 23439 23440 23441 23442 23443 23444 23445 23446 23447 23448 23449 23450 23451 23452 23453 23454 23455 23456 23457 23458 23459 23460 23461 23462 23463 23464 23465 23466 23467 23468 23469 23470 23471 23472 23473 23474 23475 23476 23477 23478 23479 23480 23481 23482 23483 23484 23485 23486 23487 23488 23489 23490 23491 23492 23493 23494 23495 23496 23497 23498 23499 23500 23501 23502 23503 23504 23505 23506 23507 23508 23509 23510 23511 23512 23513 23514 23515 23516 23517 23518 23519 23520 23521 23522 23523 23524 23525 23526 23527 23528 23529 23530 23531 23532 23533 23534 23535 23536 23537 23538 23539 23540 23541 23542 23543 23544 23545 23546 23547 23548 23549 23550 23551 23552 23553 23554 23555 23556 23557 23558 23559 23560 23561 23562 23563 23564 23565 23566 23567 23568 23569 23570 23571 23572 23573 23574 23575 23576 23577 23578 23579 23580 23581 23582 23583 23584 23585 23586 23587 23588 23589 23590 23591 23592 23593 23594 23595 23596 23597 23598 23599 23600 23601 23602 23603 23604 23605 23606 23607 23608 23609 23610 23611 23612 23613 23614 23615 23616 23617 23618 23619 23620 23621 23622 23623 23624 23625 23626 23627 23628 23629 23630 23631 23632 23633 23634 23635 23636 23637 23638 23639 23640 23641 23642 23643 23644 23645 23646 23647 23648 23649 23650 23651 23652 23653 23654 23655 23656 23657 23658 23659 23660 23661 23662 23663 23664 23665 23666 23667 23668 23669 23670 23671 23672 23673 23674 23675 23676 23677 23678 23679 23680 23681 23682 23683 23684 23685 23686 23687 23688 23689 23690 23691 23692 23693 23694 23695 23696 23697 23698 23699 23700 23701 23702 23703 23704 23705 23706 23707 23708 23709 23710 23711 23712 23713 23714 23715 23716 23717 23718 23719 23720 23721 23722 23723 23724 23725 23726 23727 23728 23729 23730 23731 23732 23733 23734 23735 23736 23737 23738 23739 23740 23741 23742 23743 23744 23745 23746 23747 23748 23749 23750 23751 23752 23753 23754 23755 23756 23757 23758 23759 23760 23761 23762 23763 23764 23765 23766 23767 23768 23769 23770 23771 23772 23773 23774 23775 23776 23777 23778 23779 23780 23781 23782 23783 23784 23785 23786 23787 23788 23789 23790 23791 23792 23793 23794 23795 23796 23797 23798 23799 23800 23801 23802 23803 23804 23805 23806 23807 23808 23809 23810 23811 23812 23813 23814 23815 23816 23817 23818 23819 23820 23821 23822 23823 23824 23825 23826 23827 23828 23829 23830 23831 23832 23833 23834 23835 23836 23837 23838 23839 23840 23841 23842 23843 23844 23845 23846 23847 23848 23849 23850 23851 23852 23853 23854 23855 23856 23857 23858 23859 23860 23861 23862 23863 23864 23865 23866 23867 23868 23869 23870 23871 23872 23873 23874 23875 23876 23877 23878 23879 23880 23881 23882 23883 23884 23885 23886 23887 23888 23889 23890 23891 23892 23893 23894 23895 23896 23897 23898 23899 23900 23901 23902 23903 23904 23905 23906 23907 23908 23909 23910 23911 23912 23913 23914 23915 23916 23917 23918 23919 23920 23921 23922 23923 23924 23925 23926 23927 23928 23929 23930 23931 23932 23933 23934 23935 23936 23937 23938 23939 23940 23941 23942 23943 23944 23945 23946 23947 23948 23949 23950 23951 23952 23953 23954 23955 23956 23957 23958 23959 23960 23961 23962 23963 23964 23965 23966 23967 23968 23969 23970 23971 23972 23973 23974 23975 23976 23977 23978 23979 23980 23981 23982 23983 23984 23985 23986 23987 23988 23989 23990 23991 23992 23993 23994 23995 23996 23997 23998 23999 24000 24001 24002 24003 24004 24005 24006 24007 24008 24009 24010 24011 24012 24013 24014 24015 24016 24017 24018 24019 24020 24021 24022 24023 24024 24025 24026 24027 24028 24029 24030 24031 24032 24033 24034 24035 24036 24037 24038 24039 24040 24041 24042 24043 24044 24045 24046 24047 24048 24049 24050 24051 24052 24053 24054 24055 24056 24057 24058 24059 24060 24061 24062 24063 24064 24065 24066 24067 24068 24069 24070 24071 24072 24073 24074 24075 24076 24077 24078 24079 24080 24081 24082 24083 24084 24085 24086 24087 24088 24089 24090 24091 24092 24093 24094 24095 24096 24097 24098 24099 24100 24101 24102 24103 24104 24105 24106 24107 24108 24109 24110 24111 24112 24113 24114 24115 24116 24117 24118 24119 24120 24121 24122 24123 24124 24125 24126 24127 24128 24129 24130 24131 24132 24133 24134 24135 24136 24137 24138 24139 24140 24141 24142 24143 24144 24145 24146 24147 24148 24149 24150 24151 24152 24153 24154 24155 24156 24157 24158 24159 24160 24161 24162 24163 24164 24165 24166 24167 24168 24169 24170 24171 24172 24173 24174 24175 24176 24177 24178 24179 24180 24181 24182 24183 24184 24185 24186 24187 24188 24189 24190 24191 24192 24193 24194 24195 24196 24197 24198 24199 24200 24201 24202 24203 24204 24205 24206 24207 24208 24209 24210 24211 24212 24213 24214 24215 24216 24217 24218 24219 24220 24221 24222 24223 24224 24225 24226 24227 24228 24229 24230 24231 24232 24233 24234 24235 24236 24237 24238 24239 24240 24241 24242 24243 24244 24245 24246 24247 24248 24249 24250 24251 24252 24253 24254 24255 24256 24257 24258 24259 24260 24261 24262 24263 24264 24265 24266 24267 24268 24269 24270 24271 24272 24273 24274 24275 24276 24277 24278 24279 24280 24281 24282 24283 24284 24285 24286 24287 24288 24289 24290 24291 24292 24293 24294 24295 24296 24297 24298 24299 24300 24301 24302 24303 24304 24305 24306 24307 24308 24309 24310 24311 24312 24313 24314 24315 24316 24317 24318 24319 24320 24321 24322 24323 24324 24325 24326 24327 24328 24329 24330 24331 24332 24333 24334 24335 24336 24337 24338 24339 24340 24341 24342 24343 24344 24345 24346 24347 24348 24349 24350 24351 24352 24353 24354 24355 24356 24357 24358 24359 24360 24361 24362 24363 24364 24365 24366 24367 24368 24369 24370 24371 24372 24373 24374 24375 24376 24377 24378 24379 24380 24381 24382 24383 24384 24385 24386 24387 24388 24389 24390 24391 24392 24393 24394 24395 24396 24397 24398 24399 24400 24401 24402 24403 24404 24405 24406 24407 24408 24409 24410 24411 24412 24413 24414 24415 24416 24417 24418 24419 24420 24421 24422 24423 24424 24425 24426 24427 24428 24429 24430 24431 24432 24433 24434 24435 24436 24437 24438 24439 24440 24441 24442 24443 24444 24445 24446 24447 24448 24449 24450 24451 24452 24453 24454 24455 24456 24457 24458 24459 24460 24461 24462 24463 24464 24465 24466 24467 24468 24469 24470 24471 24472 24473 24474 24475 24476 24477 24478 24479 24480 24481 24482 24483 24484 24485 24486 24487 24488 24489 24490 24491 24492 24493 24494 24495 24496 24497 24498 24499 24500 24501 24502 24503 24504 24505 24506 24507 24508 24509 24510 24511 24512 24513 24514 24515 24516 24517 24518 24519 24520 24521 24522 24523 24524 24525 24526 24527 24528 24529 24530 24531 24532 24533 24534 24535 24536 24537 24538 24539 24540 24541 24542 24543 24544 24545 24546 24547 24548 24549 24550 24551 24552 24553 24554 24555 24556 24557 24558 24559 24560 24561 24562 24563 24564 24565 24566 24567 24568 24569 24570 24571 24572 24573 24574 24575 24576 24577 24578 24579 24580 24581 24582 24583 24584 24585 24586 24587 24588 24589 24590 24591 24592 24593 24594 24595 24596 24597 24598 24599 24600 24601 24602 24603 24604 24605 24606 24607 24608 24609 24610 24611 24612 24613 24614 24615 24616 24617 24618 24619 24620 24621 24622 24623 24624 24625 24626 24627 24628 24629 24630 24631 24632 24633 24634 24635 24636 24637 24638 24639 24640 24641 24642 24643 24644 24645 24646 24647 24648 24649 24650 24651 24652 24653 24654 24655 24656 24657 24658 24659 24660 24661 24662 24663 24664 24665 24666 24667 24668 24669 24670 24671 24672 24673 24674 24675 24676 24677 24678 24679 24680 24681 24682 24683 24684 24685 24686 24687 24688 24689 24690 24691 24692 24693 24694 24695 24696 24697 24698 24699 24700 24701 24702 24703 24704 24705 24706 24707 24708 24709 24710 24711 24712 24713 24714 24715 24716 24717 24718 24719 24720 24721 24722 24723 24724 24725 24726 24727 24728 24729 24730 24731 24732 24733 24734 24735 24736 24737 24738 24739 24740 24741 24742 24743 24744 24745 24746 24747 24748 24749 24750 24751 24752 24753 24754 24755 24756 24757 24758 24759 24760 24761 24762 24763 24764 24765 24766 24767 24768 24769 24770 24771 24772 24773 24774 24775 24776 24777 24778 24779 24780 24781 24782 24783 24784 24785 24786 24787 24788 24789 24790 24791 24792 24793 24794 24795 24796 24797 24798 24799 24800 24801 24802 24803 24804 24805 24806 24807 24808 24809 24810 24811 24812 24813 24814 24815 24816 24817 24818 24819 24820 24821 24822 24823 24824 24825 24826 24827 24828 24829 24830 24831 24832 24833 24834 24835 24836 24837 24838 24839 24840 24841 24842 24843 24844 24845 24846 24847 24848 24849 24850 24851 24852 24853 24854 24855 24856 24857 24858 24859 24860 24861 24862 24863 24864 24865 24866 24867 24868 24869 24870 24871 24872 24873 24874 24875 24876 24877 24878 24879 24880 24881 24882 24883 24884 24885 24886 24887 24888 24889 24890 24891 24892 24893 24894 24895 24896 24897 24898 24899 24900 24901 24902 24903 24904 24905 24906 24907 24908 24909 24910 24911 24912 24913 24914 24915 24916 24917 24918 24919 24920 24921 24922 24923 24924 24925 24926 24927 24928 24929 24930 24931 24932 24933 24934 24935 24936 24937 24938 24939 24940 24941 24942 24943 24944 24945 24946 24947 24948 24949 24950 24951 24952 24953 24954 24955 24956 24957 24958 24959 24960 24961 24962 24963 24964 24965 24966 24967 24968 24969 24970 24971 24972 24973 24974 24975 24976 24977 24978 24979 24980 24981 24982 24983 24984 24985 24986 24987 24988 24989 24990 24991 24992 24993 24994 24995 24996 24997 24998 24999 25000 25001 25002 25003 25004 25005 25006 25007 25008 25009 25010 25011 25012 25013 25014 25015 25016 25017 25018 25019 25020 25021 25022 25023 25024 25025 25026 25027 25028 25029 25030 25031 25032 25033 25034 25035 25036 25037 25038 25039 25040 25041 25042 25043 25044 25045 25046 25047 25048 25049 25050 25051 25052 25053 25054 25055 25056 25057 25058 25059 25060 25061 25062 25063 25064 25065 25066 25067 25068 25069 25070 25071 25072 25073 25074 25075 25076 25077 25078 25079 25080 25081 25082 25083 25084 25085 25086 25087 25088 25089 25090 25091 25092 25093 25094 25095 25096 25097 25098 25099 25100 25101 25102 25103 25104 25105 25106 25107 25108 25109 25110 25111 25112 25113 25114 25115 25116 25117 25118 25119 25120 25121 25122 25123 25124 25125 25126 25127 25128 25129 25130 25131 25132 25133 25134 25135 25136 25137 25138 25139 25140 25141 25142 25143 25144 25145 25146 25147 25148 25149 25150 25151 25152 25153 25154 25155 25156 25157 25158 25159 25160 25161 25162 25163 25164 25165 25166 25167 25168 25169 25170 25171 25172 25173 25174 25175 25176 25177 25178 25179 25180 25181 25182 25183 25184 25185 25186 25187 25188 25189 25190 25191 25192 25193 25194 25195 25196 25197 25198 25199 25200 25201 25202 25203 25204 25205 25206 25207 25208 25209 25210 25211 25212 25213 25214 25215 25216 25217 25218 25219 25220 25221 25222 25223 25224 25225 25226 25227 25228 25229 25230 25231 25232 25233 25234 25235 25236 25237 25238 25239 25240 25241 25242 25243 25244 25245 25246 25247 25248 25249 25250 25251 25252 25253 25254 25255 25256 25257 25258 25259 25260 25261 25262 25263 25264 25265 25266 25267 25268 25269 25270 25271 25272 25273 25274 25275 25276 25277 25278 25279 25280 25281 25282 25283 25284 25285 25286 25287 25288 25289 25290 25291 25292 25293 25294 25295 25296 25297 25298 25299 25300 25301 25302 25303 25304 25305 25306 25307 25308 25309 25310 25311 25312 25313 25314 25315 25316 25317 25318 25319 25320 25321 25322 25323 25324 25325 25326 25327 25328 25329 25330 25331 25332 25333 25334 25335 25336 25337 25338 25339 25340 25341 25342 25343 25344 25345 25346 25347 25348 25349 25350 25351 25352 25353 25354 25355 25356 25357 25358 25359 25360 25361 25362 25363 25364 25365 25366 25367 25368 25369 25370 25371 25372 25373 25374 25375 25376 25377 25378 25379 25380 25381 25382 25383 25384 25385 25386 25387 25388 25389 25390 25391 25392 25393 25394 25395 25396 25397 25398 25399 25400 25401 25402 25403 25404 25405 25406 25407 25408 25409 25410 25411 25412 25413 25414 25415 25416 25417 25418 25419 25420 25421 25422 25423 25424 25425 25426 25427 25428 25429 25430 25431 25432 25433 25434 25435 25436 25437 25438 25439 25440 25441 25442 25443 25444 25445 25446 25447 25448 25449 25450 25451 25452 25453 25454 25455 25456 25457 25458 25459 25460 25461 25462 25463 25464 25465 25466 25467 25468 25469 25470 25471 25472 25473 25474 25475 25476 25477 25478 25479 25480 25481 25482 25483 25484 25485 25486 25487 25488 25489 25490 25491 25492 25493 25494 25495 25496 25497 25498 25499 25500 25501 25502 25503 25504 25505 25506 25507 25508 25509 25510 25511 25512 25513 25514 25515 25516 25517 25518 25519 25520 25521 25522 25523 25524 25525 25526 25527 25528 25529 25530 25531 25532 25533 25534 25535 25536 25537 25538 25539 25540 25541 25542 25543 25544 25545 25546 25547 25548 25549 25550 25551 25552 25553 25554 25555 25556 25557 25558 25559 25560 25561 25562 25563 25564 25565 25566 25567 25568 25569 25570 25571 25572 25573 25574 25575 25576 25577 25578 25579 25580 25581 25582 25583 25584 25585 25586 25587 25588 25589 25590 25591 25592 25593 25594 25595 25596 25597 25598 25599 25600 25601 25602 25603 25604 25605 25606 25607 25608 25609 25610 25611 25612 25613 25614 25615 25616 25617 25618 25619 25620 25621 25622 25623 25624 25625 25626 25627 25628 25629 25630 25631 25632 25633 25634 25635 25636 25637 25638 25639 25640 25641 25642 25643 25644 25645 25646 25647 25648 25649 25650 25651 25652 25653 25654 25655 25656 25657 25658 25659 25660 25661 25662 25663 25664 25665 25666 25667 25668 25669 25670 25671 25672 25673 25674 25675 25676 25677 25678 25679 25680 25681 25682 25683 25684 25685 25686 25687 25688 25689 25690 25691 25692 25693 25694 25695 25696 25697 25698 25699 25700 25701 25702 25703 25704 25705 25706 25707 25708 25709 25710 25711 25712 25713 25714 25715 25716 25717 25718 25719 25720 25721 25722 25723 25724 25725 25726 25727 25728 25729 25730 25731 25732 25733 25734 25735 25736 25737 25738 25739 25740 25741 25742 25743 25744 25745 25746 25747 25748 25749 25750 25751 25752 25753 25754 25755 25756 25757 25758 25759 25760 25761 25762 25763 25764 25765 25766 25767 25768 25769 25770 25771 25772 25773 25774 25775 25776 25777 25778 25779 25780 25781 25782 25783 25784 25785 25786 25787 25788 25789 25790 25791 25792 25793 25794 25795 25796 25797 25798 25799 25800 25801 25802 25803 25804 25805 25806 25807 25808 25809 25810 25811 25812 25813 25814 25815 25816 25817 25818 25819 25820 25821 25822 25823 25824 25825 25826 25827 25828 25829 25830 25831 25832 25833 25834 25835 25836 25837 25838 25839 25840 25841 25842 25843 25844 25845 25846 25847 25848 25849 25850 25851 25852 25853 25854 25855 25856 25857 25858 25859 25860 25861 25862 25863 25864 25865 25866 25867 25868 25869 25870 25871 25872 25873 25874 25875 25876 25877 25878 25879 25880 25881 25882 25883 25884 25885 25886 25887 25888 25889 25890 25891 25892 25893 25894 25895 25896 25897 25898 25899 25900 25901 25902 25903 25904 25905 25906 25907 25908 25909 25910 25911 25912 25913 25914 25915 25916 25917 25918 25919 25920 25921 25922 25923 25924 25925 25926 25927 25928 25929 25930 25931 25932 25933 25934 25935 25936 25937 25938 25939 25940 25941 25942 25943 25944 25945 25946 25947 25948 25949 25950 25951 25952 25953 25954 25955 25956 25957 25958 25959 25960 25961 25962 25963 25964 25965 25966 25967 25968 25969 25970 25971 25972 25973 25974 25975 25976 25977 25978 25979 25980 25981 25982 25983 25984 25985 25986 25987 25988 25989 25990 25991 25992 25993 25994 25995 25996 25997 25998 25999 26000 26001 26002 26003 26004 26005 26006 26007 26008 26009 26010 26011 26012 26013 26014 26015 26016 26017 26018 26019 26020 26021 26022 26023 26024 26025 26026 26027 26028 26029 26030 26031 26032 26033 26034 26035 26036 26037 26038 26039 26040 26041 26042 26043 26044 26045 26046 26047 26048 26049 26050 26051 26052 26053 26054 26055 26056 26057 26058 26059 26060 26061 26062 26063 26064 26065 26066 26067 26068 26069 26070 26071 26072 26073 26074 26075 26076 26077 26078 26079 26080 26081 26082 26083 26084 26085 26086 26087 26088 26089 26090 26091 26092 26093 26094 26095 26096 26097 26098 26099 26100 26101 26102 26103 26104 26105 26106 26107 26108 26109 26110 26111 26112 26113 26114 26115 26116 26117 26118 26119 26120 26121 26122 26123 26124 26125 26126 26127 26128 26129 26130 26131 26132 26133 26134 26135 26136 26137 26138 26139 26140 26141 26142 26143 26144 26145 26146 26147 26148 26149 26150 26151 26152 26153 26154 26155 26156 26157 26158 26159 26160 26161 26162 26163 26164 26165 26166 26167 26168 26169 26170 26171 26172 26173 26174 26175 26176 26177 26178 26179 26180 26181 26182 26183 26184 26185 26186 26187 26188 26189 26190 26191 26192 26193 26194 26195 26196 26197 26198 26199 26200 26201 26202 26203 26204 26205 26206 26207 26208 26209 26210 26211 26212 26213 26214 26215 26216 26217 26218 26219 26220 26221 26222 26223 26224 26225 26226 26227 26228 26229 26230 26231 26232 26233 26234 26235 26236 26237 26238 26239 26240 26241 26242 26243 26244 26245 26246 26247 26248 26249 26250 26251 26252 26253 26254 26255 26256 26257 26258 26259 26260 26261 26262 26263 26264 26265 26266 26267 26268 26269 26270 26271 26272 26273 26274 26275 26276 26277 26278 26279 26280 26281 26282 26283 26284 26285 26286 26287 26288 26289 26290 26291 26292 26293 26294 26295 26296 26297 26298 26299 26300 26301 26302 26303 26304 26305 26306 26307 26308 26309 26310 26311 26312 26313 26314 26315 26316 26317 26318 26319 26320 26321 26322 26323 26324 26325 26326 26327 26328 26329 26330 26331 26332 26333 26334 26335 26336 26337 26338 26339 26340 26341 26342 26343 26344 26345 26346 26347 26348 26349 26350 26351 26352 26353 26354 26355 26356 26357 26358 26359 26360 26361 26362 26363 26364 26365 26366 26367 26368 26369 26370 26371 26372 26373 26374 26375 26376 26377 26378 26379 26380 26381 26382 26383 26384 26385 26386 26387 26388 26389 26390 26391 26392 26393 26394 26395 26396 26397 26398 26399 26400 26401 26402 26403 26404 26405 26406 26407 26408 26409 26410 26411 26412 26413 26414 26415 26416 26417 26418 26419 26420 26421 26422 26423 26424 26425 26426 26427 26428 26429 26430 26431 26432 26433 26434 26435 26436 26437 26438 26439 26440 26441 26442 26443 26444 26445 26446 26447 26448 26449 26450 26451 26452 26453 26454 26455 26456 26457 26458 26459 26460 26461 26462 26463 26464 26465 26466 26467 26468 26469 26470 26471 26472 26473 26474 26475 26476 26477 26478 26479 26480 26481 26482 26483 26484 26485 26486 26487 26488 26489 26490 26491 26492 26493 26494 26495 26496 26497 26498 26499 26500 26501 26502 26503 26504 26505 26506 26507 26508 26509 26510 26511 26512 26513 26514 26515 26516 26517 26518 26519 26520 26521 26522 26523 26524 26525 26526 26527 26528 26529 26530 26531 26532 26533 26534 26535 26536 26537 26538 26539 26540 26541 26542 26543 26544 26545 26546 26547 26548 26549 26550 26551 26552 26553 26554 26555 26556 26557 26558 26559 26560 26561 26562 26563 26564 26565 26566 26567 26568 26569 26570 26571 26572 26573 26574 26575 26576 26577 26578 26579 26580 26581 26582 26583 26584 26585 26586 26587 26588 26589 26590 26591 26592 26593 26594 26595 26596 26597 26598 26599 26600 26601 26602 26603 26604 26605 26606 26607 26608 26609 26610 26611 26612 26613 26614 26615 26616 26617 26618 26619 26620 26621 26622 26623 26624 26625 26626 26627 26628 26629 26630 26631 26632 26633 26634 26635 26636 26637 26638 26639 26640 26641 26642 26643 26644 26645 26646 26647 26648 26649 26650 26651 26652 26653 26654 26655 26656 26657 26658 26659 26660 26661 26662 26663 26664 26665 26666 26667 26668 26669 26670 26671 26672 26673 26674 26675 26676 26677 26678 26679 26680 26681 26682 26683 26684 26685 26686 26687 26688 26689 26690 26691 26692 26693 26694 26695 26696 26697 26698 26699 26700 26701 26702 26703 26704 26705 26706 26707 26708 26709 26710 26711 26712 26713 26714 26715 26716 26717 26718 26719 26720 26721 26722 26723 26724 26725 26726 26727 26728 26729 26730 26731 26732 26733 26734 26735 26736 26737 26738 26739 26740 26741 26742 26743 26744 26745 26746 26747 26748 26749 26750 26751 26752 26753 26754 26755 26756 26757 26758 26759 26760 26761 26762 26763 26764 26765 26766 26767 26768 26769 26770 26771 26772 26773 26774 26775 26776 26777 26778 26779 26780 26781 26782 26783 26784 26785 26786 26787 26788 26789 26790 26791 26792 26793 26794 26795 26796 26797 26798 26799 26800 26801 26802 26803 26804 26805 26806 26807 26808 26809 26810 26811 26812 26813 26814 26815 26816 26817 26818 26819 26820 26821 26822 26823 26824 26825 26826 26827 26828 26829 26830 26831 26832 26833 26834 26835 26836 26837 26838 26839 26840 26841 26842 26843 26844 26845 26846 26847 26848 26849 26850 26851 26852 26853 26854 26855 26856 26857 26858 26859 26860 26861 26862 26863 26864 26865 26866 26867 26868 26869 26870 26871 26872 26873 26874 26875 26876 26877 26878 26879 26880 26881 26882 26883 26884 26885 26886 26887 26888 26889 26890 26891 26892 26893 26894 26895 26896 26897 26898 26899 26900 26901 26902 26903 26904 26905 26906 26907 26908 26909 26910 26911 26912 26913 26914 26915 26916 26917 26918 26919 26920 26921 26922 26923 26924 26925 26926 26927 26928 26929 26930 26931 26932 26933 26934 26935 26936 26937 26938 26939 26940 26941 26942 26943 26944 26945 26946 26947 26948 26949 26950 26951 26952 26953 26954 26955 26956 26957 26958 26959 26960 26961 26962 26963 26964 26965 26966 26967 26968 26969 26970 26971 26972 26973 26974 26975 26976 26977 26978 26979 26980 26981 26982 26983 26984 26985 26986 26987 26988 26989 26990 26991 26992 26993 26994 26995 26996 26997 26998 26999 27000 27001 27002 27003 27004 27005 27006 27007 27008 27009 27010 27011 27012 27013 27014 27015 27016 27017 27018 27019 27020 27021 27022 27023 27024 27025 27026 27027 27028 27029 27030 27031 27032 27033 27034 27035 27036 27037 27038 27039 27040 27041 27042 27043 27044 27045 27046 27047 27048 27049 27050 27051 27052 27053 27054 27055 27056 27057 27058 27059 27060 27061 27062 27063 27064 27065 27066 27067 27068 27069 27070 27071 27072 27073 27074 27075 27076 27077 27078 27079 27080 27081 27082 27083 27084 27085 27086 27087 27088 27089 27090 27091 27092 27093 27094 27095 27096 27097 27098 27099 27100 27101 27102 27103 27104 27105 27106 27107 27108 27109 27110 27111 27112 27113 27114 27115 27116 27117 27118 27119 27120 27121 27122 27123 27124 27125 27126 27127 27128 27129 27130 27131 27132 27133 27134 27135 27136 27137 27138 27139 27140 27141 27142 27143 27144 27145 27146 27147 27148 27149 27150 27151 27152 27153 27154 27155 27156 27157 27158 27159 27160 27161 27162 27163 27164 27165 27166 27167 27168 27169 27170 27171 27172 27173 27174 27175 27176 27177 27178 27179 27180 27181 27182 27183 27184 27185 27186 27187 27188 27189 27190 27191 27192 27193 27194 27195 27196 27197 27198 27199 27200 27201 27202 27203 27204 27205 27206 27207 27208 27209 27210 27211 27212 27213 27214 27215 27216 27217 27218 27219 27220 27221 27222 27223 27224 27225 27226 27227 27228 27229 27230 27231 27232 27233 27234 27235 27236 27237 27238 27239 27240 27241 27242 27243 27244 27245 27246 27247 27248 27249 27250 27251 27252 27253 27254 27255 27256 27257 27258 27259 27260 27261 27262 27263 27264 27265 27266 27267 27268 27269 27270 27271 27272 27273 27274 27275 27276 27277 27278 27279 27280 27281 27282 27283 27284 27285 27286 27287 27288 27289 27290 27291 27292 27293 27294 27295 27296 27297 27298 27299 27300 27301 27302 27303 27304 27305 27306 27307 27308 27309 27310 27311 27312 27313 27314 27315 27316 27317 27318 27319 27320 27321 27322 27323 27324 27325 27326 27327 27328 27329 27330 27331 27332 27333 27334 27335 27336 27337 27338 27339 27340 27341 27342 27343 27344 27345 27346 27347 27348 27349 27350 27351 27352 27353 27354 27355 27356 27357 27358 27359 27360 27361 27362 27363 27364 27365 27366 27367 27368 27369 27370 27371 27372 27373 27374 27375 27376 27377 27378 27379 27380 27381 27382 27383 27384 27385 27386 27387 27388 27389 27390 27391 27392 27393 27394 27395 27396 27397 27398 27399 27400 27401 27402 27403 27404 27405 27406 27407 27408 27409 27410 27411 27412 27413 27414 27415 27416 27417 27418 27419 27420 27421 27422 27423 27424 27425 27426 27427 27428 27429 27430 27431 27432 27433 27434 27435 27436 27437 27438 27439 27440 27441 27442 27443 27444 27445 27446 27447 27448 27449 27450 27451 27452 27453 27454 27455 27456 27457 27458 27459 27460 27461 27462 27463 27464 27465 27466 27467 27468 27469 27470 27471 27472 27473 27474 27475 27476 27477 27478 27479 27480 27481 27482 27483 27484 27485 27486 27487 27488 27489 27490 27491 27492 27493 27494 27495 27496 27497 27498 27499 27500 27501 27502 27503 27504 27505 27506 27507 27508 27509 27510 27511 27512 27513 27514 27515 27516 27517 27518 27519 27520 27521 27522 27523 27524 27525 27526 27527 27528 27529 27530 27531 27532 27533 27534 27535 27536 27537 27538 27539 27540 27541 27542 27543 27544 27545 27546 27547 27548 27549 27550 27551 27552 27553 27554 27555 27556 27557 27558 27559 27560 27561 27562 27563 27564 27565 27566 27567 27568 27569 27570 27571 27572 27573 27574 27575 27576 27577 27578 27579 27580 27581 27582 27583 27584 27585 27586 27587 27588 27589 27590 27591 27592 27593 27594 27595 27596 27597 27598 27599 27600 27601 27602 27603 27604 27605 27606 27607 27608 27609 27610 27611 27612 27613 27614 27615 27616 27617 27618 27619 27620 27621 27622 27623 27624 27625 27626 27627 27628 27629 27630 27631 27632 27633 27634 27635 27636 27637 27638 27639 27640 27641 27642 27643 27644 27645 27646 27647 27648 27649 27650 27651 27652 27653 27654 27655 27656 27657 27658 27659 27660 27661 27662 27663 27664 27665 27666 27667 27668 27669 27670 27671 27672 27673 27674 27675 27676 27677 27678 27679 27680 27681 27682 27683 27684 27685 27686 27687 27688 27689 27690 27691 27692 27693 27694 27695 27696 27697 27698 27699 27700 27701 27702 27703 27704 27705 27706 27707 27708 27709 27710 27711 27712 27713 27714 27715 27716 27717 27718 27719 27720 27721 27722 27723 27724 27725 27726 27727 27728 27729 27730 27731 27732 27733 27734 27735 27736 27737 27738 27739 27740 27741 27742 27743 27744 27745 27746 27747 27748 27749 27750 27751 27752 27753 27754 27755 27756 27757 27758 27759 27760 27761 27762 27763 27764 27765 27766 27767 27768 27769 27770 27771 27772 27773 27774 27775 27776 27777 27778 27779 27780 27781 27782 27783 27784 27785 27786 27787 27788 27789 27790 27791 27792 27793 27794 27795 27796 27797 27798 27799 27800 27801 27802 27803 27804 27805 27806 27807 27808 27809 27810 27811 27812 27813 27814 27815 27816 27817 27818 27819 27820 27821 27822 27823 27824 27825 27826 27827 27828 27829 27830 27831 27832 27833 27834 27835 27836 27837 27838 27839 27840 27841 27842 27843 27844 27845 27846 27847 27848 27849 27850 27851 27852 27853 27854 27855 27856 27857 27858 27859 27860 27861 27862 27863 27864 27865 27866 27867 27868 27869 27870 27871 27872 27873 27874 27875 27876 27877 27878 27879 27880 27881 27882 27883 27884 27885 27886 27887 27888 27889 27890 27891 27892 27893 27894 27895 27896 27897 27898 27899 27900 27901 27902 27903 27904 27905 27906 27907 27908 27909 27910 27911 27912 27913 27914 27915 27916 27917 27918 27919 27920 27921 27922 27923 27924 27925 27926 27927 27928 27929 27930 27931 27932 27933 27934 27935 27936 27937 27938 27939 27940 27941 27942 27943 27944 27945 27946 27947 27948 27949 27950 27951 27952 27953 27954 27955 27956 27957 27958 27959 27960 27961 27962 27963 27964 27965 27966 27967 27968 27969 27970 27971 27972 27973 27974 27975 27976 27977 27978 27979 27980 27981 27982 27983 27984 27985 27986 27987 27988 27989 27990 27991 27992 27993 27994 27995 27996 27997 27998 27999 28000 28001 28002 28003 28004 28005 28006 28007 28008 28009 28010 28011 28012 28013 28014 28015 28016 28017 28018 28019 28020 28021 28022 28023 28024 28025 28026 28027 28028 28029 28030 28031 28032 28033 28034 28035 28036 28037 28038 28039 28040 28041 28042 28043 28044 28045 28046 28047 28048 28049 28050 28051 28052 28053 28054 28055 28056 28057 28058 28059 28060 28061 28062 28063 28064 28065 28066 28067 28068 28069 28070 28071 28072 28073 28074 28075 28076 28077 28078 28079 28080 28081 28082 28083 28084 28085 28086 28087 28088 28089 28090 28091 28092 28093 28094 28095 28096 28097 28098 28099 28100 28101 28102 28103 28104 28105 28106 28107 28108 28109 28110 28111 28112 28113 28114 28115 28116 28117 28118 28119 28120 28121 28122 28123 28124 28125 28126 28127 28128 28129 28130 28131 28132 28133 28134 28135 28136 28137 28138 28139 28140 28141 28142 28143 28144 28145 28146 28147 28148 28149 28150 28151 28152 28153 28154 28155 28156 28157 28158 28159 28160 28161 28162 28163 28164 28165 28166 28167 28168 28169 28170 28171 28172 28173 28174 28175 28176 28177 28178 28179 28180 28181 28182 28183 28184 28185 28186 28187 28188 28189 28190 28191 28192 28193 28194 28195 28196 28197 28198 28199 28200 28201 28202 28203 28204 28205 28206 28207 28208 28209 28210 28211 28212 28213 28214 28215 28216 28217 28218 28219 28220 28221 28222 28223 28224 28225 28226 28227 28228 28229 28230 28231 28232 28233 28234 28235 28236 28237 28238 28239 28240 28241 28242 28243 28244 28245 28246 28247 28248 28249 28250 28251 28252 28253 28254 28255 28256 28257 28258 28259 28260 28261 28262 28263 28264 28265 28266 28267 28268 28269 28270 28271 28272 28273 28274 28275 28276 28277 28278 28279 28280 28281 28282 28283 28284 28285 28286 28287 28288 28289 28290 28291 28292 28293 28294 28295 28296 28297 28298 28299 28300 28301 28302 28303 28304 28305 28306 28307 28308 28309 28310 28311 28312 28313 28314 28315 28316 28317 28318 28319 28320 28321 28322 28323 28324 28325 28326 28327 28328 28329 28330 28331 28332 28333 28334 28335 28336 28337 28338 28339 28340 28341 28342 28343 28344 28345 28346 28347 28348 28349 28350 28351 28352 28353 28354 28355 28356 28357 28358 28359 28360 28361 28362 28363 28364 28365 28366 28367 28368 28369 28370 28371 28372 28373 28374 28375 28376 28377 28378 28379 28380 28381 28382 28383 28384 28385 28386 28387 28388 28389 28390 28391 28392 28393 28394 28395 28396 28397 28398 28399 28400 28401 28402 28403 28404 28405 28406 28407 28408 28409 28410 28411 28412 28413 28414 28415 28416 28417 28418 28419 28420 28421 28422 28423 28424 28425 28426 28427 28428 28429 28430 28431 28432 28433 28434 28435 28436 28437 28438 28439 28440 28441 28442 28443 28444 28445 28446 28447 28448 28449 28450 28451 28452 28453 28454 28455 28456 28457 28458 28459 28460 28461 28462 28463 28464 28465 28466 28467 28468 28469 28470 28471 28472 28473 28474 28475 28476 28477 28478 28479 28480 28481 28482 28483 28484 28485 28486 28487 28488 28489 28490 28491 28492 28493 28494 28495 28496 28497 28498 28499 28500 28501 28502 28503 28504 28505 28506 28507 28508 28509 28510 28511 28512 28513 28514 28515 28516 28517 28518 28519 28520 28521 28522 28523 28524 28525 28526 28527 28528 28529 28530 28531 28532 28533 28534 28535 28536 28537 28538 28539 28540 28541 28542 28543 28544 28545 28546 28547 28548 28549 28550 28551 28552 28553 28554 28555 28556 28557 28558 28559 28560 28561 28562 28563 28564 28565 28566 28567 28568 28569 28570 28571 28572 28573 28574 28575 28576 28577 28578 28579 28580 28581 28582 28583 28584 28585 28586 28587 28588 28589 28590 28591 28592 28593 28594 28595 28596 28597 28598 28599 28600 28601 28602 28603 28604 28605 28606 28607 28608 28609 28610 28611 28612 28613 28614 28615 28616 28617 28618 28619 28620 28621 28622 28623 28624 28625 28626 28627 28628 28629 28630 28631 28632 28633 28634 28635 28636 28637 28638 28639 28640 28641 28642 28643 28644 28645 28646 28647 28648 28649 28650 28651 28652 28653 28654 28655 28656 28657 28658 28659 28660 28661 28662 28663 28664 28665 28666 28667 28668 28669 28670 28671 28672 28673 28674 28675 28676 28677 28678 28679 28680 28681 28682 28683 28684 28685 28686 28687 28688 28689 28690 28691 28692 28693 28694 28695 28696 28697 28698 28699 28700 28701 28702 28703 28704 28705 28706 28707 28708 28709 28710 28711 28712 28713 28714 28715 28716 28717 28718 28719 28720 28721 28722 28723 28724 28725 28726 28727 28728 28729 28730 28731 28732 28733 28734 28735 28736 28737 28738 28739 28740 28741 28742 28743 28744 28745 28746 28747 28748 28749 28750 28751 28752 28753 28754 28755 28756 28757 28758 28759 28760 28761 28762 28763 28764 28765 28766 28767 28768 28769 28770 28771 28772 28773 28774 28775 28776 28777 28778 28779 28780 28781 28782 28783 28784 28785 28786 28787 28788 28789 28790 28791 28792 28793 28794 28795 28796 28797 28798 28799 28800 28801 28802 28803 28804 28805 28806 28807 28808 28809 28810 28811 28812 28813 28814 28815 28816 28817 28818 28819 28820 28821 28822 28823 28824 28825 28826 28827 28828 28829 28830 28831 28832 28833 28834 28835 28836 28837 28838 28839 28840 28841 28842 28843 28844 28845 28846 28847 28848 28849 28850 28851 28852 28853 28854 28855 28856 28857 28858 28859 28860 28861 28862 28863 28864 28865 28866 28867 28868 28869 28870 28871 28872 28873 28874 28875 28876 28877 28878 28879 28880 28881 28882 28883 28884 28885 28886 28887 28888 28889 28890 28891 28892 28893 28894 28895 28896 28897 28898 28899 28900 28901 28902 28903 28904 28905 28906 28907 28908 28909 28910 28911 28912 28913 28914 28915 28916 28917 28918 28919 28920 28921 28922 28923 28924 28925 28926 28927 28928 28929 28930 28931 28932 28933 28934 28935 28936 28937 28938 28939 28940 28941 28942 28943 28944 28945 28946 28947 28948 28949 28950 28951 28952 28953 28954 28955 28956 28957 28958 28959 28960 28961 28962 28963 28964 28965 28966 28967 28968 28969 28970 28971 28972 28973 28974 28975 28976 28977 28978 28979 28980 28981 28982 28983 28984 28985 28986 28987 28988 28989 28990 28991 28992 28993 28994 28995 28996 28997 28998 28999 29000 29001 29002 29003 29004 29005 29006 29007 29008 29009 29010 29011 29012 29013 29014 29015 29016 29017 29018 29019 29020 29021 29022 29023 29024 29025 29026 29027 29028 29029 29030 29031 29032 29033 29034 29035 29036 29037 29038 29039 29040 29041 29042 29043 29044 29045 29046 29047 29048 29049 29050 29051 29052 29053 29054 29055 29056 29057 29058 29059 29060 29061 29062 29063 29064 29065 29066 29067 29068 29069 29070 29071 29072 29073 29074 29075 29076 29077 29078 29079 29080 29081 29082 29083 29084 29085 29086 29087 29088 29089 29090 29091 29092 29093 29094 29095 29096 29097 29098 29099 29100 29101 29102 29103 29104 29105 29106 29107 29108 29109 29110 29111 29112 29113 29114 29115 29116 29117 29118 29119 29120 29121 29122 29123 29124 29125 29126 29127 29128 29129 29130 29131 29132 29133 29134 29135 29136 29137 29138 29139 29140 29141 29142 29143 29144 29145 29146 29147 29148 29149 29150 29151 29152 29153 29154 29155 29156 29157 29158 29159 29160 29161 29162 29163 29164 29165 29166 29167 29168 29169 29170 29171 29172 29173 29174 29175 29176 29177 29178 29179 29180 29181 29182 29183 29184 29185 29186 29187 29188 29189 29190 29191 29192 29193 29194 29195 29196 29197 29198 29199 29200 29201 29202 29203 29204 29205 29206 29207 29208 29209 29210 29211 29212 29213 29214 29215 29216 29217 29218 29219 29220 29221 29222 29223 29224 29225 29226 29227 29228 29229 29230 29231 29232 29233 29234 29235 29236 29237 29238 29239 29240 29241 29242 29243 29244 29245 29246 29247 29248 29249 29250 29251 29252 29253 29254 29255 29256 29257 29258 29259 29260 29261 29262 29263 29264 29265 29266 29267 29268 29269 29270 29271 29272 29273 29274 29275 29276 29277 29278 29279 29280 29281 29282 29283 29284 29285 29286 29287 29288 29289 29290 29291 29292 29293 29294 29295 29296 29297 29298 29299 29300 29301 29302 29303 29304 29305 29306 29307 29308 29309 29310 29311 29312 29313 29314 29315 29316 29317 29318 29319 29320 29321 29322 29323 29324 29325 29326 29327 29328 29329 29330 29331 29332 29333 29334 29335 29336 29337 29338 29339 29340 29341 29342 29343 29344 29345 29346 29347 29348 29349 29350 29351 29352 29353 29354 29355 29356 29357 29358 29359 29360 29361 29362 29363 29364 29365 29366 29367 29368 29369 29370 29371 29372 29373 29374 29375 29376 29377 29378 29379 29380 29381 29382 29383 29384 29385 29386 29387 29388 29389 29390 29391 29392 29393 29394 29395 29396 29397 29398 29399 29400 29401 29402 29403 29404 29405 29406 29407 29408 29409 29410 29411 29412 29413 29414 29415 29416 29417 29418 29419 29420 29421 29422 29423 29424 29425 29426 29427 29428 29429 29430 29431 29432 29433 29434 29435 29436 29437 29438 29439 29440 29441 29442 29443 29444 29445 29446 29447 29448 29449 29450 29451 29452 29453 29454 29455 29456 29457 29458 29459 29460 29461 29462 29463 29464 29465 29466 29467 29468 29469 29470 29471 29472 29473 29474 29475 29476 29477 29478 29479 29480 29481 29482 29483 29484 29485 29486 29487 29488 29489 29490 29491 29492 29493 29494 29495 29496 29497 29498 29499 29500 29501 29502 29503 29504 29505 29506 29507 29508 29509 29510 29511 29512 29513 29514 29515 29516 29517 29518 29519 29520 29521 29522 29523 29524 29525 29526 29527 29528 29529 29530 29531 29532 29533 29534 29535 29536 29537 29538 29539 29540 29541 29542 29543 29544 29545 29546 29547 29548 29549 29550 29551 29552 29553 29554 29555 29556 29557 29558 29559 29560 29561 29562 29563 29564 29565 29566 29567 29568 29569 29570 29571 29572 29573 29574 29575 29576 29577 29578 29579 29580 29581 29582 29583 29584 29585 29586 29587 29588 29589 29590 29591 29592 29593 29594 29595 29596 29597 29598 29599 29600 29601 29602 29603 29604 29605 29606 29607 29608 29609 29610 29611 29612 29613 29614 29615 29616 29617 29618 29619 29620 29621 29622 29623 29624 29625 29626 29627 29628 29629 29630 29631 29632 29633 29634 29635 29636 29637 29638 29639 29640 29641 29642 29643 29644 29645 29646 29647 29648 29649 29650 29651 29652 29653 29654 29655 29656 29657 29658 29659 29660 29661 29662 29663 29664 29665 29666 29667 29668 29669 29670 29671 29672 29673 29674 29675 29676 29677 29678 29679 29680 29681 29682 29683 29684 29685 29686 29687 29688 29689 29690 29691 29692 29693 29694 29695 29696 29697 29698 29699 29700 29701 29702 29703 29704 29705 29706 29707 29708 29709 29710 29711 29712 29713 29714 29715 29716 29717 29718 29719 29720 29721 29722 29723 29724 29725 29726 29727 29728 29729 29730 29731 29732 29733 29734 29735 29736 29737 29738 29739 29740 29741 29742 29743 29744 29745 29746 29747 29748 29749 29750 29751 29752 29753 29754 29755 29756 29757 29758 29759 29760 29761 29762 29763 29764 29765 29766 29767 29768 29769 29770 29771 29772 29773 29774 29775 29776 29777 29778 29779 29780 29781 29782 29783 29784 29785 29786 29787 29788 29789 29790 29791 29792 29793 29794 29795 29796 29797 29798 29799 29800 29801 29802 29803 29804 29805 29806 29807 29808 29809 29810 29811 29812 29813 29814 29815 29816 29817 29818 29819 29820 29821 29822 29823 29824 29825 29826 29827 29828 29829 29830 29831 29832 29833 29834 29835 29836 29837 29838 29839 29840 29841 29842 29843 29844 29845 29846 29847 29848 29849 29850 29851 29852 29853 29854 29855 29856 29857 29858 29859 29860 29861 29862 29863 29864 29865 29866 29867 29868 29869 29870 29871 29872 29873 29874 29875 29876 29877 29878 29879 29880 29881 29882 29883 29884 29885 29886 29887 29888 29889 29890 29891 29892 29893 29894 29895 29896 29897 29898 29899 29900 29901 29902 29903 29904 29905 29906 29907 29908 29909 29910 29911 29912 29913 29914 29915 29916 29917 29918 29919 29920 29921 29922 29923 29924 29925 29926 29927 29928 29929 29930 29931 29932 29933 29934 29935 29936 29937 29938 29939 29940 29941 29942 29943 29944 29945 29946 29947 29948 29949 29950 29951 29952 29953 29954 29955 29956 29957 29958 29959 29960 29961 29962 29963 29964 29965 29966 29967 29968 29969 29970 29971 29972 29973 29974 29975 29976 29977 29978 29979 29980 29981 29982 29983 29984 29985 29986 29987 29988 29989 29990 29991 29992 29993 29994 29995 29996 29997 29998 29999 30000 30001 30002 30003 30004 30005 30006 30007 30008 30009 30010 30011 30012 30013 30014 30015 30016 30017 30018 30019 30020 30021 30022 30023 30024 30025 30026 30027 30028 30029 30030 30031 30032 30033 30034 30035 30036 30037 30038 30039 30040 30041 30042 30043 30044 30045 30046 30047 30048 30049 30050 30051 30052 30053 30054 30055 30056 30057 30058 30059 30060 30061 30062 30063 30064 30065 30066 30067 30068 30069 30070 30071 30072 30073 30074 30075 30076 30077 30078 30079 30080 30081 30082 30083 30084 30085 30086 30087 30088 30089 30090 30091 30092 30093 30094 30095 30096 30097 30098 30099 30100 30101 30102 30103 30104 30105 30106 30107 30108 30109 30110 30111 30112 30113 30114 30115 30116 30117 30118 30119 30120 30121 30122 30123 30124 30125 30126 30127 30128 30129 30130 30131 30132 30133 30134 30135 30136 30137 30138 30139 30140 30141 30142 30143 30144 30145 30146 30147 30148 30149 30150 30151 30152 30153 30154 30155 30156 30157 30158 30159 30160 30161 30162 30163 30164 30165 30166 30167 30168 30169 30170 30171 30172 30173 30174 30175 30176 30177 30178 30179 30180 30181 30182 30183 30184 30185 30186 30187 30188 30189 30190 30191 30192 30193 30194 30195 30196 30197 30198 30199 30200 30201 30202 30203 30204 30205 30206 30207 30208 30209 30210 30211 30212 30213 30214 30215 30216 30217 30218 30219 30220 30221 30222 30223 30224 30225 30226 30227 30228 30229 30230 30231 30232 30233 30234 30235 30236 30237 30238 30239 30240 30241 30242 30243 30244 30245 30246 30247 30248 30249 30250 30251 30252 30253 30254 30255 30256 30257 30258 30259 30260 30261 30262 30263 30264 30265 30266 30267 30268 30269 30270 30271 30272 30273 30274 30275 30276 30277 30278 30279 30280 30281 30282 30283 30284 30285 30286 30287 30288 30289 30290 30291 30292 30293 30294 30295 30296 30297 30298 30299 30300 30301 30302 30303 30304 30305 30306 30307 30308 30309 30310 30311 30312 30313 30314 30315 30316 30317 30318 30319 30320 30321 30322 30323 30324 30325 30326 30327 30328 30329 30330 30331 30332 30333 30334 30335 30336 30337 30338 30339 30340 30341 30342 30343 30344 30345 30346 30347 30348 30349 30350 30351 30352 30353 30354 30355 30356 30357 30358 30359 30360 30361 30362 30363 30364 30365 30366 30367 30368 30369 30370 30371 30372 30373 30374 30375 30376 30377 30378 30379 30380 30381 30382 30383 30384 30385 30386 30387 30388 30389 30390 30391 30392 30393 30394 30395 30396 30397 30398 30399 30400 30401 30402 30403 30404 30405 30406 30407 30408 30409 30410 30411 30412 30413 30414 30415 30416 30417 30418 30419 30420 30421 30422 30423 30424 30425 30426 30427 30428 30429 30430 30431 30432 30433 30434 30435 30436 30437 30438 30439 30440 30441 30442 30443 30444 30445 30446 30447 30448 30449 30450 30451 30452 30453 30454 30455 30456 30457 30458 30459 30460 30461 30462 30463 30464 30465 30466 30467 30468 30469 30470 30471 30472 30473 30474 30475 30476 30477 30478 30479 30480 30481 30482 30483 30484 30485 30486 30487 30488 30489 30490 30491 30492 30493 30494 30495 30496 30497 30498 30499 30500 30501 30502 30503 30504 30505 30506 30507 30508 30509 30510 30511 30512 30513 30514 30515 30516 30517 30518 30519 30520 30521 30522 30523 30524 30525 30526 30527 30528 30529 30530 30531 30532 30533 30534 30535 30536 30537 30538 30539 30540 30541 30542 30543 30544 30545 30546 30547 30548 30549 30550 30551 30552 30553 30554 30555 30556 30557 30558 30559 30560 30561 30562 30563 30564 30565 30566 30567 30568 30569 30570 30571 30572 30573 30574 30575 30576 30577 30578 30579 30580 30581 30582 30583 30584 30585 30586 30587 30588 30589 30590 30591 30592 30593 30594 30595 30596 30597 30598 30599 30600 30601 30602 30603 30604 30605 30606 30607 30608 30609 30610 30611 30612 30613 30614 30615 30616 30617 30618 30619 30620 30621 30622 30623 30624 30625 30626 30627 30628 30629 30630 30631 30632 30633 30634 30635 30636 30637 30638 30639 30640 30641 30642 30643 30644 30645 30646 30647 30648 30649 30650 30651 30652 30653 30654 
</DataArray>
<DataArray type="UInt32" Name="offsets" format="ascii">
3 6 9 12 15 18 21 24 26 29 31 34 37 39 42 44 47 50 53 55 58 61 64 67 70 73 76 79 82 85 88 91 94 97 100 103 106 109 112 114 117 120 122 125 128 130 133 136 139 141 144 147 150 152 155 158 161 164 166 169 172 175 178 181 184 187 190 193 195 198 201 204 206 208 211 214 217 220 222 225 228 231 233 235 238 241 244 246 249 252 254 257 260 263 266 269 272 275 277 280 283 286 289 292 295 298 301 303 306 309 312 315 318 320 323 325 328 331 333 336 339 342 345 348 351 354 357 360 362 365 368 371 374 377 380 383 386 389 392 395 398 401 404 407 410 413 416 419 422 424 427 430 433 436 439 442 445 448 451 454 457 459 462 465 468 471 474 477 479 482 485 488 490 493 496 499 502 504 507 510 513 516 519 522 525 527 530 533 536 539 542 545 548 551 554 557 560 563 566 569 572 575 578 581 583 586 589 592 595 598 601 604 607 610 613 616 619 622 624 627 630 633 636 639 642 645 648 650 653 655 657 659 662 665 667 670 673 676 678 681 684 687 690 693 696 699 702 705 708 710 713 716 719 722 724 727 730 733 735 738 741 744 747 750 752 755 758 761 764 766 768 770 772 775 778 781 783 786 789 792 794 797 799 802 805 808 811 814 816 819 821 824 826 828 831 833 836 839 842 845 848 850 853 856 858 861 864 867 870 873 876 879 882 885 888 891 893 896 899 902 905 907 909 912 915 918 921 924 926 929 931 934 937 940 943 946 949 952 955 958 961 964 966 969 972 975 978 980 983 986 989 992 995 998 1001 1004 1007 1010 1013 1016 1018 1021 1024 1027 1030 1033 1036 1039 1042 1044 1047 1050 1053 1056 1058 1061 1064 1067 1070 1073 1075 1078 1081 1083 1086 1089 1092 1095 1098 1101 1104 1107 1109 1112 1115 1118 1121 1124 1127 1130 1133 1136 1139 1142 1145 1148 1151 1153 1156 1159 1162 1165 1168 1171 1174 1177 1180 1183 1186 1188 1191 1193 1195 1198 1201 1204 1207 1209 1212 1214 1217 1219 1222 1224 1227 1230 1233 1236 1239 1242 1245 1248 1251 1254 1257 1259 1262 1265 1268 1271 1273 1276 1279 1282 1285 1288 1291 1294 1297 1300 1303 1306 1309 1312 1315 1318 1321 1324 1327 1330 1333 1336 1339 1342 1345 1348 1351 1354 1357 1360 1362 1365 1368 1371 1374 1377 1380 1383 1386 1389 1392 1395 1398 1401 1403 1406 1408 1411 1414 1417 1420 1423 1426 1429 1432 1435 1438 1441 1444 1447 1450 1453 1456 1459 1462 1465 1467 1470 1473 1476 1479 1481 1484 1486 1488 1491 1494 1497 1500 1503 1506 1509 1512 1515 1518 1521 1524 1527 1530 1533 1536 1538 1541 1543 1546 1549 1551 1554 1557 1559 1562 1565 1568 1570 1572 1575 1578 1581 1583 1586 1589 1591 1594 1596 1599 1601 1604 1606 1609 1612 1614 1617 1620 1623 1625 1627 1630 1633 1636 1639 1642 1645 1648 1651 1654 1657 1660 1663 1665 1668 1671 1674 1677 1680 1683 1686 1689 1692 1695 1698 1701 1704 1706 1709 1711 1713 1716 1719 1722 1725 1728 1731 1734 1737 1740 1742 1745 1748 1751 1753 1756 1759 1762 1765 1768 1771 1774 1777 1780 1783 1786 1789 1792 1795 1798 1801 1804 1807 1810 1813 1816 1819 1822 1825 1828 1830 1833 1835 1837 1840 1843 1846 1848 1851 1854 1857 1860 1863 1866 1869 1872 1875 1877 1880 1883 1885 1888 1891 1894 1897 1900 1903 1906 1909 1912 1915 1918 1920 1923 1926 1928 1931 1934 1937 1940 1942 1945 1948 1951 1954 1956 1959 1961 1964 1967 1970 1973 1976 1979 1982 1985 1987 1990 1993 1996 1999 2002 2005 2007 2010 2012 2015 2018 2021 2023 2026 2029 2032 2035 2038 2040 2043 2046 2049 2052 2054 2057 2060 2063 2066 2069 2072 2075 2078 2081 2084 2087 2090 2093 2096 2098 2101 2104 2107 2110 2113 2116 2119 2122 2125 2128 2131 2134 2137 2140 2143 2146 2149 2152 2154 2157 2160 2163 2166 2169 2171 2174 2177 2180 2183 2186 2189 2192 2195 2198 2201 2204 2206 2209 2212 2215 2218 2221 2223 2226 2229 2232 2235 2238 2241 2243 2246 2249 2252 2254 2256 2259 2262 2265 2268 2271 2274 2277 2279 2281 2284 2287 2290 2293 2295 2298 2301 2304 2307 2309 2312 2315 2318 2320 2323 2326 2329 2332 2335 2338 2341 2344 2347 2350 2353 2356 2359 2362 2365 2368 2370 2372 2375 2378 2381 2384 2386 2389 2392 2395 2398 2400 2403 2405 2408 2411 2414 2417 2420 2423 2426 2429 2432 2435 2438 2441 2444 2447 2450 2453 2456 2459 2462 2465 2468 2471 2474 2477 2480 2483 2486 2489 2492 2495 2498 2501 2504 2507 2510 2513 2516 2519 2522 2525 2528 2531 2534 2537 2540 2543 2546 2549 2551 2554 2557 2560 2563 2566 2569 2571 2574 2577 2580 2583 2586 2589 2592 2595 2598 2600 2603 2606 2609 2612 2615 2618 2620 2623 2626 2629 2632 2635 2638 2641 2644 2647 2650 2653 2656 2659 2662 2664 2667 2670 2673 2676 2679 2682 2685 2688 2691 2694 2697 2700 2703 2706 2709 2712 2715 2718 2721 2724 2727 2730 2733 2736 2739 2742 2745 2748 2751 2754 2757 2759 2762 2765 2768 2771 2774 2777 2780 2783 2786 2789 2792 2795 2798 2801 2804 2807 2809 2812 2815 2818 2821 2824 2827 2829 2832 2835 2838 2841 2844 2847 2850 2853 2856 2858 2861 2864 2867 2870 2873 2876 2879 2882 2885 2888 2891 2894 2897 2900 2903 2906 2909 2912 2915 2918 2920 2923 2926 2928 2931 2933 2936 2939 2942 2944 2947 2949 2952 2955 2957 2960 2963 2966 2969 2972 2975 2978 2981 2984 2987 2990 2993 2996 2999 3002 3005 3008 3010 3013 3015 3018 3021 3024 3027 3029 3032 3034 3037 3040 3043 3045 3048 3051 3054 3057 3060 3063 3066 3069 3072 3075 3078 3081 3084 3087 3090 3093 3096 3099 3102 3105 3108 3111 3114 3117 3120 3123 3126 3129 3132 3135 3138 3141 3144 3147 3150 3153 3156 3159 3162 3165 3168 3171 3174 3177 3180 3183 3186 3189 3191 3194 3197 3199 3202 3205 3207 3210 3213 3216 3218 3221 3224 3227 3230 3233 3236 3238 3241 3244 3247 3250 3253 3256 3259 3262 3265 3268 3271 3274 3277 3280 3283 3285 3288 3290 3292 3295 3298 3300 3303 3305 3308 3311 3314 3317 3319 3322 3325 3328 3331 3334 3337 3340 3342 3345 3348 3350 3353 3355 3358 3360 3363 3366 3369 3372 3375 3378 3381 3384 3387 3390 3393 3396 3399 3402 3404 3406 3409 3411 3414 3417 3420 3423 3425 3428 3431 3434 3437 3440 3443 3446 3449 3452 3455 3458 3461 3464 3467 3469 3472 3475 3478 3481 3484 3487 3490 3493 3496 3499 3502 3505 3508 3511 3514 3516 3519 3522 3525 3528 3531 3534 3536 3539 3542 3545 3548 3551 3554 3557 3560 3563 3566 3568 3570 3573 3576 3579 3582 3585 3588 3591 3594 3597 3600 3603 3606 3609 3611 3614 3617 3620 3623 3626 3629 3632 3635 3638 3641 3644 3647 3650 3653 3656 3659 3662 3665 3667 3670 3673 3676 3679 3682 3685 3687 3690 3693 3696 3698 3701 3704 3707 3710 3713 3716 3719 3722 3725 3728 3731 3734 3737 3739 3742 3745 3747 3750 3752 3755 3758 3761 3764 3767 3770 3773 3776 3779 3782 3785 3788 3791 3794 3797 3800 3802 3805 3808 3811 3813 3816 3819 3822 3825 3828 3831 3833 3836 3839 3842 3845 3848 3851 3854 3857 3860 3863 3866 3868 3871 3874 3877 3880 3882 3885 3888 3891 3894 3897 3900 3903 3906 3909 3912 3915 3918 3921 3924 3927 3929 3932 3935 3938 3940 3942 3945 3948 3951 3954 3956 3959 3962 3965 3968 3970 3973 3976 3978 3981 3984 3987 3989 3991 3994 3997 4000 4003 4006 4009 4011 4014 4017 4020 4023 4025 4028 4031 4034 4036 4039 4042 4045 4048 4051 4054 4057 4060 4063 4066 4069 4072 4075 4078 4081 4084 4087 4090 4093 4096 4099 4102 4105 4108 4111 4114 4117 4120 4123 4126 4129 4132 4135 4137 4140 4143 4146 4149 4152 4155 4158 4161 4164 4167 4170 4173 4176 4179 4182 4185 4188 4191 4194 4197 4199 4202 4205 4207 4210 4213 4216 4219 4222 4225 4228 4231 4234 4237 4240 4243 4246 4249 4252 4255 4257 4260 4263 4266 4269 4272 4275 4277 4280 4283 4285 4288 4291 4294 4297 4300 4303 4306 4308 4310 4313 4315 4318 4321 4323 4326 4329 4332 4334 4337 4340 4343 4346 4349 4352 4355 4357 4360 4363 4366 4369 4371 4374 4376 4379 4382 4384 4386 4389 4391 4393 4396 4398 4401 4404 4407 4409 4412 4414 4417 4419 4422 4425 4428 4431 4433 4435 4438 4441 4443 4445 4447 4450 4453 4456 4459 4462 4465 4467 4470 4473 4475 4478 4481 4483 4486 4489 4492 4495 4497 4500 4503 4506 4509 4512 4514 4517 4520 4522 4524 4527 4530 4532 4535 4538 4541 4544 4547 4549 4552 4555 4558 4560 4563 4566 4569 4572 4575 4578 4580 4583 4586 4588 4591 4594 4596 4599 4602 4605 4608 4611 4614 4617 4620 4623 4626 4629 4632 4634 4637 4640 4643 4646 4649 4652 4655 4658 4661 4664 4667 4670 4673 4676 4679 4682 4685 4687 4690 4693 4696 4699 4702 4705 4708 4711 4714 4717 4720 4723 4726 4729 4732 4735 4738 4741 4744 4747 4750 4752 4755 4758 4760 4763 4766 4769 4772 4775 4778 4781 4784 4787 4790 4793 4795 4798 4801 4804 4807 4810 4813 4816 4819 4822 4825 4828 4830 4833 4836 4839 4842 4845 4848 4851 4854 4857 4859 4862 4865 4867 4869 4872 4875 4878 4881 4884 4886 4889 4892 4895 4898 4901 4904 4907 4910 4912 4915 4918 4921 4924 4927 4930 4933 4936 4939 4942 4945 4948 4951 4954 4956 4959 4962 4965 4968 4971 4974 4977 4979 4982 4985 4988 4991 4994 4996 4999 5002 5004 5006 5009 5012 5015 5018 5021 5023 5026 5029 5032 5034 5037 5040 5043 5046 5049 5052 5055 5058 5061 5064 5067 5070 5073 5076 5079 5082 5085 5088 5091 5094 5097 5100 5103 5106 5109 5112 5115 5118 5121 5124 5127 5130 5133 5136 5138 5141 5144 5147 5149 5152 5155 5157 5160 5163 5166 5169 5171 5174 5177 5180 5183 5186 5189 5191 5194 5197 5200 5203 5206 5209 5212 5215 5217 5220 5223 5226 5229 5231 5234 5237 5240 5243 5246 5249 5252 5255 5257 5259 5262 5265 5268 5271 5274 5277 5280 5283 5286 5289 5291 5294 5297 5299 5302 5305 5308 5311 5314 5317 5320 5323 5326 5329 5332 5335 5338 5341 5344 5347 5350 5353 5356 5359 5362 5365 5368 5371 5374 5377 5380 5383 5386 5389 5392 5395 5398 5401 5404 5407 5410 5413 5416 5419 5422 5425 5428 5431 5434 5437 5440 5443 5446 5449 5452 5455 5458 5461 5464 5467 5470 5473 5476 5479 5482 5485 5488 5491 5494 5497 5500 5503 5506 5509 5512 5515 5518 5521 5524 5526 5529 5532 5535 5538 5541 5544 5547 5549 5552 5554 5556 5559 5562 5565 5568 5571 5574 5577 5580 5583 5586 5589 5592 5595 5598 5601 5604 5607 5610 5613 5616 5619 5621 5624 5627 5630 5632 5635 5638 5641 5644 5647 5650 5653 5656 5659 5661 5664 5667 5670 5673 5676 5679 5682 5685 5688 5691 5694 5697 5700 5703 5706 5709 5712 5715 5718 5721 5724 5727 5730 5733 5736 5739 5742 5745 5748 5751 5754 5757 5760 5763 5766 5769 5772 5774 5777 5780 5783 5786 5789 5792 5795 5798 5800 5803 5806 5809 5812 5815 5818 5821 5824 5827 5830 5833 5836 5839 5842 5845 5848 5851 5854 5857 5859 5862 5865 5868 5871 5874 5876 5879 5882 5884 5887 5889 5892 5895 5898 5901 5904 5907 5910 5913 5916 5919 5922 5924 5927 5930 5933 5936 5939 5941 5944 5947 5950 5952 5954 5957 5959 5962 5965 5967 5970 5973 5976 5979 5982 5985 5988 5991 5994 5996 5999 6002 6005 6008 6011 6014 6017 6020 6023 6026 6028 6031 6034 6036 6039 6042 6045 6048 6051 6053 6056 6059 6062 6065 6068 6071 6074 6077 6080 6083 6086 6089 6092 6094 6097 6100 6103 6106 6109 6112 6115 6118 6121 6124 6127 6130 6133 6136 6139 6141 6144 6147 6150 6153 6156 6159 6162 6165 6168 6171 6174 6176 6179 6182 6185 6188 6191 6194 6197 6200 6203 6205 6208 6211 6214 6217 6220 6223 6226 6229 6231 6234 6237 6240 6243 6246 6249 6252 6255 6258 6261 6264 6267 6270 6272 6275 6278 6281 6283 6286 6289 6292 6295 6298 6301 6304 6307 6310 6313 6316 6319 6321 6324 6327 6329 6332 6335 6338 6341 6344 6347 6350 6352 6354 6357 6359 6361 6364 6367 6370 6373 6376 6379 6382 6385 6387 6390 6393 6395 6398 6401 6404 6406 6408 6411 6414 6417 6420 6422 6425 6427 6429 6432 6435 6438 6441 6444 6447 6450 6453 6456 6459 6462 6465 6468 6471 6474 6477 6480 6483 6485 6487 6490 6492 6495 6497 6500 6503 6506 6509 6512 6515 6518 6521 6524 6527 6529 6531 6534 6537 6540 6542 6544 6547 6550 6552 6554 6557 6560 6562 6565 6567 6570 6573 6576 6579 6582 6585 6587 6590 6593 6596 6599 6601 6604 6607 6610 6612 6615 6618 6621 6624 6627 6630 6633 6636 6639 6642 6645 6648 6651 6654 6657 6660 6663 6666 6669 6672 6675 6677 6680 6683 6685 6688 6691 6694 6697 6700 6703 6706 6709 6712 6715 6718 6721 6724 6727 6730 6733 6736 6739 6742 6745 6748 6751 6754 6757 6760 6763 6766 6769 6772 6775 6777 6779 6782 6784 6787 6790 6793 6796 6799 6801 6804 6807 6810 6813 6816 6819 6822 6825 6828 6830 6833 6836 6839 6842 6844 6847 6850 6853 6856 6858 6861 6864 6867 6870 6872 6875 6878 6881 6884 6886 6889 6892 6895 6898 6901 6904 6906 6909 6912 6915 6918 6921 6924 6927 6930 6933 6936 6939 6942 6945 6948 6951 6954 6957 6960 6963 6966 6969 6972 6975 6978 6981 6984 6987 6989 6992 6995 6998 7001 7004 7007 7010 7013 7016 7019 7022 7025 7028 7031 7034 7037 7040 7043 7046 7049 7052 7055 7057 7060 7063 7066 7069 7072 7075 7078 7081 7084 7087 7090 7093 7096 7099 7102 7105 7108 7111 7114 7117 7120 7123 7126 7129 7132 7135 7138 7141 7144 7147 7150 7153 7156 7159 7162 7165 7168 7171 7174 7177 7180 7183 7186 7189 7192 7195 7198 7201 7204 7207 7210 7213 7216 7218 7221 7224 7227 7230 7233 7236 7239 7242 7245 7248 7251 7254 7257 7260 7263 7266 7268 7271 7274 7277 7280 7283 7286 7289 7291 7294 7297 7300 7303 7306 7309 7312 7315 7318 7321 7323 7326 7329 7332 7334 7337 7340 7343 7346 7348 7351 7354 7357 7360 7363 7365 7368 7371 7374 7377 7380 7383 7386 7389 7392 7395 7397 7400 7403 7405 7408 7411 7414 7417 7420 7423 7426 7429 7432 7435 7438 7441 7444 7447 7450 7453 7456 7459 7462 7465 7468 7471 7474 7477 7480 7483 7486 7489 7492 7495 7498 7501 7504 7507 7510 7513 7516 7519 7522 7525 7528 7531 7534 7537 7540 7543 7546 7549 7552 7555 7558 7561 7564 7567 7570 7573 7575 7578 7581 7584 7587 7590 7593 7596 7599 7602 7605 7608 7611 7614 7617 7620 7623 7626 7629 7632 7635 7638 7641 7644 7647 7650 7653 7656 7659 7662 7665 7668 7670 7673 7676 7679 7682 7685 7688 7691 7694 7697 7700 7703 7705 7708 7710 7712 7714 7717 7719 7722 7725 7728 7731 7733 7735 7738 7741 7744 7747 7750 7753 7755 7758 7760 7763 7766 7769 7771 7774 7777 7780 7783 7786 7789 7792 7795 7798 7801 7804 7806 7809 7812 7815 7817 7820 7823 7826 7829 7832 7834 7837 7840 7843 7846 7849 7851 7854 7857 7860 7863 7866 7869 7872 7875 7878 7880 7883 7886 7888 7891 7894 7897 7900 7903 7906 7908 7911 7914 7917 7920 7923 7926 7928 7931 7934 7937 7940 7943 7946 7949 7952 7955 7958 7961 7964 7967 7969 7972 7975 7978 7981 7984 7987 7990 7993 7996 7999 8002 8005 8008 8011 8014 8017 8020 8023 8026 8029 8032 8035 8038 8041 8044 8047 8050 8053 8056 8059 8062 8064 8067 8070 8073 8076 8079 8082 8085 8088 8091 8094 8097 8100 8103 8106 8109 8112 8115 8118 8121 8124 8127 8130 8132 8134 8137 8140 8143 8146 8149 8152 8155 8157 8160 8162 8165 8168 8171 8174 8177 8180 8183 8185 8187 8190 8192 8195 8198 8200 8203 8205 8207 8210 8213 8215 8218 8221 8224 8227 8230 8232 8235 8238 8240 8243 8245 8248 8251 8253 8256 8259 8262 8265 8267 8270 8273 8276 8278 8281 8283 8286 8289 8292 8295 8297 8300 8303 8306 8309 8312 8315 8318 8321 8324 8327 8329 8332 8334 8337 8340 8343 8345 8348 8350 8353 8356 8359 8362 8365 8368 8371 8374 8377 8380 8383 8386 8389 8391 8394 8396 8399 8402 8405 8408 8411 8414 8417 8420 8423 8426 8429 8432 8435 8438 8441 8444 8447 8450 8452 8455 8458 8461 8463 8466 8469 8471 8474 8477 8479 8482 8485 8488 8491 8494 8497 8500 8503 8506 8509 8512 8515 8518 8520 8523 8526 8529 8532 8535 8538 8541 8544 8547 8550 8553 8555 8558 8561 8564 8567 8570 8573 8575 8578 8581 8583 8586 8589 8592 8595 8598 8601 8604 8607 8610 8613 8616 8619 8622 8625 8628 8631 8634 8637 8639 8642 8645 8648 8650 8653 8656 8659 8662 8664 8667 8670 8673 8676 8679 8682 8685 8688 8691 8694 8697 8700 8703 8706 8709 8712 8715 8718 8721 8724 8727 8729 8732 8735 8738 8741 8743 8746 8749 8752 8755 8757 8760 8762 8765 8767 8770 8773 8775 8778 8781 8784 8787 8790 8793 8796 8799 8802 8805 8808 8811 8814 8816 8819 8822 8825 8828 8831 8834 8837 8840 8842 8845 8848 8851 8854 8857 8860 8863 8866 8869 8872 8875 8878 8881 8884 8887 8890 8893 8896 8899 8902 8905 8908 8911 8914 8917 8920 8923 8926 8929 8932 8934 8937 8940 8942 8945 8948 8951 8954 8956 8958 8961 8964 8966 8969 8971 8974 8977 8979 8982 8985 8987 8990 8993 8996 8999 9002 9005 9008 9011 9013 9016 9019 9022 9025 9028 9031 9034 9037 9040 9043 9046 9049 9052 9055 9058 9061 9064 9067 9070 9073 9076 9079 9081 9084 9087 9090 9092 9095 9097 9100 9103 9106 9109 9112 9115 9117 9120 9123 9126 9129 9131 9134 9137 9140 9142 9145 9148 9151 9154 9157 9160 9163 9166 9169 9172 9175 9178 9181 9184 9186 9189 9192 9195 9198 9201 9204 9206 9209 9211 9214 9217 9220 9223 9226 9229 9231 9234 9237 9240 9243 9246 9249 9252 9255 9258 9261 9264 9267 9270 9272 9275 9278 9281 9284 9287 9290 9293 9296 9299 9302 9305 9307 9310 9313 9316 9319 9322 9324 9327 9330 9332 9335 9338 9341 9344 9346 9349 9352 9355 9358 9361 9364 9367 9370 9373 9376 9379 9382 9385 9388 9391 9394 9397 9400 9403 9406 9409 9412 9415 9418 9421 9423 9426 9429 9431 9433 9436 9439 9441 9443 9446 9448 9450 9452 9455 9458 9461 9463 9465 9468 9471 9474 9476 9478 9481 9484 9487 9490 9492 9494 9496 9499 9501 9504 9506 9509 9512 9514 9517 9520 9523 9526 9528 9531 9534 9537 9540 9542 9544 9547 9550 9553 9556 9559 9562 9565 9568 9571 9574 9577 9580 9583 9586 9589 9592 9595 9598 9601 9603 9606 9609 9612 9614 9616 9618 9621 9624 9627 9630 9633 9636 9639 9641 9644 9647 9650 9653 9655 9657 9660 9663 9665 9668 9671 9674 9677 9680 9683 9686 9689 9692 9695 9697 9700 9702 9705 9708 9710 9713 9715 9718 9721 9724 9727 9729 9732 9735 9738 9740 9743 9745 9748 9751 9753 9756 9759 9762 9764 9766 9768 9771 9773 9776 9778 9781 9783 9785 9787 9790 9793 9796 9799 9802 9805 9808 9810 9813 9816 9819 9822 9825 9828 9831 9834 9837 9840 9843 9846 9849 9852 9855 9858 9861 9864 9867 9870 9873 9876 9879 9882 9885 9887 9890 9893 9896 9899 9902 9905 9907 9909 9912 9915 9917 9919 9922 9925 9928 9931 9934 9937 9940 9943 9946 9948 9951 9954 9957 9960 9963 9966 9969 9972 9975 9978 9981 9984 9987 9989 9992 9995 9998 10001 10004 10007 10010 10013 10016 10019 10022 10025 10028 10031 10034 10037 10040 10042 10045 10047 10050 10053 10056 10058 10061 10063 10066 10068 10070 10073 10075 10078 10081 10084 10087 10090 10092 10095 10098 10101 10104 10107 10110 10112 10115 10118 10121 10124 10127 10130 10132 10135 10138 10140 10143 10146 10149 10152 10155 10158 10161 10164 10167 10170 10173 10176 10179 10182 10185 10188 10191 10193 10196 10199 10202 10205 10208 10211 10214 10217 10220 10223 10226 10229 10232 10234 10237 10240 10243 10246 10248 10251 10254 10257 10260 10262 10265 10268 10271 10274 10277 10280 10283 10286 10289 10292 10295 10298 10301 10304 10307 10310 10313 10316 10318 10321 10324 10327 10330 10333 10336 10339 10342 10345 10348 10351 10354 10357 10360 10363 10366 10369 10372 10375 10378 10380 10383 10386 10389 10392 10395 10398 10401 10404 10407 10410 10413 10416 10419 10422 10424 10427 10430 10433 10436 10439 10442 10445 10448 10451 10454 10457 10460 10463 10466 10469 10472 10475 10478 10480 10483 10486 10489 10492 10495 10498 10501 10504 10507 10510 10513 10515 10518 10521 10524 10527 10530 10532 10535 10537 10540 10543 10546 10549 10552 10555 10558 10560 10563 10566 10569 10572 10575 10578 10581 10584 10587 10589 10592 10594 10597 10600 10603 10606 10609 10612 10614 10617 10620 10623 10626 10629 10632 10635 10638 10641 10644 10647 10650 10653 10656 10659 10661 10664 10667 10670 10673 10676 10679 10682 10685 10688 10691 10694 10697 10699 10702 10705 10708 10711 10714 10717 10720 10723 10726 10729 10732 10734 10736 10739 10742 10745 10747 10750 10752 10755 10758 10761 10763 10766 10769 10772 10775 10777 10780 10782 10785 10788 10790 10793 10796 10799 10802 10804 10807 10810 10813 10816 10819 10822 10824 10827 10830 10833 10835 10838 10840 10843 10846 10849 10852 10855 10858 10861 10864 10867 10870 10873 10876 10879 10882 10885 10887 10890 10893 10896 10899 10901 10904 10907 10910 10913 10916 10919 10922 10925 10928 10930 10933 10936 10939 10942 10945 10948 10951 10954 10957 10960 10963 10966 10969 10972 10975 10978 10981 10984 10987 10990 10992 10994 10997 11000 11003 11006 11009 11012 11015 11018 11021 11024 11027 11030 11033 11036 11038 11040 11043 11046 11048 11051 11054 11057 11060 11063 11065 11068 11071 11074 11077 11080 11083 11086 11089 11092 11095 11098 11101 11104 11107 11110 11113 11116 11119 11122 11125 11128 11131 11134 11137 11140 11143 11146 11149 11152 11155 11158 11161 11164 11167 11170 11173 11176 11179 11182 11185 11188 11191 11194 11197 11200 11203 11206 11208 11211 11213 11216 11219 11222 11225 11228 11231 11234 11237 11240 11243 11246 11249 11252 11255 11258 11261 11264 11266 11269 11272 11275 11278 11281 11284 11287 11290 11293 11296 11299 11302 11304 11307 11309 11312 11314 11317 11320 11323 11325 11328 11330 11333 11335 11338 11341 11344 11347 11350 11353 11356 11359 11362 11365 11368 11371 11374 11377 11380 11383 11386 11388 11390 11393 11395 11398 11401 11404 11407 11410 11412 11415 11418 11420 11422 11424 11427 11429 11432 11435 11438 11441 11443 11445 11448 11451 11454 11457 11460 11462 11465 11467 11470 11473 11476 11479 11482 11485 11488 11491 11494 11497 11500 11502 11505 11508 11510 11513 11516 11519 11522 11525 11528 11530 11533 11536 11539 11541 11544 11547 11550 11553 11556 11558 11561 11563 11566 11569 11572 11575 11577 11580 11583 11586 11589 11592 11594 11596 11599 11602 11604 11607 11610 11613 11616 11619 11622 11625 11628 11631 11633 11636 11639 11642 11644 11647 11650 11652 11655 11658 11661 11664 11667 11670 11673 11676 11679 11682 11685 11688 11691 11694 11697 11700 11703 11705 11708 11710 11713 11716 11719 11722 11725 11728 11731 11734 11737 11740 11743 11745 11748 11751 11753 11756 11758 11761 11764 11767 11770 11773 11776 11779 11782 11785 11788 11791 11794 11797 11799 11802 11805 11808 11811 11814 11817 11820 11823 11826 11829 11832 11835 11838 11841 11843 11846 11848 11851 11854 11857 11860 11863 11866 11869 11872 11875 11878 11881 11884 11887 11889 11891 11894 11897 11900 11903 11905 11908 11911 11914 11917 11920 11923 11926 11928 11931 11934 11936 11939 11942 11944 11947 11950 11953 11956 11958 11961 11964 11967 11970 11973 11975 11978 11981 11983 11986 11989 11992 11994 11997 12000 12003 12006 12009 12012 12015 12018 12021 12024 12027 12030 12033 12035 12038 12041 12044 12046 12049 12052 12055 12058 12061 12064 12067 12069 12072 12075 12078 12081 12084 12087 12090 12093 12096 12099 12102 12104 12107 12110 12113 12116 12119 12122 12125 12128 12131 12134 12137 12140 12143 12146 12149 12152 12155 12157 12160 12163 12166 12169 12171 12174 12177 12180 12182 12185 12188 12191 12194 12197 12199 12202 12205 12208 12210 12213 12216 12219 12222 12225 12228 12231 12234 12236 12239 12242 12245 12248 12251 12254 12257 12260 12263 12266 12268 12271 12274 12276 12279 12282 12284 12287 12290 12293 12296 12299 12302 12305 12308 12311 12314 12317 12320 12323 12326 12329 12332 12335 12338 12341 12344 12346 12349 12352 12354 12357 12360 12362 12365 12368 12371 12374 12377 12380 12383 12386 12389 12392 12395 12398 12401 12404 12407 12409 12412 12415 12418 12421 12424 12427 12429 12432 12435 12438 12441 12444 12447 12449 12452 12455 12457 12460 12463 12466 12469 12472 12475 12478 12481 12484 12487 12490 12492 12495 12498 12501 12504 12507 12510 12513 12516 12519 12522 12525 12528 12531 12534 12537 12540 12543 12546 12549 12551 12554 12557 12559 12562 12565 12568 12571 12574 12577 12580 12583 12585 12588 12591 12594 12597 12600 12603 12606 12609 12612 12615 12618 12621 12624 12627 12630 12633 12636 12639 12642 12645 12648 12651 12654 12657 12660 12663 12666 12669 12672 12675 12678 12681 12684 12687 12690 12693 12696 12699 12702 12705 12708 12710 12713 12715 12718 12721 12723 12726 12729 12732 12735 12737 12740 12743 12746 12748 12751 12754 12757 12760 12763 12766 12769 12772 12774 12776 12779 12782 12784 12787 12790 12793 12796 12799 12802 12805 12808 12811 12814 12816 12819 12821 12824 12827 12830 12833 12836 12838 12841 12844 12847 12850 12852 12855 12858 12861 12864 12867 12870 12872 12875 12878 12880 12883 12886 12888 12891 12894 12896 12899 12902 12905 12908 12911 12914 12917 12919 12922 12925 12928 12930 12933 12936 12939 12942 12945 12947 12950 12953 12956 12958 12961 12964 12967 12970 12973 12976 12979 12981 12984 12987 12990 12993 12996 12999 13001 13004 13007 13010 13013 13016 13019 13022 13025 13028 13031 13034 13037 13039 13042 13045 13047 13050 13053 13056 13059 13062 13065 13068 13071 13074 13077 13080 13083 13086 13089 13092 13094 13097 13100 13102 13105 13108 13111 13114 13116 13119 13122 13125 13127 13130 13133 13136 13139 13142 13145 13148 13151 13154 13157 13160 13162 13165 13168 13170 13173 13176 13179 13181 13184 13187 13190 13192 13195 13198 13201 13204 13207 13209 13212 13215 13218 13220 13223 13226 13229 13232 13235 13238 13241 13244 13247 13250 13253 13256 13259 13262 13265 13268 13271 13274 13277 13280 13283 13286 13289 13291 13294 13296 13299 13302 13305 13308 13311 13314 13317 13320 13323 13326 13329 13332 13335 13337 13340 13343 13346 13348 13351 13354 13357 13359 13362 13365 13368 13371 13374 13377 13379 13382 13385 13388 13391 13394 13396 13399 13402 13405 13408 13411 13414 13417 13420 13422 13425 13427 13430 13433 13436 13439 13442 13445 13448 13451 13453 13456 13459 13461 13464 13467 13470 13473 13476 13479 13482 13485 13487 13490 13493 13495 13498 13501 13504 13507 13510 13513 13516 13519 13522 13525 13528 13531 13534 13537 13540 13543 13546 13549 13552 13555 13558 13561 13564 13567 13569 13572 13574 13577 13580 13583 13585 13588 13591 13594 13596 13599 13601 13603 13606 13609 13612 13615 13618 13621 13624 13627 13630 13633 13636 13638 13641 13644 13647 13650 13653 13656 13659 13661 13664 13667 13670 13673 13675 13678 13681 13684 13687 13690 13693 13696 13699 13702 13705 13708 13710 13713 13716 13719 13722 13725 13727 13730 13733 13736 13739 13742 13745 13747 13750 13753 13756 13759 13762 13764 13767 13770 13773 13776 13778 13781 13783 13786 13788 13790 13793 13795 13798 13801 13803 13806 13809 13812 13815 13818 13821 13824 13826 13829 13832 13834 13837 13840 13843 13846 13849 13852 13854 13857 13860 13863 13866 13868 13871 13874 13876 13879 13882 13885 13888 13891 13894 13897 13900 13903 13906 13909 13911 13914 13916 13919 13922 13925 13928 13931 13934 13937 13939 13942 13945 13948 13951 13954 13957 13960 13963 13966 13969 13972 13975 13978 13981 13984 13987 13990 13992 13995 13998 14001 14004 14006 14009 14012 14015 14018 14021 14024 14027 14030 14033 14036 14039 14042 14045 14048 14051 14054 14057 14060 14063 14066 14069 14072 14075 14078 14081 14084 14087 14090 14093 14096 14099 14102 14105 14108 14111 14114 14117 14120 14123 14126 14129 14132 14135 14137 14140 14143 14146 14149 14152 14155 14158 14161 14164 14167 14170 14173 14176 14179 14181 14184 14187 14190 14192 14195 14198 14201 14204 14207 14210 14213 14216 14219 14221 14224 14227 14229 14232 14235 14238 14241 14244 14247 14250 14253 14255 14258 14261 14264 14267 14270 14273 14275 14278 14281 14284 14287 14290 14293 14296 14299 14302 14305 14308 14311 14314 14317 14320 14323 14326 14329 14332 14335 14338 14340 14343 14346 14348 14351 14354 14357 14360 14363 14366 14369 14372 14374 14377 14379 14382 14384 14386 14389 14392 14395 14398 14401 14404 14407 14410 14413 14416 14419 14422 14425 14428 14431 14434 14437 14440 14443 14446 14449 14452 14455 14458 14461 14464 14467 14470 14473 14476 14479 14482 14485 14488 14490 14493 14496 14499 14502 14505 14508 14511 14513 14516 14519 14522 14525 14528 14531 14534 14537 14539 14542 14544 14547 14550 14553 14556 14559 14562 14565 14568 14571 14574 14577 14580 14583 14586 14589 14592 14595 14598 14601 14604 14607 14610 14613 14616 14619 14622 14625 14628 14631 14634 14637 14640 14643 14646 14648 14651 14654 14657 14660 14663 14665 14668 14671 14674 14677 14680 14683 14685 14688 14691 14694 14697 14700 14703 14705 14708 14711 14714 14717 14720 14723 14726 14729 14732 14735 14738 14741 14744 14747 14750 14752 14755 14758 14760 14763 14766 14769 14772 14774 14777 14780 14782 14785 14788 14791 14794 14797 14800 14803 14806 14809 14812 14815 14818 14821 14824 14827 14830 14833 14836 14839 14842 14845 14848 14851 14854 14857 14860 14863 14866 14869 14871 14874 14876 14879 14882 14885 14888 14891 14894 14897 14900 14903 14906 14909 14912 14915 14918 14921 14924 14927 14930 14933 14936 14939 14942 14945 14948 14951 14954 14957 14960 14963 14966 14969 14972 14975 14977 14980 14982 14985 14988 14991 14994 14997 15000 15003 15005 15008 15011 15013 15016 15019 15022 15025 15028 15031 15033 15036 15039 15042 15045 15048 15051 15054 15057 15060 15063 15066 15069 15072 15075 15078 15081 15084 15087 15090 15093 15096 15099 15102 15105 15108 15111 15114 15117 15120 15122 15125 15128 15131 15134 15137 15140 15143 15145 15148 15151 15154 15157 15159 15162 15164 15167 15170 15173 15176 15179 15182 15185 15187 15190 15193 15195 15198 15201 15204 15207 15210 15213 15216 15219 15222 15225 15228 15231 15233 15236 15239 15242 15245 15248 15251 15254 15257 15260 15262 15265 15268 15270 15273 15276 15279 15282 15285 15287 15290 15293 15296 15298 15301 15304 15307 15310 15313 15316 15319 15322 15325 15328 15331 15333 15336 15339 15342 15345 15348 15351 15353 15356 15359 15362 15365 15368 15370 15373 15376 15379 15382 15385 15388 15390 15393 15396 15399 15402 15404 15407 15410 15413 15416 15418 15421 15424 15426 15429 15432 15435 15438 15440 15443 15445 15448 15451 15454 15457 15459 15462 15465 15467 15469 15472 15474 15477 15479 15481 15484 15486 15489 15492 15494 15497 15500 15502 15505 15508 15511 15514 15517 15520 15522 15525 15528 15531 15534 15537 15540 15542 15545 15548 15551 15553 15556 15559 15562 15565 15567 15570 15573 15575 15578 15581 15584 15587 15590 15593 15596 15599 15602 15605 15608 15611 15614 15617 15620 15623 15626 15629 15631 15634 15636 15639 15642 15645 15647 15650 15653 15656 15659 15662 15665 15668 15671 15674 15677 15680 15683 15686 15689 15692 15694 15696 15699 15702 15705 15708 15710 15713 15716 15719 15722 15725 15728 15730 15732 15735 15738 15741 15743 15746 15749 15752 15755 15758 15761 15763 15766 15769 15772 15775 15778 15781 15784 15787 15790 15793 15796 15799 15802 15805 15808 15810 15813 15816 15819 15822 15824 15826 15829 15831 15834 15837 15839 15842 15844 15847 15850 15853 15856 15859 15861 15864 15867 15870 15873 15876 15879 15882 15885 15888 15890 15893 15896 15898 15901 15904 15906 15909 15911 15914 15916 15919 15922 15925 15928 15931 15934 15937 15940 15943 15946 15949 15952 15955 15958 15961 15964 15967 15970 15973 15976 15979 15982 15985 15988 15991 15994 15997 16000 16003 16006 16009 16012 16015 16018 16021 16024 16027 16029 16031 16034 16037 16040 16043 16046 16048 16051 16054 16056 16059 16062 16065 16067 16069 16072 16075 16078 16081 16084 16087 16090 16092 16094 16097 16099 16102 16105 16108 16111 16114 16116 16119 16122 16125 16127 16129 16132 16135 16138 16141 16144 16146 16148 16151 16154 16157 16160 16163 16166 16168 16171 16174 16177 16180 16183 16186 16189 16192 16195 16198 16200 16203 16206 16208 16211 16214 16217 16220 16223 16226 16229 16232 16235 16238 16241 16244 16247 16250 16253 16256 16259 16262 16265 16268 16271 16274 16277 16280 16282 16285 16288 16291 16294 16297 16300 16303 16305 16307 16310 16313 16316 16319 16321 16324 16326 16329 16332 16335 16338 16341 16344 16347 16350 16353 16356 16359 16362 16365 16368 16371 16374 16377 16380 16383 16386 16389 16391 16394 16397 16400 16403 16406 16408 16411 16414 16417 16420 16423 16426 16429 16432 16435 16438 16441 16444 16447 16450 16452 16455 16458 16461 16464 16467 16470 16473 16476 16479 16482 16485 16488 16491 16494 16497 16499 16502 16505 16508 16510 16513 16515 16518 16521 16524 16527 16530 16533 16536 16539 16542 16545 16548 16550 16553 16555 16558 16561 16564 16567 16570 16573 16576 16578 16581 16584 16587 16590 16593 16596 16599 16602 16605 16608 16611 16614 16617 16620 16623 16626 16629 16632 16635 16638 16641 16644 16647 16650 16653 16656 16659 16662 16665 16668 16671 16674 16677 16680 16683 16686 16688 16691 16694 16696 16699 16702 16705 16708 16711 16713 16716 16719 16722 16725 16728 16731 16734 16737 16740 16743 16746 16749 16752 16755 16758 16760 16763 16765 16768 16770 16773 16776 16779 16781 16784 16787 16790 16792 16795 16797 16800 16803 16806 16809 16812 16815 16818 16821 16824 16827 16829 16832 16835 16838 16840 16843 16846 16848 16851 16854 16857 16860 16862 16865 16868 16871 16874 16877 16880 16883 16886 16889 16892 16894 16897 16900 16903 16905 16907 16909 16912 16915 16918 16921 16924 16927 16929 16932 16935 16938 16941 16944 16947 16949 16952 16955 16957 16960 16963 16966 16969 16972 16975 16977 16979 16982 16985 16988 16991 16994 16997 17000 17003 17006 17009 17011 17014 17017 17020 17023 17026 17029 17031 17034 17037 17040 17043 17046 17048 17050 17052 17055 17058 17061 17064 17066 17069 17072 17074 17077 17080 17083 17086 17088 17091 17094 17097 17100 17102 17105 17107 17110 17112 17114 17117 17120 17123 17126 17129 17132 17135 17138 17141 17144 17147 17150 17153 17156 17159 17162 17165 17168 17171 17174 17177 17180 17183 17186 17189 17192 17194 17197 17200 17203 17206 17209 17211 17213 17216 17218 17221 17224 17227 17230 17233 17236 17239 17242 17245 17248 17251 17254 17256 17259 17262 17265 17268 17271 17274 17277 17280 17282 17285 17288 17291 17294 17297 17300 17303 17306 17309 17312 17315 17318 17321 17324 17327 17329 17331 17334 17337 17340 17343 17346 17349 17352 17355 17358 17361 17364 17367 17370 17373 17375 17377 17380 17383 17386 17389 17392 17395 17398 17401 17404 17407 17410 17413 17416 17419 17422 17425 17427 17430 17433 17436 17439 17442 17444 17447 17450 17453 17456 17459 17462 17465 17468 17471 17474 17477 17480 17483 17486 17489 17492 17495 17498 17500 17503 17506 17509 17512 17515 17518 17521 17524 17526 17529 17532 17535 17538 17541 17544 17546 17549 17552 17555 17558 17561 17564 17567 17570 17573 17576 17579 17582 17585 17588 17591 17594 17597 17600 17603 17606 17609 17612 17615 17618 17620 17623 17626 17629 17632 17635 17638 17641 17644 17647 17650 17653 17656 17659 17661 17664 17667 17670 17672 17675 17677 17680 17683 17686 17689 17691 17694 17697 17699 17702 17705 17708 17711 17714 17717 17720 17723 17726 17729 17732 17735 17738 17741 17744 17747 17750 17753 17756 17759 17761 17764 17767 17770 17773 17776 17779 17782 17785 17788 17791 17794 17797 17800 17803 17806 17809 17812 17815 17817 17820 17823 17826 17829 17832 17835 17838 17841 17843 17845 17848 17851 17854 17857 17860 17863 17866 17869 17872 17875 17878 17881 17884 17887 17890 17893 17896 17899 17902 17905 17908 17911 17914 17916 17919 17922 17925 17928 17931 17934 17937 17939 17942 17945 17948 17951 17954 17957 17960 17963 17966 17969 17972 17975 17978 17981 17983 17986 17989 17992 17995 17998 18001 18004 18007 18010 18013 18016 18019 18022 18025 18027 18030 18033 18036 18039 18042 18045 18048 18051 18054 18057 18059 18061 18063 18066 18069 18072 18075 18078 18081 18084 18087 18090 18093 18096 18099 18102 18105 18107 18110 18113 18116 18119 18122 18125 18128 18131 18134 18137 18140 18143 18146 18149 18152 18155 18158 18161 18164 18167 18170 18173 18176 18179 18182 18185 18187 18190 18193 18196 18199 18202 18204 18207 18210 18213 18216 18218 18221 18224 18226 18229 18232 18235 18238 18241 18244 18247 18250 18253 18256 18259 18262 18265 18268 18271 18274 18277 18280 18283 18286 18289 18292 18295 18298 18301 18304 18307 18310 18313 18315 18318 18320 18323 18326 18329 18332 18335 18338 18341 18344 18347 18350 18353 18356 18358 18361 18364 18367 18370 18373 18376 18379 18382 18385 18387 18390 18393 18396 18399 18402 18405 18408 18411 18414 18417 18420 18423 18426 18429 18432 18435 18438 18441 18444 18447 18450 18453 18456 18459 18462 18465 18468 18471 18473 18476 18479 18481 18484 18487 18490 18493 18496 18499 18501 18504 18507 18510 18513 18515 18518 18521 18523 18526 18529 18531 18534 18537 18540 18543 18546 18549 18552 18554 18557 18560 18562 18564 18567 18570 18573 18576 18578 18581 18584 18587 18589 18592 18595 18598 18601 18604 18607 18609 18612 18615 18618 18621 18624 18627 18630 18633 18636 18638 18641 18644 18647 18649 18652 18654 18657 18660 18663 18666 18669 18672 18675 18678 18681 18684 18687 18690 18692 18695 18697 18700 18703 18706 18708 18711 18714 18716 18718 18721 18724 18726 18728 18731 18734 18737 18739 18741 18744 18746 18749 18751 18754 18757 18759 18761 18764 18767 18770 18773 18776 18779 18782 18785 18788 18791 18794 18797 18800 18803 18806 18809 18812 18815 18818 18821 18823 18825 18828 18830 18833 18836 18839 18842 18845 18848 18851 18854 18857 18860 18863 18866 18869 18872 18875 18878 18881 18883 18886 18889 18891 18894 18897 18900 18903 18906 18909 18912 18915 18917 18920 18923 18926 18929 18932 18935 18938 18941 18944 18947 18950 18953 18956 18959 18962 18965 18968 18971 18973 18976 18979 18982 18984 18987 18990 18993 18996 18999 19002 19004 19006 19009 19012 19014 19017 19020 19023 19026 19029 19032 19035 19038 19041 19044 19047 19050 19053 19056 19058 19061 19064 19067 19070 19073 19076 19079 19082 19085 19088 19091 19094 19097 19100 19103 19106 19109 19112 19115 19117 19120 19123 19126 19129 19132 19135 19138 19141 19143 19146 19149 19152 19155 19158 19161 19164 19167 19170 19173 19176 19179 19182 19185 19188 19191 19194 19197 19200 19203 19206 19209 19211 19214 19217 19220 19223 19225 19228 19231 19233 19236 19239 19242 19245 19248 19250 19253 19256 19258 19261 19264 19266 19269 19272 19275 19278 19281 19284 19287 19290 19292 19295 19298 19301 19304 19307 19309 19312 19315 19318 19321 19324 19326 19329 19332 19334 19337 19340 19342 19345 19348 19351 19354 19357 19360 19363 19366 19369 19372 19375 19377 19379 19382 19385 19387 19390 19392 19395 19398 19401 19404 19407 19410 19413 19415 19418 19421 19423 19426 19429 19432 19435 19438 19441 19444 19447 19450 19453 19456 19459 19462 19465 19468 19471 19474 19477 19480 19483 19486 19489 19492 19495 19498 19501 19504 19507 19510 19513 19516 19519 19522 19525 19528 19531 19534 19537 19540 19543 19546 19549 19552 19555 19558 19561 19564 19567 19570 19572 19575 19578 19581 19584 19586 19588 19591 19594 19597 19599 19602 19605 19608 19610 19612 19615 19618 19621 19624 19627 19630 19633 19636 19639 19642 19645 19648 19651 19654 19656 19659 19662 19665 19668 19670 19673 19675 19678 19681 19684 19687 19690 19692 19695 19698 19701 19704 19706 19709 19712 19715 19717 19720 19723 19725 19728 19730 19733 19735 19738 19741 19744 19747 19750 19753 19756 19759 19762 19765 19768 19771 19774 19777 19780 19783 19786 19789 19792 19795 19798 19800 19802 19805 19807 19810 19813 19816 19818 19821 19824 19827 19830 19833 19835 19838 19841 19844 19846 19849 19852 19855 19858 19861 19864 19867 19870 19873 19876 19879 19882 19885 19888 19891 19893 19896 19899 19901 19904 19907 19910 19913 19916 19919 19922 19925 19928 19930 19933 19936 19939 19942 19944 19947 19950 19953 19956 19959 19962 19965 19968 19971 19974 19977 19979 19982 19985 19988 19991 19994 19997 20000 20003 20006 20009 20012 20015 20018 20021 20024 20026 20029 20032 20035 20038 20041 20044 20047 20050 20053 20056 20059 20061 20064 20067 20070 20073 20076 20079 20082 20085 20088 20091 20094 20097 20100 20103 20106 20109 20112 20115 20118 20121 20124 20127 20129 20132 20135 20138 20140 20143 20146 20149 20151 20154 20157 20160 20162 20165 20168 20171 20174 20177 20180 20183 20186 20189 20192 20194 20197 20199 20202 20205 20208 20210 20213 20216 20219 20222 20225 20228 20230 20233 20236 20239 20242 20245 20248 20251 20254 20257 20260 20263 20266 20269 20272 20275 20278 20281 20284 20287 20290 20293 20296 20299 20302 20304 20307 20310 20313 20316 20319 20322 20325 20328 20331 20334 20337 20340 20343 20346 20349 20351 20354 20357 20360 20363 20366 20369 20372 20375 20378 20381 20384 20387 20390 20393 20396 20399 20402 20405 20408 20411 20414 20417 20420 20423 20426 20429 20432 20435 20438 20441 20444 20447 20449 20452 20455 20457 20460 20463 20465 20468 20471 20474 20477 20480 20483 20486 20488 20491 20494 20497 20500 20503 20506 20509 20511 20514 20517 20520 20523 20526 20529 20532 20535 20538 20541 20544 20547 20550 20553 20556 20558 20561 20564 20566 20569 20572 20575 20578 20581 20584 20587 20590 20593 20596 20599 20602 20605 20608 20611 20614 20617 20620 20623 20626 20629 20632 20635 20638 20641 20644 20647 20650 20653 20656 20659 20662 20665 20668 20670 20673 20676 20678 20681 20684 20687 20690 20693 20696 20699 20702 20705 20708 20711 20714 20717 20720 20723 20726 20729 20732 20735 20738 20741 20744 20747 20750 20753 20756 20759 20762 20765 20768 20771 20774 20777 20780 20783 20786 20789 20792 20795 20798 20801 20804 20807 20809 20812 20814 20816 20819 20822 20824 20827 20830 20833 20836 20839 20842 20845 20848 20850 20853 20856 20859 20862 20865 20868 20871 20874 20877 20880 20883 20886 20889 20892 20895 20898 20901 20904 20907 20910 20913 20916 20919 20922 20925 20928 20931 20934 20937 20940 20943 20946 20949 20952 20955 20958 20961 20964 20967 20970 20972 20975 20978 20981 20983 20986 20989 20992 20994 20997 21000 21003 21006 21009 21012 21015 21018 21020 21023 21025 21028 21031 21034 21037 21040 21043 21046 21049 21052 21055 21057 21059 21062 21065 21068 21071 21074 21077 21080 21083 21086 21088 21091 21094 21097 21099 21102 21105 21108 21110 21113 21116 21119 21122 21124 21127 21130 21133 21135 21137 21139 21142 21145 21147 21150 21153 21155 21158 21161 21163 21166 21169 21172 21175 21177 21180 21183 21186 21188 21191 21194 21197 21199 21202 21205 21208 21211 21214 21217 21220 21223 21226 21229 21232 21235 21238 21241 21243 21246 21249 21251 21254 21257 21260 21263 21266 21269 21272 21275 21278 21281 21283 21285 21288 21291 21294 21297 21299 21302 21305 21308 21311 21314 21317 21320 21323 21326 21329 21332 21335 21338 21341 21344 21347 21350 21353 21356 21359 21362 21365 21368 21371 21374 21377 21380 21383 21386 21389 21392 21395 21398 21401 21403 21406 21408 21411 21414 21417 21419 21422 21425 21427 21430 21433 21436 21439 21441 21444 21447 21449 21452 21455 21458 21460 21463 21465 21468 21471 21474 21477 21480 21483 21486 21489 21492 21495 21497 21500 21503 21506 21509 21512 21515 21518 21521 21524 21527 21530 21533 21535 21538 21541 21544 21547 21550 21553 21556 21559 21562 21565 21567 21570 21573 21576 21578 21581 21584 21587 21590 21593 21596 21599 21602 21605 21608 21611 21614 21617 21620 21623 21626 21629 21632 21635 21638 21641 21644 21647 21650 21653 21656 21659 21662 21665 21668 21671 21674 21677 21680 21683 21686 21689 21692 21695 21698 21701 21704 21707 21710 21713 21716 21719 21722 21725 21728 21731 21734 21737 21740 21743 21746 21749 21752 21755 21758 21761 21764 21767 21770 21773 21776 21778 21781 21784 21787 21790 21793 21796 21799 21802 21805 21808 21811 21813 21815 21818 21821 21824 21826 21829 21832 21835 21838 21841 21843 21846 21849 21852 21854 21857 21860 21863 21866 21868 21871 21873 21876 21879 21882 21885 21888 21891 21894 21897 21900 21902 21905 21908 21911 21914 21917 21920 21923 21926 21929 21931 21934 21937 21940 21943 21946 21949 21951 21954 21957 21960 21963 21966 21969 21972 21975 21978 21981 21984 21986 21989 21992 21995 21997 22000 22003 22006 22009 22012 22015 22018 22021 22024 22027 22030 22033 22036 22039 22042 22045 22048 22051 22054 22057 22060 22063 22066 22069 22072 22074 22077 22080 22083 22085 22088 22091 22094 22097 22100 22102 22105 22108 22111 22113 22116 22119 22122 22125 22127 22130 22133 22136 22139 22142 22145 22147 22150 22153 22156 22159 22162 22165 22167 22169 22172 22175 22178 22181 22184 22187 22190 22193 22196 22199 22202 22205 22208 22211 22213 22216 22219 22222 22224 22227 22229 22232 22234 22237 22240 22243 22246 22249 22252 22255 22258 22261 22264 22267 22270 22272 22275 22278 22281 22284 22286 22289 22291 22294 22297 22300 22303 22306 22309 22312 22314 22317 22320 22323 22326 22329 22332 22335 22337 22340 22343 22345 22347 22350 22353 22356 22359 22361 22364 22367 22370 22373 22376 22379 22382 22384 22387 22390 22393 22396 22399 22402 22405 22408 22411 22414 22417 22420 22423 22425 22428 22431 22434 22437 22440 22443 22446 22449 22452 22454 22457 22459 22462 22465 22468 22471 22474 22476 22479 22482 22485 22488 22491 22494 22497 22500 22503 22506 22509 22512 22515 22518 22521 22524 22527 22530 22533 22536 22539 22542 22545 22548 22551 22554 22557 22560 22563 22566 22569 22572 22575 22578 22581 22584 22587 22590 22593 22596 22599 22602 22605 22608 22611 22614 22617 22620 22623 22626 22629 22631 22634 22637 22640 22643 22646 22648 22651 22653 22656 22659 22662 22665 22668 22671 22674 22676 22679 22681 22684 22687 22690 22693 22696 22699 22702 22705 22708 22711 22714 22717 22719 22722 22724 22727 22730 22733 22736 22739 22742 22745 22748 22751 22754 22757 22760 22763 22766 22769 22772 22775 22778 22781 22783 22786 22789 22792 22795 22797 22800 22802 22805 22808 22811 22813 22816 22819 22822 22825 22828 22831 22834 22837 22840 22843 22846 22849 22852 22855 22858 22861 22864 22867 22870 22872 22875 22878 22881 22884 22887 22890 22893 22896 22898 22901 22904 22907 22909 22912 22915 22918 22921 22924 22927 22930 22933 22936 22939 22942 22945 22947 22950 22953 22956 22959 22962 22964 22967 22970 22973 22976 22979 22982 22985 22988 22991 22993 22996 22998 23001 23004 23007 23010 23013 23016 23019 23022 23025 23028 23030 23033 23036 23039 23042 23045 23048 23051 23054 23057 23060 23063 23066 23069 23072 23074 23077 23080 23083 23086 23089 23092 23095 23097 23100 23103 23106 23109 23112 23115 23118 23121 23124 23127 23130 23133 23136 23139 23142 23145 23148 23151 23154 23157 23160 23163 23166 23169 23172 23175 23178 23181 23184 23187 23189 23192 23194 23197 23200 23203 23206 23209 23212 23215 23218 23221 23224 23227 23230 23232 23235 23238 23241 23244 23247 23250 23252 23254 23257 23260 23263 23266 23269 23272 23275 23278 23281 23284 23287 23290 23292 23295 23298 23301 23304 23307 23310 23313 23316 23319 23322 23325 23328 23331 23334 23337 23340 23343 23346 23349 23352 23355 23358 23361 23364 23367 23370 23373 23376 23379 23382 23385 23388 23391 23394 23397 23400 23403 23406 23409 23412 23415 23418 23421 23424 23427 23430 23433 23436 23439 23442 23445 23448 23451 23454 23457 23460 23463 23465 23468 23471 23474 23477 23480 23482 23485 23488 23490 23493 23496 23499 23502 23504 23507 23510 23513 23516 23519 23521 23524 23527 23529 23532 23535 23538 23541 23544 23546 23549 23551 23554 23557 23560 23563 23566 23569 23572 23575 23578 23581 23584 23587 23590 23593 23596 23599 23602 23605 23608 23611 23614 23617 23620 23623 23626 23628 23631 23634 23637 23639 23641 23644 23647 23650 23653 23656 23659 23661 23664 23667 23670 23673 23676 23679 23682 23685 23688 23691 23694 23697 23700 23703 23706 23708 23711 23714 23717 23720 23723 23726 23728 23731 23734 23736 23739 23742 23745 23748 23751 23754 23757 23759 23762 23765 23768 23771 23773 23776 23779 23782 23785 23788 23791 23794 23796 23799 23801 23804 23807 23810 23813 23816 23819 23822 23824 23827 23830 23833 23835 23838 23841 23844 23847 23850 23853 23856 23859 23862 23865 23868 23871 23874 23877 23880 23882 23885 23887 23890 23893 23896 23898 23901 23904 23907 23909 23912 23915 23917 23920 23923 23926 23929 23932 23935 23937 23940 23943 23946 23949 23952 23955 23958 23961 23964 23967 23970 23973 23976 23979 23982 23984 23987 23990 23993 23996 23999 24002 24004 24007 24010 24013 24016 24019 24021 24024 24027 24030 24033 24036 24039 24042 24045 24047 24050 24053 24056 24059 24061 24064 24067 24070 24072 24075 24078 24080 24083 24086 24088 24091 24094 24096 24099 24101 24104 24106 24109 24112 24115 24118 24121 24123 24126 24129 24132 24135 24138 24141 24144 24147 24150 24152 24155 24158 24161 24164 24167 24170 24172 24175 24178 24181 24184 24186 24189 24191 24194 24197 24199 24202 24205 24208 24211 24213 24215 24218 24221 24224 24226 24229 24231 24234 24237 24239 24242 24244 24246 24249 24252 24255 24258 24261 24264 24267 24270 24273 24275 24278 24281 24284 24286 24289 24292 24295 24298 24301 24304 24306 24308 24311 24314 24316 24318 24320 24322 24325 24328 24331 24333 24336 24339 24342 24345 24348 24350 24353 24356 24359 24362 24365 24368 24371 24374 24377 24380 24383 24386 24389 24392 24395 24398 24401 24404 24407 24410 24413 24416 24418 24421 24424 24426 24429 24432 24435 24438 24441 24444 24447 24450 24453 24456 24459 24462 24465 24468 24471 24474 24477 24480 24483 24486 24489 24491 24494 24497 24500 24503 24506 24509 24512 24515 24518 24521 24524 24527 24529 24532 24535 24537 24540 24543 24546 24549 24552 24555 24558 24561 24564 24567 24570 24573 24576 24579 24582 24585 24588 24591 24594 24597 24599 24602 24605 24608 24611 24614 24617 24620 24622 24625 24627 24630 24632 24635 24638 24640 24643 24646 24649 24651 24653 24656 24659 24662 24665 24668 24671 24674 24677 24680 24683 24686 24689 24692 24695 24698 24701 24704 24706 24709 24712 24715 24718 24721 24724 24727 24730 24733 24736 24739 24742 24745 24748 24751 24754 24757 24760 24763 24766 24768 24771 24774 24776 24779 24782 24785 24788 24790 24793 24796 24799 24802 24805 24808 24811 24814 24816 24819 24822 24825 24828 24831 24833 24836 24839 24842 24845 24848 24851 24854 24856 24859 24862 24865 24867 24870 24872 24874 24877 24880 24883 24886 24889 24892 24895 24898 24901 24903 24906 24909 24912 24915 24917 24920 24923 24926 24928 24931 24934 24937 24940 24942 24945 24948 24951 24953 24956 24958 24961 24964 24966 24969 24971 24974 24977 24980 24982 24985 24988 24991 24994 24997 24999 25002 25005 25008 25011 25014 25017 25020 25023 25026 25028 25031 25034 25037 25040 25042 25045 25048 25050 25053 25056 25059 25061 25064 25067 25070 25073 25075 25078 25080 25082 25085 25088 25091 25094 25097 25100 25103 25106 25109 25112 25115 25118 25121 25124 25127 25129 25132 25134 25137 25140 25143 25146 25149 25152 25155 25158 25160 25163 25166 25169 25172 25175 25178 25180 25183 25185 25188 25191 25194 25197 25200 25202 25205 25208 25211 25214 25217 25220 25222 25225 25227 25229 25232 25235 25238 25241 25244 25247 25250 25253 25256 25259 25262 25265 25268 25271 25274 25277 25280 25283 25286 25289 25292 25295 25297 25300 25303 25306 25309 25312 25315 25318 25321 25324 25327 25330 25333 25336 25339 25342 25345 25348 25350 25353 25356 25358 25361 25364 25367 25370 25373 25376 25379 25382 25385 25388 25390 25393 25396 25399 25401 25404 25407 25410 25413 25416 25419 25422 25424 25427 25430 25433 25436 25439 25442 25444 25447 25450 25453 25456 25459 25462 25465 25468 25471 25474 25477 25479 25482 25485 25488 25491 25494 25497 25500 25503 25506 25509 25512 25515 25518 25521 25524 25527 25529 25532 25535 25538 25541 25544 25547 25550 25553 25556 25558 25561 25564 25567 25569 25572 25575 25578 25581 25584 25587 25590 25593 25596 25599 25602 25605 25608 25611 25614 25617 25620 25623 25626 25629 25632 25635 25638 25641 25644 25646 25649 25652 25655 25658 25661 25663 25665 25668 25671 25674 25677 25679 25682 25685 25688 25691 25694 25697 25700 25703 25705 25708 25711 25714 25717 25719 25722 25725 25728 25730 25733 25736 25739 25742 25745 25747 25750 25752 25755 25758 25761 25764 25767 25770 25773 25775 25778 25781 25783 25786 25789 25791 25794 25797 25800 25802 25805 25808 25811 25814 25817 25819 25822 25825 25828 25831 25834 25837 25840 25843 25845 25847 25850 25853 25856 25859 25862 25865 25868 25871 25874 25876 25879 25882 25885 25888 25890 25893 25896 25899 25902 25905 25908 25911 25914 25917 25920 25923 25926 25928 25931 25934 25937 25940 25943 25946 25949 25952 25955 25958 25961 25964 25967 25970 25973 25976 25979 25982 25985 25988 25991 25994 25997 26000 26003 26006 26009 26011 26014 26017 26020 26022 26024 26027 26030 26033 26036 26039 26042 26044 26047 26050 26053 26055 26057 26060 26063 26066 26069 26072 26075 26078 26081 26084 26087 26090 26093 26096 26099 26101 26103 26106 26109 26112 26115 26118 26120 26123 26126 26129 26132 26135 26138 26140 26143 26146 26149 26152 26154 26156 26159 26162 26164 26167 26170 26173 26176 26179 26182 26185 26188 26190 26193 26196 26199 26202 26205 26208 26211 26214 26217 26220 26223 26226 26229 26232 26235 26237 26240 26243 26246 26249 26252 26255 26258 26261 26263 26266 26269 26272 26275 26278 26281 26284 26287 26289 26292 26294 26297 26300 26303 26305 26308 26311 26313 26316 26319 26321 26324 26327 26330 26333 26336 26339 26342 26344 26347 26350 26352 26355 26357 26360 26363 26365 26368 26371 26374 26377 26380 26383 26385 26388 26390 26393 26395 26398 26401 26404 26407 26409 26412 26415 26418 26421 26424 26427 26430 26433 26436 26439 26442 26445 26448 26451 26454 26457 26459 26462 26465 26468 26471 26474 26477 26480 26483 26486 26488 26491 26494 26497 26500 26503 26506 26509 26512 26515 26518 26521 26524 26526 26529 26532 26535 26538 26541 26544 26547 26550 26552 26555 26558 26561 26564 26566 26569 26572 26574 26577 26580 26583 26585 26588 26590 26593 26596 26598 26601 26603 26606 26609 26612 26615 26618 26621 26623 26626 26629 26632 26635 26638 26641 26644 26647 26650 26653 26656 26659 26662 26665 26668 26671 26674 26676 26679 26682 26685 26688 26691 26694 26697 26700 26703 26706 26709 26712 26715 26718 26721 26724 26727 26730 26733 26736 26739 26742 26745 26748 26751 26754 26756 26759 26762 26765 26768 26770 26773 26776 26778 26781 26784 26787 26789 26792 26795 26798 26801 26804 26806 26809 26812 26815 26818 26821 26824 26827 26829 26831 26834 26837 26840 26843 26846 26849 26852 26855 26858 26861 26864 26867 26870 26873 26876 26879 26882 26884 26886 26888 26891 26894 26897 26900 26903 26905 26908 26910 26912 26915 26918 26921 26924 26927 26930 26933 26936 26938 26941 26944 26947 26950 26953 26956 26959 26962 26965 26968 26971 26974 26977 26980 26983 26985 26988 26990 26993 26996 26999 27002 27005 27008 27011 27014 27017 27019 27022 27025 27028 27031 27033 27036 27039 27041 27044 27047 27050 27053 27056 27059 27062 27065 27068 27071 27074 27077 27080 27083 27086 27089 27092 27095 27098 27101 27104 27107 27110 27113 27116 27119 27122 27125 27128 27131 27134 27137 27140 27143 27146 27149 27152 27155 27158 27161 27164 27167 27169 27172 27175 27178 27181 27183 27186 27189 27191 27194 27196 27199 27201 27204 27207 27209 27212 27214 27217 27219 27221 27224 27227 27230 27232 27235 27238 27240 27242 27245 27247 27250 27252 27255 27258 27261 27264 27267 27269 27272 27275 27278 27281 27284 27287 27290 27293 27296 27299 27302 27305 27308 27311 27314 27317 27320 27323 27326 27329 27332 27335 27337 27340 27343 27346 27348 27351 27354 27356 27359 27362 27365 27368 27371 27374 27377 27380 27383 27386 27389 27391 27394 27397 27400 27403 27406 27409 27411 27414 27416 27419 27422 27424 27427 27430 27432 27435 27438 27441 27444 27447 27450 27453 27456 27459 27462 27465 27468 27471 27474 27477 27480 27483 27486 27489 27492 27495 27498 27501 27504 27506 27509 27512 27515 27518 27521 27524 27527 27530 27533 27536 27539 27542 27545 27548 27551 27554 27557 27560 27563 27566 27569 27572 27575 27578 27581 27584 27587 27590 27593 27596 27599 27602 27605 27608 27611 27614 27617 27620 27622 27625 27628 27631 27634 27637 27640 27643 27645 27648 27651 27654 27657 27660 27662 27665 27668 27671 27674 27676 27679 27681 27684 27687 27690 27693 27696 27698 27701 27704 27706 27709 27712 27714 27717 27720 27722 27725 27727 27730 27733 27736 27738 27741 27743 27746 27748 27751 27753 27756 27758 27760 27762 27765 27768 27771 27774 27777 27780 27782 27785 27788 27791 27794 27796 27799 27802 27805 27808 27811 27814 27817 27820 27823 27826 27829 27831 27833 27836 27839 27842 27844 27847 27850 27852 27855 27857 27859 27861 27864 27867 27870 27873 27876 27879 27882 27885 27888 27891 27894 27897 27900 27903 27905 27908 27911 27914 27917 27920 27923 27926 27929 27932 27935 27938 27941 27944 27946 27949 27952 27955 27958 27961 27964 27967 27970 27972 27975 27978 27981 27984 27987 27990 27993 27996 27999 28002 28005 28008 28011 28014 28016 28019 28022 28025 28027 28030 28033 28036 28039 28042 28045 28048 28051 28054 28057 28060 28063 28066 28069 28072 28075 28078 28081 28084 28087 28090 28093 28096 28098 28101 28104 28106 28109 28112 28115 28117 28120 28123 28126 28129 28132 28135 28137 28140 28143 28146 28149 28151 28154 28156 28158 28161 28164 28167 28170 28172 28174 28177 28180 28183 28186 28189 28191 28194 28197 28200 28203 28206 28208 28210 28213 28216 28219 28222 28225 28228 28231 28234 28237 28240 28243 28246 28249 28252 28254 28257 28260 28263 28266 28269 28272 28274 28277 28280 28283 28285 28288 28291 28294 28297 28300 28303 28305 28308 28311 28314 28317 28320 28323 28326 28329 28332 28335 28337 28340 28343 28346 28349 28352 28355 28358 28361 28364 28367 28370 28373 28376 28379 28382 28385 28388 28391 28394 28397 28400 28403 28406 28409 28412 28415 28418 28421 28424 28427 28430 28433 28436 28439 28442 28445 28448 28451 28454 28457 28460 28463 28466 28469 28472 28474 28477 28480 28483 28486 28489 28492 28495 28498 28501 28504 28506 28509 28512 28515 28518 28521 28524 28527 28530 28533 28536 28539 28542 28545 28548 28550 28553 28556 28559 28562 28565 28568 28571 28574 28577 28580 28582 28585 28588 28591 28594 28596 28599 28602 28605 28607 28610 28613 28616 28618 28621 28624 28627 28630 28633 28635 28638 28641 28644 28647 28650 28653 28655 28658 28661 28664 28667 28670 28673 28676 28678 28681 28683 28686 28689 28691 28693 28696 28699 28702 28705 28708 28710 28713 28716 28719 28722 28724 28727 28730 28733 28736 28738 28741 28744 28747 28749 28752 28755 28758 28760 28763 28766 28769 28771 28774 28777 28779 28782 28785 28788 28791 28794 28797 28799 28802 28805 28807 28810 28813 28816 28818 28821 28824 28827 28830 28833 28835 28838 28840 28843 28845 28848 28850 28852 28855 28858 28861 28863 28865 28868 28870 28873 28876 28879 28882 28885 28888 28891 28894 28897 28900 28902 28905 28908 28911 28913 28916 28918 28921 28924 28927 28929 28932 28935 28938 28941 28944 28947 28950 28953 28956 28958 28961 28963 28966 28968 28971 28974 28977 28980 28983 28986 28989 28992 28995 28998 29001 29004 29007 29010 29013 29016 29019 29022 29025 29028 29031 29034 29037 29040 29043 29046 29049 29052 29055 29058 29061 29064 29067 29070 29073 29076 29078 29081 29083 29086 29089 29092 29095 29098 29100 29103 29105 29108 29111 29114 29117 29120 29123 29126 29129 29131 29134 29137 29140 29143 29146 29149 29152 29154 29157 29160 29163 29165 29168 29171 29173 29176 29179 29182 29185 29187 29190 29193 29196 29199 29202 29205 29208 29211 29214 29217 29220 29223 29226 29228 29231 29234 29237 29240 29243 29246 29248 29251 29253 29256 29259 29262 29265 29268 29270 29273 29276 29279 29282 29285 29288 29291 29294 29297 29300 29303 29306 29309 29312 29315 29318 29321 29324 29326 29329 29332 29335 29338 29341 29343 29346 29349 29352 29355 29358 29361 29364 29367 29370 29372 29375 29378 29381 29383 29386 29389 29392 29395 29398 29401 29404 29407 29409 29412 29414 29417 29419 29422 29424 29427 29429 29432 29435 29438 29440 29443 29446 29449 29451 29454 29457 29459 29462 29464 29466 29469 29472 29475 29478 29481 29484 29486 29489 29491 29494 29497 29500 29503 29506 29509 29512 29515 29518 29520 29523 29526 29529 29532 29535 29538 29541 29544 29547 29550 29553 29556 29559 29562 29565 29568 29571 29574 29577 29580 29583 29586 29588 29591 29594 29597 29600 29602 29605 29608 29611 29614 29617 29620 29623 29625 29628 29631 29634 29637 29640 29643 29646 29649 29652 29655 29658 29661 29664 29667 29670 29673 29676 29679 29682 29685 29688 29691 29693 29696 29699 29702 29705 29708 29711 29714 29717 29720 29723 29726 29729 29732 29735 29738 29740 29743 29746 29748 29751 29754 29757 29760 29763 29766 29769 29772 29774 29776 29779 29782 29785 29788 29791 29794 29797 29799 29802 29805 29808 29811 29814 29817 29820 29823 29825 29828 29831 29834 29837 29839 29842 29845 29848 29851 29854 29856 29859 29862 29865 29867 29870 29873 29876 29879 29882 29885 29888 29891 29894 29897 29900 29903 29906 29909 29912 29915 29918 29921 29924 29927 29930 29932 29935 29937 29940 29942 29944 29947 29950 29953 29955 29958 29961 29963 29966 29969 29972 29974 29977 29980 29982 29985 29988 29991 29994 29997 29999 30002 30004 30007 30010 30013 30015 30018 30021 30024 30027 30030 30033 30036 30039 30041 30044 30047 30050 30053 30055 30058 30061 30064 30067 30070 30073 30076 30079 30082 30085 30088 30091 30094 30097 30100 30103 30105 30108 30111 30114 30117 30120 30123 30126 30129 30132 30135 30138 30141 30144 30147 30149 30152 30155 30158 30161 30164 30167 30170 30173 30176 30179 30182 30185 30188 30191 30194 30197 30200 30203 30206 30209 30212 30215 30218 30221 30223 30226 30229 30232 30235 30238 30241 30244 30247 30250 30253 30256 30259 30261 30264 30267 30270 30272 30274 30277 30279 30282 30285 30288 30291 30294 30297 30300 30303 30306 30308 30311 30314 30316 30318 30321 30324 30327 30329 30331 30334 30337 30340 30343 30346 30349 30351 30354 30357 30360 30363 30366 30369 30372 30375 30378 30381 30384 30387 30390 30393 30396 30398 30401 30404 30407 30410 30413 30416 30418 30421 30424 30427 30430 30433 30436 30439 30442 30444 30447 30450 30453 30456 30459 30462 30465 30468 30470 30473 30476 30479 30482 30484 30487 30490 30493 30496 30499 30502 30505 30508 30511 30514 30517 30520 30523 30525 30528 30531 30534 30537 30540 30542 30545 30548 30551 30554 30556 30558 30561 30564 30567 30570 30573 30575 30578 30581 30583 30586 30589 30592 30594 30596 30599 30602 30605 30607 30610 30613 30616 30619 30621 30623 30626 30629 30632 30635 30638 30641 30644 30647 30649 30652 30655 
</DataArray>
<DataArray type="UInt32" Name="types" format="ascii">
5 5 5 5 5 5 5 5 3 5 3 5 5 3 5 3 5 5 5 3 5 5 5 5 5 5 5 5 5 5 5 5 5 5 5 5 5 5 5 3 5 5 3 5 5 3 5 5 5 3 5 5 5 3 5 5 5 5 3 5 5 5 5 5 5 5 5 5 3 5 5 5 3 3 5 5 5 5 3 5 5 5 3 3 5 5 5 3 5 5 3 5 5 5 5 5 5 5 3 5 5 5 5 5 5 5 5 3 5 5 5 5 5 3 5 3 5 5 3 5 5 5 5 5 5 5 5 5 3 5 5 5 5 5 5 5 5 5 5 5 5 5 5 5 5 5 5 5 5 3 5 5 5 5 5 5 5 5 5 5 5 3 5 5 5 5 5 5 3 5 5 5 3 5 5 5 5 3 5 5 5 5 5 5 5 3 5 5 5 5 5 5 5 5 5 5 5 5 5 5 5 5 5 5 3 5 5 5 5 5 5 5 5 5 5 5 5 5 3 5 5 5 5 5 5 5 5 3 5 3 3 3 5 5 3 5 5 5 3 5 5 5 5 5 5 5 5 5 5 3 5 5 5 5 3 5 5 5 3 5 5 5 5 5 3 5 5 5 5 3 3 3 3 5 5 5 3 5 5 5 3 5 3 5 5 5 5 5 3 5 3 5 3 3 5 3 5 5 5 5 5 3 5 5 3 5 5 5 5 5 5 5 5 5 5 5 3 5 5 5 5 3 3 5 5 5 5 5 3 5 3 5 5 5 5 5 5 5 5 5 5 5 3 5 5 5 5 3 5 5 5 5 5 5 5 5 5 5 5 5 3 5 5 5 5 5 5 5 5 3 5 5 5 5 3 5 5 5 5 5 3 5 5 3 5 5 5 5 5 5 5 5 3 5 5 5 5 5 5 5 5 5 5 5 5 5 5 3 5 5 5 5 5 5 5 5 5 5 5 3 5 3 3 5 5 5 5 3 5 3 5 3 5 3 5 5 5 5 5 5 5 5 5 5 5 3 5 5 5 5 3 5 5 5 5 5 5 5 5 5 5 5 5 5 5 5 5 5 5 5 5 5 5 5 5 5 5 5 5 5 3 5 5 5 5 5 5 5 5 5 5 5 5 5 3 5 3 5 5 5 5 5 5 5 5 5 5 5 5 5 5 5 5 5 5 5 3 5 5 5 5 3 5 3 3 5 5 5 5 5 5 5 5 5 5 5 5 5 5 5 5 3 5 3 5 5 3 5 5 3 5 5 5 3 3 5 5 5 3 5 5 3 5 3 5 3 5 3 5 5 3 5 5 5 3 3 5 5 5 5 5 5 5 5 5 5 5 5 3 5 5 5 5 5 5 5 5 5 5 5 5 5 3 5 3 3 5 5 5 5 5 5 5 5 5 3 5 5 5 3 5 5 5 5 5 5 5 5 5 5 5 5 5 5 5 5 5 5 5 5 5 5 5 5 5 3 5 3 3 5 5 5 3 5 5 5 5 5 5 5 5 5 3 5 5 3 5 5 5 5 5 5 5 5 5 5 5 3 5 5 3 5 5 5 5 3 5 5 5 5 3 5 3 5 5 5 5 5 5 5 5 3 5 5 5 5 5 5 3 5 3 5 5 5 3 5 5 5 5 5 3 5 5 5 5 3 5 5 5 5 5 5 5 5 5 5 5 5 5 5 3 5 5 5 5 5 5 5 5 5 5 5 5 5 5 5 5 5 5 3 5 5 5 5 5 3 5 5 5 5 5 5 5 5 5 5 5 3 5 5 5 5 5 3 5 5 5 5 5 5 3 5 5 5 3 3 5 5 5 5 5 5 5 3 3 5 5 5 5 3 5 5 5 5 3 5 5 5 3 5 5 5 5 5 5 5 5 5 5 5 5 5 5 5 5 3 3 5 5 5 5 3 5 5 5 5 3 5 3 5 5 5 5 5 5 5 5 5 5 5 5 5 5 5 5 5 5 5 5 5 5 5 5 5 5 5 5 5 5 5 5 5 5 5 5 5 5 5 5 5 5 5 5 5 5 5 5 3 5 5 5 5 5 5 3 5 5 5 5 5 5 5 5 5 3 5 5 5 5 5 5 3 5 5 5 5 5 5 5 5 5 5 5 5 5 5 3 5 5 5 5 5 5 5 5 5 5 5 5 5 5 5 5 5 5 5 5 5 5 5 5 5 5 5 5 5 5 5 3 5 5 5 5 5 5 5 5 5 5 5 5 5 5 5 5 3 5 5 5 5 5 5 3 5 5 5 5 5 5 5 5 5 3 5 5 5 5 5 5 5 5 5 5 5 5 5 5 5 5 5 5 5 5 3 5 5 3 5 3 5 5 5 3 5 3 5 5 3 5 5 5 5 5 5 5 5 5 5 5 5 5 5 5 5 5 3 5 3 5 5 5 5 3 5 3 5 5 5 3 5 5 5 5 5 5 5 5 5 5 5 5 5 5 5 5 5 5 5 5 5 5 5 5 5 5 5 5 5 5 5 5 5 5 5 5 5 5 5 5 5 5 5 5 5 5 5 5 3 5 5 3 5 5 3 5 5 5 3 5 5 5 5 5 5 3 5 5 5 5 5 5 5 5 5 5 5 5 5 5 5 3 5 3 3 5 5 3 5 3 5 5 5 5 3 5 5 5 5 5 5 5 3 5 5 3 5 3 5 3 5 5 5 5 5 5 5 5 5 5 5 5 5 5 3 3 5 3 5 5 5 5 3 5 5 5 5 5 5 5 5 5 5 5 5 5 5 3 5 5 5 5 5 5 5 5 5 5 5 5 5 5 5 3 5 5 5 5 5 5 3 5 5 5 5 5 5 5 5 5 5 3 3 5 5 5 5 5 5 5 5 5 5 5 5 5 3 5 5 5 5 5 5 5 5 5 5 5 5 5 5 5 5 5 5 3 5 5 5 5 5 5 3 5 5 5 3 5 5 5 5 5 5 5 5 5 5 5 5 5 3 5 5 3 5 3 5 5 5 5 5 5 5 5 5 5 5 5 5 5 5 5 3 5 5 5 3 5 5 5 5 5 5 3 5 5 5 5 5 5 5 5 5 5 5 3 5 5 5 5 3 5 5 5 5 5 5 5 5 5 5 5 5 5 5 5 3 5 5 5 3 3 5 5 5 5 3 5 5 5 5 3 5 5 3 5 5 5 3 3 5 5 5 5 5 5 3 5 5 5 5 3 5 5 5 3 5 5 5 5 5 5 5 5 5 5 5 5 5 5 5 5 5 5 5 5 5 5 5 5 5 5 5 5 5 5 5 5 5 3 5 5 5 5 5 5 5 5 5 5 5 5 5 5 5 5 5 5 5 5 3 5 5 3 5 5 5 5 5 5 5 5 5 5 5 5 5 5 5 5 3 5 5 5 5 5 5 3 5 5 3 5 5 5 5 5 5 5 3 3 5 3 5 5 3 5 5 5 3 5 5 5 5 5 5 5 3 5 5 5 5 3 5 3 5 5 3 3 5 3 3 5 3 5 5 5 3 5 3 5 3 5 5 5 5 3 3 5 5 3 3 3 5 5 5 5 5 5 3 5 5 3 5 5 3 5 5 5 5 3 5 5 5 5 5 3 5 5 3 3 5 5 3 5 5 5 5 5 3 5 5 5 3 5 5 5 5 5 5 3 5 5 3 5 5 3 5 5 5 5 5 5 5 5 5 5 5 5 3 5 5 5 5 5 5 5 5 5 5 5 5 5 5 5 5 5 3 5 5 5 5 5 5 5 5 5 5 5 5 5 5 5 5 5 5 5 5 5 3 5 5 3 5 5 5 5 5 5 5 5 5 5 5 3 5 5 5 5 5 5 5 5 5 5 5 3 5 5 5 5 5 5 5 5 5 3 5 5 3 3 5 5 5 5 5 3 5 5 5 5 5 5 5 5 3 5 5 5 5 5 5 5 5 5 5 5 5 5 5 3 5 5 5 5 5 5 5 3 5 5 5 5 5 3 5 5 3 3 5 5 5 5 5 3 5 5 5 3 5 5 5 5 5 5 5 5 5 5 5 5 5 5 5 5 5 5 5 5 5 5 5 5 5 5 5 5 5 5 5 5 5 5 3 5 5 5 3 5 5 3 5 5 5 5 3 5 5 5 5 5 5 3 5 5 5 5 5 5 5 5 3 5 5 5 5 3 5 5 5 5 5 5 5 5 3 3 5 5 5 5 5 5 5 5 5 5 3 5 5 3 5 5 5 5 5 5 5 5 5 5 5 5 5 5 5 5 5 5 5 5 5 5 5 5 5 5 5 5 5 5 5 5 5 5 5 5 5 5 5 5 5 5 5 5 5 5 5 5 5 5 5 5 5 5 5 5 5 5 5 5 5 5 5 5 5 5 5 5 5 5 5 5 5 5 5 3 5 5 5 5 5 5 5 3 5 3 3 5 5 5 5 5 5 5 5 5 5 5 5 5 5 5 5 5 5 5 5 5 3 5 5 5 3 5 5 5 5 5 5 5 5 5 3 5 5 5 5 5 5 5 5 5 5 5 5 5 5 5 5 5 5 5 5 5 5 5 5 5 5 5 5 5 5 5 5 5 5 5 5 5 3 5 5 5 5 5 5 5 5 3 5 5 5 5 5 5 5 5 5 5 5 5 5 5 5 5 5 5 5 3 5 5 5 5 5 3 5 5 3 5 3 5 5 5 5 5 5 5 5 5 5 5 3 5 5 5 5 5 3 5 5 5 3 3 5 3 5 5 3 5 5 5 5 5 5 5 5 5 3 5 5 5 5 5 5 5 5 5 5 3 5 5 3 5 5 5 5 5 3 5 5 5 5 5 5 5 5 5 5 5 5 5 3 5 5 5 5 5 5 5 5 5 5 5 5 5 5 5 3 5 5 5 5 5 5 5 5 5 5 5 3 5 5 5 5 5 5 5 5 5 3 5 5 5 5 5 5 5 5 3 5 5 5 5 5 5 5 5 5 5 5 5 5 3 5 5 5 3 5 5 5 5 5 5 5 5 5 5 5 5 3 5 5 3 5 5 5 5 5 5 5 3 3 5 3 3 5 5 5 5 5 5 5 5 3 5 5 3 5 5 5 3 3 5 5 5 5 3 5 3 3 5 5 5 5 5 5 5 5 5 5 5 5 5 5 5 5 5 5 3 3 5 3 5 3 5 5 5 5 5 5 5 5 5 5 3 3 5 5 5 3 3 5 5 3 3 5 5 3 5 3 5 5 5 5 5 5 3 5 5 5 5 3 5 5 5 3 5 5 5 5 5 5 5 5 5 5 5 5 5 5 5 5 5 5 5 5 5 3 5 5 3 5 5 5 5 5 5 5 5 5 5 5 5 5 5 5 5 5 5 5 5 5 5 5 5 5 5 5 5 5 5 3 3 5 3 5 5 5 5 5 3 5 5 5 5 5 5 5 5 5 3 5 5 5 5 3 5 5 5 5 3 5 5 5 5 3 5 5 5 5 3 5 5 5 5 5 5 3 5 5 5 5 5 5 5 5 5 5 5 5 5 5 5 5 5 5 5 5 5 5 5 5 5 5 5 3 5 5 5 5 5 5 5 5 5 5 5 5 5 5 5 5 5 5 5 5 5 5 3 5 5 5 5 5 5 5 5 5 5 5 5 5 5 5 5 5 5 5 5 5 5 5 5 5 5 5 5 5 5 5 5 5 5 5 5 5 5 5 5 5 5 5 5 5 5 5 5 5 5 5 5 5 3 5 5 5 5 5 5 5 5 5 5 5 5 5 5 5 5 3 5 5 5 5 5 5 5 3 5 5 5 5 5 5 5 5 5 5 3 5 5 5 3 5 5 5 5 3 5 5 5 5 5 3 5 5 5 5 5 5 5 5 5 5 3 5 5 3 5 5 5 5 5 5 5 5 5 5 5 5 5 5 5 5 5 5 5 5 5 5 5 5 5 5 5 5 5 5 5 5 5 5 5 5 5 5 5 5 5 5 5 5 5 5 5 5 5 5 5 5 5 5 5 5 3 5 5 5 5 5 5 5 5 5 5 5 5 5 5 5 5 5 5 5 5 5 5 5 5 5 5 5 5 5 5 5 3 5 5 5 5 5 5 5 5 5 5 5 3 5 3 3 3 5 3 5 5 5 5 3 3 5 5 5 5 5 5 3 5 3 5 5 5 3 5 5 5 5 5 5 5 5 5 5 5 3 5 5 5 3 5 5 5 5 5 3 5 5 5 5 5 3 5 5 5 5 5 5 5 5 5 3 5 5 3 5 5 5 5 5 5 3 5 5 5 5 5 5 3 5 5 5 5 5 5 5 5 5 5 5 5 5 3 5 5 5 5 5 5 5 5 5 5 5 5 5 5 5 5 5 5 5 5 5 5 5 5 5 5 5 5 5 5 5 3 5 5 5 5 5 5 5 5 5 5 5 5 5 5 5 5 5 5 5 5 5 5 3 3 5 5 5 5 5 5 5 3 5 3 5 5 5 5 5 5 5 3 3 5 3 5 5 3 5 3 3 5 5 3 5 5 5 5 5 3 5 5 3 5 3 5 5 3 5 5 5 5 3 5 5 5 3 5 3 5 5 5 5 3 5 5 5 5 5 5 5 5 5 5 3 5 3 5 5 5 3 5 3 5 5 5 5 5 5 5 5 5 5 5 5 5 3 5 3 5 5 5 5 5 5 5 5 5 5 5 5 5 5 5 5 5 5 3 5 5 5 3 5 5 3 5 5 3 5 5 5 5 5 5 5 5 5 5 5 5 5 3 5 5 5 5 5 5 5 5 5 5 5 3 5 5 5 5 5 5 3 5 5 3 5 5 5 5 5 5 5 5 5 5 5 5 5 5 5 5 5 5 3 5 5 5 3 5 5 5 5 3 5 5 5 5 5 5 5 5 5 5 5 5 5 5 5 5 5 5 5 5 5 3 5 5 5 5 3 5 5 5 5 3 5 3 5 3 5 5 3 5 5 5 5 5 5 5 5 5 5 5 5 5 3 5 5 5 5 5 5 5 5 3 5 5 5 5 5 5 5 5 5 5 5 5 5 5 5 5 5 5 5 5 5 5 5 5 5 5 5 5 5 5 3 5 5 3 5 5 5 5 3 3 5 5 3 5 3 5 5 3 5 5 3 5 5 5 5 5 5 5 5 3 5 5 5 5 5 5 5 5 5 5 5 5 5 5 5 5 5 5 5 5 5 5 3 5 5 5 3 5 3 5 5 5 5 5 5 3 5 5 5 5 3 5 5 5 3 5 5 5 5 5 5 5 5 5 5 5 5 5 5 3 5 5 5 5 5 5 3 5 3 5 5 5 5 5 5 3 5 5 5 5 5 5 5 5 5 5 5 5 5 3 5 5 5 5 5 5 5 5 5 5 5 3 5 5 5 5 5 3 5 5 3 5 5 5 5 3 5 5 5 5 5 5 5 5 5 5 5 5 5 5 5 5 5 5 5 5 5 5 5 5 5 3 5 5 3 3 5 5 3 3 5 3 3 3 5 5 5 3 3 5 5 5 3 3 5 5 5 5 3 3 3 5 3 5 3 5 5 3 5 5 5 5 3 5 5 5 5 3 3 5 5 5 5 5 5 5 5 5 5 5 5 5 5 5 5 5 5 5 3 5 5 5 3 3 3 5 5 5 5 5 5 5 3 5 5 5 5 3 3 5 5 3 5 5 5 5 5 5 5 5 5 5 3 5 3 5 5 3 5 3 5 5 5 5 3 5 5 5 3 5 3 5 5 3 5 5 5 3 3 3 5 3 5 3 5 3 3 3 5 5 5 5 5 5 5 3 5 5 5 5 5 5 5 5 5 5 5 5 5 5 5 5 5 5 5 5 5 5 5 5 5 3 5 5 5 5 5 5 3 3 5 5 3 3 5 5 5 5 5 5 5 5 5 3 5 5 5 5 5 5 5 5 5 5 5 5 5 3 5 5 5 5 5 5 5 5 5 5 5 5 5 5 5 5 5 3 5 3 5 5 5 3 5 3 5 3 3 5 3 5 5 5 5 5 3 5 5 5 5 5 5 3 5 5 5 5 5 5 3 5 5 3 5 5 5 5 5 5 5 5 5 5 5 5 5 5 5 5 5 3 5 5 5 5 5 5 5 5 5 5 5 5 5 3 5 5 5 5 3 5 5 5 5 3 5 5 5 5 5 5 5 5 5 5 5 5 5 5 5 5 5 5 3 5 5 5 5 5 5 5 5 5 5 5 5 5 5 5 5 5 5 5 5 3 5 5 5 5 5 5 5 5 5 5 5 5 5 5 3 5 5 5 5 5 5 5 5 5 5 5 5 5 5 5 5 5 5 3 5 5 5 5 5 5 5 5 5 5 5 3 5 5 5 5 5 3 5 3 5 5 5 5 5 5 5 3 5 5 5 5 5 5 5 5 5 3 5 3 5 5 5 5 5 5 3 5 5 5 5 5 5 5 5 5 5 5 5 5 5 5 3 5 5 5 5 5 5 5 5 5 5 5 5 3 5 5 5 5 5 5 5 5 5 5 5 3 3 5 5 5 3 5 3 5 5 5 3 5 5 5 5 3 5 3 5 5 3 5 5 5 5 3 5 5 5 5 5 5 3 5 5 5 3 5 3 5 5 5 5 5 5 5 5 5 5 5 5 5 5 5 3 5 5 5 5 3 5 5 5 5 5 5 5 5 5 3 5 5 5 5 5 5 5 5 5 5 5 5 5 5 5 5 5 5 5 5 3 3 5 5 5 5 5 5 5 5 5 5 5 5 5 5 3 3 5 5 3 5 5 5 5 5 3 5 5 5 5 5 5 5 5 5 5 5 5 5 5 5 5 5 5 5 5 5 5 5 5 5 5 5 5 5 5 5 5 5 5 5 5 5 5 5 5 5 5 5 5 5 5 5 3 5 3 5 5 5 5 5 5 5 5 5 5 5 5 5 5 5 5 5 3 5 5 5 5 5 5 5 5 5 5 5 5 3 5 3 5 3 5 5 5 3 5 3 5 3 5 5 5 5 5 5 5 5 5 5 5 5 5 5 5 5 5 3 3 5 3 5 5 5 5 5 3 5 5 3 3 3 5 3 5 5 5 5 3 3 5 5 5 5 5 3 5 3 5 5 5 5 5 5 5 5 5 5 5 3 5 5 3 5 5 5 5 5 5 3 5 5 5 3 5 5 5 5 5 3 5 3 5 5 5 5 3 5 5 5 5 5 3 3 5 5 3 5 5 5 5 5 5 5 5 5 3 5 5 5 3 5 5 3 5 5 5 5 5 5 5 5 5 5 5 5 5 5 5 5 5 3 5 3 5 5 5 5 5 5 5 5 5 5 5 3 5 5 3 5 3 5 5 5 5 5 5 5 5 5 5 5 5 5 3 5 5 5 5 5 5 5 5 5 5 5 5 5 5 3 5 3 5 5 5 5 5 5 5 5 5 5 5 5 5 3 3 5 5 5 5 3 5 5 5 5 5 5 5 3 5 5 3 5 5 3 5 5 5 5 3 5 5 5 5 5 3 5 5 3 5 5 5 3 5 5 5 5 5 5 5 5 5 5 5 5 5 3 5 5 5 3 5 5 5 5 5 5 5 3 5 5 5 5 5 5 5 5 5 5 5 3 5 5 5 5 5 5 5 5 5 5 5 5 5 5 5 5 5 3 5 5 5 5 3 5 5 5 3 5 5 5 5 5 3 5 5 5 3 5 5 5 5 5 5 5 5 3 5 5 5 5 5 5 5 5 5 5 3 5 5 3 5 5 3 5 5 5 5 5 5 5 5 5 5 5 5 5 5 5 5 5 5 5 5 3 5 5 3 5 5 3 5 5 5 5 5 5 5 5 5 5 5 5 5 5 5 3 5 5 5 5 5 5 3 5 5 5 5 5 5 3 5 5 3 5 5 5 5 5 5 5 5 5 5 5 3 5 5 5 5 5 5 5 5 5 5 5 5 5 5 5 5 5 5 5 3 5 5 3 5 5 5 5 5 5 5 5 3 5 5 5 5 5 5 5 5 5 5 5 5 5 5 5 5 5 5 5 5 5 5 5 5 5 5 5 5 5 5 5 5 5 5 5 5 5 5 5 5 5 3 5 3 5 5 3 5 5 5 5 3 5 5 5 3 5 5 5 5 5 5 5 5 3 3 5 5 3 5 5 5 5 5 5 5 5 5 5 3 5 3 5 5 5 5 5 3 5 5 5 5 3 5 5 5 5 5 5 3 5 5 3 5 5 3 5 5 3 5 5 5 5 5 5 5 3 5 5 5 3 5 5 5 5 5 3 5 5 5 3 5 5 5 5 5 5 5 3 5 5 5 5 5 5 3 5 5 5 5 5 5 5 5 5 5 5 5 3 5 5 3 5 5 5 5 5 5 5 5 5 5 5 5 5 5 5 3 5 5 3 5 5 5 5 3 5 5 5 3 5 5 5 5 5 5 5 5 5 5 5 3 5 5 3 5 5 5 3 5 5 5 3 5 5 5 5 5 3 5 5 5 3 5 5 5 5 5 5 5 5 5 5 5 5 5 5 5 5 5 5 5 5 5 5 5 3 5 3 5 5 5 5 5 5 5 5 5 5 5 5 5 3 5 5 5 3 5 5 5 3 5 5 5 5 5 5 3 5 5 5 5 5 3 5 5 5 5 5 5 5 5 3 5 3 5 5 5 5 5 5 5 5 3 5 5 3 5 5 5 5 5 5 5 5 3 5 5 3 5 5 5 5 5 5 5 5 5 5 5 5 5 5 5 5 5 5 5 5 5 5 5 5 3 5 3 5 5 5 3 5 5 5 3 5 3 3 5 5 5 5 5 5 5 5 5 5 5 3 5 5 5 5 5 5 5 3 5 5 5 5 3 5 5 5 5 5 5 5 5 5 5 5 3 5 5 5 5 5 3 5 5 5 5 5 5 3 5 5 5 5 5 3 5 5 5 5 3 5 3 5 3 3 5 3 5 5 3 5 5 5 5 5 5 5 3 5 5 3 5 5 5 5 5 5 3 5 5 5 5 3 5 5 3 5 5 5 5 5 5 5 5 5 5 5 3 5 3 5 5 5 5 5 5 5 3 5 5 5 5 5 5 5 5 5 5 5 5 5 5 5 5 5 3 5 5 5 5 3 5 5 5 5 5 5 5 5 5 5 5 5 5 5 5 5 5 5 5 5 5 5 5 5 5 5 5 5 5 5 5 5 5 5 5 5 5 5 5 5 5 5 5 3 5 5 5 5 5 5 5 5 5 5 5 5 5 5 3 5 5 5 3 5 5 5 5 5 5 5 5 5 3 5 5 3 5 5 5 5 5 5 5 5 3 5 5 5 5 5 5 3 5 5 5 5 5 5 5 5 5 5 5 5 5 5 5 5 5 5 5 5 5 3 5 5 3 5 5 5 5 5 5 5 5 3 5 3 5 3 3 5 5 5 5 5 5 5 5 5 5 5 5 5 5 5 5 5 5 5 5 5 5 5 5 5 5 5 5 5 5 5 5 5 5 3 5 5 5 5 5 5 5 3 5 5 5 5 5 5 5 5 3 5 3 5 5 5 5 5 5 5 5 5 5 5 5 5 5 5 5 5 5 5 5 5 5 5 5 5 5 5 5 5 5 5 5 5 5 3 5 5 5 5 5 3 5 5 5 5 5 5 3 5 5 5 5 5 5 3 5 5 5 5 5 5 5 5 5 5 5 5 5 5 5 3 5 5 3 5 5 5 5 3 5 5 3 5 5 5 5 5 5 5 5 5 5 5 5 5 5 5 5 5 5 5 5 5 5 5 5 5 5 5 5 5 3 5 3 5 5 5 5 5 5 5 5 5 5 5 5 5 5 5 5 5 5 5 5 5 5 5 5 5 5 5 5 5 5 5 5 5 3 5 3 5 5 5 5 5 5 5 3 5 5 3 5 5 5 5 5 5 3 5 5 5 5 5 5 5 5 5 5 5 5 5 5 5 5 5 5 5 5 5 5 5 5 5 5 5 5 5 3 5 5 5 5 5 5 5 3 5 5 5 5 3 5 3 5 5 5 5 5 5 5 3 5 5 3 5 5 5 5 5 5 5 5 5 5 5 5 3 5 5 5 5 5 5 5 5 5 3 5 5 3 5 5 5 5 5 3 5 5 5 3 5 5 5 5 5 5 5 5 5 5 5 3 5 5 5 5 5 5 3 5 5 5 5 5 3 5 5 5 5 5 5 3 5 5 5 5 3 5 5 5 5 3 5 5 3 5 5 5 5 3 5 3 5 5 5 5 3 5 5 3 3 5 3 5 3 3 5 3 5 5 3 5 5 3 5 5 5 5 5 5 3 5 5 5 5 5 5 3 5 5 5 3 5 5 5 5 3 5 5 3 5 5 5 5 5 5 5 5 5 5 5 5 5 5 5 5 5 5 3 5 3 5 5 5 3 5 5 5 5 5 5 5 5 5 5 5 5 5 5 5 3 3 5 5 5 5 3 5 5 5 5 5 5 3 3 5 5 5 3 5 5 5 5 5 5 3 5 5 5 5 5 5 5 5 5 5 5 5 5 5 5 3 5 5 5 5 3 3 5 3 5 5 3 5 3 5 5 5 5 5 3 5 5 5 5 5 5 5 5 5 3 5 5 3 5 5 3 5 3 5 3 5 5 5 5 5 5 5 5 5 5 5 5 5 5 5 5 5 5 5 5 5 5 5 5 5 5 5 5 5 5 5 5 5 5 5 5 5 3 3 5 5 5 5 5 3 5 5 3 5 5 5 3 3 5 5 5 5 5 5 5 3 3 5 3 5 5 5 5 5 3 5 5 5 3 3 5 5 5 5 5 3 3 5 5 5 5 5 5 3 5 5 5 5 5 5 5 5 5 5 3 5 5 3 5 5 5 5 5 5 5 5 5 5 5 5 5 5 5 5 5 5 5 5 5 5 5 5 3 5 5 5 5 5 5 5 3 3 5 5 5 5 3 5 3 5 5 5 5 5 5 5 5 5 5 5 5 5 5 5 5 5 5 5 5 5 3 5 5 5 5 5 3 5 5 5 5 5 5 5 5 5 5 5 5 5 5 3 5 5 5 5 5 5 5 5 5 5 5 5 5 5 5 3 5 5 5 3 5 3 5 5 5 5 5 5 5 5 5 5 5 3 5 3 5 5 5 5 5 5 5 3 5 5 5 5 5 5 5 5 5 5 5 5 5 5 5 5 5 5 5 5 5 5 5 5 5 5 5 5 5 5 5 5 5 5 5 5 3 5 5 3 5 5 5 5 5 3 5 5 5 5 5 5 5 5 5 5 5 5 5 5 5 3 5 3 5 3 5 5 5 3 5 5 5 3 5 3 5 5 5 5 5 5 5 5 5 5 3 5 5 5 3 5 5 3 5 5 5 5 3 5 5 5 5 5 5 5 5 5 5 3 5 5 5 3 3 3 5 5 5 5 5 5 3 5 5 5 5 5 5 3 5 5 3 5 5 5 5 5 5 3 3 5 5 5 5 5 5 5 5 5 5 3 5 5 5 5 5 5 3 5 5 5 5 5 3 3 3 5 5 5 5 3 5 5 3 5 5 5 5 3 5 5 5 5 3 5 3 5 3 3 5 5 5 5 5 5 5 5 5 5 5 5 5 5 5 5 5 5 5 5 5 5 5 5 5 5 3 5 5 5 5 5 3 3 5 3 5 5 5 5 5 5 5 5 5 5 5 5 3 5 5 5 5 5 5 5 5 3 5 5 5 5 5 5 5 5 5 5 5 5 5 5 5 3 3 5 5 5 5 5 5 5 5 5 5 5 5 5 5 3 3 5 5 5 5 5 5 5 5 5 5 5 5 5 5 5 5 3 5 5 5 5 5 3 5 5 5 5 5 5 5 5 5 5 5 5 5 5 5 5 5 5 3 5 5 5 5 5 5 5 5 3 5 5 5 5 5 5 3 5 5 5 5 5 5 5 5 5 5 5 5 5 5 5 5 5 5 5 5 5 5 5 5 3 5 5 5 5 5 5 5 5 5 5 5 5 5 3 5 5 5 3 5 3 5 5 5 5 3 5 5 3 5 5 5 5 5 5 5 5 5 5 5 5 5 5 5 5 5 5 5 5 3 5 5 5 5 5 5 5 5 5 5 5 5 5 5 5 5 5 5 3 5 5 5 5 5 5 5 5 3 3 5 5 5 5 5 5 5 5 5 5 5 5 5 5 5 5 5 5 5 5 5 5 5 3 5 5 5 5 5 5 5 3 5 5 5 5 5 5 5 5 5 5 5 5 5 5 3 5 5 5 5 5 5 5 5 5 5 5 5 5 5 3 5 5 5 5 5 5 5 5 5 5 3 3 3 5 5 5 5 5 5 5 5 5 5 5 5 5 5 3 5 5 5 5 5 5 5 5 5 5 5 5 5 5 5 5 5 5 5 5 5 5 5 5 5 5 3 5 5 5 5 5 3 5 5 5 5 3 5 5 3 5 5 5 5 5 5 5 5 5 5 5 5 5 5 5 5 5 5 5 5 5 5 5 5 5 5 5 5 5 3 5 3 5 5 5 5 5 5 5 5 5 5 5 5 3 5 5 5 5 5 5 5 5 5 3 5 5 5 5 5 5 5 5 5 5 5 5 5 5 5 5 5 5 5 5 5 5 5 5 5 5 5 5 3 5 5 3 5 5 5 5 5 5 3 5 5 5 5 3 5 5 3 5 5 3 5 5 5 5 5 5 5 3 5 5 3 3 5 5 5 5 3 5 5 5 3 5 5 5 5 5 5 3 5 5 5 5 5 5 5 5 5 3 5 5 5 3 5 3 5 5 5 5 5 5 5 5 5 5 5 5 3 5 3 5 5 5 3 5 5 3 3 5 5 3 3 5 5 5 3 3 5 3 5 3 5 5 3 3 5 5 5 5 5 5 5 5 5 5 5 5 5 5 5 5 5 5 5 5 3 3 5 3 5 5 5 5 5 5 5 5 5 5 5 5 5 5 5 5 5 3 5 5 3 5 5 5 5 5 5 5 5 3 5 5 5 5 5 5 5 5 5 5 5 5 5 5 5 5 5 5 3 5 5 5 3 5 5 5 5 5 5 3 3 5 5 3 5 5 5 5 5 5 5 5 5 5 5 5 5 5 3 5 5 5 5 5 5 5 5 5 5 5 5 5 5 5 5 5 5 5 3 5 5 5 5 5 5 5 5 3 5 5 5 5 5 5 5 5 5 5 5 5 5 5 5 5 5 5 5 5 5 5 3 5 5 5 5 3 5 5 3 5 5 5 5 5 3 5 5 3 5 5 3 5 5 5 5 5 5 5 5 3 5 5 5 5 5 3 5 5 5 5 5 3 5 5 3 5 5 3 5 5 5 5 5 5 5 5 5 5 5 3 3 5 5 3 5 3 5 5 5 5 5 5 5 3 5 5 3 5 5 5 5 5 5 5 5 5 5 5 5 5 5 5 5 5 5 5 5 5 5 5 5 5 5 5 5 5 5 5 5 5 5 5 5 5 5 5 5 5 5 5 5 5 5 5 5 5 3 5 5 5 5 3 3 5 5 5 3 5 5 5 3 3 5 5 5 5 5 5 5 5 5 5 5 5 5 5 3 5 5 5 5 3 5 3 5 5 5 5 5 3 5 5 5 5 3 5 5 5 3 5 5 3 5 3 5 3 5 5 5 5 5 5 5 5 5 5 5 5 5 5 5 5 5 5 5 5 5 3 3 5 3 5 5 5 3 5 5 5 5 5 3 5 5 5 3 5 5 5 5 5 5 5 5 5 5 5 5 5 5 5 3 5 5 3 5 5 5 5 5 5 5 5 5 3 5 5 5 5 3 5 5 5 5 5 5 5 5 5 5 5 3 5 5 5 5 5 5 5 5 5 5 5 5 5 5 5 3 5 5 5 5 5 5 5 5 5 5 5 3 5 5 5 5 5 5 5 5 5 5 5 5 5 5 5 5 5 5 5 5 5 5 3 5 5 5 3 5 5 5 3 5 5 5 3 5 5 5 5 5 5 5 5 5 5 3 5 3 5 5 5 3 5 5 5 5 5 5 3 5 5 5 5 5 5 5 5 5 5 5 5 5 5 5 5 5 5 5 5 5 5 5 5 3 5 5 5 5 5 5 5 5 5 5 5 5 5 5 5 3 5 5 5 5 5 5 5 5 5 5 5 5 5 5 5 5 5 5 5 5 5 5 5 5 5 5 5 5 5 5 5 5 3 5 5 3 5 5 3 5 5 5 5 5 5 5 3 5 5 5 5 5 5 5 3 5 5 5 5 5 5 5 5 5 5 5 5 5 5 5 3 5 5 3 5 5 5 5 5 5 5 5 5 5 5 5 5 5 5 5 5 5 5 5 5 5 5 5 5 5 5 5 5 5 5 5 5 5 3 5 5 3 5 5 5 5 5 5 5 5 5 5 5 5 5 5 5 5 5 5 5 5 5 5 5 5 5 5 5 5 5 5 5 5 5 5 5 5 5 5 5 5 5 5 5 3 5 3 3 5 5 3 5 5 5 5 5 5 5 5 3 5 5 5 5 5 5 5 5 5 5 5 5 5 5 5 5 5 5 5 5 5 5 5 5 5 5 5 5 5 5 5 5 5 5 5 5 5 5 5 5 3 5 5 5 3 5 5 5 3 5 5 5 5 5 5 5 5 3 5 3 5 5 5 5 5 5 5 5 5 5 3 3 5 5 5 5 5 5 5 5 5 3 5 5 5 3 5 5 5 3 5 5 5 5 3 5 5 5 3 3 3 5 5 3 5 5 3 5 5 3 5 5 5 5 3 5 5 5 3 5 5 5 3 5 5 5 5 5 5 5 5 5 5 5 5 5 5 3 5 5 3 5 5 5 5 5 5 5 5 5 5 3 3 5 5 5 5 3 5 5 5 5 5 5 5 5 5 5 5 5 5 5 5 5 5 5 5 5 5 5 5 5 5 5 5 5 5 5 5 5 5 5 3 5 3 5 5 5 3 5 5 3 5 5 5 5 3 5 5 3 5 5 5 3 5 3 5 5 5 5 5 5 5 5 5 5 3 5 5 5 5 5 5 5 5 5 5 5 5 3 5 5 5 5 5 5 5 5 5 5 3 5 5 5 3 5 5 5 5 5 5 5 5 5 5 5 5 5 5 5 5 5 5 5 5 5 5 5 5 5 5 5 5 5 5 5 5 5 5 5 5 5 5 5 5 5 5 5 5 5 5 5 5 5 5 5 5 5 5 5 5 5 5 5 5 5 5 5 5 5 5 3 5 5 5 5 5 5 5 5 5 5 5 3 3 5 5 5 3 5 5 5 5 5 3 5 5 5 3 5 5 5 5 3 5 3 5 5 5 5 5 5 5 5 5 3 5 5 5 5 5 5 5 5 5 3 5 5 5 5 5 5 3 5 5 5 5 5 5 5 5 5 5 5 3 5 5 5 3 5 5 5 5 5 5 5 5 5 5 5 5 5 5 5 5 5 5 5 5 5 5 5 5 5 3 5 5 5 3 5 5 5 5 5 3 5 5 5 3 5 5 5 5 3 5 5 5 5 5 5 3 5 5 5 5 5 5 3 3 5 5 5 5 5 5 5 5 5 5 5 5 5 5 3 5 5 5 3 5 3 5 3 5 5 5 5 5 5 5 5 5 5 5 5 3 5 5 5 5 3 5 3 5 5 5 5 5 5 5 3 5 5 5 5 5 5 5 3 5 5 3 3 5 5 5 5 3 5 5 5 5 5 5 5 3 5 5 5 5 5 5 5 5 5 5 5 5 5 3 5 5 5 5 5 5 5 5 5 3 5 3 5 5 5 5 5 3 5 5 5 5 5 5 5 5 5 5 5 5 5 5 5 5 5 5 5 5 5 5 5 5 5 5 5 5 5 5 5 5 5 5 5 5 5 5 5 5 5 5 5 5 5 5 5 5 5 5 5 3 5 5 5 5 5 3 5 3 5 5 5 5 5 5 5 3 5 3 5 5 5 5 5 5 5 5 5 5 5 5 3 5 3 5 5 5 5 5 5 5 5 5 5 5 5 5 5 5 5 5 5 5 3 5 5 5 5 3 5 3 5 5 5 3 5 5 5 5 5 5 5 5 5 5 5 5 5 5 5 5 5 5 5 3 5 5 5 5 5 5 5 5 3 5 5 5 3 5 5 5 5 5 5 5 5 5 5 5 5 3 5 5 5 5 5 3 5 5 5 5 5 5 5 5 5 3 5 3 5 5 5 5 5 5 5 5 5 5 3 5 5 5 5 5 5 5 5 5 5 5 5 5 5 3 5 5 5 5 5 5 5 3 5 5 5 5 5 5 5 5 5 5 5 5 5 5 5 5 5 5 5 5 5 5 5 5 5 5 5 5 5 5 3 5 3 5 5 5 5 5 5 5 5 5 5 5 5 3 5 5 5 5 5 5 3 3 5 5 5 5 5 5 5 5 5 5 5 5 3 5 5 5 5 5 5 5 5 5 5 5 5 5 5 5 5 5 5 5 5 5 5 5 5 5 5 5 5 5 5 5 5 5 5 5 5 5 5 5 5 5 5 5 5 5 5 5 5 5 5 5 5 5 5 5 5 5 3 5 5 5 5 5 3 5 5 3 5 5 5 5 3 5 5 5 5 5 3 5 5 3 5 5 5 5 5 3 5 3 5 5 5 5 5 5 5 5 5 5 5 5 5 5 5 5 5 5 5 5 5 5 5 5 5 3 5 5 5 3 3 5 5 5 5 5 5 3 5 5 5 5 5 5 5 5 5 5 5 5 5 5 5 3 5 5 5 5 5 5 3 5 5 3 5 5 5 5 5 5 5 3 5 5 5 5 3 5 5 5 5 5 5 5 3 5 3 5 5 5 5 5 5 5 3 5 5 5 3 5 5 5 5 5 5 5 5 5 5 5 5 5 5 5 3 5 3 5 5 5 3 5 5 5 3 5 5 3 5 5 5 5 5 5 3 5 5 5 5 5 5 5 5 5 5 5 5 5 5 5 3 5 5 5 5 5 5 3 5 5 5 5 5 3 5 5 5 5 5 5 5 5 3 5 5 5 5 3 5 5 5 3 5 5 3 5 5 3 5 5 3 5 3 5 3 5 5 5 5 5 3 5 5 5 5 5 5 5 5 5 3 5 5 5 5 5 5 3 5 5 5 5 3 5 3 5 5 3 5 5 5 5 3 3 5 5 5 3 5 3 5 5 3 5 3 3 5 5 5 5 5 5 5 5 5 3 5 5 5 3 5 5 5 5 5 5 3 3 5 5 3 3 3 3 5 5 5 3 5 5 5 5 5 3 5 5 5 5 5 5 5 5 5 5 5 5 5 5 5 5 5 5 5 5 5 5 3 5 5 3 5 5 5 5 5 5 5 5 5 5 5 5 5 5 5 5 5 5 5 5 5 3 5 5 5 5 5 5 5 5 5 5 5 5 3 5 5 3 5 5 5 5 5 5 5 5 5 5 5 5 5 5 5 5 5 5 5 5 3 5 5 5 5 5 5 5 3 5 3 5 3 5 5 3 5 5 5 3 3 5 5 5 5 5 5 5 5 5 5 5 5 5 5 5 5 5 3 5 5 5 5 5 5 5 5 5 5 5 5 5 5 5 5 5 5 5 5 3 5 5 3 5 5 5 5 3 5 5 5 5 5 5 5 5 3 5 5 5 5 5 3 5 5 5 5 5 5 5 3 5 5 5 3 5 3 3 5 5 5 5 5 5 5 5 5 3 5 5 5 5 3 5 5 5 3 5 5 5 5 3 5 5 5 3 5 3 5 5 3 5 3 5 5 5 3 5 5 5 5 5 3 5 5 5 5 5 5 5 5 5 3 5 5 5 5 3 5 5 3 5 5 5 3 5 5 5 5 3 5 3 3 5 5 5 5 5 5 5 5 5 5 5 5 5 5 5 3 5 3 5 5 5 5 5 5 5 5 3 5 5 5 5 5 5 3 5 3 5 5 5 5 5 3 5 5 5 5 5 5 3 5 3 3 5 5 5 5 5 5 5 5 5 5 5 5 5 5 5 5 5 5 5 5 5 5 3 5 5 5 5 5 5 5 5 5 5 5 5 5 5 5 5 5 3 5 5 3 5 5 5 5 5 5 5 5 5 5 3 5 5 5 3 5 5 5 5 5 5 5 3 5 5 5 5 5 5 3 5 5 5 5 5 5 5 5 5 5 5 3 5 5 5 5 5 5 5 5 5 5 5 5 5 5 5 5 3 5 5 5 5 5 5 5 5 5 3 5 5 5 3 5 5 5 5 5 5 5 5 5 5 5 5 5 5 5 5 5 5 5 5 5 5 5 5 5 3 5 5 5 5 5 3 3 5 5 5 5 3 5 5 5 5 5 5 5 5 3 5 5 5 5 3 5 5 5 3 5 5 5 5 5 3 5 3 5 5 5 5 5 5 5 3 5 5 3 5 5 3 5 5 5 3 5 5 5 5 5 3 5 5 5 5 5 5 5 5 3 3 5 5 5 5 5 5 5 5 5 3 5 5 5 5 3 5 5 5 5 5 5 5 5 5 5 5 5 3 5 5 5 5 5 5 5 5 5 5 5 5 5 5 5 5 5 5 5 5 5 5 5 5 5 5 5 3 5 5 5 3 3 5 5 5 5 5 5 3 5 5 5 3 3 5 5 5 5 5 5 5 5 5 5 5 5 5 5 3 3 5 5 5 5 5 3 5 5 5 5 5 5 3 5 5 5 5 3 3 5 5 3 5 5 5 5 5 5 5 5 3 5 5 5 5 5 5 5 5 5 5 5 5 5 5 5 3 5 5 5 5 5 5 5 5 3 5 5 5 5 5 5 5 5 3 5 3 5 5 5 3 5 5 3 5 5 3 5 5 5 5 5 5 5 3 5 5 3 5 3 5 5 3 5 5 5 5 5 5 3 5 3 5 3 5 5 5 5 3 5 5 5 5 5 5 5 5 5 5 5 5 5 5 5 5 3 5 5 5 5 5 5 5 5 5 3 5 5 5 5 5 5 5 5 5 5 5 5 3 5 5 5 5 5 5 5 5 3 5 5 5 5 3 5 5 3 5 5 5 3 5 3 5 5 3 5 3 5 5 5 5 5 5 3 5 5 5 5 5 5 5 5 5 5 5 5 5 5 5 5 5 3 5 5 5 5 5 5 5 5 5 5 5 5 5 5 5 5 5 5 5 5 5 5 5 5 5 5 3 5 5 5 5 3 5 5 3 5 5 5 3 5 5 5 5 5 3 5 5 5 5 5 5 5 3 3 5 5 5 5 5 5 5 5 5 5 5 5 5 5 5 5 5 3 3 3 5 5 5 5 5 3 5 3 3 5 5 5 5 5 5 5 5 3 5 5 5 5 5 5 5 5 5 5 5 5 5 5 5 3 5 3 5 5 5 5 5 5 5 5 5 3 5 5 5 5 3 5 5 3 5 5 5 5 5 5 5 5 5 5 5 5 5 5 5 5 5 5 5 5 5 5 5 5 5 5 5 5 5 5 5 5 5 5 5 5 5 5 5 5 5 5 3 5 5 5 5 3 5 5 3 5 3 5 3 5 5 3 5 3 5 3 3 5 5 5 3 5 5 3 3 5 3 5 3 5 5 5 5 5 3 5 5 5 5 5 5 5 5 5 5 5 5 5 5 5 5 5 5 5 5 5 5 3 5 5 5 3 5 5 3 5 5 5 5 5 5 5 5 5 5 5 3 5 5 5 5 5 5 3 5 3 5 5 3 5 5 3 5 5 5 5 5 5 5 5 5 5 5 5 5 5 5 5 5 5 5 5 5 5 5 5 3 5 5 5 5 5 5 5 5 5 5 5 5 5 5 5 5 5 5 5 5 5 5 5 5 5 5 5 5 5 5 5 5 5 5 5 5 5 5 3 5 5 5 5 5 5 5 3 5 5 5 5 5 3 5 5 5 5 3 5 3 5 5 5 5 5 3 5 5 3 5 5 3 5 5 3 5 3 5 5 5 3 5 3 5 3 5 3 5 3 3 3 5 5 5 5 5 5 3 5 5 5 5 3 5 5 5 5 5 5 5 5 5 5 5 3 3 5 5 5 3 5 5 3 5 3 3 3 5 5 5 5 5 5 5 5 5 5 5 5 5 5 3 5 5 5 5 5 5 5 5 5 5 5 5 5 3 5 5 5 5 5 5 5 5 3 5 5 5 5 5 5 5 5 5 5 5 5 5 5 3 5 5 5 3 5 5 5 5 5 5 5 5 5 5 5 5 5 5 5 5 5 5 5 5 5 5 5 3 5 5 3 5 5 5 3 5 5 5 5 5 5 3 5 5 5 5 3 5 3 3 5 5 5 5 3 3 5 5 5 5 5 3 5 5 5 5 5 3 3 5 5 5 5 5 5 5 5 5 5 5 5 5 5 3 5 5 5 5 5 5 3 5 5 5 3 5 5 5 5 5 5 3 5 5 5 5 5 5 5 5 5 5 3 5 5 5 5 5 5 5 5 5 5 5 5 5 5 5 5 5 5 5 5 5 5 5 5 5 5 5 5 5 5 5 5 5 5 5 5 5 5 5 5 5 5 5 5 5 3 5 5 5 5 5 5 5 5 5 5 3 5 5 5 5 5 5 5 5 5 5 5 5 5 5 3 5 5 5 5 5 5 5 5 5 5 3 5 5 5 5 3 5 5 5 3 5 5 5 3 5 5 5 5 5 3 5 5 5 5 5 5 3 5 5 5 5 5 5 5 3 5 3 5 5 3 3 5 5 5 5 5 3 5 5 5 5 3 5 5 5 5 3 5 5 5 3 5 5 5 3 5 5 5 3 5 5 3 5 5 5 5 5 5 3 5 5 3 5 5 5 3 5 5 5 5 5 3 5 3 5 3 5 3 3 5 5 5 3 3 5 3 5 5 5 5 5 5 5 5 5 5 3 5 5 5 3 5 3 5 5 5 3 5 5 5 5 5 5 5 5 5 3 5 3 5 3 5 5 5 5 5 5 5 5 5 5 5 5 5 5 5 5 5 5 5 5 5 5 5 5 5 5 5 5 5 5 5 5 5 5 5 5 3 5 3 5 5 5 5 5 3 5 3 5 5 5 5 5 5 5 5 3 5 5 5 5 5 5 5 3 5 5 5 3 5 5 3 5 5 5 5 3 5 5 5 5 5 5 5 5 5 5 5 5 5 3 5 5 5 5 5 5 3 5 3 5 5 5 5 5 3 5 5 5 5 5 5 5 5 5 5 5 5 5 5 5 5 5 5 3 5 5 5 5 5 3 5 5 5 5 5 5 5 5 5 3 5 5 5 3 5 5 5 5 5 5 5 5 3 5 3 5 3 5 3 5 3 5 5 5 3 5 5 5 3 5 5 3 5 3 3 5 5 5 5 5 5 3 5 3 5 5 5 5 5 5 5 5 5 3 5 5 5 5 5 5 5 5 5 5 5 5 5 5 5 5 5 5 5 5 5 5 3 5 5 5 5 3 5 5 5 5 5 5 5 3 5 5 5 5 5 5 5 5 5 5 5 5 5 5 5 5 5 5 5 5 5 5 3 5 5 5 5 5 5 5 5 5 5 5 5 5 5 5 3 5 5 3 5 5 5 5 5 5 5 5 3 3 5 5 5 5 5 5 5 3 5 5 5 5 5 5 5 5 3 5 5 5 5 3 5 5 5 5 5 3 5 5 5 3 5 5 5 5 5 5 5 5 5 5 5 5 5 5 5 5 5 5 5 5 5 3 5 3 5 3 3 5 5 5 3 5 5 3 5 5 5 3 5 5 3 5 5 5 5 5 3 5 3 5 5 5 3 5 5 5 5 5 5 5 5 3 5 5 5 5 3 5 5 5 5 5 5 5 5 5 5 5 5 5 5 5 5 3 5 5 5 5 5 5 5 5 5 5 5 5 5 5 3 5 5 5 5 5 5 5 5 5 5 5 5 5 5 5 5 5 5 5 5 5 5 5 5 3 5 5 5 5 5 5 5 5 5 5 5 5 3 5 5 5 3 3 5 3 5 5 5 5 5 5 5 5 5 3 5 5 3 3 5 5 5 3 3 5 5 5 5 5 5 3 5 5 5 5 5 5 5 5 5 5 5 5 5 5 5 3 5 5 5 5 5 5 3 5 5 5 5 5 5 5 5 3 5 5 5 5 5 5 5 5 3 5 5 5 5 3 5 5 5 5 5 5 5 5 5 5 5 5 5 3 5 5 5 5 5 3 5 5 5 5 3 3 5 5 5 5 5 3 5 5 3 5 5 5 3 3 5 5 5 3 5 5 5 5 3 3 5 5 5 5 5 5 5 5 3 5 5 
</DataArray>
</Cells>
<PointData Scalars="" Vectors="displacement," Tensors="">
<DataArray type="Float64" Name="displacement" NumberOfComponents="3" format="ascii">
-0.034997367086051862 -0.034998981311779372 0 -0.034519476394696089 -0.034101039473900599 0 -0.032614272913063659 -0.034998159592784524 0 -0.034997367086051862 -0.034998981311779372 0 -0.034519476394696089 -0.034101039473900599 0 -0.034998772453178714 -0.032234462039032838 0 -0.034519476394696089 -0.034101039473900599 0 -0.035462595644972172 -0.033450058474758335 0 -0.032614272913063659 -0.034998159592784524 0 -0.034519476394696089 -0.034101039473900599 0 -0.035130877572700989 -0.032622175903774149 0 -0.035462595644972172 -0.033450058474758335 0 -0.034998772453178714 -0.032234462039032838 0 -0.035130877572700989 -0.032622175903774149 0 -0.035368092861971956 -0.031393495423468094 0 -0.034519476394696089 -0.034101039473900599 0 -0.034998772453178714 -0.032234462039032838 0 -0.035130877572700989 -0.032622175903774149 0 -0.035130877572700989 -0.032622175903774149 0 -0.035531827898368694 -0.031777461889348935 0 -0.035462595644972172 -0.033450058474758335 0 -0.035130877572700989 -0.032622175903774149 0 -0.035368092861971956 -0.031393495423468094 0 -0.035531827898368694 -0.031777461889348935 0 -0.035220835955851272 -0.031516110655999401 0 -0.036474229024411171 -0.030626057771461965 0 -0.035368092861971956 -0.031393495423468094 0 -0.035531827898368694 -0.031777461889348935 0 -0.035501636828206361 -0.031666155227579248 0 -0.030097962689568426 -0.036243241374985462 0 -0.032865805296010853 -0.03409976156735689 0 -0.030464710397670309 -0.038932457521740779 0 -0.031856403168035168 -0.038662091360297982 0 -0.030958803475109944 -0.037845249544091512 0 -0.035567212494174126 -0.031760115322824169 0 -0.035531827898368694 -0.031777461889348935 0 -0.035543477235509997 -0.031699660453953768 0 -0.032865805296010853 -0.03409976156735689 0 -0.036135032171901296 -0.032359494379422191 0 -0.031856403168035168 -0.038662091360297982 0 -0.030958803475109944 -0.037845249544091512 0 -0.032151031502963792 -0.036717191557023937 0 -0.032865805296010853 -0.03409976156735689 0 -0.033881904314668324 -0.035196033374233104 0 -0.036116919664237537 -0.031705791741667315 0 -0.035531827898368694 -0.031777461889348935 0 -0.035462595644972172 -0.033450058474758335 0 -0.030958803475109944 -0.037845249544091512 0 -0.032151031502963792 -0.036717191557023937 0 -0.030226844496452712 -0.036904383628532392 0 -0.032151031502963792 -0.036717191557023937 0 -0.030542022514975255 -0.034999727500911758 0 -0.030226844496452712 -0.036904383628532392 0 -0.033881904314668324 -0.035196033374233104 0 -0.032607203074950887 -0.034999171485046339 0 -0.032151031502963792 -0.036717191557023937 0 -0.032606411442788086 -0.034999954424912709 0 -0.030542022514975255 -0.034999727500911758 0 -0.030542022514975255 -0.034999727500911758 0 -0.028933979241636768 -0.036039220289728481 0 -0.030226844496452712 -0.036904383628532392 0 -0.030542022514975255 -0.034999727500911758 0 -0.028477268639008967 -0.034999799672155295 0 -0.028933979241636768 -0.036039220289728481 0 -0.028933979241636768 -0.036039220289728481 0 -0.030226844496452712 -0.036904383628532392 0 -0.028003937637070112 -0.037169313408678552 0 -0.026413132248469345 -0.034999909468656165 0 -0.027053657526666618 -0.036215989795304548 0 -0.025553874372330785 -0.035916990806523309 0 -0.028477268639008967 -0.034999799672155295 0 -0.028933979241636768 -0.036039220289728481 0 -0.027053657526666618 -0.036215989795304548 0 -0.028477268639008967 -0.034999799672155295 0 -0.026413132248469345 -0.034999909468656165 0 -0.027053657526666618 -0.036215989795304548 0 -0.028933979241636768 -0.036039220289728481 0 -0.027053657526666618 -0.036215989795304548 0 -0.028003937637070112 -0.037169313408678552 0 -0.026627551826885469 -0.037111527082375181 0 -0.025795270692599365 -0.03686914511655362 0 -0.025901953191554035 -0.037524544217394998 0 -0.027053657526666618 -0.036215989795304548 0 -0.026627551826885469 -0.037111527082375181 0 -0.025795270692599365 -0.03686914511655362 0 -0.026627551826885469 -0.037111527082375181 0 -0.02657817660866648 -0.03748203084628924 0 -0.028003937637070112 -0.037169313408678552 0 -0.027053657526666618 -0.036215989795304548 0 -0.026627551826885469 -0.037111527082375181 0 -0.028003937637070112 -0.037169313408678552 0 -0.02657817660866648 -0.03748203084628924 0 -0.028003937637070112 -0.037169313408678552 0 -0.027219551504742812 -0.037974539527877688 0 -0.02657817660866648 -0.03748203084628924 0 -0.025870621666063069 -0.037625168915379245 0 -0.027219551504742812 -0.037974539527877688 0 -0.02657817660866648 -0.03748203084628924 0 -0.025870621666063069 -0.037625168915379245 0 -0.025901953191554035 -0.037524544217394998 0 -0.026627551826885469 -0.037111527082375181 0 -0.02657817660866648 -0.03748203084628924 0 -0.025901953191554035 -0.037524544217394998 0 -0.030958803475109944 -0.037845249544091512 0 -0.030226844496452712 -0.036904383628532392 0 -0.029552562284965247 -0.037988959659859253 0 -0.030226844496452712 -0.036904383628532392 0 -0.028003937637070112 -0.037169313408678552 0 -0.029552562284965247 -0.037988959659859253 0 -0.028003937637070112 -0.037169313408678552 0 -0.028898884050298147 -0.039227398135079722 0 -0.029552562284965247 -0.037988959659859253 0 -0.028311500588696529 -0.038020564329027604 0 -0.027660805918199985 -0.03665569628220041 0 -0.028003937637070112 -0.037169313408678552 0 -0.027905937372611187 -0.037913755026518996 0 -0.027219551504742812 -0.037974539527877688 0 -0.030464710397670309 -0.038932457521740779 0 -0.030958803475109944 -0.037845249544091512 0 -0.029552562284965247 -0.037988959659859253 0 -0.030097962689568426 -0.036243241374985462 0 -0.027660805918199985 -0.03665569628220041 0 -0.030464710397670309 -0.038932457521740779 0 -0.028898884050298147 -0.039227398135079722 0 -0.029552562284965247 -0.037988959659859253 0 -0.02990323959985455 -0.033430800604900661 0 -0.029272865095311969 -0.033535468177413028 0 -0.02953766726830151 -0.034130007154340364 0 -0.027660805918199985 -0.03665569628220041 0 -0.026079808316529108 -0.035426072642504684 0 -0.02990323959985455 -0.033430800604900661 0 -0.02953766726830151 -0.034130007154340364 0 -0.030014616230547689 -0.033916260714217307 0 -0.023397531196833913 -0.037965275890546754 0 -0.023888034759101579 -0.036826215449113603 0 -0.022873303666374117 -0.036656869668912698 0 -0.023397531196833913 -0.037965275890546754 0 -0.023888034759101579 -0.036826215449113603 0 -0.024452100900196158 -0.037857723001685509 0 -0.027660805918199985 -0.03665569628220041 0 -0.025507640473924946 -0.037872320476418884 0 -0.023888034759101579 -0.036826215449113603 0 -0.022873303666374117 -0.036656869668912698 0 -0.023375018003584307 -0.035779979306239169 0 -0.023888034759101579 -0.036826215449113603 0 -0.024417660723562953 -0.035978226603160128 0 -0.023375018003584307 -0.035779979306239169 0 -0.022873303666374117 -0.036656869668912698 0 -0.022414494737401671 -0.035471503866679376 0 -0.023375018003584307 -0.035779979306239169 0 -0.026079808316529108 -0.035426072642504684 0 -0.026997635353283107 -0.033391482583056867 0 -0.02953766726830151 -0.034130007154340364 0 -0.029790637033326347 -0.034724397932873054 0 -0.030014616230547689 -0.033916260714217307 0 -0.025870621666063069 -0.037625168915379245 0 -0.024881704782359234 -0.036967809410623886 0 -0.025668269633943908 -0.036807195840425071 0 -0.025870621666063069 -0.037625168915379245 0 -0.025668269633943908 -0.036807195840425071 0 -0.025901953191554035 -0.037524544217394998 0 -0.025870621666063069 -0.037625168915379245 0 -0.024881704782359234 -0.036967809410623886 0 -0.024452100900196158 -0.037857723001685509 0 -0.026021246744190953 -0.037706730599568201 0 -0.025507640473924946 -0.037872320476418884 0 -0.023888034759101579 -0.036826215449113603 0 -0.024881704782359234 -0.036967809410623886 0 -0.024452100900196158 -0.037857723001685509 0 -0.024881704782359234 -0.036967809410623886 0 -0.024417660723562953 -0.035978226603160128 0 -0.025668269633943908 -0.036807195840425071 0 -0.023888034759101579 -0.036826215449113603 0 -0.024881704782359234 -0.036967809410623886 0 -0.024417660723562953 -0.035978226603160128 0 -0.024417660723562953 -0.035978226603160128 0 -0.025668269633943908 -0.036807195840425071 0 -0.025096934062314519 -0.035127023325785003 0 -0.025668269633943908 -0.036807195840425071 0 -0.025096934062314519 -0.035127023325785003 0 -0.026060237995765349 -0.035507696816564509 0 -0.024417660723562953 -0.035978226603160128 0 -0.025096934062314519 -0.035127023325785003 0 -0.023571592590690166 -0.034426590531659383 0 -0.025096934062314519 -0.035127023325785003 0 -0.023571592590690166 -0.034426590531659383 0 -0.024611196830223971 -0.033297409690394408 0 -0.025096934062314519 -0.035127023325785003 0 -0.026060237995765349 -0.035507696816564509 0 -0.025808197961254074 -0.033597510829793176 0 -0.025096934062314519 -0.035127023325785003 0 -0.025808197961254074 -0.033597510829793176 0 -0.024611196830223971 -0.033297409690394408 0 -0.026997635353283107 -0.033391482583056867 0 -0.024889188990084798 -0.03277469391404543 0 -0.022414494737401671 -0.035471503866679376 0 -0.023375018003584307 -0.035779979306239169 0 -0.023571592590690166 -0.034426590531659383 0 -0.024417660723562953 -0.035978226603160128 0 -0.023375018003584307 -0.035779979306239169 0 -0.023571592590690166 -0.034426590531659383 0 -0.025869044031634453 -0.031943382714151883 0 -0.027278573003047913 -0.030749333119834781 0 -0.026123490230881338 -0.030083113610886628 0 -0.034505154417049051 -0.029548043472533456 0 -0.032443864162040252 -0.0282502610171513 0 -0.026997635353283107 -0.033391482583056867 0 -0.032443864162040252 -0.0282502610171513 0 -0.025869044031634453 -0.031943382714151883 0 -0.025068920879599093 -0.03000283556878525 0 -0.026123490230881338 -0.030083113610886628 0 -0.03209664845661836 -0.030894315333530892 0 -0.031522300691395777 -0.030627770667895664 0 -0.031638650463549932 -0.029714784345417095 0 -0.037169518484259874 -0.028652538173162437 0 -0.036869081855251701 -0.028480665620411658 0 -0.03716256538321086 -0.028094570066212094 0 -0.03209664845661836 -0.030894315333530892 0 -0.031522300691395777 -0.030627770667895664 0 -0.031417060861731329 -0.031476626141752728 0 -0.034505154417049051 -0.029548043472533456 0 -0.033919363885858748 -0.031421835058797531 0 -0.037169518484259874 -0.028652538173162437 0 -0.036864670565566325 -0.028951933400514534 0 -0.037179604026307697 -0.029360333547766654 0 -0.037169518484259874 -0.028652538173162437 0 -0.036864670565566325 -0.028951933400514534 0 -0.036869081855251701 -0.028480665620411658 0 -0.036864670565566325 -0.028951933400514534 0 -0.036869081855251701 -0.028480665620411658 0 -0.036393006297769273 -0.028928084989464933 0 -0.037321866030576745 -0.027759865477474676 0 -0.036272890348601768 -0.028765522817671269 0 -0.037787310608581162 -0.026801358634459163 0 -0.032443864162040252 -0.0282502610171513 0 -0.03665312113975238 -0.027692996395194229 0 -0.03671416591247139 -0.027750794518173978 0 -0.036712439087144583 -0.027654977083207685 0 -0.03665312113975238 -0.027692996395194229 0 -0.03671416591247139 -0.027750794518173978 0 -0.036430086345249225 -0.027941212277015078 0 -0.037141163763217459 -0.026811984542052834 0 -0.037280386938828881 -0.026275176442696287 0 -0.038168317547502585 -0.026120332815148122 0 -0.037321866030576745 -0.027759865477474676 0 -0.032443864162040252 -0.0282502610171513 0 -0.037141163763217459 -0.026811984542052834 0 -0.037280386938828881 -0.026275176442696287 0 -0.03675713018809771 -0.026227140243714669 0 -0.037141163763217459 -0.026811984542052834 0 -0.036502186862097712 -0.026729447095293041 0 -0.036119083917074746 -0.027559444658153496 0 -0.037787310608581162 -0.026801358634459163 0 -0.035876635065031845 -0.027862106306299716 0 -0.036502186862097712 -0.026729447095293041 0 -0.035979734174298256 -0.026293818010060584 0 -0.036119083917074746 -0.027559444658153496 0 -0.037141163763217459 -0.026811984542052834 0 -0.036502186862097712 -0.026729447095293041 0 -0.03675713018809771 -0.026227140243714669 0 -0.03665312113975238 -0.027692996395194229 0 -0.036430086345249225 -0.027941212277015078 0 -0.036013929426686561 -0.027949921536095768 0 -0.036502186862097712 -0.026729447095293041 0 -0.035979734174298256 -0.026293818010060584 0 -0.03675713018809771 -0.026227140243714669 0 -0.034999932501170672 -0.026959026184891571 0 -0.035979734174298256 -0.026293818010060584 0 -0.036119083917074746 -0.027559444658153496 0 -0.034999932501170672 -0.026959026184891571 0 -0.035979734174298256 -0.026293818010060584 0 -0.03500002941489138 -0.025553102179783398 0 -0.034999899579241892 -0.028365768792321028 0 -0.036013929426686561 -0.027949921536095768 0 -0.035772909918673886 -0.02856169080032071 0 -0.035000413650309051 -0.028365295644108675 0 -0.035876635065031845 -0.027862106306299716 0 -0.034999932501170672 -0.026959026184891571 0 -0.034999995634049513 -0.028365469846142063 0 -0.036119083917074746 -0.027559444658153496 0 -0.03671416591247139 -0.027750794518173978 0 -0.036430086345249225 -0.027941212277015078 0 -0.036416523093235641 -0.028349420878446753 0 -0.036430086345249225 -0.027941212277015078 0 -0.036013929426686561 -0.027949921536095768 0 -0.036416523093235641 -0.028349420878446753 0 -0.036013929426686561 -0.027949921536095768 0 -0.036416523093235641 -0.028349420878446753 0 -0.035772909918673886 -0.02856169080032071 0 -0.035368092861971956 -0.031393495423468094 0 -0.034999899579241892 -0.028365768792321028 0 -0.035697869013516646 -0.029442075637684903 0 -0.036393006297769273 -0.028928084989464933 0 -0.035697869013516646 -0.029442075637684903 0 -0.036629324275616632 -0.029394170019888317 0 -0.035697869013516646 -0.029442075637684903 0 -0.036583327346352605 -0.030143091437443884 0 -0.036629324275616632 -0.029394170019888317 0 -0.034998772453178714 -0.032234462039032838 0 -0.035368092861971956 -0.031393495423468094 0 -0.034999899579241892 -0.028365768792321028 0 -0.036272890348601768 -0.028765522817671269 0 -0.035783509937274499 -0.029349605495977909 0 -0.036416523093235641 -0.028349420878446753 0 -0.035772909918673886 -0.02856169080032071 0 -0.035697869013516646 -0.029442075637684903 0 -0.034999899579241892 -0.028365768792321028 0 -0.035772909918673886 -0.02856169080032071 0 -0.035697869013516646 -0.029442075637684903 0 -0.035368092861971956 -0.031393495423468094 0 -0.035697869013516646 -0.029442075637684903 0 -0.036583327346352605 -0.030143091437443884 0 -0.035531827898368694 -0.031777461889348935 0 -0.035501636828206361 -0.031666155227579248 0 -0.035543477235509997 -0.031699660453953768 0 -0.035501636828206361 -0.031666155227579248 0 -0.035543477235509997 -0.031699660453953768 0 -0.035568006549623297 -0.031608956345985893 0 -0.032865805296010853 -0.03409976156735689 0 -0.033919363885858748 -0.031421835058797531 0 -0.035567212494174126 -0.031760115322824169 0 -0.035543477235509997 -0.031699660453953768 0 -0.035568006549623297 -0.031608956345985893 0 -0.036474229024411171 -0.030626057771461965 0 -0.033919363885858748 -0.031421835058797531 0 -0.02990323959985455 -0.033430800604900661 0 -0.030541896642712552 -0.033336394830663196 0 -0.030014616230547689 -0.033916260714217307 0 -0.030541896642712552 -0.033336394830663196 0 -0.030014616230547689 -0.033916260714217307 0 -0.030385306372937355 -0.034257779514328131 0 -0.026997635353283107 -0.033391482583056867 0 -0.033919363885858748 -0.031421835058797531 0 -0.029790637033326347 -0.034724397932873054 0 -0.030014616230547689 -0.033916260714217307 0 -0.030385306372937355 -0.034257779514328131 0 -0.036583327346352605 -0.030143091437443884 0 -0.036629324275616632 -0.029394170019888317 0 -0.037179604026307697 -0.029360333547766654 0 -0.036864670565566325 -0.028951933400514534 0 -0.036393006297769273 -0.028928084989464933 0 -0.036629324275616632 -0.029394170019888317 0 -0.036864670565566325 -0.028951933400514534 0 -0.036629324275616632 -0.029394170019888317 0 -0.037179604026307697 -0.029360333547766654 0 -0.01815280050597071 -0.037501220508676797 0 -0.017458587678832495 -0.037237576888130522 0 -0.017895396043574895 -0.036900513912228601 0 -0.01815280050597071 -0.037501220508676797 0 -0.017458587678832495 -0.037237576888130522 0 -0.017447318247610751 -0.038001145855023642 0 -0.017458587678832495 -0.037237576888130522 0 -0.017447318247610751 -0.038001145855023642 0 -0.016720763966325675 -0.037102431919562077 0 -0.01815280050597071 -0.037501220508676797 0 -0.018849091047953185 -0.036942616061490095 0 -0.019171069507005034 -0.038272158706440421 0 -0.018849091047953185 -0.036942616061490095 0 -0.019810620318647103 -0.037005842783428555 0 -0.019171069507005034 -0.038272158706440421 0 -0.015918016265587552 -0.035230985268562547 0 -0.019937713933840241 -0.036609268726706348 0 -0.01815280050597071 -0.037501220508676797 0 -0.017447318247610751 -0.038001145855023642 0 -0.019171069507005034 -0.038272158706440421 0 -0.018849091047953185 -0.036942616061490095 0 -0.018875212972372376 -0.036006937786929538 0 -0.019557612286844796 -0.036365636909260722 0 -0.01815280050597071 -0.037501220508676797 0 -0.018849091047953185 -0.036942616061490095 0 -0.017895396043574895 -0.036900513912228601 0 -0.018849091047953185 -0.036942616061490095 0 -0.018185563004045013 -0.0363421236717607 0 -0.017895396043574895 -0.036900513912228601 0 -0.018849091047953185 -0.036942616061490095 0 -0.018185563004045013 -0.0363421236717607 0 -0.018875212972372376 -0.036006937786929538 0 -0.018185563004045013 -0.0363421236717607 0 -0.01741879999068064 -0.036307947158496903 0 -0.017645100051776292 -0.035853692299352091 0 -0.018185563004045013 -0.0363421236717607 0 -0.017895396043574895 -0.036900513912228601 0 -0.01741879999068064 -0.036307947158496903 0 -0.017895396043574895 -0.036900513912228601 0 -0.01741879999068064 -0.036307947158496903 0 -0.017061131880389605 -0.03672851222797395 0 -0.017458587678832495 -0.037237576888130522 0 -0.017895396043574895 -0.036900513912228601 0 -0.017061131880389605 -0.03672851222797395 0 -0.01741879999068064 -0.036307947158496903 0 -0.017645100051776292 -0.035853692299352091 0 -0.017031191620016456 -0.035809473132163178 0 -0.017645100051776292 -0.035853692299352091 0 -0.017446938451641268 -0.035477844648317672 0 -0.017031191620016456 -0.035809473132163178 0 -0.018185563004045013 -0.0363421236717607 0 -0.017645100051776292 -0.035853692299352091 0 -0.018173160282525639 -0.035644681986861076 0 -0.018173160282525639 -0.035644681986861076 0 -0.017750756015560133 -0.034761204667173001 0 -0.01890765748767111 -0.035550854180665246 0 -0.018173160282525639 -0.035644681986861076 0 -0.017446938451641268 -0.035477844648317672 0 -0.017750756015560133 -0.034761204667173001 0 -0.017645100051776292 -0.035853692299352091 0 -0.018173160282525639 -0.035644681986861076 0 -0.017446938451641268 -0.035477844648317672 0 -0.017446938451641268 -0.035477844648317672 0 -0.017750756015560133 -0.034761204667173001 0 -0.016680366860852048 -0.035283187211847235 0 -0.01808278237938565 -0.035746612471856731 0 -0.018155784643967221 -0.035000061747478606 0 -0.017108027950850108 -0.035398329392442272 0 -0.018155784643967221 -0.035000061747478606 0 -0.019989811427513989 -0.035419431377923374 0 -0.020219550290407649 -0.034999484018114486 0 -0.01808278237938565 -0.035746612471856731 0 -0.018155784643967221 -0.035000061747478606 0 -0.019989811427513989 -0.035419431377923374 0 -0.017750756015560133 -0.034761204667173001 0 -0.01890765748767111 -0.035550854180665246 0 -0.019989811427513989 -0.035419431377923374 0 -0.017917156867558813 -0.03528018646629956 0 -0.019830591880475652 -0.035379066442546944 0 -0.01890765748767111 -0.035550854180665246 0 -0.018875212972372376 -0.036006937786929538 0 -0.019631141738184352 -0.035870108652681483 0 -0.01890765748767111 -0.035550854180665246 0 -0.019631141738184352 -0.035870108652681483 0 -0.019989811427513989 -0.035419431377923374 0 -0.018173160282525639 -0.035644681986861076 0 -0.01890765748767111 -0.035550854180665246 0 -0.018875212972372376 -0.036006937786929538 0 -0.018185563004045013 -0.0363421236717607 0 -0.018173160282525639 -0.035644681986861076 0 -0.018875212972372376 -0.036006937786929538 0 -0.018875212972372376 -0.036006937786929538 0 -0.019631141738184352 -0.035870108652681483 0 -0.019557612286844796 -0.036365636909260722 0 -0.019631141738184352 -0.035870108652681483 0 -0.02051187810639275 -0.036029691605837001 0 -0.019557612286844796 -0.036365636909260722 0 -0.019631141738184352 -0.035870108652681483 0 -0.019989811427513989 -0.035419431377923374 0 -0.02051187810639275 -0.036029691605837001 0 -0.019989811427513989 -0.035419431377923374 0 -0.020592118136580257 -0.035385141307412361 0 -0.02051187810639275 -0.036029691605837001 0 -0.019989811427513989 -0.035419431377923374 0 -0.020592118136580257 -0.035385141307412361 0 -0.020219550290407649 -0.034999484018114486 0 -0.020219550290407649 -0.034999484018114486 0 -0.021486766071358781 -0.03514767859144443 0 -0.022284887532722366 -0.034999818465585905 0 -0.020592118136580257 -0.035385141307412361 0 -0.021486766071358781 -0.03514767859144443 0 -0.02051187810639275 -0.036029691605837001 0 -0.021417536644714037 -0.035209196907531382 0 -0.020884264836114011 -0.036092498704748281 0 -0.020592118136580257 -0.035385141307412361 0 -0.020219550290407649 -0.034999484018114486 0 -0.021486766071358781 -0.03514767859144443 0 -0.021486766071358781 -0.03514767859144443 0 -0.021130601091400952 -0.036395438353038954 0 -0.022353567492276009 -0.035978596859777376 0 -0.021130601091400952 -0.036395438353038954 0 -0.022009213403464775 -0.03716802804306614 0 -0.022353567492276009 -0.035978596859777376 0 -0.021130601091400952 -0.036395438353038954 0 -0.022009213403464775 -0.03716802804306614 0 -0.020544952716527648 -0.037756636280513949 0 -0.022009213403464775 -0.03716802804306614 0 -0.020544952716527648 -0.037756636280513949 0 -0.021627464779254507 -0.038235677525399088 0 -0.022009213403464775 -0.03716802804306614 0 -0.021627464779254507 -0.038235677525399088 0 -0.022729886129906497 -0.038164155213475603 0 -0.020884264836114011 -0.036092498704748281 0 -0.020043581259677513 -0.037783893401158709 0 -0.02051187810639275 -0.036029691605837001 0 -0.019557612286844796 -0.036365636909260722 0 -0.019810620318647103 -0.037005842783428555 0 -0.018849091047953185 -0.036942616061490095 0 -0.019557612286844796 -0.036365636909260722 0 -0.019810620318647103 -0.037005842783428555 0 -0.020544952716527648 -0.037756636280513949 0 -0.021038415160332603 -0.038677425335571267 0 -0.019933784985071028 -0.039098366095734416 0 -0.020043581259677513 -0.037783893401158709 0 -0.019937713933840241 -0.036609268726706348 0 -0.020544952716527648 -0.037756636280513949 0 -0.021038415160332603 -0.038677425335571267 0 -0.021627464779254507 -0.038235677525399088 0 -0.021627464779254507 -0.038235677525399088 0 -0.022729886129906497 -0.038164155213475603 0 -0.021855183263167818 -0.039383505932273133 0 -0.021038415160332603 -0.038677425335571267 0 -0.021627464779254507 -0.038235677525399088 0 -0.021855183263167818 -0.039383505932273133 0 -0.024004491268457946 -0.037136981119415574 0 -0.024175188707186789 -0.03751403582781946 0 -0.023610747341619828 -0.03773590364805459 0 -0.023014747545833287 -0.037927705825383462 0 -0.025132640392296565 -0.037623337125898201 0 -0.024004491268457946 -0.037136981119415574 0 -0.024175188707186789 -0.03751403582781946 0 -0.024464691529235777 -0.037270797367398648 0 -0.024175188707186789 -0.03751403582781946 0 -0.024464691529235777 -0.037270797367398648 0 -0.024588322190376308 -0.037850882260280147 0 -0.024464691529235777 -0.037270797367398648 0 -0.02525108547371999 -0.037401954222217128 0 -0.024588322190376308 -0.037850882260280147 0 -0.024464691529235777 -0.037270797367398648 0 -0.023809735042969325 -0.036712808866178927 0 -0.025021846701074706 -0.037163636371028458 0 -0.023809735042969325 -0.036712808866178927 0 -0.024707394368052197 -0.036319856196035893 0 -0.025021846701074706 -0.037163636371028458 0 -0.024004491268457946 -0.037136981119415574 0 -0.024464691529235777 -0.037270797367398648 0 -0.023809735042969325 -0.036712808866178927 0 -0.022009213403464775 -0.03716802804306614 0 -0.022729886129906497 -0.038164155213475603 0 -0.023809735042969325 -0.036712808866178927 0 -0.023014747545833287 -0.037927705825383462 0 -0.023931676679114239 -0.036629632104113241 0 -0.022009213403464775 -0.03716802804306614 0 -0.022353567492276009 -0.035978596859777376 0 -0.023809735042969325 -0.036712808866178927 0 -0.022353567492276009 -0.035978596859777376 0 -0.023530399011536487 -0.035812236182544456 0 -0.023809735042969325 -0.036712808866178927 0 -0.021486766071358781 -0.03514767859144443 0 -0.022353567492276009 -0.035978596859777376 0 -0.022284887532722366 -0.034999818465585905 0 -0.022353567492276009 -0.035978596859777376 0 -0.022284887532722366 -0.034999818465585905 0 -0.023530399011536487 -0.035812236182544456 0 -0.022284887532722366 -0.034999818465585905 0 -0.023530399011536487 -0.035812236182544456 0 -0.024349300947222222 -0.034999894024752676 0 -0.023530399011536487 -0.035812236182544456 0 -0.024707394368052197 -0.036319856196035893 0 -0.024349300947222222 -0.034999894024752676 0 -0.023530399011536487 -0.035812236182544456 0 -0.023809735042969325 -0.036712808866178927 0 -0.024707394368052197 -0.036319856196035893 0 -0.024707394368052197 -0.036319856196035893 0 -0.024349300947222222 -0.034999894024752676 0 -0.025553874372330785 -0.035916990806523309 0 -0.026413132248469345 -0.034999909468656165 0 -0.024349300947222222 -0.034999894024752676 0 -0.025553874372330785 -0.035916990806523309 0 -0.027053657526666618 -0.036215989795304548 0 -0.025553874372330785 -0.035916990806523309 0 -0.025795270692599365 -0.03686914511655362 0 -0.024707394368052197 -0.036319856196035893 0 -0.025553874372330785 -0.035916990806523309 0 -0.025795270692599365 -0.03686914511655362 0 -0.025795270692599365 -0.03686914511655362 0 -0.025021846701074706 -0.037163636371028458 0 -0.025901953191554035 -0.037524544217394998 0 -0.024707394368052197 -0.036319856196035893 0 -0.025795270692599365 -0.03686914511655362 0 -0.025021846701074706 -0.037163636371028458 0 -0.025021846701074706 -0.037163636371028458 0 -0.02525108547371999 -0.037401954222217128 0 -0.025901953191554035 -0.037524544217394998 0 -0.024464691529235777 -0.037270797367398648 0 -0.025021846701074706 -0.037163636371028458 0 -0.02525108547371999 -0.037401954222217128 0 -0.025668269633943908 -0.036807195840425071 0 -0.025901953191554035 -0.037524544217394998 0 -0.026010905365682416 -0.037241977405832766 0 -0.02525108547371999 -0.037401954222217128 0 -0.025901953191554035 -0.037524544217394998 0 -0.026010905365682416 -0.037241977405832766 0 -0.02525108547371999 -0.037401954222217128 0 -0.026010905365682416 -0.037241977405832766 0 -0.024588322190376308 -0.037850882260280147 0 -0.02582654141840799 -0.037271180617747784 0 -0.026469800738196134 -0.037448823043951043 0 -0.026010905365682416 -0.037241977405832766 0 -0.02774158581897446 -0.036324612218268978 0 -0.027807277221079917 -0.037117199789207779 0 -0.026010905365682416 -0.037241977405832766 0 -0.026060237995765349 -0.035507696816564509 0 -0.027109751213471506 -0.035632253132692374 0 -0.026010905365682416 -0.037241977405832766 0 -0.027109751213471506 -0.035632253132692374 0 -0.02774158581897446 -0.036324612218268978 0 -0.025668269633943908 -0.036807195840425071 0 -0.026010905365682416 -0.037241977405832766 0 -0.026060237995765349 -0.035507696816564509 0 -0.026060237995765349 -0.035507696816564509 0 -0.026676823689688579 -0.034449160321390192 0 -0.025808197961254074 -0.033597510829793176 0 -0.026676823689688579 -0.034449160321390192 0 -0.027699638214731773 -0.034584965179718964 0 -0.026962574472104952 -0.032799819218683385 0 -0.026060237995765349 -0.035507696816564509 0 -0.026676823689688579 -0.034449160321390192 0 -0.027109751213471506 -0.035632253132692374 0 -0.026676823689688579 -0.034449160321390192 0 -0.027109751213471506 -0.035632253132692374 0 -0.027699638214731773 -0.034584965179718964 0 -0.027109751213471506 -0.035632253132692374 0 -0.027699638214731773 -0.034584965179718964 0 -0.028267189289265641 -0.035639320714756846 0 -0.027699638214731773 -0.034584965179718964 0 -0.028621270423187298 -0.034774377332394552 0 -0.028267189289265641 -0.035639320714756846 0 -0.027699638214731773 -0.034584965179718964 0 -0.028621270423187298 -0.034774377332394552 0 -0.02835243641079321 -0.033749370750481338 0 -0.027699638214731773 -0.034584965179718964 0 -0.02835243641079321 -0.033749370750481338 0 -0.026962574472104952 -0.032799819218683385 0 -0.028621270423187298 -0.034774377332394552 0 -0.029338020882635821 -0.034505759935405958 0 -0.02835243641079321 -0.033749370750481338 0 -0.027928218195143389 -0.033017795899723042 0 -0.027721203973964614 -0.032892486608499874 0 -0.028267189289265641 -0.035639320714756846 0 -0.028946295846067387 -0.035950684824568646 0 -0.029055491290260211 -0.035357313250000522 0 -0.028621270423187298 -0.034774377332394552 0 -0.028267189289265641 -0.035639320714756846 0 -0.029055491290260211 -0.035357313250000522 0 -0.028267189289265641 -0.035639320714756846 0 -0.028399918835798607 -0.036573244215561837 0 -0.028946295846067387 -0.035950684824568646 0 -0.028267189289265641 -0.035639320714756846 0 -0.028399918835798607 -0.036573244215561837 0 -0.02774158581897446 -0.036324612218268978 0 -0.027109751213471506 -0.035632253132692374 0 -0.028267189289265641 -0.035639320714756846 0 -0.02774158581897446 -0.036324612218268978 0 -0.028399918835798607 -0.036573244215561837 0 -0.02774158581897446 -0.036324612218268978 0 -0.027807277221079917 -0.037117199789207779 0 -0.028399918835798607 -0.036573244215561837 0 -0.027807277221079917 -0.037117199789207779 0 -0.029236676594603807 -0.037179190045866645 0 -0.024175188707186789 -0.03751403582781946 0 -0.024588322190376308 -0.037850882260280147 0 -0.023610747341619828 -0.03773590364805459 0 -0.026469800738196134 -0.037448823043951043 0 -0.025132640392296565 -0.037623337125898201 0 -0.028399918835798607 -0.036573244215561837 0 -0.029567211204988696 -0.036667111542093928 0 -0.029236676594603807 -0.037179190045866645 0 -0.028761371349454234 -0.036573260593578946 0 -0.028759917889253184 -0.036456166523585153 0 -0.028759917889253184 -0.036456166523585153 0 -0.025132640392296565 -0.037623337125898201 0 -0.025132640392296565 -0.037623337125898201 0 -0.019937713933840241 -0.036609268726706348 0 -0.025255575301242787 -0.036766798695147374 0 -0.02236728866242579 -0.036548825171492522 0 -0.022940245827477852 -0.03531033544466626 0 -0.025255575301242787 -0.036766798695147374 0 -0.025938602509086504 -0.035732252995628655 0 -0.022940245827477852 -0.03531033544466626 0 -0.028759917889253184 -0.036456166523585153 0 -0.022872228147448929 -0.033994038960990763 0 -0.021038415160332603 -0.038677425335571267 0 -0.021855183263167818 -0.039383505932273133 0 -0.019933784985071028 -0.039098366095734416 0 -0.02968052490067984 -0.0355306893050258 0 -0.029805113335464605 -0.035469621093192565 0 -0.029876881817743953 -0.035539378467452726 0 -0.02968052490067984 -0.0355306893050258 0 -0.029805113335464605 -0.035469621093192565 0 -0.029798355969031291 -0.035427025743115528 0 -0.028759917889253184 -0.036456166523585153 0 -0.030008605489547584 -0.035249749094343905 0 -0.029805113335464605 -0.035469621093192565 0 -0.029798355969031291 -0.035427025743115528 0 -0.029890653574675789 -0.035375905890852072 0 -0.029482032535456136 -0.036384747056424839 0 -0.02939119265260387 -0.035609412282236554 0 -0.029798355969031291 -0.035427025743115528 0 -0.028399918835798607 -0.036573244215561837 0 -0.029482032535456136 -0.036384747056424839 0 -0.028946295846067387 -0.035950684824568646 0 -0.029482032535456136 -0.036384747056424839 0 -0.02939119265260387 -0.035609412282236554 0 -0.028946295846067387 -0.035950684824568646 0 -0.02939119265260387 -0.035609412282236554 0 -0.028946295846067387 -0.035950684824568646 0 -0.029055491290260211 -0.035357313250000522 0 -0.029055491290260211 -0.035357313250000522 0 -0.0295533975877494 -0.035150457665931861 0 -0.029338020882635821 -0.034505759935405958 0 -0.02939119265260387 -0.035609412282236554 0 -0.029055491290260211 -0.035357313250000522 0 -0.0295533975877494 -0.035150457665931861 0 -0.028621270423187298 -0.034774377332394552 0 -0.029055491290260211 -0.035357313250000522 0 -0.029338020882635821 -0.034505759935405958 0 -0.027128072045752225 -0.031745608929656562 0 -0.0270876154639039 -0.031552312015476015 0 -0.027111470827474882 -0.031681324422417285 0 -0.0295533975877494 -0.035150457665931861 0 -0.029338020882635821 -0.034505759935405958 0 -0.029901295127093441 -0.0350702264046397 0 -0.027928218195143389 -0.033017795899723042 0 -0.029791985013174538 -0.033715449628690858 0 -0.0295533975877494 -0.035150457665931861 0 -0.029901295127093441 -0.0350702264046397 0 -0.029798355969031291 -0.035427025743115528 0 -0.029901295127093441 -0.0350702264046397 0 -0.029798355969031291 -0.035427025743115528 0 -0.029890653574675789 -0.035375905890852072 0 -0.02939119265260387 -0.035609412282236554 0 -0.0295533975877494 -0.035150457665931861 0 -0.029798355969031291 -0.035427025743115528 0 -0.0270876154639039 -0.031552312015476015 0 -0.02668869821718356 -0.031354498155139007 0 -0.026676744378467839 -0.031383001688390845 0 -0.029791985013174538 -0.033715449628690858 0 -0.02193570583305917 -0.031682789047872723 0 -0.029901295127093441 -0.0350702264046397 0 -0.030022638814281064 -0.035248560118726652 0 -0.029890653574675789 -0.035375905890852072 0 -0.0270876154639039 -0.031552312015476015 0 -0.026970244459688045 -0.031666727397212567 0 -0.026676744378467839 -0.031383001688390845 0 -0.0270876154639039 -0.031552312015476015 0 -0.026970244459688045 -0.031666727397212567 0 -0.027111470827474882 -0.031681324422417285 0 -0.024566841761316589 -0.026627805809632667 0 -0.019751290712307433 -0.028763642695377342 0 -0.021898894442311322 -0.022469594878624627 0 -0.019655980988395442 -0.021210253334232928 0 -0.020314610865268281 -0.024894211634135101 0 -0.010890200509678108 -0.028669361728299227 0 -0.010305885656730383 -0.029030768620452094 0 -0.011176768644245768 -0.027332966059327408 0 -0.018496128919100709 -0.022152559311351235 0 -0.019655980988395442 -0.021210253334232928 0 -0.018612689098725103 -0.018549867240253481 0 -0.021898894442311322 -0.022469594878624627 0 -0.019655980988395442 -0.021210253334232928 0 -0.018612689098725103 -0.018549867240253481 0 -0.018496128919100709 -0.022152559311351235 0 -0.018612689098725103 -0.018549867240253481 0 -0.016788877996852213 -0.022934854741426852 0 -0.019751290712307433 -0.028763642695377342 0 -0.013432660438226744 -0.024315549560184838 0 -0.018496128919100709 -0.022152559311351235 0 -0.019655980988395442 -0.021210253334232928 0 -0.019264505119783087 -0.023444107066879522 0 -0.010890200509678108 -0.028669361728299227 0 -0.010433455539548149 -0.029209468179560737 0 -0.010305885656730383 -0.029030768620452094 0 -0.010890200509678108 -0.028669361728299227 0 -0.010433455539548149 -0.029209468179560737 0 -0.011217238238482486 -0.028988779768315195 0 -0.018997216867834888 -0.032111038998515314 0 -0.018987363883820899 -0.032105058859935073 0 -0.018993228699635094 -0.032091682316797814 0 -0.016620768170196001 -0.029791754013615248 0 -0.02193570583305917 -0.031682789047872723 0 -0.016620768170196001 -0.029791754013615248 0 -0.019751290712307433 -0.028763642695377342 0 -0.02193570583305917 -0.031682789047872723 0 -0.019751290712307433 -0.028763642695377342 0 -0.016620768170196001 -0.029791754013615248 0 -0.013649776850049861 -0.030964433863242057 0 -0.017612365657571492 -0.033417816821072269 0 -0.019318550722862392 -0.030531707452027889 0 -0.017351883731392796 -0.030384861259479885 0 -0.017612365657571492 -0.033417816821072269 0 -0.0178983570876672 -0.033520606692290941 0 -0.019318550722862392 -0.030531707452027889 0 -0.017612365657571492 -0.033417816821072269 0 -0.017351883731392796 -0.030384861259479885 0 -0.016498421152819898 -0.031837662263849757 0 -0.02193570583305917 -0.031682789047872723 0 -0.022872228147448929 -0.033994038960990763 0 -0.030022638814281064 -0.035248560118726652 0 -0.029890653574675789 -0.035375905890852072 0 -0.029876881817743953 -0.035539378467452726 0 -0.029805113335464605 -0.035469621093192565 0 -0.029890653574675789 -0.035375905890852072 0 -0.029876881817743953 -0.035539378467452726 0 -0.014947075466691074 -0.032696979401888746 0 -0.017391582948089533 -0.034632554893566432 0 -0.01812141958639497 -0.033102437597434739 0 -0.022872228147448929 -0.033994038960990763 0 -0.019937713933840241 -0.036609268726706348 0 -0.014947075466691074 -0.032696979401888746 0 -0.017391582948089533 -0.034632554893566432 0 -0.015107466169013987 -0.03444124568257375 0 -0.022872228147448929 -0.033994038960990763 0 -0.015634917611095169 -0.032360918955295373 0 -0.014947075466691074 -0.032696979401888746 0 -0.015107466169013987 -0.03444124568257375 0 -0.014096854875331624 -0.033621398399413027 0 -0.02591660816381039 -0.024974514649785489 0 -0.025765885197036008 -0.026163586731563122 0 -0.024712188798687678 -0.025288857050401854 0 -0.02591660816381039 -0.024974514649785489 0 -0.025765885197036008 -0.026163586731563122 0 -0.026792924335579973 -0.025546702004303118 0 -0.026893016838742165 -0.025569402660120994 0 -0.026725157981566248 -0.024198922067041433 0 -0.028544732687711898 -0.025139187953564332 0 -0.026893016838742165 -0.025569402660120994 0 -0.028544732687711898 -0.025139187953564332 0 -0.027900240460718078 -0.02621880834185086 0 -0.02671139229833876 -0.025225493410731405 0 -0.024786272835922094 -0.026916111515103178 0 -0.02591660816381039 -0.024974514649785489 0 -0.026792924335579973 -0.025546702004303118 0 -0.026587839950014489 -0.024177149274523364 0 -0.024786272835922094 -0.026916111515103178 0 -0.027101322887721511 -0.028743080276054326 0 -0.022384225260137326 -0.031301925707028944 0 -0.024059404985277626 -0.029841124122626989 0 -0.02579726412569518 -0.03237528331672352 0 -0.024786272835922094 -0.026916111515103178 0 -0.021180290944968296 -0.027328332033299874 0 -0.020536287759919118 -0.025399283120559925 0 -0.019782127120048537 -0.025973739299970447 0 -0.022255211178974065 -0.02647228497532423 0 -0.022315006357475357 -0.026507740815053898 0 -0.022254826551500288 -0.026600789326290616 0 -0.024786272835922094 -0.026916111515103178 0 -0.020536287759919118 -0.025399283120559925 0 -0.02591660816381039 -0.024974514649785489 0 -0.025719371869091089 -0.023718976449122839 0 -0.024712188798687678 -0.025288857050401854 0 -0.015339328602491894 -0.025557899057301034 0 -0.015024790948009792 -0.025667121421958809 0 -0.015130976921641844 -0.025936174097122362 0 -0.02591660816381039 -0.024974514649785489 0 -0.026587839950014489 -0.024177149274523364 0 -0.025719371869091089 -0.023718976449122839 0 -0.015339328602491894 -0.025557899057301034 0 -0.015198924398794 -0.025465539834747333 0 -0.015145801361001779 -0.025550497917594672 0 -0.015339328602491894 -0.025557899057301034 0 -0.015145801361001779 -0.025550497917594672 0 -0.015024790948009792 -0.025667121421958809 0 -0.020536287759919118 -0.025399283120559925 0 -0.014240859789275303 -0.025191682785759267 0 -0.018353438643446289 -0.027170424998285977 0 -0.017833887082775893 -0.025924648863146046 0 -0.01531590203089539 -0.025249171428526111 0 -0.017833887082775893 -0.025924648863146046 0 -0.018256565816811902 -0.025297804686899121 0 -0.017337508392095281 -0.025152308110532796 0 -0.020536287759919118 -0.025399283120559925 0 -0.021180290944968296 -0.027328332033299874 0 -0.018353438643446289 -0.027170424998285977 0 -0.017833887082775893 -0.025924648863146046 0 -0.019395268921804033 -0.025390769895270698 0 -0.017833887082775893 -0.025924648863146046 0 -0.018256565816811902 -0.025297804686899121 0 -0.019395268921804033 -0.025390769895270698 0 -0.018256565816811902 -0.025297804686899121 0 -0.018344994856613745 -0.024487705444259957 0 -0.019395268921804033 -0.025390769895270698 0 -0.018344994856613745 -0.024487705444259957 0 -0.019264505119783087 -0.023444107066879522 0 -0.019395268921804033 -0.025390769895270698 0 -0.018344994856613745 -0.024487705444259957 0 -0.017337508392095281 -0.025152308110532796 0 -0.017382514159885371 -0.024166119870186617 0 -0.017337508392095281 -0.025152308110532796 0 -0.017382514159885371 -0.024166119870186617 0 -0.016697736351854817 -0.024362897659486824 0 -0.018256565816811902 -0.025297804686899121 0 -0.018344994856613745 -0.024487705444259957 0 -0.017337508392095281 -0.025152308110532796 0 -0.017382514159885371 -0.024166119870186617 0 -0.016788877996852213 -0.022934854741426852 0 -0.016697736351854817 -0.024362897659486824 0 -0.018021330933089219 -0.023476292640622988 0 -0.017382514159885371 -0.024166119870186617 0 -0.016788877996852213 -0.022934854741426852 0 -0.018344994856613745 -0.024487705444259957 0 -0.018021330933089219 -0.023476292640622988 0 -0.017382514159885371 -0.024166119870186617 0 -0.018344994856613745 -0.024487705444259957 0 -0.018021330933089219 -0.023476292640622988 0 -0.019264505119783087 -0.023444107066879522 0 -0.019625351300787828 -0.021571815409277748 0 -0.01985294241868997 -0.024003349462943142 0 -0.018496128919100709 -0.022152559311351235 0 -0.018021330933089219 -0.023476292640622988 0 -0.019264505119783087 -0.023444107066879522 0 -0.018496128919100709 -0.022152559311351235 0 -0.018021330933089219 -0.023476292640622988 0 -0.016788877996852213 -0.022934854741426852 0 -0.021898894442311322 -0.022469594878624627 0 -0.020314610865268281 -0.024894211634135101 0 -0.022034731636494324 -0.027072566922871435 0 -0.021898894442311322 -0.022469594878624627 0 -0.022034731636494324 -0.027072566922871435 0 -0.025163271990025785 -0.027329671747609707 0 -0.024566841761316589 -0.026627805809632667 0 -0.026118812144139865 -0.029530619257755835 0 -0.01985294241868997 -0.024003349462943142 0 -0.021180290944968296 -0.027328332033299874 0 -0.023124332254691009 -0.028394014673407051 0 -0.022034731636494324 -0.027072566922871435 0 -0.025163271990025785 -0.027329671747609707 0 -0.023124332254691009 -0.028394014673407051 0 -0.024059404985277626 -0.029841124122626989 0 -0.025163271990025785 -0.027329671747609707 0 -0.022384225260137326 -0.031301925707028944 0 -0.021573585906634624 -0.028492761839543159 0 -0.024059404985277626 -0.029841124122626989 0 -0.023124332254691009 -0.028394014673407051 0 -0.022034731636494324 -0.027072566922871435 0 -0.021573585906634624 -0.028492761839543159 0 -0.020314610865268281 -0.024894211634135101 0 -0.022034731636494324 -0.027072566922871435 0 -0.020922582843604102 -0.028855458352122876 0 -0.021500894088613321 -0.027376653635620661 0 -0.021180290944968296 -0.027328332033299874 0 -0.023124332254691009 -0.028394014673407051 0 -0.021573585906634624 -0.028492761839543159 0 -0.024059404985277626 -0.029841124122626989 0 -0.026118812144139865 -0.029530619257755835 0 -0.026855199318226046 -0.030883258418363708 0 -0.024059404985277626 -0.029841124122626989 0 -0.025163271990025785 -0.027329671747609707 0 -0.026884671483476872 -0.031078184149388038 0 -0.02719506064640622 -0.031618098524293779 0 -0.027083864585024015 -0.031677129108147614 0 -0.026884671483476872 -0.031078184149388038 0 -0.02719506064640622 -0.031618098524293779 0 -0.027111470827474882 -0.031681324422417285 0 -0.027083864585024015 -0.031677129108147614 0 -0.026970244459688045 -0.031666727397212567 0 -0.02719506064640622 -0.031618098524293779 0 -0.027111470827474882 -0.031681324422417285 0 -0.027128072045752225 -0.031745608929656562 0 -0.027083864585024015 -0.031677129108147614 0 -0.027077519534478487 -0.031712497725513086 0 -0.027128072045752225 -0.031745608929656562 0 -0.027111470827474882 -0.031681324422417285 0 -0.027083864585024015 -0.031677129108147614 0 -0.027083864585024015 -0.031677129108147614 0 -0.027077519534478487 -0.031712497725513086 0 -0.026884671483476872 -0.031078184149388038 0 -0.027077519534478487 -0.031712497725513086 0 -0.026884671483476872 -0.031078184149388038 0 -0.027114063849519972 -0.031441333623824133 0 -0.026977090517014121 -0.031612275891641381 0 -0.026884671483476872 -0.031078184149388038 0 -0.02579726412569518 -0.03237528331672352 0 -0.026977090517014121 -0.031612275891641381 0 -0.026884671483476872 -0.031078184149388038 0 -0.027114063849519972 -0.031441333623824133 0 -0.024059404985277626 -0.029841124122626989 0 -0.026884671483476872 -0.031078184149388038 0 -0.02579726412569518 -0.03237528331672352 0 -0.027101322887721511 -0.028743080276054326 0 -0.028540323353019405 -0.02919412395633042 0 -0.026977090517014121 -0.031612275891641381 0 -0.02579726412569518 -0.03237528331672352 0 -0.027006276683709318 -0.031813822798372554 0 -0.028544732687711898 -0.025139187953564332 0 -0.030400931415473866 -0.02611143717933908 0 -0.02910152863887959 -0.027324435586162932 0 -0.026977090517014121 -0.031612275891641381 0 -0.027006276683709318 -0.031813822798372554 0 -0.027227723139967856 -0.031483123678033083 0 -0.027006276683709318 -0.031813822798372554 0 -0.027227723139967856 -0.031483123678033083 0 -0.027354999974818998 -0.031104319952654204 0 -0.027373395758926389 -0.030958920596186396 0 -0.027905376092426371 -0.030082468899036797 0 -0.027354999974818998 -0.031104319952654204 0 -0.027145502244727702 -0.031516075844743863 0 -0.026674751763349602 -0.031448794870107717 0 -0.027227723139967856 -0.031483123678033083 0 -0.027354999974818998 -0.031104319952654204 0 -0.027145502244727702 -0.031516075844743863 0 -0.027145502244727702 -0.031516075844743863 0 -0.027168001588003445 -0.031654564562881092 0 -0.026986107106069135 -0.03187278644235416 0 -0.027145502244727702 -0.031516075844743863 0 -0.026986107106069135 -0.03187278644235416 0 -0.026674751763349602 -0.031448794870107717 0 -0.027227723139967856 -0.031483123678033083 0 -0.027145502244727702 -0.031516075844743863 0 -0.027168001588003445 -0.031654564562881092 0 -0.026977090517014121 -0.031612275891641381 0 -0.027227723139967856 -0.031483123678033083 0 -0.027114063849519972 -0.031441333623824133 0 -0.027227723139967856 -0.031483123678033083 0 -0.027168001588003445 -0.031654564562881092 0 -0.027114063849519972 -0.031441333623824133 0 -0.027077519534478487 -0.031712497725513086 0 -0.027168001588003445 -0.031654564562881092 0 -0.027114063849519972 -0.031441333623824133 0 -0.027077519534478487 -0.031712497725513086 0 -0.027168001588003445 -0.031654564562881092 0 -0.027134266873591436 -0.032044253283445671 0 -0.027128072045752225 -0.031745608929656562 0 -0.027077519534478487 -0.031712497725513086 0 -0.027113384913438118 -0.031969801279698201 0 -0.027077519534478487 -0.031712497725513086 0 -0.027113384913438118 -0.031969801279698201 0 -0.027134266873591436 -0.032044253283445671 0 -0.027113384913438118 -0.031969801279698201 0 -0.027134266873591436 -0.032044253283445671 0 -0.026962574472104952 -0.032799819218683385 0 -0.027721203973964614 -0.032892486608499874 0 -0.026937075328276338 -0.032736215636371573 0 -0.027168001588003445 -0.031654564562881092 0 -0.026986107106069135 -0.03187278644235416 0 -0.027134266873591436 -0.032044253283445671 0 -0.026986107106069135 -0.03187278644235416 0 -0.027134266873591436 -0.032044253283445671 0 -0.026962574472104952 -0.032799819218683385 0 -0.026986107106069135 -0.03187278644235416 0 -0.026540308658048333 -0.03216631860352135 0 -0.026962574472104952 -0.032799819218683385 0 -0.026540308658048333 -0.03216631860352135 0 -0.026962574472104952 -0.032799819218683385 0 -0.026264475090946638 -0.032678061222596221 0 -0.026676823689688579 -0.034449160321390192 0 -0.026962574472104952 -0.032799819218683385 0 -0.025808197961254074 -0.033597510829793176 0 -0.025808197961254074 -0.033597510829793176 0 -0.025729436292555141 -0.032126556356153926 0 -0.026264475090946638 -0.032678061222596221 0 -0.026962574472104952 -0.032799819218683385 0 -0.025808197961254074 -0.033597510829793176 0 -0.026264475090946638 -0.032678061222596221 0 -0.026540308658048333 -0.03216631860352135 0 -0.025729436292555141 -0.032126556356153926 0 -0.026264475090946638 -0.032678061222596221 0 -0.027852878978054409 -0.030162010246203047 0 -0.027905376092426371 -0.030082468899036797 0 -0.030098205105041076 -0.028092744634849356 0 -0.030192548059882342 -0.027913353897520251 0 -0.02909283823082446 -0.028590694367845049 0 -0.026540308658048333 -0.03216631860352135 0 -0.025729436292555141 -0.032126556356153926 0 -0.026674751763349602 -0.031448794870107717 0 -0.026986107106069135 -0.03187278644235416 0 -0.026540308658048333 -0.03216631860352135 0 -0.026674751763349602 -0.031448794870107717 0 -0.027354999974818998 -0.031104319952654204 0 -0.02909283823082446 -0.028590694367845049 0 -0.028970770010432436 -0.030198092027649604 0 -0.030262815229435247 -0.027960877459606851 0 -0.030769759384594374 -0.028398234098871752 0 -0.032848268426008055 -0.026175573889872909 0 -0.030951398305861431 -0.025834811265142008 0 -0.03198094625671332 -0.025192920215541644 0 -0.030192548059882342 -0.027913353897520251 0 -0.02909283823082446 -0.028590694367845049 0 -0.028970770010432436 -0.030198092027649604 0 -0.030192548059882342 -0.027913353897520251 0 -0.032848268426008055 -0.026175573889872909 0 -0.030951398305861431 -0.025834811265142008 0 -0.030402050931597101 -0.023908163045633764 0 -0.03198094625671332 -0.025192920215541644 0 -0.032359160729686538 -0.02411508543120177 0 -0.030951398305861431 -0.025834811265142008 0 -0.030402050931597101 -0.023908163045633764 0 -0.03198094625671332 -0.025192920215541644 0 -0.03050948897580328 -0.023863604129417001 0 -0.03224010199721046 -0.023799966104690408 0 -0.032848268426008055 -0.026175573889872909 0 -0.03198094625671332 -0.025192920215541644 0 -0.033313907835182781 -0.024903726907746861 0 -0.033313907835182781 -0.024903726907746861 0 -0.032359160729686538 -0.02411508543120177 0 -0.03425553791877415 -0.02426042839556012 0 -0.03224010199721046 -0.023799966104690408 0 -0.033346623163743858 -0.024339677429126478 0 -0.03198094625671332 -0.025192920215541644 0 -0.033313907835182781 -0.024903726907746861 0 -0.032359160729686538 -0.02411508543120177 0 -0.03206985708961458 -0.023515018256469008 0 -0.032573183052004774 -0.022091406905981728 0 -0.033043588446428539 -0.022615662740536304 0 -0.03206985708961458 -0.023515018256469008 0 -0.032573183052004774 -0.022091406905981728 0 -0.031375470101093428 -0.022409206618830071 0 -0.03206985708961458 -0.023515018256469008 0 -0.033043588446428539 -0.022615662740536304 0 -0.033360521965470701 -0.023162551331200792 0 -0.030402050931597101 -0.023908163045633764 0 -0.03206985708961458 -0.023515018256469008 0 -0.031375470101093428 -0.022409206618830071 0 -0.030402050931597101 -0.023908163045633764 0 -0.031375470101093428 -0.022409206618830071 0 -0.030184105456306901 -0.022686331457523599 0 -0.031375470101093428 -0.022409206618830071 0 -0.030807655728621493 -0.021037506067482607 0 -0.030184105456306901 -0.022686331457523599 0 -0.031375470101093428 -0.022409206618830071 0 -0.030807655728621493 -0.021037506067482607 0 -0.032176009868254224 -0.021207216424130579 0 -0.032134383184532093 -0.020065396404494385 0 -0.033295636630429504 -0.019162633522726982 0 -0.033381238299634762 -0.01913952354176671 0 -0.034075122962014759 -0.018572344492313746 0 -0.033604281485659936 -0.018377210365555185 0 -0.033381238299634762 -0.01913952354176671 0 -0.032842280698651985 -0.01859610498152748 0 -0.033604281485659936 -0.018377210365555185 0 -0.032502004079230852 -0.019743914621958639 0 -0.032176009868254224 -0.021207216424130579 0 -0.033536645651108428 -0.020790161712418077 0 -0.030807655728621493 -0.021037506067482607 0 -0.032502004079230852 -0.019743914621958639 0 -0.032176009868254224 -0.021207216424130579 0 -0.032573183052004774 -0.022091406905981728 0 -0.032176009868254224 -0.021207216424130579 0 -0.033536645651108428 -0.020790161712418077 0 -0.032573183052004774 -0.022091406905981728 0 -0.031375470101093428 -0.022409206618830071 0 -0.032176009868254224 -0.021207216424130579 0 -0.033536645651108428 -0.020790161712418077 0 -0.034132766392327894 -0.021691358038161867 0 -0.033449145920242826 -0.022062178331115543 0 -0.032573183052004774 -0.022091406905981728 0 -0.033536645651108428 -0.020790161712418077 0 -0.033449145920242826 -0.022062178331115543 0 -0.032502004079230852 -0.019743914621958639 0 -0.033536645651108428 -0.020790161712418077 0 -0.034364759644997744 -0.018411142763602825 0 -0.033536645651108428 -0.020790161712418077 0 -0.035075119164878293 -0.019572968132290931 0 -0.034364759644997744 -0.018411142763602825 0 -0.033536645651108428 -0.020790161712418077 0 -0.035075119164878293 -0.019572968132290931 0 -0.035114236101203171 -0.020902310165621132 0 -0.033536645651108428 -0.020790161712418077 0 -0.035114236101203171 -0.020902310165621132 0 -0.034132766392327894 -0.021691358038161867 0 -0.035114236101203171 -0.020902310165621132 0 -0.034132766392327894 -0.021691358038161867 0 -0.034657549912777662 -0.022103547400175942 0 -0.035114236101203171 -0.020902310165621132 0 -0.034657549912777662 -0.022103547400175942 0 -0.035305122180928253 -0.022073947046954479 0 -0.034070761663600013 -0.023592382885676458 0 -0.036180555063800544 -0.021247591749704229 0 -0.034657549912777662 -0.022103547400175942 0 -0.03448324404318711 -0.023021363461437013 0 -0.035305122180928253 -0.022073947046954479 0 -0.034657549912777662 -0.022103547400175942 0 -0.033869538547683535 -0.022496620935468031 0 -0.03448324404318711 -0.023021363461437013 0 -0.034132766392327894 -0.021691358038161867 0 -0.034657549912777662 -0.022103547400175942 0 -0.033869538547683535 -0.022496620935468031 0 -0.033449145920242826 -0.022062178331115543 0 -0.033427913413294943 -0.022729888898358488 0 -0.033869538547683535 -0.022496620935468031 0 -0.034132766392327894 -0.021691358038161867 0 -0.033449145920242826 -0.022062178331115543 0 -0.033869538547683535 -0.022496620935468031 0 -0.032573183052004774 -0.022091406905981728 0 -0.033449145920242826 -0.022062178331115543 0 -0.033043588446428539 -0.022615662740536304 0 -0.033449145920242826 -0.022062178331115543 0 -0.033043588446428539 -0.022615662740536304 0 -0.033427913413294943 -0.022729888898358488 0 -0.033043588446428539 -0.022615662740536304 0 -0.033427913413294943 -0.022729888898358488 0 -0.033360521965470701 -0.023162551331200792 0 -0.033427913413294943 -0.022729888898358488 0 -0.033360521965470701 -0.023162551331200792 0 -0.033524703672578003 -0.023199525147647265 0 -0.033869538547683535 -0.022496620935468031 0 -0.033524703672578003 -0.023199525147647265 0 -0.03448324404318711 -0.023021363461437013 0 -0.033427913413294943 -0.022729888898358488 0 -0.033869538547683535 -0.022496620935468031 0 -0.033524703672578003 -0.023199525147647265 0 -0.030769759384594374 -0.028398234098871752 0 -0.031062147643738044 -0.026821094464916449 0 -0.027354999974818998 -0.031104319952654204 0 -0.028970770010432436 -0.030198092027649604 0 -0.027152750867990995 -0.031812363197811722 0 -0.033346623163743858 -0.024339677429126478 0 -0.034070761663600013 -0.023592382885676458 0 -0.031062147643738044 -0.026821094464916449 0 -0.033346623163743858 -0.024339677429126478 0 -0.033313907835182781 -0.024903726907746861 0 -0.035046365839987853 -0.024691993883419042 0 -0.03425553791877415 -0.02426042839556012 0 -0.032848268426008055 -0.026175573889872909 0 -0.033313907835182781 -0.024903726907746861 0 -0.035046365839987853 -0.024691993883419042 0 -0.032826720343369996 -0.024498622775073278 0 -0.032788747980477082 -0.024481363483836463 0 -0.032858204900328612 -0.024474557897140859 0 -0.03206985708961458 -0.023515018256469008 0 -0.033360521965470701 -0.023162551331200792 0 -0.033538809920480347 -0.023215863717220193 0 -0.033277560417454249 -0.024221812482578878 0 -0.033346623163743858 -0.024339677429126478 0 -0.030400931415473866 -0.02611143717933908 0 -0.032229732889641156 -0.027075073810822012 0 -0.031673500830486978 -0.02742673013702851 0 -0.028540323353019405 -0.02919412395633042 0 -0.031062147643738044 -0.026821094464916449 0 -0.027006276683709318 -0.031813822798372554 0 -0.027354999974818998 -0.031104319952654204 0 -0.027152750867990995 -0.031812363197811722 0 -0.031062147643738044 -0.026821094464916449 0 -0.034070761663600013 -0.023592382885676458 0 -0.030400931415473866 -0.02611143717933908 0 -0.031673500830486978 -0.02742673013702851 0 -0.02910152863887959 -0.027324435586162932 0 -0.034070761663600013 -0.023592382885676458 0 -0.032290210844913673 -0.023808527595151372 0 -0.035796321372379099 -0.020243506303908584 0 -0.035031230231683828 -0.020716169392368481 0 -0.033894084588229755 -0.019907730303386578 0 -0.028544732687711898 -0.025139187953564332 0 -0.027900240460718078 -0.02621880834185086 0 -0.02910152863887959 -0.027324435586162932 0 -0.027900240460718078 -0.02621880834185086 0 -0.02910152863887959 -0.027324435586162932 0 -0.027026483969090728 -0.026964839234513663 0 -0.035710284103100912 -0.020903702480431888 0 -0.036346630215640517 -0.020885521258936224 0 -0.035527890035728982 -0.021612374861053482 0 -0.035796321372379099 -0.020243506303908584 0 -0.035710284103100912 -0.020903702480431888 0 -0.035031230231683828 -0.020716169392368481 0 -0.035710284103100912 -0.020903702480431888 0 -0.035031230231683828 -0.020716169392368481 0 -0.035309754243496222 -0.021143095231665198 0 -0.035031230231683828 -0.020716169392368481 0 -0.035309754243496222 -0.021143095231665198 0 -0.034873840173451451 -0.021146539268981579 0 -0.035309754243496222 -0.021143095231665198 0 -0.035527890035728982 -0.021612374861053482 0 -0.035194687730744412 -0.021392124562842285 0 -0.035194687730744412 -0.021392124562842285 0 -0.034882036375567187 -0.021387478733567413 0 -0.034873840173451451 -0.021146539268981579 0 -0.035309754243496222 -0.021143095231665198 0 -0.035194687730744412 -0.021392124562842285 0 -0.034873840173451451 -0.021146539268981579 0 -0.035710284103100912 -0.020903702480431888 0 -0.035309754243496222 -0.021143095231665198 0 -0.035527890035728982 -0.021612374861053482 0 -0.036180555063800544 -0.021247591749704229 0 -0.035395009093604247 -0.021712670642434647 0 -0.03709502358382296 -0.020436371981066521 0 -0.035796321372379099 -0.020243506303908584 0 -0.036346630215640517 -0.020885521258936224 0 -0.035796321372379099 -0.020243506303908584 0 -0.035710284103100912 -0.020903702480431888 0 -0.036346630215640517 -0.020885521258936224 0 -0.035114236101203171 -0.020902310165621132 0 -0.03645225303676395 -0.020383785088831582 0 -0.036825675169254515 -0.020800214447092801 0 -0.035114236101203171 -0.020902310165621132 0 -0.035305122180928253 -0.022073947046954479 0 -0.035527890035728982 -0.021612374861053482 0 -0.034606100061689252 -0.020844822775031788 0 -0.037312991030388938 -0.021379221133000732 0 -0.035075119164878293 -0.019572968132290931 0 -0.035114236101203171 -0.020902310165621132 0 -0.036159849705413603 -0.019887700806986746 0 -0.035114236101203171 -0.020902310165621132 0 -0.036159849705413603 -0.019887700806986746 0 -0.03645225303676395 -0.020383785088831582 0 -0.035075119164878293 -0.019572968132290931 0 -0.036159849705413603 -0.019887700806986746 0 -0.035852030880274534 -0.019107002609556969 0 -0.036747901540404616 -0.019953984716803534 0 -0.037009462370182884 -0.019942454440185026 0 -0.036885969217086971 -0.019649560809092904 0 -0.036747901540404616 -0.019953984716803534 0 -0.037009462370182884 -0.019942454440185026 0 -0.036976610529795811 -0.020083005908348769 0 -0.037009462370182884 -0.019942454440185026 0 -0.036885969217086971 -0.019649560809092904 0 -0.037256422727063351 -0.019935946487161182 0 -0.036747901540404616 -0.019953984716803534 0 -0.036885969217086971 -0.019649560809092904 0 -0.036504159838500021 -0.01949501694550896 0 -0.036159849705413603 -0.019887700806986746 0 -0.036504159838500021 -0.01949501694550896 0 -0.0362935430668909 -0.01930736964943899 0 -0.036159849705413603 -0.019887700806986746 0 -0.036747901540404616 -0.019953984716803534 0 -0.036504159838500021 -0.01949501694550896 0 -0.036159849705413603 -0.019887700806986746 0 -0.036747901540404616 -0.019953984716803534 0 -0.03645225303676395 -0.020383785088831582 0 -0.036747901540404616 -0.019953984716803534 0 -0.03645225303676395 -0.020383785088831582 0 -0.0368710885956645 -0.020275969774926579 0 -0.03645225303676395 -0.020383785088831582 0 -0.0368710885956645 -0.020275969774926579 0 -0.03686769235017557 -0.020521604423110483 0 -0.036747901540404616 -0.019953984716803534 0 -0.0368710885956645 -0.020275969774926579 0 -0.036976610529795811 -0.020083005908348769 0 -0.0368710885956645 -0.020275969774926579 0 -0.036976610529795811 -0.020083005908348769 0 -0.037089618689220137 -0.020282763907159412 0 -0.037009462370182884 -0.019942454440185026 0 -0.036976610529795811 -0.020083005908348769 0 -0.037152099531341624 -0.020093740033045999 0 -0.036976610529795811 -0.020083005908348769 0 -0.037089618689220137 -0.020282763907159412 0 -0.037152099531341624 -0.020093740033045999 0 -0.0368710885956645 -0.020275969774926579 0 -0.037015025763877135 -0.020407408060997403 0 -0.03686769235017557 -0.020521604423110483 0 -0.0368710885956645 -0.020275969774926579 0 -0.037089618689220137 -0.020282763907159412 0 -0.037015025763877135 -0.020407408060997403 0 -0.037089618689220137 -0.020282763907159412 0 -0.037015025763877135 -0.020407408060997403 0 -0.037173729196464167 -0.02045562698914602 0 -0.037015025763877135 -0.020407408060997403 0 -0.037055414635332871 -0.020590367798178001 0 -0.037173729196464167 -0.02045562698914602 0 -0.037055414635332871 -0.020590367798178001 0 -0.036825675169254515 -0.020800214447092801 0 -0.037319767263768122 -0.020682497553227038 0 -0.035114236101203171 -0.020902310165621132 0 -0.03550181476197032 -0.021663726091277157 0 -0.035527890035728982 -0.021612374861053482 0 -0.037015025763877135 -0.020407408060997403 0 -0.037055414635332871 -0.020590367798178001 0 -0.03686769235017557 -0.020521604423110483 0 -0.037055414635332871 -0.020590367798178001 0 -0.03686769235017557 -0.020521604423110483 0 -0.036825675169254515 -0.020800214447092801 0 -0.03645225303676395 -0.020383785088831582 0 -0.03686769235017557 -0.020521604423110483 0 -0.036825675169254515 -0.020800214447092801 0 -0.03550181476197032 -0.021663726091277157 0 -0.035166121674843405 -0.021535764370469949 0 -0.034703220265228422 -0.021558002539030799 0 -0.03550181476197032 -0.021663726091277157 0 -0.035527890035728982 -0.021612374861053482 0 -0.035166121674843405 -0.021535764370469949 0 -0.035527890035728982 -0.021612374861053482 0 -0.035166121674843405 -0.021535764370469949 0 -0.035194687730744412 -0.021392124562842285 0 -0.035166121674843405 -0.021535764370469949 0 -0.035194687730744412 -0.021392124562842285 0 -0.034882036375567187 -0.021387478733567413 0 -0.037312991030388938 -0.021379221133000732 0 -0.030238068379883579 -0.020991664106716948 0 -0.036825675169254515 -0.020800214447092801 0 -0.037319767263768122 -0.020682497553227038 0 -0.037827495386156332 -0.020897308556015955 0 -0.03550181476197032 -0.021663726091277157 0 -0.034136583687809627 -0.021625432927983169 0 -0.033485841115536562 -0.021856212233043255 0 -0.035166121674843405 -0.021535764370469949 0 -0.034882036375567187 -0.021387478733567413 0 -0.034703220265228422 -0.021558002539030799 0 -0.03550181476197032 -0.021663726091277157 0 -0.034703220265228422 -0.021558002539030799 0 -0.034136583687809627 -0.021625432927983169 0 -0.034703220265228422 -0.021558002539030799 0 -0.034136583687809627 -0.021625432927983169 0 -0.034458923279615743 -0.021305292388797151 0 -0.034882036375567187 -0.021387478733567413 0 -0.034703220265228422 -0.021558002539030799 0 -0.034458923279615743 -0.021305292388797151 0 -0.037319767263768122 -0.020682497553227038 0 -0.037704643631885873 -0.02075111042103632 0 -0.037827495386156332 -0.020897308556015955 0 -0.037319767263768122 -0.020682497553227038 0 -0.037297608686125312 -0.020355383895958624 0 -0.037704643631885873 -0.02075111042103632 0 -0.037319767263768122 -0.020682497553227038 0 -0.037173729196464167 -0.02045562698914602 0 -0.037297608686125312 -0.020355383895958624 0 -0.037055414635332871 -0.020590367798178001 0 -0.037319767263768122 -0.020682497553227038 0 -0.037173729196464167 -0.02045562698914602 0 -0.037152099531341624 -0.020093740033045999 0 -0.037297608686125312 -0.020355383895958624 0 -0.037256422727063351 -0.019935946487161182 0 -0.037297608686125312 -0.020355383895958624 0 -0.037256422727063351 -0.019935946487161182 0 -0.037704643631885873 -0.02075111042103632 0 -0.034288759915516262 -0.017658340190530215 0 -0.03423098954501988 -0.017636071642015121 0 -0.033516570885710951 -0.017597244166618068 0 -0.036370976986001918 -0.019060915288519636 0 -0.030802026973639221 -0.019408900001350909 0 -0.037089618689220137 -0.020282763907159412 0 -0.037152099531341624 -0.020093740033045999 0 -0.037297608686125312 -0.020355383895958624 0 -0.027181891204146415 -0.018549967845861933 0 -0.030802026973639221 -0.019408900001350909 0 -0.021065874781886984 -0.020044422916809083 0 -0.021235217871686599 -0.020130675762146277 0 -0.021022087463501669 -0.019807881140523217 0 -0.037089618689220137 -0.020282763907159412 0 -0.037173729196464167 -0.02045562698914602 0 -0.037297608686125312 -0.020355383895958624 0 -0.021065874781886984 -0.020044422916809083 0 -0.020982950432283376 -0.019959054157632185 0 -0.021022087463501669 -0.019807881140523217 0 -0.021065874781886984 -0.020044422916809083 0 -0.02097038258984597 -0.020073087144618695 0 -0.020982950432283376 -0.019959054157632185 0 -0.021065874781886984 -0.020044422916809083 0 -0.021049962534344671 -0.020135793779763194 0 -0.021133507528032822 -0.020157401858196828 0 -0.021065874781886984 -0.020044422916809083 0 -0.021049962534344671 -0.020135793779763194 0 -0.02097038258984597 -0.020073087144618695 0 -0.021049962534344671 -0.020135793779763194 0 -0.020961705676805879 -0.020185313691959614 0 -0.02097038258984597 -0.020073087144618695 0 -0.021133507528032822 -0.020157401858196828 0 -0.021235217871686599 -0.020130675762146277 0 -0.021203428063233099 -0.020185704015991891 0 -0.021065874781886984 -0.020044422916809083 0 -0.021133507528032822 -0.020157401858196828 0 -0.021235217871686599 -0.020130675762146277 0 -0.037009462370182884 -0.019942454440185026 0 -0.037152099531341624 -0.020093740033045999 0 -0.037256422727063351 -0.019935946487161182 0 -0.020849667273626239 -0.019997498021471664 0 -0.020784138301610359 -0.019866885015602621 0 -0.020535667056677406 -0.02001275667309544 0 -0.020818086643268105 -0.020165763984385691 0 -0.020849667273626239 -0.019997498021471664 0 -0.020535667056677406 -0.02001275667309544 0 -0.020818086643268105 -0.020165763984385691 0 -0.02097038258984597 -0.020073087144618695 0 -0.020849667273626239 -0.019997498021471664 0 -0.020818086643268105 -0.020165763984385691 0 -0.020961705676805879 -0.020185313691959614 0 -0.02097038258984597 -0.020073087144618695 0 -0.02097038258984597 -0.020073087144618695 0 -0.020982950432283376 -0.019959054157632185 0 -0.020849667273626239 -0.019997498021471664 0 -0.020982950432283376 -0.019959054157632185 0 -0.020849667273626239 -0.019997498021471664 0 -0.020924266739512892 -0.019881595785237904 0 -0.02632605399154753 -0.023731808786588832 0 -0.026757522287376909 -0.024210489370234945 0 -0.023504629845481743 -0.023614945724183614 0 -0.020849667273626239 -0.019997498021471664 0 -0.020784138301610359 -0.019866885015602621 0 -0.020924266739512892 -0.019881595785237904 0 -0.020784138301610359 -0.019866885015602621 0 -0.020969602152887446 -0.019728269663417803 0 -0.020635273377216396 -0.019670122941633589 0 -0.030238068379883579 -0.020991664106716948 0 -0.021351465032484231 -0.021471196787752965 0 -0.020784138301610359 -0.019866885015602621 0 -0.020924266739512892 -0.019881595785237904 0 -0.020969602152887446 -0.019728269663417803 0 -0.020924266739512892 -0.019881595785237904 0 -0.021022087463501669 -0.019807881140523217 0 -0.020969602152887446 -0.019728269663417803 0 -0.020982950432283376 -0.019959054157632185 0 -0.020924266739512892 -0.019881595785237904 0 -0.021022087463501669 -0.019807881140523217 0 -0.034136583687809627 -0.021625432927983169 0 -0.033485841115536562 -0.021856212233043255 0 -0.033676907367509799 -0.021490282895236325 0 -0.030802026973639221 -0.019408900001350909 0 -0.030238068379883579 -0.020991664106716948 0 -0.033268100337651894 -0.021641783924315813 0 -0.033485841115536562 -0.021856212233043255 0 -0.033676907367509799 -0.021490282895236325 0 -0.030138183990393506 -0.021784928438957466 0 -0.030238068379883579 -0.020991664106716948 0 -0.030138183990393506 -0.021784928438957466 0 -0.028484783721701389 -0.021305652745985403 0 -0.033268100337651894 -0.021641783924315813 0 -0.032415300205774933 -0.020835453586524066 0 -0.033321959219621874 -0.021119245081332037 0 -0.02632605399154753 -0.023731808786588832 0 -0.024524168196297391 -0.021750317526411784 0 -0.023504629845481743 -0.023614945724183614 0 -0.032415300205774933 -0.020835453586524066 0 -0.033335543301084687 -0.020628786711022619 0 -0.033321959219621874 -0.021119245081332037 0 -0.033335543301084687 -0.020628786711022619 0 -0.033321959219621874 -0.021119245081332037 0 -0.033881535456449383 -0.021186188956831272 0 -0.033268100337651894 -0.021641783924315813 0 -0.033321959219621874 -0.021119245081332037 0 -0.033676907367509799 -0.021490282895236325 0 -0.033321959219621874 -0.021119245081332037 0 -0.033676907367509799 -0.021490282895236325 0 -0.033881535456449383 -0.021186188956831272 0 -0.034136583687809627 -0.021625432927983169 0 -0.033676907367509799 -0.021490282895236325 0 -0.033881535456449383 -0.021186188956831272 0 -0.035031230231683828 -0.020716169392368481 0 -0.034252400672951738 -0.020830746930176752 0 -0.033894084588229755 -0.019907730303386578 0 -0.034136583687809627 -0.021625432927983169 0 -0.033881535456449383 -0.021186188956831272 0 -0.034458923279615743 -0.021305292388797151 0 -0.033881535456449383 -0.021186188956831272 0 -0.034458923279615743 -0.021305292388797151 0 -0.034252400672951738 -0.020830746930176752 0 -0.035031230231683828 -0.020716169392368481 0 -0.034873840173451451 -0.021146539268981579 0 -0.034252400672951738 -0.020830746930176752 0 -0.034873840173451451 -0.021146539268981579 0 -0.034458923279615743 -0.021305292388797151 0 -0.034252400672951738 -0.020830746930176752 0 -0.034882036375567187 -0.021387478733567413 0 -0.034873840173451451 -0.021146539268981579 0 -0.034458923279615743 -0.021305292388797151 0 -0.033335543301084687 -0.020628786711022619 0 -0.033881535456449383 -0.021186188956831272 0 -0.034252400672951738 -0.020830746930176752 0 -0.033335543301084687 -0.020628786711022619 0 -0.034252400672951738 -0.020830746930176752 0 -0.033894084588229755 -0.019907730303386578 0 -0.02910152863887959 -0.027324435586162932 0 -0.026456411858624521 -0.027209306080144182 0 -0.027026483969090728 -0.026964839234513663 0 -0.032290210844913673 -0.023808527595151372 0 -0.03113608976244878 -0.023636832249970395 0 -0.026893016838742165 -0.025569402660120994 0 -0.027900240460718078 -0.02621880834185086 0 -0.027026483969090728 -0.026964839234513663 0 -0.02671139229833876 -0.025225493410731405 0 -0.027000173283022108 -0.026883866804514284 0 -0.025765885197036008 -0.026163586731563122 0 -0.026792924335579973 -0.025546702004303118 0 -0.027026483969090728 -0.026964839234513663 0 -0.025765885197036008 -0.026163586731563122 0 -0.026456411858624521 -0.027209306080144182 0 -0.027026483969090728 -0.026964839234513663 0 -0.03113608976244878 -0.023636832249970395 0 -0.023221318145850964 -0.022941803165748519 0 -0.025765885197036008 -0.026163586731563122 0 -0.026456411858624521 -0.027209306080144182 0 -0.023807977821216093 -0.027062896461223573 0 -0.033335543301084687 -0.020628786711022619 0 -0.033894084588229755 -0.019907730303386578 0 -0.031402824326903916 -0.019730124765120739 0 -0.035568344560467396 -0.024154978024124169 0 -0.035349571027499548 -0.025521659168441301 0 -0.03225434619364529 -0.025209386779464823 0 -0.033437178166023276 -0.025834751274479699 0 -0.032705670990347553 -0.026348101000931823 0 -0.036938843677493768 -0.023816451158709128 0 -0.037157989996244305 -0.023666032656681789 0 -0.037678462275941189 -0.024890277666431041 0 -0.036938843677493768 -0.023816451158709128 0 -0.037152515610237892 -0.023668671967282433 0 -0.036707774539326714 -0.02341860540247959 0 -0.036217907232931154 -0.023815945978808491 0 -0.035568344560467396 -0.024154978024124169 0 -0.028489623954736323 -0.027481956206145616 0 -0.032591586163409937 -0.022892564437165593 0 -0.03225434619364529 -0.025209386779464823 0 -0.033437178166023276 -0.025834751274479699 0 -0.03296382304812661 -0.024715408262220698 0 -0.033437178166023276 -0.025834751274479699 0 -0.03296382304812661 -0.024715408262220698 0 -0.033674265439574878 -0.024214576074775358 0 -0.037129355431546676 -0.02200706127815151 0 -0.038064234708339806 -0.021327223593339131 0 -0.037127174521322859 -0.020708656737849815 0 -0.035247483446699049 -0.023188592734544534 0 -0.032591586163409937 -0.022892564437165593 0 -0.037129355431546676 -0.02200706127815151 0 -0.036526343510885434 -0.02175038446577602 0 -0.037127174521322859 -0.020708656737849815 0 -0.036526343510885434 -0.02175038446577602 0 -0.035695645278325375 -0.021598641891690581 0 -0.037127174521322859 -0.020708656737849815 0 -0.035568344560467396 -0.024154978024124169 0 -0.035247483446699049 -0.023188592734544534 0 -0.036152013450600214 -0.022694688770063826 0 -0.037129355431546676 -0.02200706127815151 0 -0.036526343510885434 -0.02175038446577602 0 -0.035568344560467396 -0.024154978024124169 0 -0.036266985762821988 -0.021904954112446178 0 -0.036152013450600214 -0.022694688770063826 0 -0.036526343510885434 -0.02175038446577602 0 -0.035695645278325375 -0.021598641891690581 0 -0.036266985762821988 -0.021904954112446178 0 -0.036241888806081153 -0.021058581205685944 0 -0.036522174970039831 -0.021958177593041407 0 -0.035908948820783604 -0.022349651423135868 0 -0.036320328822738744 -0.021477306443712773 0 -0.036145947047187856 -0.022739804965800345 0 -0.036241888806081153 -0.021058581205685944 0 -0.036340436724993749 -0.022713692290695701 0 -0.035876405834933699 -0.021940423166417738 0 -0.036824001479524741 -0.021688404869995594 0 -0.036794626494126625 -0.022815200564669239 0 -0.036184583922883519 -0.02320548089935413 0 -0.036707774539326714 -0.02341860540247959 0 -0.036266985762821988 -0.021904954112446178 0 -0.036145947047187856 -0.022739804965800345 0 -0.037152515610237892 -0.023668671967282433 0 -0.036794626494126625 -0.022815200564669239 0 -0.036707774539326714 -0.02341860540247959 0 -0.035876405834933699 -0.021940423166417738 0 -0.034999996175396363 -0.023571308723056565 0 -0.03499999425843657 -0.021492161352934087 0 -0.036340436724993749 -0.022713692290695701 0 -0.035876405834933699 -0.021940423166417738 0 -0.034999996175396363 -0.023571308723056565 0 -0.036145947047187856 -0.022739804965800345 0 -0.035638013846895474 -0.024304969111647524 0 -0.036145947047187856 -0.022739804965800345 0 -0.035000491604390678 -0.023571039617949503 0 -0.036332781113583061 -0.022730113847803216 0 -0.034999995241836238 -0.023571337090088323 0 -0.035669252478597889 -0.024134369232704001 0 -0.036938843677493768 -0.023816451158709128 0 -0.036299358331881824 -0.024159038185591612 0 -0.036602481606555298 -0.024834039845294711 0 -0.036184583922883519 -0.02320548089935413 0 -0.036299358331881824 -0.024159038185591612 0 -0.035614003943214866 -0.024404148845691365 0 -0.036184583922883519 -0.02320548089935413 0 -0.036532462329742332 -0.023649773500863433 0 -0.036299358331881824 -0.024159038185591612 0 -0.036938843677493768 -0.023816451158709128 0 -0.036532462329742332 -0.023649773500863433 0 -0.036299358331881824 -0.024159038185591612 0 -0.036184583922883519 -0.02320548089935413 0 -0.036707774539326714 -0.02341860540247959 0 -0.036532462329742332 -0.023649773500863433 0 -0.036938843677493768 -0.023816451158709128 0 -0.036707774539326714 -0.02341860540247959 0 -0.036532462329742332 -0.023649773500863433 0 -0.036602481606555298 -0.024834039845294711 0 -0.035614003943214866 -0.024404148845691365 0 -0.035903710626670672 -0.025321717311830628 0 -0.036299358331881824 -0.024159038185591612 0 -0.036602481606555298 -0.024834039845294711 0 -0.035614003943214866 -0.024404148845691365 0 -0.036602481606555298 -0.024834039845294711 0 -0.035903710626670672 -0.025321717311830628 0 -0.036468696735025952 -0.02565986653763018 0 -0.034999995241836238 -0.023571337090088323 0 -0.035669252478597889 -0.024134369232704001 0 -0.034999997384613908 -0.025552754120480879 0 -0.035614003943214866 -0.024404148845691365 0 -0.03500002941489138 -0.025553102179783398 0 -0.035903710626670672 -0.025321717311830628 0 -0.035638013846895474 -0.024304969111647524 0 -0.035000156325085449 -0.025552460652571725 0 -0.035979734174298256 -0.026293818010060584 0 -0.03500002941489138 -0.025553102179783398 0 -0.035903710626670672 -0.025321717311830628 0 -0.036602481606555298 -0.024834039845294711 0 -0.036468696735025952 -0.02565986653763018 0 -0.037083391367586656 -0.025646590373148179 0 -0.035979734174298256 -0.026293818010060584 0 -0.035903710626670672 -0.025321717311830628 0 -0.036468696735025952 -0.02565986653763018 0 -0.035979734174298256 -0.026293818010060584 0 -0.036468696735025952 -0.02565986653763018 0 -0.03675713018809771 -0.026227140243714669 0 -0.036468696735025952 -0.02565986653763018 0 -0.03675713018809771 -0.026227140243714669 0 -0.037083391367586656 -0.025646590373148179 0 -0.037280386938828881 -0.026275176442696287 0 -0.037663509891161295 -0.025877727720106124 0 -0.037083391367586656 -0.025646590373148179 0 -0.037663509891161295 -0.025877727720106124 0 -0.037678462275941189 -0.024890277666431041 0 -0.038168317547502585 -0.026120332815148122 0 -0.037280386938828881 -0.026275176442696287 0 -0.03675713018809771 -0.026227140243714669 0 -0.037083391367586656 -0.025646590373148179 0 -0.037663509891161295 -0.025877727720106124 0 -0.037083391367586656 -0.025646590373148179 0 -0.037678462275941189 -0.024890277666431041 0 -0.037280386938828881 -0.026275176442696287 0 -0.037663509891161295 -0.025877727720106124 0 -0.038168317547502585 -0.026120332815148122 0 -0.036938843677493768 -0.023816451158709128 0 -0.036602481606555298 -0.024834039845294711 0 -0.037678462275941189 -0.024890277666431041 0 -0.036602481606555298 -0.024834039845294711 0 -0.037083391367586656 -0.025646590373148179 0 -0.037678462275941189 -0.024890277666431041 0 -0.033437178166023276 -0.025834751274479699 0 -0.032705670990347553 -0.026348101000931823 0 -0.033167965673330482 -0.027494937345731277 0 -0.028489623954736323 -0.027481956206145616 0 -0.032443864162040252 -0.0282502610171513 0 -0.025371851736712182 -0.027952278567366998 0 -0.025242966170298881 -0.029784092469975383 0 -0.026198824161949713 -0.028594596758970657 0 -0.035349571027499548 -0.025521659168441301 0 -0.032443864162040252 -0.0282502610171513 0 -0.032443864162040252 -0.0282502610171513 0 -0.023727577410407295 -0.029919873208855186 0 -0.026123490230881338 -0.030083113610886628 0 -0.027210940847570218 -0.029158652262442564 0 -0.026198824161949713 -0.028594596758970657 0 -0.025068920879599093 -0.03000283556878525 0 -0.026123490230881338 -0.030083113610886628 0 -0.026198824161949713 -0.028594596758970657 0 -0.027278573003047913 -0.030749333119834781 0 -0.027210940847570218 -0.029158652262442564 0 -0.028748203954232863 -0.029526726369500038 0 -0.027278573003047913 -0.030749333119834781 0 -0.026123490230881338 -0.030083113610886628 0 -0.027210940847570218 -0.029158652262442564 0 -0.027210940847570218 -0.029158652262442564 0 -0.027843324252475113 -0.028286265865445453 0 -0.026872609640634849 -0.028148003165806984 0 -0.025371851736712182 -0.027952278567366998 0 -0.026198824161949713 -0.028594596758970657 0 -0.026247521870880527 -0.027407532949182998 0 -0.026872609640634849 -0.028148003165806984 0 -0.026198824161949713 -0.028594596758970657 0 -0.026247521870880527 -0.027407532949182998 0 -0.027210940847570218 -0.029158652262442564 0 -0.026872609640634849 -0.028148003165806984 0 -0.026198824161949713 -0.028594596758970657 0 -0.025808197961254074 -0.033597510829793176 0 -0.025729436292555141 -0.032126556356153926 0 -0.024611196830223971 -0.033297409690394408 0 -0.024889188990084798 -0.03277469391404543 0 -0.026794237661056451 -0.031335687389340547 0 -0.027210940847570218 -0.029158652262442564 0 -0.027843324252475113 -0.028286265865445453 0 -0.028748203954232863 -0.029526726369500038 0 -0.027843324252475113 -0.028286265865445453 0 -0.028748203954232863 -0.029526726369500038 0 -0.029028870482892887 -0.028059561763618783 0 -0.030098205105041076 -0.028092744634849356 0 -0.029028870482892887 -0.028059561763618783 0 -0.029662364912280449 -0.027892657284498711 0 -0.027852878978054409 -0.030162010246203047 0 -0.026794237661056451 -0.031335687389340547 0 -0.030098205105041076 -0.028092744634849356 0 -0.028748203954232863 -0.029526726369500038 0 -0.029028870482892887 -0.028059561763618783 0 -0.030098205105041076 -0.028092744634849356 0 -0.030192548059882342 -0.027913353897520251 0 -0.029662364912280449 -0.027892657284498711 0 -0.030192548059882342 -0.027913353897520251 0 -0.029662364912280449 -0.027892657284498711 0 -0.029118732081160378 -0.027339531735968203 0 -0.029028870482892887 -0.028059561763618783 0 -0.029662364912280449 -0.027892657284498711 0 -0.029118732081160378 -0.027339531735968203 0 -0.027843324252475113 -0.028286265865445453 0 -0.029028870482892887 -0.028059561763618783 0 -0.028129086871176628 -0.027361670789500928 0 -0.029118732081160378 -0.027339531735968203 0 -0.028129086871176628 -0.027361670789500928 0 -0.028259156313415221 -0.02640527551241954 0 -0.029028870482892887 -0.028059561763618783 0 -0.029118732081160378 -0.027339531735968203 0 -0.028129086871176628 -0.027361670789500928 0 -0.028259156313415221 -0.02640527551241954 0 -0.029447211373659264 -0.025980861117777993 0 -0.028603459584406944 -0.025475002416085777 0 -0.028259156313415221 -0.02640527551241954 0 -0.028603459584406944 -0.025475002416085777 0 -0.027852993577909681 -0.02496486748933464 0 -0.029118732081160378 -0.027339531735968203 0 -0.028259156313415221 -0.02640527551241954 0 -0.029447211373659264 -0.025980861117777993 0 -0.028259156313415221 -0.02640527551241954 0 -0.027341000251337681 -0.025695333732803624 0 -0.027852993577909681 -0.02496486748933464 0 -0.030192548059882342 -0.027913353897520251 0 -0.029118732081160378 -0.027339531735968203 0 -0.029447211373659264 -0.025980861117777993 0 -0.030192548059882342 -0.027913353897520251 0 -0.030951398305861431 -0.025834811265142008 0 -0.029447211373659264 -0.025980861117777993 0 -0.025371851736712182 -0.027952278567366998 0 -0.025506547479082403 -0.025750608648616259 0 -0.026247521870880527 -0.027407532949182998 0 -0.027843324252475113 -0.028286265865445453 0 -0.026872609640634849 -0.028148003165806984 0 -0.027226741866166106 -0.027511253310730444 0 -0.026872609640634849 -0.028148003165806984 0 -0.026247521870880527 -0.027407532949182998 0 -0.027226741866166106 -0.027511253310730444 0 -0.027843324252475113 -0.028286265865445453 0 -0.028129086871176628 -0.027361670789500928 0 -0.027226741866166106 -0.027511253310730444 0 -0.028129086871176628 -0.027361670789500928 0 -0.027226741866166106 -0.027511253310730444 0 -0.02713214035436565 -0.026616354028417676 0 -0.026247521870880527 -0.027407532949182998 0 -0.027226741866166106 -0.027511253310730444 0 -0.02713214035436565 -0.026616354028417676 0 -0.028259156313415221 -0.02640527551241954 0 -0.027341000251337681 -0.025695333732803624 0 -0.02713214035436565 -0.026616354028417676 0 -0.027341000251337681 -0.025695333732803624 0 -0.02713214035436565 -0.026616354028417676 0 -0.02632052346238703 -0.026273535242426423 0 -0.028129086871176628 -0.027361670789500928 0 -0.028259156313415221 -0.02640527551241954 0 -0.02713214035436565 -0.026616354028417676 0 -0.025506547479082403 -0.025750608648616259 0 -0.026247521870880527 -0.027407532949182998 0 -0.02632052346238703 -0.026273535242426423 0 -0.026247521870880527 -0.027407532949182998 0 -0.02713214035436565 -0.026616354028417676 0 -0.02632052346238703 -0.026273535242426423 0 -0.025506547479082403 -0.025750608648616259 0 -0.02632052346238703 -0.026273535242426423 0 -0.026661488578062435 -0.024802650473310438 0 -0.032591586163409937 -0.022892564437165593 0 -0.036372008227972874 -0.01802367159640705 0 -0.033148730465928061 -0.019799586856736311 0 -0.034001417615541207 -0.019196513826615847 0 -0.033493276652412043 -0.017948633172256361 0 -0.032591586163409937 -0.022892564437165593 0 -0.030192535143976001 -0.022164690886174385 0 -0.025348990798626833 -0.027206493317147903 0 -0.030298890968910468 -0.021831415182319312 0 -0.02632052346238703 -0.026273535242426423 0 -0.026661488578062435 -0.024802650473310438 0 -0.028035391455194052 -0.023913495165729923 0 -0.027341000251337681 -0.025695333732803624 0 -0.02632052346238703 -0.026273535242426423 0 -0.027206314783579991 -0.024202603179991712 0 -0.027341000251337681 -0.025695333732803624 0 -0.027206314783579991 -0.024202603179991712 0 -0.027852993577909681 -0.02496486748933464 0 -0.030192535143976001 -0.022164690886174385 0 -0.030298890968910468 -0.021831415182319312 0 -0.034001417615541207 -0.019196513826615847 0 -0.034811528437110641 -0.018581403405750548 0 -0.034361959699325748 -0.018072673804106196 0 -0.034811528437110641 -0.018581403405750548 0 -0.035003731606508146 -0.017973730555181363 0 -0.034361959699325748 -0.018072673804106196 0 -0.034001417615541207 -0.019196513826615847 0 -0.034361959699325748 -0.018072673804106196 0 -0.033493276652412043 -0.017948633172256361 0 -0.030951398305861431 -0.025834811265142008 0 -0.030402050931597101 -0.023908163045633764 0 -0.029447211373659264 -0.025980861117777993 0 -0.030402050931597101 -0.023908163045633764 0 -0.029447211373659264 -0.025980861117777993 0 -0.028893384285232693 -0.024497213309789913 0 -0.029447211373659264 -0.025980861117777993 0 -0.028893384285232693 -0.024497213309789913 0 -0.028603459584406944 -0.025475002416085777 0 -0.028893384285232693 -0.024497213309789913 0 -0.028603459584406944 -0.025475002416085777 0 -0.027852993577909681 -0.02496486748933464 0 -0.027206314783579991 -0.024202603179991712 0 -0.027852993577909681 -0.02496486748933464 0 -0.028028998301689111 -0.024037694776694603 0 -0.028893384285232693 -0.024497213309789913 0 -0.027852993577909681 -0.02496486748933464 0 -0.028028998301689111 -0.024037694776694603 0 -0.030298890968910468 -0.021831415182319312 0 -0.03432890345450617 -0.017834744731863909 0 -0.031409894455798719 -0.020608854055592419 0 -0.032508688157712615 -0.01982615633663053 0 -0.03216738943453426 -0.019479407232736244 0 -0.034811528437110641 -0.018581403405750548 0 -0.035003731606508146 -0.017973730555181363 0 -0.035514644689747153 -0.017261778982259481 0 -0.030298890968910468 -0.021831415182319312 0 -0.030513597786677435 -0.021329046536482269 0 -0.027206314783579991 -0.024202603179991712 0 -0.028028998301689111 -0.024037694776694603 0 -0.028905149605246618 -0.022574652973884616 0 -0.028893384285232693 -0.024497213309789913 0 -0.028028998301689111 -0.024037694776694603 0 -0.028803817206211082 -0.023634583886216021 0 -0.028028998301689111 -0.024037694776694603 0 -0.028905149605246618 -0.022574652973884616 0 -0.028803817206211082 -0.023634583886216021 0 -0.030402050931597101 -0.023908163045633764 0 -0.028893384285232693 -0.024497213309789913 0 -0.029400121050319021 -0.023423639956705083 0 -0.028893384285232693 -0.024497213309789913 0 -0.028803817206211082 -0.023634583886216021 0 -0.029400121050319021 -0.023423639956705083 0 -0.028905149605246618 -0.022574652973884616 0 -0.029400121050319021 -0.023423639956705083 0 -0.030184105456306901 -0.022686331457523599 0 -0.028905149605246618 -0.022574652973884616 0 -0.028803817206211082 -0.023634583886216021 0 -0.029400121050319021 -0.023423639956705083 0 -0.030402050931597101 -0.023908163045633764 0 -0.029400121050319021 -0.023423639956705083 0 -0.030184105456306901 -0.022686331457523599 0 -0.030807655728621493 -0.021037506067482607 0 -0.028905149605246618 -0.022574652973884616 0 -0.030184105456306901 -0.022686331457523599 0 -0.032774888377020431 -0.019207898886831651 0 -0.03216738943453426 -0.019479407232736244 0 -0.032842280698651985 -0.01859610498152748 0 -0.033381238299634762 -0.01913952354176671 0 -0.032508688157712615 -0.01982615633663053 0 -0.032774888377020431 -0.019207898886831651 0 -0.032134383184532093 -0.020065396404494385 0 -0.030513597786677435 -0.021329046536482269 0 -0.035514644689747153 -0.017261778982259481 0 -0.035371056488925197 -0.016766531712867731 0 -0.034940215869092781 -0.016917466605419883 0 -0.032508688157712615 -0.01982615633663053 0 -0.032774888377020431 -0.019207898886831651 0 -0.03216738943453426 -0.019479407232736244 0 -0.03432890345450617 -0.017834744731863909 0 -0.034099324784661364 -0.017671444877767863 0 -0.035514644689747153 -0.017261778982259481 0 -0.035371056488925197 -0.016766531712867731 0 -0.035596202420935884 -0.016439863089274878 0 -0.035371056488925197 -0.016766531712867731 0 -0.035312943837601224 -0.016516186788322236 0 -0.035596202420935884 -0.016439863089274878 0 -0.035371056488925197 -0.016766531712867731 0 -0.035312943837601224 -0.016516186788322236 0 -0.034940215869092781 -0.016917466605419883 0 -0.033381238299634762 -0.01913952354176671 0 -0.032774888377020431 -0.019207898886831651 0 -0.032842280698651985 -0.01859610498152748 0 -0.036372008227972874 -0.01802367159640705 0 -0.036170523280817046 -0.017138664553099547 0 -0.033493276652412043 -0.017948633172256361 0 -0.034678590674845279 -0.016905281420230307 0 -0.033811333513977804 -0.016352442199507922 0 -0.034361959699325748 -0.018072673804106196 0 -0.033493276652412043 -0.017948633172256361 0 -0.034678590674845279 -0.016905281420230307 0 -0.038356889678483747 -0.019264052962092031 0 -0.038572970614269883 -0.017417123143238004 0 -0.037886631384153914 -0.018258392491764974 0 -0.035003731606508146 -0.017973730555181363 0 -0.034361959699325748 -0.018072673804106196 0 -0.034678590674845279 -0.016905281420230307 0 -0.035011148491238729 -0.017885797474862353 0 -0.034820601925998444 -0.016945247956249909 0 -0.035003731606508146 -0.017973730555181363 0 -0.035514644689747153 -0.017261778982259481 0 -0.034940215869092781 -0.016917466605419883 0 -0.034820601925998444 -0.016945247956249909 0 -0.0346227715587656 -0.016271054453633433 0 -0.034678590674845279 -0.016905281420230307 0 -0.033811333513977804 -0.016352442199507922 0 -0.034365055597927477 -0.015863062013696309 0 -0.035312943837601224 -0.016516186788322236 0 -0.034940215869092781 -0.016917466605419883 0 -0.035027265994812491 -0.016490877428430775 0 -0.038572970614269883 -0.017417123143238004 0 -0.037658823334848171 -0.017359452810409161 0 -0.037708976350941746 -0.016325248314749685 0 -0.037658823334848171 -0.017359452810409161 0 -0.03713660062816062 -0.018007829104460433 0 -0.037030349716474065 -0.016902392592418436 0 -0.037658823334848171 -0.017359452810409161 0 -0.03713660062816062 -0.018007829104460433 0 -0.037886631384153914 -0.018258392491764974 0 -0.038572970614269883 -0.017417123143238004 0 -0.037658823334848171 -0.017359452810409161 0 -0.037886631384153914 -0.018258392491764974 0 -0.03713660062816062 -0.018007829104460433 0 -0.036139838313140368 -0.017111183755287359 0 -0.037030349716474065 -0.016902392592418436 0 -0.03713660062816062 -0.018007829104460433 0 -0.036206157871279496 -0.018264827482409395 0 -0.036139838313140368 -0.017111183755287359 0 -0.037079485048874906 -0.018127533169083668 0 -0.036499480309163508 -0.019155460985262412 0 -0.03713660062816062 -0.018007829104460433 0 -0.036663758482934176 -0.019041580683742943 0 -0.036206157871279496 -0.018264827482409395 0 -0.03713660062816062 -0.018007829104460433 0 -0.037886631384153914 -0.018258392491764974 0 -0.037375017766883643 -0.019642195259878932 0 -0.038356889678483747 -0.019264052962092031 0 -0.037886631384153914 -0.018258392491764974 0 -0.037375017766883643 -0.019642195259878932 0 -0.03713660062816062 -0.018007829104460433 0 -0.037375017766883643 -0.019642195259878932 0 -0.0363378824669685 -0.01946840944403317 0 -0.037375017766883643 -0.019642195259878932 0 -0.0363378824669685 -0.01946840944403317 0 -0.037127174521322859 -0.020708656737849815 0 -0.035862955788428116 -0.021505806145234205 0 -0.037127174521322859 -0.020708656737849815 0 -0.035630763397596667 -0.020955013067554502 0 -0.036499480309163508 -0.019155460985262412 0 -0.036241888806081153 -0.021058581205685944 0 -0.0363378824669685 -0.01946840944403317 0 -0.037127174521322859 -0.020708656737849815 0 -0.035630763397596667 -0.020955013067554502 0 -0.036266985762821988 -0.021904954112446178 0 -0.036911388512675537 -0.020746849933269727 0 -0.038064234708339806 -0.021327223593339131 0 -0.037375017766883643 -0.019642195259878932 0 -0.037127174521322859 -0.020708656737849815 0 -0.038064234708339806 -0.021327223593339131 0 -0.038356889678483747 -0.019264052962092031 0 -0.037375017766883643 -0.019642195259878932 0 -0.035876405834933699 -0.021940423166417738 0 -0.03499999425843657 -0.021492161352934087 0 -0.036216841861286153 -0.020238155351183791 0 -0.036241888806081153 -0.021058581205685944 0 -0.036001006586076918 -0.019635743554999006 0 -0.035876405834933699 -0.021940423166417738 0 -0.036824001479524741 -0.021688404869995594 0 -0.036216841861286153 -0.020238155351183791 0 -0.036663758482934176 -0.019041580683742943 0 -0.035747123085650062 -0.019070072139242687 0 -0.036206157871279496 -0.018264827482409395 0 -0.036663758482934176 -0.019041580683742943 0 -0.036172146708018486 -0.020103459872784273 0 -0.035747123085650062 -0.019070072139242687 0 -0.03499999425843657 -0.021492161352934087 0 -0.036216841861286153 -0.020238155351183791 0 -0.034999995572729356 -0.019413012210739437 0 -0.036216841861286153 -0.020238155351183791 0 -0.034999995572729356 -0.019413012210739437 0 -0.035609241747656832 -0.018786849966615268 0 -0.036001006586076918 -0.019635743554999006 0 -0.035475733626034948 -0.018434335038368471 0 -0.035747123085650062 -0.019070072139242687 0 -0.035347504894926496 -0.018067706315664227 0 -0.036206157871279496 -0.018264827482409395 0 -0.035347504894926496 -0.018067706315664227 0 -0.036206157871279496 -0.018264827482409395 0 -0.036139838313140368 -0.017111183755287359 0 -0.034999995572729356 -0.019413012210739437 0 -0.035609241747656832 -0.018786849966615268 0 -0.034999998099639294 -0.017333864115509752 0 -0.035347504894926496 -0.018067706315664227 0 -0.034999701216110256 -0.017332454573848466 0 -0.036139838313140368 -0.017111183755287359 0 -0.035475733626034948 -0.018434335038368471 0 -0.035000103718703726 -0.017334085189810965 0 -0.034999701216110256 -0.017332454573848466 0 -0.036139838313140368 -0.017111183755287359 0 -0.035779113856028971 -0.015982826229476377 0 -0.036139838313140368 -0.017111183755287359 0 -0.035779113856028971 -0.015982826229476377 0 -0.036717003992894001 -0.015480185726995091 0 -0.035779113856028971 -0.015982826229476377 0 -0.036717003992894001 -0.015480185726995091 0 -0.035836891435941674 -0.014473403452222635 0 -0.034999701216110256 -0.017332454573848466 0 -0.035779113856028971 -0.015982826229476377 0 -0.034999624010398037 -0.015354280048579921 0 -0.035779113856028971 -0.015982826229476377 0 -0.034999624010398037 -0.015354280048579921 0 -0.035836891435941674 -0.014473403452222635 0 -0.037658823334848171 -0.017359452810409161 0 -0.037708976350941746 -0.016325248314749685 0 -0.037030349716474065 -0.016902392592418436 0 -0.036139838313140368 -0.017111183755287359 0 -0.037030349716474065 -0.016902392592418436 0 -0.036717003992894001 -0.015480185726995091 0 -0.037708976350941746 -0.016325248314749685 0 -0.037030349716474065 -0.016902392592418436 0 -0.036717003992894001 -0.015480185726995091 0 -0.037708976350941746 -0.016325248314749685 0 -0.037702300668955649 -0.015102258555388916 0 -0.038805354609932174 -0.015666967389999804 0 -0.037708976350941746 -0.016325248314749685 0 -0.036717003992894001 -0.015480185726995091 0 -0.037702300668955649 -0.015102258555388916 0 -0.036717003992894001 -0.015480185726995091 0 -0.037702300668955649 -0.015102258555388916 0 -0.03721419570164914 -0.01405149692592278 0 -0.037702300668955649 -0.015102258555388916 0 -0.03721419570164914 -0.01405149692592278 0 -0.038157791433273622 -0.013894866103100523 0 -0.036717003992894001 -0.015480185726995091 0 -0.036512532728903396 -0.013510747306312035 0 -0.035836891435941674 -0.014473403452222635 0 -0.036717003992894001 -0.015480185726995091 0 -0.03721419570164914 -0.01405149692592278 0 -0.036512532728903396 -0.013510747306312035 0 -0.036830508515088928 -0.012190100315510335 0 -0.03749185760595191 -0.012619469327244082 0 -0.03721419570164914 -0.01405149692592278 0 -0.036793207784099419 -0.012051192278091486 0 -0.038157791433273622 -0.013894866103100523 0 -0.03721419570164914 -0.01405149692592278 0 -0.036512532728903396 -0.013510747306312035 0 -0.036793207784099419 -0.012051192278091486 0 -0.034999624010398037 -0.015354280048579921 0 -0.035836891435941674 -0.014473403452222635 0 -0.034999640275400895 -0.013374542454447774 0 -0.036512532728903396 -0.013510747306312035 0 -0.035836891435941674 -0.014473403452222635 0 -0.035827216294355119 -0.012427457635447604 0 -0.035836891435941674 -0.014473403452222635 0 -0.034999640275400895 -0.013374542454447774 0 -0.035827216294355119 -0.012427457635447604 0 -0.034999640275400895 -0.013374542454447774 0 -0.034999469091973906 -0.011394633592598916 0 -0.035827216294355119 -0.012427457635447604 0 -0.034999469091973906 -0.011394633592598916 0 -0.035827216294355119 -0.012427457635447604 0 -0.03556210743727304 -0.010900662553644296 0 -0.035827216294355119 -0.012427457635447604 0 -0.036177520271897995 -0.011521945237922581 0 -0.03556210743727304 -0.010900662553644296 0 -0.036512532728903396 -0.013510747306312035 0 -0.036339181964857983 -0.012348254147715031 0 -0.036793207784099419 -0.012051192278091486 0 -0.036512532728903396 -0.013510747306312035 0 -0.035827216294355119 -0.012427457635447604 0 -0.036339181964857983 -0.012348254147715031 0 -0.035827216294355119 -0.012427457635447604 0 -0.036339181964857983 -0.012348254147715031 0 -0.036177520271897995 -0.011521945237922581 0 -0.036793207784099419 -0.012051192278091486 0 -0.036177520271897995 -0.011521945237922581 0 -0.036300273186342241 -0.011724053780209846 0 -0.036339181964857983 -0.012348254147715031 0 -0.036793207784099419 -0.012051192278091486 0 -0.036177520271897995 -0.011521945237922581 0 -0.036177520271897995 -0.011521945237922581 0 -0.036023728476509295 -0.011015585101966411 0 -0.035773932180088744 -0.010536074508085984 0 -0.036177520271897995 -0.011521945237922581 0 -0.036023728476509295 -0.011015585101966411 0 -0.036300273186342241 -0.011724053780209846 0 -0.036023728476509295 -0.011015585101966411 0 -0.035807068860611642 -0.010511042607651516 0 -0.035923255469349685 -0.010768749227042277 0 -0.036023728476509295 -0.011015585101966411 0 -0.035773932180088744 -0.010536074508085984 0 -0.035807068860611642 -0.010511042607651516 0 -0.035773932180088744 -0.010536074508085984 0 -0.035000230795620715 -0.0094186582218272231 0 -0.035621421302774361 -0.010221122255399709 0 -0.03500017031269733 -0.0094155662615259105 0 -0.035929005744709086 -0.0092192821993063861 0 -0.034999469091973906 -0.011394633592598916 0 -0.035000230795620715 -0.0094186582218272231 0 -0.03556210743727304 -0.010900662553644296 0 -0.035773932180088744 -0.010536074508085984 0 -0.035000230795620715 -0.0094186582218272231 0 -0.03556210743727304 -0.010900662553644296 0 -0.036177520271897995 -0.011521945237922581 0 -0.035773932180088744 -0.010536074508085984 0 -0.03556210743727304 -0.010900662553644296 0 -0.036664162522646739 -0.011870525822403647 0 -0.037201443702695187 -0.011828780874938338 0 -0.037405703479680634 -0.012514367581245769 0 -0.037201443702695187 -0.011828780874938338 0 -0.036918207770970914 -0.011102971841274116 0 -0.037367037483687325 -0.011738184575905917 0 -0.036975678216785428 -0.011144240244668672 0 -0.037448196099276028 -0.011347901250235997 0 -0.036664162522646739 -0.011870525822403647 0 -0.037201443702695187 -0.011828780874938338 0 -0.036918207770970914 -0.011102971841274116 0 -0.036664162522646739 -0.011870525822403647 0 -0.036918207770970914 -0.011102971841274116 0 -0.036133352009127047 -0.011170693909778531 0 -0.036023728476509295 -0.011015585101966411 0 -0.036133352009127047 -0.011170693909778531 0 -0.035923255469349685 -0.010768749227042277 0 -0.036133352009127047 -0.011170693909778531 0 -0.036300273186342241 -0.011724053780209846 0 -0.035985667122760072 -0.01216203849522822 0 -0.036023728476509295 -0.011015585101966411 0 -0.036133352009127047 -0.011170693909778531 0 -0.036300273186342241 -0.011724053780209846 0 -0.036664162522646739 -0.011870525822403647 0 -0.036133352009127047 -0.011170693909778531 0 -0.035985667122760072 -0.01216203849522822 0 -0.036793207784099419 -0.012051192278091486 0 -0.036300273186342241 -0.011724053780209846 0 -0.035985667122760072 -0.01216203849522822 0 -0.036793207784099419 -0.012051192278091486 0 -0.036256853135139787 -0.011852703598502186 0 -0.036492391704338156 -0.011659262354429597 0 -0.036793207784099419 -0.012051192278091486 0 -0.035985667122760072 -0.01216203849522822 0 -0.036256853135139787 -0.011852703598502186 0 -0.035985667122760072 -0.01216203849522822 0 -0.034971247431163997 -0.01399719146144557 0 -0.036353186798120447 -0.013424099380123514 0 -0.034971247431163997 -0.01399719146144557 0 -0.036353186798120447 -0.013424099380123514 0 -0.035460997113209977 -0.015060470277958857 0 -0.035902792146585781 -0.012265118349846652 0 -0.035657843183186745 -0.012975294819020447 0 -0.036664162522646739 -0.011870525822403647 0 -0.035985667122760072 -0.01216203849522822 0 -0.036353186798120447 -0.013424099380123514 0 -0.036664162522646739 -0.011870525822403647 0 -0.036353186798120447 -0.013424099380123514 0 -0.037405703479680634 -0.012514367581245769 0 -0.036353186798120447 -0.013424099380123514 0 -0.037405703479680634 -0.012514367581245769 0 -0.037692404503583306 -0.014073891716284188 0 -0.036353186798120447 -0.013424099380123514 0 -0.036014678941184687 -0.015952329051020824 0 -0.037692404503583306 -0.014073891716284188 0 -0.035215363237368215 -0.016752578105780059 0 -0.036014678941184687 -0.015952329051020824 0 -0.035191177155629576 -0.017943438626148975 0 -0.035934472497050438 -0.015999493382983905 0 -0.036676962072977853 -0.016166118141800044 0 -0.036353186798120447 -0.013424099380123514 0 -0.036014678941184687 -0.015952329051020824 0 -0.035460997113209977 -0.015060470277958857 0 -0.036014678941184687 -0.015952329051020824 0 -0.035460997113209977 -0.015060470277958857 0 -0.035362109518045699 -0.016049429816366114 0 -0.036014678941184687 -0.015952329051020824 0 -0.035362109518045699 -0.016049429816366114 0 -0.03554959494018356 -0.016206332829818034 0 -0.035215363237368215 -0.016752578105780059 0 -0.036014678941184687 -0.015952329051020824 0 -0.035312542997650784 -0.01637323046198742 0 -0.036014678941184687 -0.015952329051020824 0 -0.035312542997650784 -0.01637323046198742 0 -0.03554959494018356 -0.016206332829818034 0 -0.036256853135139787 -0.011852703598502186 0 -0.036492391704338156 -0.011659262354429597 0 -0.036423500616069776 -0.011668090606367998 0 -0.035657843183186745 -0.012975294819020447 0 -0.035605772745778766 -0.013450468930648884 0 -0.034971247431163997 -0.01399719146144557 0 -0.035460997113209977 -0.015060470277958857 0 -0.034825046671867366 -0.015555490531713454 0 -0.035362109518045699 -0.016049429816366114 0 -0.034825046671867366 -0.015555490531713454 0 -0.034940985561704392 -0.016235614379352656 0 -0.035460997113209977 -0.015060470277958857 0 -0.035362109518045699 -0.016049429816366114 0 -0.034825046671867366 -0.015555490531713454 0 -0.035605772745778766 -0.013450468930648884 0 -0.036054795729860104 -0.014706150084676285 0 -0.03749185760595191 -0.012619469327244082 0 -0.036054795729860104 -0.014706150084676285 0 -0.036492391704338156 -0.011659262354429597 0 -0.036423500616069776 -0.011668090606367998 0 -0.036406332536776935 -0.011727894137248339 0 -0.037702300668955649 -0.015102258555388916 0 -0.038157791433273622 -0.013894866103100523 0 -0.038805354609932174 -0.015666967389999804 0 -0.035362109518045699 -0.016049429816366114 0 -0.034940985561704392 -0.016235614379352656 0 -0.035242802994526395 -0.016302436099736296 0 -0.034940985561704392 -0.016235614379352656 0 -0.035027265994812491 -0.016490877428430775 0 -0.035242802994526395 -0.016302436099736296 0 -0.035312943837601224 -0.016516186788322236 0 -0.035027265994812491 -0.016490877428430775 0 -0.035242802994526395 -0.016302436099736296 0 -0.033811333513977804 -0.016352442199507922 0 -0.034093008219908655 -0.014841731002493032 0 -0.034365055597927477 -0.015863062013696309 0 -0.038572970614269883 -0.017417123143238004 0 -0.037708976350941746 -0.016325248314749685 0 -0.038805354609932174 -0.015666967389999804 0 -0.036054795729860104 -0.014706150084676285 0 -0.0346227715587656 -0.016271054453633433 0 -0.036170523280817046 -0.017138664553099547 0 -0.036054795729860104 -0.014706150084676285 0 -0.035312542997650784 -0.01637323046198742 0 -0.03554959494018356 -0.016206332829818034 0 -0.03528072453594535 -0.016103326884822178 0 -0.035362109518045699 -0.016049429816366114 0 -0.035242802994526395 -0.016302436099736296 0 -0.03554959494018356 -0.016206332829818034 0 -0.035312943837601224 -0.016516186788322236 0 -0.035596202420935884 -0.016439863089274878 0 -0.03554959494018356 -0.016206332829818034 0 -0.035312943837601224 -0.016516186788322236 0 -0.035242802994526395 -0.016302436099736296 0 -0.03554959494018356 -0.016206332829818034 0 -0.034099324784661364 -0.017671444877767863 0 -0.034345597808656647 -0.0169962965538034 0 -0.035596202420935884 -0.016439863089274878 0 -0.03554959494018356 -0.016206332829818034 0 -0.03528072453594535 -0.016103326884822178 0 -0.032842280698651985 -0.01859610498152748 0 -0.033604281485659936 -0.018377210365555185 0 -0.033407704051872232 -0.017876064454770739 0 -0.033604281485659936 -0.018377210365555185 0 -0.033407704051872232 -0.017876064454770739 0 -0.034215517635236316 -0.017810175733123979 0 -0.035312542997650784 -0.01637323046198742 0 -0.03528072453594535 -0.016103326884822178 0 -0.034236383251073713 -0.016921373294961066 0 -0.034345597808656647 -0.0169962965538034 0 -0.034234296238598541 -0.016966957013689152 0 -0.033407704051872232 -0.017876064454770739 0 -0.034215517635236316 -0.017810175733123979 0 -0.034236383251073713 -0.016921373294961066 0 -0.034075122962014759 -0.018572344492313746 0 -0.033604281485659936 -0.018377210365555185 0 -0.034215517635236316 -0.017810175733123979 0 -0.034075122962014759 -0.018572344492313746 0 -0.034215517635236316 -0.017810175733123979 0 -0.034364759644997744 -0.018411142763602825 0 -0.033295636630429504 -0.019162633522726982 0 -0.034308526489014363 -0.018450151912244184 0 -0.035075119164878293 -0.019572968132290931 0 -0.034364759644997744 -0.018411142763602825 0 -0.035228610391027322 -0.018593201727833807 0 -0.034364759644997744 -0.018411142763602825 0 -0.034886865433051625 -0.017984503844210319 0 -0.035228610391027322 -0.018593201727833807 0 -0.034364759644997744 -0.018411142763602825 0 -0.034886865433051625 -0.017984503844210319 0 -0.034514877151449623 -0.017835557225597064 0 -0.034886865433051625 -0.017984503844210319 0 -0.034809329023476443 -0.017615037949917145 0 -0.034514877151449623 -0.017835557225597064 0 -0.034809329023476443 -0.017615037949917145 0 -0.034514877151449623 -0.017835557225597064 0 -0.03452532060230503 -0.017409555925635117 0 -0.034886865433051625 -0.017984503844210319 0 -0.034809329023476443 -0.017615037949917145 0 -0.035198663580487809 -0.017552858088054121 0 -0.034215517635236316 -0.017810175733123979 0 -0.034364759644997744 -0.018411142763602825 0 -0.034514877151449623 -0.017835557225597064 0 -0.034215517635236316 -0.017810175733123979 0 -0.034514877151449623 -0.017835557225597064 0 -0.03452532060230503 -0.017409555925635117 0 -0.034215517635236316 -0.017810175733123979 0 -0.03452532060230503 -0.017409555925635117 0 -0.034297917321872852 -0.017137428855088656 0 -0.03452532060230503 -0.017409555925635117 0 -0.034746735710122385 -0.017237069891827463 0 -0.034427822306453401 -0.017129038348269322 0 -0.03452532060230503 -0.017409555925635117 0 -0.034297917321872852 -0.017137428855088656 0 -0.034427822306453401 -0.017129038348269322 0 -0.034746735710122385 -0.017237069891827463 0 -0.034600972164813663 -0.016877912688546631 0 -0.035183635008256282 -0.017451662399350157 0 -0.034809329023476443 -0.017615037949917145 0 -0.034908157354931059 -0.017449405651663259 0 -0.035198663580487809 -0.017552858088054121 0 -0.034809329023476443 -0.017615037949917145 0 -0.03452532060230503 -0.017409555925635117 0 -0.034908157354931059 -0.017449405651663259 0 -0.03452532060230503 -0.017409555925635117 0 -0.034908157354931059 -0.017449405651663259 0 -0.034746735710122385 -0.017237069891827463 0 -0.034908157354931059 -0.017449405651663259 0 -0.034746735710122385 -0.017237069891827463 0 -0.035183635008256282 -0.017451662399350157 0 -0.028902796290568904 -0.019172581791686648 0 -0.028469534382458982 -0.019010056366718812 0 -0.028902796290568904 -0.019172581791686648 0 -0.023201581088935334 -0.019751807753565349 0 -0.029076069317942346 -0.017737593936483352 0 -0.026037043253423098 -0.018160994049489974 0 -0.027692841588940257 -0.018833782222787986 0 -0.022508583849485612 -0.021212599767827672 0 -0.021945286771932179 -0.020659581568545582 0 -0.022061588617951197 -0.021039861087032243 0 -0.034746735710122385 -0.017237069891827463 0 -0.034600972164813663 -0.016877912688546631 0 -0.034427822306453401 -0.017129038348269322 0 -0.029076069317942346 -0.017737593936483352 0 -0.029530727888844657 -0.018272132458292997 0 -0.028687745549220007 -0.018671614242298129 0 -0.028902796290568904 -0.019172581791686648 0 -0.028886944485457505 -0.018652351214719701 0 -0.02906786285388923 -0.017659417030587633 0 -0.032016259796662484 -0.017373230358907976 0 -0.029530727888844657 -0.018272132458292997 0 -0.032016259796662484 -0.017373230358907976 0 -0.029530727888844657 -0.018272132458292997 0 -0.030251125410340352 -0.018913792122892643 0 -0.034600972164813663 -0.016877912688546631 0 -0.034427822306453401 -0.017129038348269322 0 -0.034210583887649269 -0.017112026625772176 0 -0.034297917321872852 -0.017137428855088656 0 -0.034427822306453401 -0.017129038348269322 0 -0.034210583887649269 -0.017112026625772176 0 -0.028902796290568904 -0.019172581791686648 0 -0.033819780801621985 -0.017058876820584164 0 -0.032016259796662484 -0.017373230358907976 0 -0.034807425272392764 -0.01722142755192629 0 -0.033309083420983147 -0.018424108398541767 0 -0.033819780801621985 -0.017058876820584164 0 -0.034417739181222352 -0.01724961654994309 0 -0.034210583887649269 -0.017112026625772176 0 -0.034807425272392764 -0.01722142755192629 0 -0.034708742061626309 -0.016868290846155782 0 -0.034807425272392764 -0.01722142755192629 0 -0.035191177155629576 -0.017943438626148975 0 -0.033309083420983147 -0.018424108398541767 0 -0.035215363237368215 -0.016752578105780059 0 -0.034807425272392764 -0.01722142755192629 0 -0.035191177155629576 -0.017943438626148975 0 -0.035215363237368215 -0.016752578105780059 0 -0.034807425272392764 -0.01722142755192629 0 -0.034708742061626309 -0.016868290846155782 0 -0.035312542997650784 -0.01637323046198742 0 -0.034708742061626309 -0.016868290846155782 0 -0.034236383251073713 -0.016921373294961066 0 -0.035215363237368215 -0.016752578105780059 0 -0.035312542997650784 -0.01637323046198742 0 -0.034708742061626309 -0.016868290846155782 0 -0.034215517635236316 -0.017810175733123979 0 -0.034297917321872852 -0.017137428855088656 0 -0.034236383251073713 -0.016921373294961066 0 -0.034297917321872852 -0.017137428855088656 0 -0.034210583887649269 -0.017112026625772176 0 -0.034236383251073713 -0.016921373294961066 0 -0.034210583887649269 -0.017112026625772176 0 -0.034708742061626309 -0.016868290846155782 0 -0.034236383251073713 -0.016921373294961066 0 -0.020627490235166385 -0.020656103500195113 0 -0.020712130035616016 -0.020727470487016373 0 -0.020363622879247922 -0.020765912431152701 0 -0.020875979108028016 -0.020606290097107051 0 -0.020627490235166385 -0.020656103500195113 0 -0.020712130035616016 -0.020727470487016373 0 -0.020875979108028016 -0.020606290097107051 0 -0.020895116362990993 -0.020712237675933342 0 -0.020712130035616016 -0.020727470487016373 0 -0.020875979108028016 -0.020606290097107051 0 -0.020627490235166385 -0.020656103500195113 0 -0.020894455357705968 -0.02043261577960561 0 -0.020627490235166385 -0.020656103500195113 0 -0.020650516770866316 -0.020459481967378689 0 -0.020894455357705968 -0.02043261577960561 0 -0.020818086643268105 -0.020165763984385691 0 -0.020650516770866316 -0.020459481967378689 0 -0.02087881660856275 -0.020299250143122033 0 -0.020961705676805879 -0.020185313691959614 0 -0.02087881660856275 -0.020299250143122033 0 -0.021037081734215805 -0.020251839747133189 0 -0.020818086643268105 -0.020165763984385691 0 -0.020961705676805879 -0.020185313691959614 0 -0.02087881660856275 -0.020299250143122033 0 -0.02087881660856275 -0.020299250143122033 0 -0.020894455357705968 -0.02043261577960561 0 -0.021037081734215805 -0.020251839747133189 0 -0.020650516770866316 -0.020459481967378689 0 -0.02087881660856275 -0.020299250143122033 0 -0.020894455357705968 -0.02043261577960561 0 -0.020894455357705968 -0.02043261577960561 0 -0.021111111137765898 -0.020341597076649579 0 -0.02102814355847174 -0.020477108996194735 0 -0.020894455357705968 -0.02043261577960561 0 -0.021037081734215805 -0.020251839747133189 0 -0.021111111137765898 -0.020341597076649579 0 -0.021037081734215805 -0.020251839747133189 0 -0.021173758827880682 -0.020234669348616417 0 -0.021111111137765898 -0.020341597076649579 0 -0.021049962534344671 -0.020135793779763194 0 -0.021133507528032822 -0.020157401858196828 0 -0.021037081734215805 -0.020251839747133189 0 -0.021133507528032822 -0.020157401858196828 0 -0.021037081734215805 -0.020251839747133189 0 -0.021173758827880682 -0.020234669348616417 0 -0.021049962534344671 -0.020135793779763194 0 -0.020961705676805879 -0.020185313691959614 0 -0.021037081734215805 -0.020251839747133189 0 -0.021235217871686599 -0.020130675762146277 0 -0.021203428063233099 -0.020185704015991891 0 -0.021275267694278444 -0.020251414801280791 0 -0.021133507528032822 -0.020157401858196828 0 -0.021203428063233099 -0.020185704015991891 0 -0.021173758827880682 -0.020234669348616417 0 -0.021203428063233099 -0.020185704015991891 0 -0.021173758827880682 -0.020234669348616417 0 -0.021275267694278444 -0.020251414801280791 0 -0.021173758827880682 -0.020234669348616417 0 -0.021265889255467692 -0.020326363660457175 0 -0.021275267694278444 -0.020251414801280791 0 -0.021173758827880682 -0.020234669348616417 0 -0.021111111137765898 -0.020341597076649579 0 -0.021265889255467692 -0.020326363660457175 0 -0.021111111137765898 -0.020341597076649579 0 -0.021187261799058679 -0.020439946125107678 0 -0.021265889255467692 -0.020326363660457175 0 -0.021187261799058679 -0.020439946125107678 0 -0.02102814355847174 -0.020477108996194735 0 -0.021084747475506323 -0.020581609391877892 0 -0.021187261799058679 -0.020439946125107678 0 -0.021084747475506323 -0.020581609391877892 0 -0.02129825256010193 -0.020512187150440703 0 -0.021111111137765898 -0.020341597076649579 0 -0.021187261799058679 -0.020439946125107678 0 -0.02102814355847174 -0.020477108996194735 0 -0.020875979108028016 -0.020606290097107051 0 -0.020894455357705968 -0.02043261577960561 0 -0.02102814355847174 -0.020477108996194735 0 -0.020875979108028016 -0.020606290097107051 0 -0.02102814355847174 -0.020477108996194735 0 -0.021084747475506323 -0.020581609391877892 0 -0.020875979108028016 -0.020606290097107051 0 -0.021084747475506323 -0.020581609391877892 0 -0.020895116362990993 -0.020712237675933342 0 -0.021084747475506323 -0.020581609391877892 0 -0.02129825256010193 -0.020512187150440703 0 -0.021210535053409842 -0.020656414504064021 0 -0.02129825256010193 -0.020512187150440703 0 -0.021386658686028445 -0.020621739029633986 0 -0.021210535053409842 -0.020656414504064021 0 -0.02129825256010193 -0.020512187150440703 0 -0.02143736980926985 -0.020504924094179346 0 -0.021386658686028445 -0.020621739029633986 0 -0.02129825256010193 -0.020512187150440703 0 -0.02143736980926985 -0.020504924094179346 0 -0.021394825737615749 -0.020448907286838479 0 -0.02143736980926985 -0.020504924094179346 0 -0.021584001010081511 -0.020591241352357386 0 -0.021386658686028445 -0.020621739029633986 0 -0.02143736980926985 -0.020504924094179346 0 -0.021501685975090688 -0.020377364171398189 0 -0.021584001010081511 -0.020591241352357386 0 -0.021394825737615749 -0.020448907286838479 0 -0.021501685975090688 -0.020377364171398189 0 -0.02133527143513099 -0.020406440002167854 0 -0.02143736980926985 -0.020504924094179346 0 -0.021394825737615749 -0.020448907286838479 0 -0.021501685975090688 -0.020377364171398189 0 -0.02129825256010193 -0.020512187150440703 0 -0.021394825737615749 -0.020448907286838479 0 -0.02133527143513099 -0.020406440002167854 0 -0.021187261799058679 -0.020439946125107678 0 -0.02129825256010193 -0.020512187150440703 0 -0.02133527143513099 -0.020406440002167854 0 -0.021187261799058679 -0.020439946125107678 0 -0.02133527143513099 -0.020406440002167854 0 -0.021265889255467692 -0.020326363660457175 0 -0.027181891204146415 -0.018549967845861933 0 -0.028321839838836061 -0.019102446388030211 0 -0.021501685975090688 -0.020377364171398189 0 -0.021265889255467692 -0.020326363660457175 0 -0.021275267694278444 -0.020251414801280791 0 -0.021501685975090688 -0.020377364171398189 0 -0.02133527143513099 -0.020406440002167854 0 -0.021265889255467692 -0.020326363660457175 0 -0.034288759915516262 -0.017658340190530215 0 -0.03423098954501988 -0.017636071642015121 0 -0.034855130993116587 -0.017648958121110146 0 -0.021235217871686599 -0.020130675762146277 0 -0.021501685975090688 -0.020377364171398189 0 -0.021275267694278444 -0.020251414801280791 0 -0.034288759915516262 -0.017658340190530215 0 -0.034947257423825429 -0.017662214539973506 0 -0.034855130993116587 -0.017648958121110146 0 -0.036885969217086971 -0.019649560809092904 0 -0.037256422727063351 -0.019935946487161182 0 -0.036445916555232667 -0.018635897058753442 0 -0.036370976986001918 -0.019060915288519636 0 -0.035524689710049163 -0.018084954852903859 0 -0.036504159838500021 -0.01949501694550896 0 -0.0362935430668909 -0.01930736964943899 0 -0.036445916555232667 -0.018635897058753442 0 -0.036885969217086971 -0.019649560809092904 0 -0.036504159838500021 -0.01949501694550896 0 -0.036445916555232667 -0.018635897058753442 0 -0.036445916555232667 -0.018635897058753442 0 -0.035713433312623145 -0.018601999976967647 0 -0.035419774226430452 -0.018172720115381218 0 -0.036445916555232667 -0.018635897058753442 0 -0.035713433312623145 -0.018601999976967647 0 -0.035852030880274534 -0.019107002609556969 0 -0.036159849705413603 -0.019887700806986746 0 -0.0362935430668909 -0.01930736964943899 0 -0.035852030880274534 -0.019107002609556969 0 -0.0362935430668909 -0.01930736964943899 0 -0.036445916555232667 -0.018635897058753442 0 -0.035852030880274534 -0.019107002609556969 0 -0.035075119164878293 -0.019572968132290931 0 -0.035852030880274534 -0.019107002609556969 0 -0.035228610391027322 -0.018593201727833807 0 -0.035713433312623145 -0.018601999976967647 0 -0.035228610391027322 -0.018593201727833807 0 -0.035419774226430452 -0.018172720115381218 0 -0.035713433312623145 -0.018601999976967647 0 -0.035852030880274534 -0.019107002609556969 0 -0.035228610391027322 -0.018593201727833807 0 -0.035524689710049163 -0.018084954852903859 0 -0.035293661319424484 -0.017663607177365769 0 -0.021501685975090688 -0.020377364171398189 0 -0.021584001010081511 -0.020591241352357386 0 -0.021945286771932179 -0.020659581568545582 0 -0.034886865433051625 -0.017984503844210319 0 -0.035419774226430452 -0.018172720115381218 0 -0.035198663580487809 -0.017552858088054121 0 -0.034947257423825429 -0.017662214539973506 0 -0.035198663580487809 -0.017552858088054121 0 -0.035183635008256282 -0.017451662399350157 0 -0.034886865433051625 -0.017984503844210319 0 -0.035228610391027322 -0.018593201727833807 0 -0.035419774226430452 -0.018172720115381218 0 -0.036445916555232667 -0.018635897058753442 0 -0.035419774226430452 -0.018172720115381218 0 -0.035198663580487809 -0.017552858088054121 0 -0.034947257423825429 -0.017662214539973506 0 -0.034855130993116587 -0.017648958121110146 0 -0.035198663580487809 -0.017552858088054121 0 -0.028321839838836061 -0.019102446388030211 0 -0.028469534382458982 -0.019010056366718812 0 -0.034908157354931059 -0.017449405651663259 0 -0.035198663580487809 -0.017552858088054121 0 -0.035183635008256282 -0.017451662399350157 0 -0.021584001010081511 -0.020591241352357386 0 -0.021697359854863835 -0.020731618921532437 0 -0.021503621768401076 -0.02073031564422181 0 -0.021584001010081511 -0.020591241352357386 0 -0.021945286771932179 -0.020659581568545582 0 -0.021697359854863835 -0.020731618921532437 0 -0.021697359854863835 -0.020731618921532437 0 -0.021638436336275491 -0.020857095428903908 0 -0.021503621768401076 -0.02073031564422181 0 -0.021638436336275491 -0.020857095428903908 0 -0.021829650109808474 -0.020854113685360175 0 -0.021749387236719545 -0.021001394753132199 0 -0.021697359854863835 -0.020731618921532437 0 -0.021638436336275491 -0.020857095428903908 0 -0.021829650109808474 -0.020854113685360175 0 -0.021945286771932179 -0.020659581568545582 0 -0.021697359854863835 -0.020731618921532437 0 -0.021829650109808474 -0.020854113685360175 0 -0.021945286771932179 -0.020659581568545582 0 -0.021829650109808474 -0.020854113685360175 0 -0.022061588617951197 -0.021039861087032243 0 -0.021829650109808474 -0.020854113685360175 0 -0.022061588617951197 -0.021039861087032243 0 -0.021749387236719545 -0.021001394753132199 0 -0.022508583849485612 -0.021212599767827672 0 -0.022061588617951197 -0.021039861087032243 0 -0.021675187686312141 -0.021250273687520881 0 -0.022061588617951197 -0.021039861087032243 0 -0.021675187686312141 -0.021250273687520881 0 -0.021749387236719545 -0.021001394753132199 0 -0.021675187686312141 -0.021250273687520881 0 -0.021749387236719545 -0.021001394753132199 0 -0.021560102649760389 -0.020994224660588982 0 -0.021638436336275491 -0.020857095428903908 0 -0.021749387236719545 -0.021001394753132199 0 -0.021560102649760389 -0.020994224660588982 0 -0.021638436336275491 -0.020857095428903908 0 -0.021560102649760389 -0.020994224660588982 0 -0.021423497175923917 -0.020873320296159126 0 -0.023201581088935334 -0.019751807753565349 0 -0.02234716946527935 -0.019973654216642135 0 -0.021560102649760389 -0.020994224660588982 0 -0.021337737177409333 -0.021017037232918957 0 -0.021423497175923917 -0.020873320296159126 0 -0.021675187686312141 -0.021250273687520881 0 -0.021560102649760389 -0.020994224660588982 0 -0.021337737177409333 -0.021017037232918957 0 -0.026037043253423098 -0.018160994049489974 0 -0.023261061151150883 -0.018759393190777792 0 -0.025340886677098717 -0.018872102436262944 0 -0.021675187686312141 -0.021250273687520881 0 -0.021337737177409333 -0.021017037232918957 0 -0.020992899263714601 -0.021085967999300181 0 -0.021337737177409333 -0.021017037232918957 0 -0.02122361201465164 -0.02087561962613144 0 -0.021106060338421294 -0.020954640520250513 0 -0.021337737177409333 -0.021017037232918957 0 -0.02122361201465164 -0.02087561962613144 0 -0.021423497175923917 -0.020873320296159126 0 -0.02122361201465164 -0.02087561962613144 0 -0.021308284007927225 -0.020752079597426577 0 -0.021423497175923917 -0.020873320296159126 0 -0.02122361201465164 -0.02087561962613144 0 -0.021308284007927225 -0.020752079597426577 0 -0.021131558788389886 -0.020775998975604427 0 -0.021638436336275491 -0.020857095428903908 0 -0.021423497175923917 -0.020873320296159126 0 -0.021503621768401076 -0.02073031564422181 0 -0.021308284007927225 -0.020752079597426577 0 -0.021423497175923917 -0.020873320296159126 0 -0.021503621768401076 -0.02073031564422181 0 -0.021308284007927225 -0.020752079597426577 0 -0.021503621768401076 -0.02073031564422181 0 -0.021386658686028445 -0.020621739029633986 0 -0.021584001010081511 -0.020591241352357386 0 -0.021503621768401076 -0.02073031564422181 0 -0.021386658686028445 -0.020621739029633986 0 -0.021308284007927225 -0.020752079597426577 0 -0.021386658686028445 -0.020621739029633986 0 -0.021210535053409842 -0.020656414504064021 0 -0.021308284007927225 -0.020752079597426577 0 -0.021210535053409842 -0.020656414504064021 0 -0.021131558788389886 -0.020775998975604427 0 -0.021058454563722781 -0.020705715884541537 0 -0.02096608543105007 -0.020784596033644711 0 -0.021131558788389886 -0.020775998975604427 0 -0.021084747475506323 -0.020581609391877892 0 -0.021210535053409842 -0.020656414504064021 0 -0.021058454563722781 -0.020705715884541537 0 -0.021210535053409842 -0.020656414504064021 0 -0.021058454563722781 -0.020705715884541537 0 -0.021131558788389886 -0.020775998975604427 0 -0.020895116362990993 -0.020712237675933342 0 -0.02096608543105007 -0.020784596033644711 0 -0.020811518727328907 -0.020783227554173511 0 -0.021058454563722781 -0.020705715884541537 0 -0.020895116362990993 -0.020712237675933342 0 -0.02096608543105007 -0.020784596033644711 0 -0.021084747475506323 -0.020581609391877892 0 -0.021058454563722781 -0.020705715884541537 0 -0.020895116362990993 -0.020712237675933342 0 -0.02096608543105007 -0.020784596033644711 0 -0.020889701270400168 -0.020851351441029311 0 -0.020811518727328907 -0.020783227554173511 0 -0.02096608543105007 -0.020784596033644711 0 -0.021041281299682704 -0.020872519079747621 0 -0.020889701270400168 -0.020851351441029311 0 -0.02122361201465164 -0.02087561962613144 0 -0.021131558788389886 -0.020775998975604427 0 -0.021041281299682704 -0.020872519079747621 0 -0.02096608543105007 -0.020784596033644711 0 -0.021131558788389886 -0.020775998975604427 0 -0.021041281299682704 -0.020872519079747621 0 -0.02122361201465164 -0.02087561962613144 0 -0.021041281299682704 -0.020872519079747621 0 -0.021106060338421294 -0.020954640520250513 0 -0.021041281299682704 -0.020872519079747621 0 -0.021106060338421294 -0.020954640520250513 0 -0.020965356211552245 -0.020932752409651704 0 -0.021337737177409333 -0.021017037232918957 0 -0.021106060338421294 -0.020954640520250513 0 -0.020992899263714601 -0.021085967999300181 0 -0.021106060338421294 -0.020954640520250513 0 -0.020992899263714601 -0.021085967999300181 0 -0.020965356211552245 -0.020932752409651704 0 -0.020992899263714601 -0.021085967999300181 0 -0.020965356211552245 -0.020932752409651704 0 -0.020843665983918184 -0.020858597677332589 0 -0.021041281299682704 -0.020872519079747621 0 -0.020889701270400168 -0.020851351441029311 0 -0.020965356211552245 -0.020932752409651704 0 -0.020889701270400168 -0.020851351441029311 0 -0.020965356211552245 -0.020932752409651704 0 -0.020843665983918184 -0.020858597677332589 0 -0.02234716946527935 -0.019973654216642135 0 -0.020936216474781871 -0.020497534510036313 0 -0.020992899263714601 -0.021085967999300181 0 -0.020843665983918184 -0.020858597677332589 0 -0.020803408807032357 -0.020642867387301419 0 -0.020889701270400168 -0.020851351441029311 0 -0.020772334699673798 -0.020819725904016203 0 -0.020843665983918184 -0.020858597677332589 0 -0.020843665983918184 -0.020858597677332589 0 -0.02072282277286756 -0.020766241726716237 0 -0.020803408807032357 -0.020642867387301419 0 -0.020772334699673798 -0.020819725904016203 0 -0.020843665983918184 -0.020858597677332589 0 -0.02072282277286756 -0.020766241726716237 0 -0.020772334699673798 -0.020819725904016203 0 -0.02072282277286756 -0.020766241726716237 0 -0.020637428500954642 -0.020794648777338481 0 -0.020772334699673798 -0.020819725904016203 0 -0.020637428500954642 -0.020794648777338481 0 -0.020811518727328907 -0.020783227554173511 0 -0.020889701270400168 -0.020851351441029311 0 -0.020772334699673798 -0.020819725904016203 0 -0.020811518727328907 -0.020783227554173511 0 -0.020895116362990993 -0.020712237675933342 0 -0.020811518727328907 -0.020783227554173511 0 -0.020712130035616016 -0.020727470487016373 0 -0.020637428500954642 -0.020794648777338481 0 -0.020811518727328907 -0.020783227554173511 0 -0.020712130035616016 -0.020727470487016373 0 -0.020637428500954642 -0.020794648777338481 0 -0.020712130035616016 -0.020727470487016373 0 -0.020363622879247922 -0.020765912431152701 0 -0.021441188964660657 -0.021511158042836355 0 -0.022756637406178101 -0.021929555783347536 0 -0.021597684576599961 -0.022358874617337876 0 -0.022269463043994582 -0.020890484075463012 0 -0.021441188964660657 -0.021511158042836355 0 -0.022756637406178101 -0.021929555783347536 0 -0.022269463043994582 -0.020890484075463012 0 -0.021441188964660657 -0.021511158042836355 0 -0.021119429132452967 -0.020920050779416749 0 -0.023261061151150883 -0.018759393190777792 0 -0.020803408807032357 -0.020642867387301419 0 -0.022211067808513799 -0.019674172863503918 0 -0.021119429132452967 -0.020920050779416749 0 -0.020803408807032357 -0.020642867387301419 0 -0.022211067808513799 -0.019674172863503918 0 -0.022269463043994582 -0.020890484075463012 0 -0.021119429132452967 -0.020920050779416749 0 -0.022211067808513799 -0.019674172863503918 0 -0.022467031187319849 -0.019490229552114074 0 -0.026715934625369041 -0.018914240188304114 0 -0.023261061151150883 -0.018759393190777792 0 -0.022211067808513799 -0.019674172863503918 0 -0.025398364957632098 -0.019565058002110093 0 -0.022211067808513799 -0.019674172863503918 0 -0.023736446221442727 -0.020708278052528544 0 -0.027323727839079291 -0.018592771787304039 0 -0.022269463043994582 -0.020890484075463012 0 -0.022211067808513799 -0.019674172863503918 0 -0.023736446221442727 -0.020708278052528544 0 -0.023736446221442727 -0.020708278052528544 0 -0.022756637406178101 -0.021929555783347536 0 -0.024759845518354952 -0.022133418817059991 0 -0.022269463043994582 -0.020890484075463012 0 -0.023736446221442727 -0.020708278052528544 0 -0.022756637406178101 -0.021929555783347536 0 -0.023736446221442727 -0.020708278052528544 0 -0.024759845518354952 -0.022133418817059991 0 -0.027323727839079291 -0.018592771787304039 0 -0.026815021242414094 -0.019851567822976101 0 -0.027408654006770811 -0.018367771559824827 0 -0.02913376026001956 -0.016874230762895053 0 -0.028244581076620031 -0.017465160185263482 0 -0.027323727839079291 -0.018592771787304039 0 -0.028244581076620031 -0.017465160185263482 0 -0.027934707965720978 -0.017352763173280713 0 -0.028618360102676422 -0.016498424657897606 0 -0.02913376026001956 -0.016874230762895053 0 -0.028244581076620031 -0.017465160185263482 0 -0.028618360102676422 -0.016498424657897606 0 -0.028244581076620031 -0.017465160185263482 0 -0.027755104451552111 -0.018064890756086218 0 -0.027852162839359287 -0.017694837245249367 0 -0.028244581076620031 -0.017465160185263482 0 -0.027852162839359287 -0.017694837245249367 0 -0.027934707965720978 -0.017352763173280713 0 -0.028244581076620031 -0.017465160185263482 0 -0.027323727839079291 -0.018592771787304039 0 -0.027755104451552111 -0.018064890756086218 0 -0.023261061151150883 -0.018759393190777792 0 -0.025340886677098717 -0.018872102436262944 0 -0.025398364957632098 -0.019565058002110093 0 -0.022211067808513799 -0.019674172863503918 0 -0.027802807612289933 -0.018184621739865382 0 -0.027323727839079291 -0.018592771787304039 0 -0.027802807612289933 -0.018184621739865382 0 -0.027323727839079291 -0.018592771787304039 0 -0.027755104451552111 -0.018064890756086218 0 -0.026715934625369041 -0.018914240188304114 0 -0.027471240039671423 -0.018920900069130747 0 -0.027802807612289933 -0.018184621739865382 0 -0.027713901292503201 -0.017591783293893822 0 -0.027437164520906287 -0.016986470725978975 0 -0.025398364957632098 -0.019565058002110093 0 -0.02676576143257469 -0.019087987374910437 0 -0.028950292846282189 -0.020013574450410777 0 -0.027802807612289933 -0.018184621739865382 0 -0.027755104451552111 -0.018064890756086218 0 -0.027713901292503201 -0.017591783293893822 0 -0.025340886677098717 -0.018872102436262944 0 -0.025398364957632098 -0.019565058002110093 0 -0.02676576143257469 -0.019087987374910437 0 -0.026037043253423098 -0.018160994049489974 0 -0.025340886677098717 -0.018872102436262944 0 -0.02676576143257469 -0.019087987374910437 0 -0.026037043253423098 -0.018160994049489974 0 -0.02676576143257469 -0.019087987374910437 0 -0.027692841588940257 -0.018833782222787986 0 -0.027713901292503201 -0.017591783293893822 0 -0.027934707965720978 -0.017352763173280713 0 -0.027622234978833732 -0.017061135545742713 0 -0.027713901292503201 -0.017591783293893822 0 -0.027852162839359287 -0.017694837245249367 0 -0.027934707965720978 -0.017352763173280713 0 -0.027755104451552111 -0.018064890756086218 0 -0.027713901292503201 -0.017591783293893822 0 -0.027852162839359287 -0.017694837245249367 0 -0.027934707965720978 -0.017352763173280713 0 -0.027911002397905126 -0.016734972695635057 0 -0.028618360102676422 -0.016498424657897606 0 -0.027911002397905126 -0.016734972695635057 0 -0.027622234978833732 -0.017061135545742713 0 -0.02757994148940322 -0.016567416858276528 0 -0.027934707965720978 -0.017352763173280713 0 -0.027911002397905126 -0.016734972695635057 0 -0.027622234978833732 -0.017061135545742713 0 -0.028008085156693369 -0.015984871142172834 0 -0.028860848386349808 -0.014955497894758651 0 -0.028618360102676422 -0.016498424657897606 0 -0.027911002397905126 -0.016734972695635057 0 -0.028008085156693369 -0.015984871142172834 0 -0.02757994148940322 -0.016567416858276528 0 -0.027911002397905126 -0.016734972695635057 0 -0.028008085156693369 -0.015984871142172834 0 -0.028618360102676422 -0.016498424657897606 0 -0.028008085156693369 -0.015984871142172834 0 -0.028860848386349808 -0.014955497894758651 0 -0.027528369327011314 -0.015279942632336454 0 -0.028860848386349808 -0.014955497894758651 0 -0.028116398557520527 -0.014419702534505125 0 -0.029240909622351919 -0.013315380330271912 0 -0.028860848386349808 -0.014955497894758651 0 -0.028116398557520527 -0.014419702534505125 0 -0.027528369327011314 -0.015279942632336454 0 -0.028860848386349808 -0.014955497894758651 0 -0.030158386484057585 -0.014049962629037042 0 -0.029240909622351919 -0.013315380330271912 0 -0.028860848386349808 -0.014955497894758651 0 -0.030842398002820744 -0.015134740192076437 0 -0.030158386484057585 -0.014049962629037042 0 -0.030181039018972924 -0.015751398234115734 0 -0.026271412833631765 -0.016869281968304242 0 -0.028860848386349808 -0.014955497894758651 0 -0.028618360102676422 -0.016498424657897606 0 -0.030842398002820744 -0.015134740192076437 0 -0.02913376026001956 -0.016874230762895053 0 -0.028618360102676422 -0.016498424657897606 0 -0.029412734914711646 -0.016061631089037322 0 -0.026815021242414094 -0.019851567822976101 0 -0.026271412833631765 -0.016869281968304242 0 -0.022756637406178101 -0.021929555783347536 0 -0.024759845518354952 -0.022133418817059991 0 -0.023312445497703508 -0.02308925860511048 0 -0.026271412833631765 -0.016869281968304242 0 -0.02115405878443501 -0.019311490512298288 0 -0.030842398002820744 -0.015134740192076437 0 -0.030922704458379205 -0.013233678344404762 0 -0.030158386484057585 -0.014049962629037042 0 -0.023312445497703508 -0.02308925860511048 0 -0.021597684576599961 -0.022358874617337876 0 -0.021826992626008575 -0.02313118263761799 0 -0.022756637406178101 -0.021929555783347536 0 -0.023312445497703508 -0.02308925860511048 0 -0.021597684576599961 -0.022358874617337876 0 -0.033855677874290196 -0.015376639044844459 0 -0.032161482815371477 -0.014247864442238183 0 -0.037405703479680634 -0.012514367581245769 0 -0.037288254946405155 -0.012451689174365517 0 -0.037370513621071376 -0.012147650188829023 0 -0.03897563337994691 -0.012243964782277801 0 -0.033855677874290196 -0.015376639044844459 0 -0.032750492396359368 -0.020503086603269868 0 -0.035191177155629576 -0.017943438626148975 0 -0.033309083420983147 -0.018424108398541767 0 -0.037405703479680634 -0.012514367581245769 0 -0.038856078524067993 -0.012808910127792443 0 -0.037692404503583306 -0.014073891716284188 0 -0.033855677874290196 -0.015376639044844459 0 -0.036676962072977853 -0.016166118141800044 0 -0.032016259796662484 -0.017373230358907976 0 -0.033309083420983147 -0.018424108398541767 0 -0.031250550837697462 -0.019237859153942469 0 -0.032750492396359368 -0.020503086603269868 0 -0.033309083420983147 -0.018424108398541767 0 -0.031250550837697462 -0.019237859153942469 0 -0.032016259796662484 -0.017373230358907976 0 -0.030251125410340352 -0.018913792122892643 0 -0.031250550837697462 -0.019237859153942469 0 -0.032750492396359368 -0.020503086603269868 0 -0.031250550837697462 -0.019237859153942469 0 -0.028950292846282189 -0.020013574450410777 0 -0.030251125410340352 -0.018913792122892643 0 -0.031250550837697462 -0.019237859153942469 0 -0.028950292846282189 -0.020013574450410777 0 -0.029530727888844657 -0.018272132458292997 0 -0.030251125410340352 -0.018913792122892643 0 -0.029322494397189178 -0.019028580450676073 0 -0.030251125410340352 -0.018913792122892643 0 -0.029322494397189178 -0.019028580450676073 0 -0.028950292846282189 -0.020013574450410777 0 -0.02676576143257469 -0.019087987374910437 0 -0.027692841588940257 -0.018833782222787986 0 -0.028950292846282189 -0.020013574450410777 0 -0.027692841588940257 -0.018833782222787986 0 -0.028687745549220007 -0.018671614242298129 0 -0.028950292846282189 -0.020013574450410777 0 -0.029076069317942346 -0.017737593936483352 0 -0.027692841588940257 -0.018833782222787986 0 -0.028687745549220007 -0.018671614242298129 0 -0.028687745549220007 -0.018671614242298129 0 -0.029322494397189178 -0.019028580450676073 0 -0.028950292846282189 -0.020013574450410777 0 -0.029530727888844657 -0.018272132458292997 0 -0.028687745549220007 -0.018671614242298129 0 -0.029322494397189178 -0.019028580450676073 0 -0.027713901292503201 -0.017591783293893822 0 -0.027437164520906287 -0.016986470725978975 0 -0.027622234978833732 -0.017061135545742713 0 -0.027437164520906287 -0.016986470725978975 0 -0.027622234978833732 -0.017061135545742713 0 -0.027428911622555396 -0.016762020331134841 0 -0.027622234978833732 -0.017061135545742713 0 -0.027428911622555396 -0.016762020331134841 0 -0.02757994148940322 -0.016567416858276528 0 -0.027748926350611214 -0.016426652155341778 0 -0.027428911622555396 -0.016762020331134841 0 -0.027372254261227996 -0.01655510558717382 0 -0.027748926350611214 -0.016426652155341778 0 -0.027437164520906287 -0.016986470725978975 0 -0.027428911622555396 -0.016762020331134841 0 -0.033855677874290196 -0.015376639044844459 0 -0.027471240039671423 -0.018920900069130747 0 -0.027372254261227996 -0.01655510558717382 0 -0.02757994148940322 -0.016567416858276528 0 -0.0275602734507088 -0.016099416491868357 0 -0.032161482815371477 -0.014247864442238183 0 -0.032843906166107606 -0.013955559622038703 0 -0.027372254261227996 -0.01655510558717382 0 -0.0275602734507088 -0.016099416491868357 0 -0.027528369327011314 -0.015279942632336454 0 -0.027428911622555396 -0.016762020331134841 0 -0.027372254261227996 -0.01655510558717382 0 -0.02757994148940322 -0.016567416858276528 0 -0.028008085156693369 -0.015984871142172834 0 -0.0275602734507088 -0.016099416491868357 0 -0.027528369327011314 -0.015279942632336454 0 -0.028008085156693369 -0.015984871142172834 0 -0.02757994148940322 -0.016567416858276528 0 -0.0275602734507088 -0.016099416491868357 0 -0.035858792522993191 -0.012826560047688763 0 -0.038681597763606294 -0.011442347133134936 0 -0.03743681161233859 -0.012118337722681697 0 -0.037434527638884288 -0.012116466592953051 0 -0.037414215284439167 -0.012046445029515459 0 -0.035858792522993191 -0.012826560047688763 0 -0.032843906166107606 -0.013955559622038703 0 -0.037351662675049836 -0.012243175663288117 0 -0.037414215284439167 -0.012046445029515459 0 -0.037395811968256004 -0.0120572312583122 0 -0.037351662675049836 -0.012243175663288117 0 -0.037434527638884288 -0.012116466592953051 0 -0.037414215284439167 -0.012046445029515459 0 -0.037395811968256004 -0.0120572312583122 0 -0.037370513621071376 -0.012147650188829023 0 -0.037367037483687325 -0.011738184575905917 0 -0.038681597763606294 -0.011442347133134936 0 -0.037448196099276028 -0.011347901250235997 0 -0.037414215284439167 -0.012046445029515459 0 -0.037395811968256004 -0.0120572312583122 0 -0.037367037483687325 -0.011738184575905917 0 -0.037351662675049836 -0.012243175663288117 0 -0.037395811968256004 -0.0120572312583122 0 -0.037370513621071376 -0.012147650188829023 0 -0.037288254946405155 -0.012451689174365517 0 -0.037351662675049836 -0.012243175663288117 0 -0.037370513621071376 -0.012147650188829023 0 -0.037201443702695187 -0.011828780874938338 0 -0.037405703479680634 -0.012514367581245769 0 -0.037370513621071376 -0.012147650188829023 0 -0.037201443702695187 -0.011828780874938338 0 -0.037370513621071376 -0.012147650188829023 0 -0.037367037483687325 -0.011738184575905917 0 -0.036918207770970914 -0.011102971841274116 0 -0.037886718195690179 -0.010957863026017797 0 -0.037685931206690566 -0.01011955528399547 0 -0.037886718195690179 -0.010957863026017797 0 -0.037685931206690566 -0.01011955528399547 0 -0.038378186357521701 -0.010478646056493429 0 -0.037685931206690566 -0.01011955528399547 0 -0.037866754266650593 -0.0091262887861217404 0 -0.037113874343484794 -0.0093587573905529343 0 -0.037685931206690566 -0.01011955528399547 0 -0.038433039889352476 -0.0097367491392591626 0 -0.037866754266650593 -0.0091262887861217404 0 -0.037685931206690566 -0.01011955528399547 0 -0.038433039889352476 -0.0097367491392591626 0 -0.038378186357521701 -0.010478646056493429 0 -0.038764716369439997 -0.01103777613019517 0 -0.037886718195690179 -0.010957863026017797 0 -0.038378186357521701 -0.010478646056493429 0 -0.038764716369439997 -0.01103777613019517 0 -0.038378186357521701 -0.010478646056493429 0 -0.038930329479590936 -0.010246870315945874 0 -0.038764716369439997 -0.01103777613019517 0 -0.039248862046337478 -0.010811798181593515 0 -0.038930329479590936 -0.010246870315945874 0 -0.039515936631373698 -0.011523903837812292 0 -0.038764716369439997 -0.01103777613019517 0 -0.039248862046337478 -0.010811798181593515 0 -0.039515936631373698 -0.011523903837812292 0 -0.039248862046337478 -0.010811798181593515 0 -0.039690199270577972 -0.010840308624039818 0 -0.039248862046337478 -0.010811798181593515 0 -0.03948325918559506 -0.010311719822361213 0 -0.038930329479590936 -0.010246870315945874 0 -0.039248862046337478 -0.010811798181593515 0 -0.03948325918559506 -0.010311719822361213 0 -0.039690199270577972 -0.010840308624039818 0 -0.03948325918559506 -0.010311719822361213 0 -0.039385725039037214 -0.0096083965907949841 0 -0.038930329479590936 -0.010246870315945874 0 -0.03948325918559506 -0.010311719822361213 0 -0.039385725039037214 -0.0096083965907949841 0 -0.039889741505990048 -0.0097558670315188185 0 -0.038433039889352476 -0.0097367491392591626 0 -0.038930329479590936 -0.010246870315945874 0 -0.038920844805390195 -0.0093554956841896148 0 -0.039385725039037214 -0.0096083965907949841 0 -0.038930329479590936 -0.010246870315945874 0 -0.038920844805390195 -0.0093554956841896148 0 -0.038433039889352476 -0.0097367491392591626 0 -0.038378186357521701 -0.010478646056493429 0 -0.038930329479590936 -0.010246870315945874 0 -0.038433039889352476 -0.0097367491392591626 0 -0.038920844805390195 -0.0093554956841896148 0 -0.03844715667544002 -0.0088594307785373333 0 -0.038920844805390195 -0.0093554956841896148 0 -0.039362595496166802 -0.0088917404624728243 0 -0.038924735739320121 -0.008564431125430174 0 -0.038920844805390195 -0.0093554956841896148 0 -0.038924735739320121 -0.008564431125430174 0 -0.03844715667544002 -0.0088594307785373333 0 -0.039385725039037214 -0.0096083965907949841 0 -0.039805124957430466 -0.009095382599142568 0 -0.039889741505990048 -0.0097558670315188185 0 -0.039385725039037214 -0.0096083965907949841 0 -0.039362595496166802 -0.0088917404624728243 0 -0.039805124957430466 -0.009095382599142568 0 -0.039385725039037214 -0.0096083965907949841 0 -0.038920844805390195 -0.0093554956841896148 0 -0.039362595496166802 -0.0088917404624728243 0 -0.039805124957430466 -0.009095382599142568 0 -0.039742369257376842 -0.0084570521920606379 0 -0.040182012802969208 -0.0086408899953724031 0 -0.039362595496166802 -0.0088917404624728243 0 -0.039805124957430466 -0.009095382599142568 0 -0.039742369257376842 -0.0084570521920606379 0 -0.039362595496166802 -0.0088917404624728243 0 -0.039742369257376842 -0.0084570521920606379 0 -0.039360299954484063 -0.0082009691759338359 0 -0.039742369257376842 -0.0084570521920606379 0 -0.039360299954484063 -0.0082009691759338359 0 -0.039652582029962885 -0.0077907450040424391 0 -0.039360299954484063 -0.0082009691759338359 0 -0.039652582029962885 -0.0077907450040424391 0 -0.03926900231685005 -0.0075732886414823369 0 -0.039652582029962885 -0.0077907450040424391 0 -0.040085637934821734 -0.0081067521896034649 0 -0.039850342240272375 -0.0071815257034759444 0 -0.039742369257376842 -0.0084570521920606379 0 -0.039652582029962885 -0.0077907450040424391 0 -0.040085637934821734 -0.0081067521896034649 0 -0.038924735739320121 -0.008564431125430174 0 -0.038545359340404345 -0.0080600223276921512 0 -0.03844715667544002 -0.0088594307785373333 0 -0.039360299954484063 -0.0082009691759338359 0 -0.038924735739320121 -0.008564431125430174 0 -0.038952171949851254 -0.0079805332969485193 0 -0.039362595496166802 -0.0088917404624728243 0 -0.039360299954484063 -0.0082009691759338359 0 -0.038924735739320121 -0.008564431125430174 0 -0.039360299954484063 -0.0082009691759338359 0 -0.038952171949851254 -0.0079805332969485193 0 -0.03926900231685005 -0.0075732886414823369 0 -0.038924735739320121 -0.008564431125430174 0 -0.038952171949851254 -0.0079805332969485193 0 -0.038545359340404345 -0.0080600223276921512 0 -0.038952171949851254 -0.0079805332969485193 0 -0.038545359340404345 -0.0080600223276921512 0 -0.038723548434301529 -0.0073508291491460867 0 -0.038545359340404345 -0.0080600223276921512 0 -0.037931017056059523 -0.0082476663704514203 0 -0.03844715667544002 -0.0088594307785373333 0 -0.038545359340404345 -0.0080600223276921512 0 -0.037931017056059523 -0.0082476663704514203 0 -0.038083736509329891 -0.0073633583476477547 0 -0.037931017056059523 -0.0082476663704514203 0 -0.037866754266650593 -0.0091262887861217404 0 -0.037227459745456368 -0.0084916262862957757 0 -0.037931017056059523 -0.0082476663704514203 0 -0.037473613564857559 -0.0076376693903651878 0 -0.037227459745456368 -0.0084916262862957757 0 -0.038433039889352476 -0.0097367491392591626 0 -0.037866754266650593 -0.0091262887861217404 0 -0.03844715667544002 -0.0088594307785373333 0 -0.037931017056059523 -0.0082476663704514203 0 -0.037866754266650593 -0.0091262887861217404 0 -0.03844715667544002 -0.0088594307785373333 0 -0.031437139681921175 -0.012911828690916402 0 -0.031303415509837687 -0.012252278697534098 0 -0.031616399082810734 -0.011745761988672642 0 -0.027819002666719446 -0.013937251441898198 0 -0.02140861739230572 -0.013461125309774922 0 -0.02236232284262972 -0.015716409976516198 0 -0.021611782977441988 -0.017475349648924072 0 -0.021293081165833765 -0.016099979947757657 0 -0.021761526167277202 -0.014780176962738489 0 -0.02236232284262972 -0.015716409976516198 0 -0.021293081165833765 -0.016099979947757657 0 -0.026271412833631765 -0.016869281968304242 0 -0.027819002666719446 -0.013937251441898198 0 -0.030842398002820744 -0.015134740192076437 0 -0.031437139681921175 -0.012911828690916402 0 -0.030922704458379205 -0.013233678344404762 0 -0.023119016903523273 -0.013998585299081443 0 -0.021761526167277202 -0.014780176962738489 0 -0.02236232284262972 -0.015716409976516198 0 -0.031161511913945814 -0.013047956477226806 0 -0.033213892068748072 -0.011235530019711653 0 -0.031437139681921175 -0.012911828690916402 0 -0.030922704458379205 -0.013233678344404762 0 -0.030709814682442833 -0.012452131235280224 0 -0.031437139681921175 -0.012911828690916402 0 -0.031303415509837687 -0.012252278697534098 0 -0.030709814682442833 -0.012452131235280224 0 -0.031303415509837687 -0.012252278697534098 0 -0.030709814682442833 -0.012452131235280224 0 -0.031322590452806366 -0.011922344062429919 0 -0.033213892068748072 -0.011235530019711653 0 -0.035145669633882902 -0.012143397761890528 0 -0.041579187792002613 -0.0099603367493828789 0 -0.041054248268977432 -0.0095736406622474717 0 -0.040471782517436425 -0.0099700175984654121 0 -0.041579187792002613 -0.0099603367493828789 0 -0.040244742932363506 -0.011081940393107878 0 -0.040471782517436425 -0.0099700175984654121 0 -0.041054248268977432 -0.0095736406622474717 0 -0.040471782517436425 -0.0099700175984654121 0 -0.040326493303651505 -0.0092931897264249153 0 -0.030922704458379205 -0.013233678344404762 0 -0.030158386484057585 -0.014049962629037042 0 -0.029240909622351919 -0.013315380330271912 0 -0.030922704458379205 -0.013233678344404762 0 -0.030575583974318827 -0.012209854260886438 0 -0.029240909622351919 -0.013315380330271912 0 -0.040244742932363506 -0.011081940393107878 0 -0.039690199270577972 -0.010840308624039818 0 -0.039937314623973791 -0.01038776404443211 0 -0.035858792522993191 -0.012826560047688763 0 -0.035145669633882902 -0.012143397761890528 0 -0.039515936631373698 -0.011523903837812292 0 -0.040244742932363506 -0.011081940393107878 0 -0.039690199270577972 -0.010840308624039818 0 -0.03948325918559506 -0.010311719822361213 0 -0.039690199270577972 -0.010840308624039818 0 -0.039937314623973791 -0.01038776404443211 0 -0.040244742932363506 -0.011081940393107878 0 -0.039937314623973791 -0.01038776404443211 0 -0.040471782517436425 -0.0099700175984654121 0 -0.03948325918559506 -0.010311719822361213 0 -0.039937314623973791 -0.01038776404443211 0 -0.039889741505990048 -0.0097558670315188185 0 -0.040471782517436425 -0.0099700175984654121 0 -0.039889741505990048 -0.0097558670315188185 0 -0.040326493303651505 -0.0092931897264249153 0 -0.039937314623973791 -0.01038776404443211 0 -0.040471782517436425 -0.0099700175984654121 0 -0.039889741505990048 -0.0097558670315188185 0 -0.039805124957430466 -0.009095382599142568 0 -0.039889741505990048 -0.0097558670315188185 0 -0.040326493303651505 -0.0092931897264249153 0 -0.040326493303651505 -0.0092931897264249153 0 -0.040655736797778765 -0.0087033654649428006 0 -0.040182012802969208 -0.0086408899953724031 0 -0.039805124957430466 -0.009095382599142568 0 -0.040326493303651505 -0.0092931897264249153 0 -0.040182012802969208 -0.0086408899953724031 0 -0.040470828821512789 -0.0081860974355044205 0 -0.040960540564541903 -0.0080510878016742757 0 -0.039850342240272375 -0.0071815257034759444 0 -0.039742369257376842 -0.0084570521920606379 0 -0.040182012802969208 -0.0086408899953724031 0 -0.040085637934821734 -0.0081067521896034649 0 -0.040182012802969208 -0.0086408899953724031 0 -0.040085637934821734 -0.0081067521896034649 0 -0.040470828821512789 -0.0081860974355044205 0 -0.040085637934821734 -0.0081067521896034649 0 -0.040470828821512789 -0.0081860974355044205 0 -0.039850342240272375 -0.0071815257034759444 0 -0.040655736797778765 -0.0087033654649428006 0 -0.040182012802969208 -0.0086408899953724031 0 -0.040470828821512789 -0.0081860974355044205 0 -0.040655736797778765 -0.0087033654649428006 0 -0.040470828821512789 -0.0081860974355044205 0 -0.040960540564541903 -0.0080510878016742757 0 -0.014931567703360772 -0.010737893434072351 0 -0.028957231512951872 -0.0079999121399307368 0 -0.040655736797778765 -0.0087033654649428006 0 -0.040960540564541903 -0.0080510878016742757 0 -0.041230554486079846 -0.008955003471967685 0 -0.033986957467401685 -0.0097148736842083503 0 -0.036249028938516073 -0.010608458285174469 0 -0.033986957467401685 -0.0097148736842083503 0 -0.026983674781881947 -0.01085244591929653 0 -0.030834289002936419 -0.011459329673435489 0 -0.030929273503732611 -0.011792307531131693 0 -0.031132978784688192 -0.011610834008465645 0 -0.02716328397729488 -0.011886806874236733 0 -0.02327115483243411 -0.010966720562189516 0 -0.027498067753894226 -0.012740626733500387 0 -0.033986957467401685 -0.0097148736842083503 0 -0.028957231512951872 -0.0079999121399307368 0 -0.041579187792002613 -0.0099603367493828789 0 -0.041054248268977432 -0.0095736406622474717 0 -0.041230554486079846 -0.008955003471967685 0 -0.033213892068748072 -0.011235530019711653 0 -0.036249028938516073 -0.010608458285174469 0 -0.041054248268977432 -0.0095736406622474717 0 -0.040655736797778765 -0.0087033654649428006 0 -0.041230554486079846 -0.008955003471967685 0 -0.041054248268977432 -0.0095736406622474717 0 -0.040326493303651505 -0.0092931897264249153 0 -0.040655736797778765 -0.0087033654649428006 0 -0.031054664848076036 -0.012132219218007686 0 -0.030929273503732611 -0.011792307531131693 0 -0.031107507172756385 -0.011869423798038379 0 -0.031054664848076036 -0.012132219218007686 0 -0.031107507172756385 -0.011869423798038379 0 -0.031322590452806366 -0.011922344062429919 0 -0.033213892068748072 -0.011235530019711653 0 -0.0305989439083688 -0.012507603322514008 0 -0.031107507172756385 -0.011869423798038379 0 -0.031132978784688192 -0.011610834008465645 0 -0.031322590452806366 -0.011922344062429919 0 -0.030929273503732611 -0.011792307531131693 0 -0.031107507172756385 -0.011869423798038379 0 -0.031132978784688192 -0.011610834008465645 0 -0.02327115483243411 -0.010966720562189516 0 -0.023191652730952191 -0.010351871848350474 0 -0.019283918848871536 -0.0092604977262662133 0 -0.02716328397729488 -0.011886806874236733 0 -0.02327115483243411 -0.010966720562189516 0 -0.023191652730952191 -0.010351871848350474 0 -0.010679420983211221 -0.01134435771276124 0 -0.011618365210529835 -0.010924420274301237 0 -0.010336560625897398 -0.010257660570100942 0 -0.010679420983211221 -0.01134435771276124 0 -0.010336560625897398 -0.010257660570100942 0 -0.0090557769948709163 -0.010457165748003717 0 -0.010679420983211221 -0.01134435771276124 0 -0.011618365210529835 -0.010924420274301237 0 -0.012278854541488674 -0.012231427808857671 0 -0.014931567703360772 -0.010737893434072351 0 -0.017382963197323246 -0.012551827065843167 0 -0.011618365210529835 -0.010924420274301237 0 -0.012459493421096944 -0.010688939896067435 0 -0.012515405242879257 -0.011574467107413349 0 -0.011618365210529835 -0.010924420274301237 0 -0.012278854541488674 -0.012231427808857671 0 -0.012515405242879257 -0.011574467107413349 0 -0.017382963197323246 -0.012551827065843167 0 -0.014458080300214551 -0.012685751580747539 0 -0.023191652730952191 -0.010351871848350474 0 -0.019283918848871536 -0.0092604977262662133 0 -0.019441749467779313 -0.0088722473603643787 0 -0.026983674781881947 -0.01085244591929653 0 -0.02140861739230572 -0.013461125309774922 0 -0.031132978784688192 -0.011610834008465645 0 -0.031616399082810734 -0.011745761988672642 0 -0.031322590452806366 -0.011922344062429919 0 -0.017382963197323246 -0.012551827065843167 0 -0.02140861739230572 -0.013461125309774922 0 -0.031303415509837687 -0.012252278697534098 0 -0.031616399082810734 -0.011745761988672642 0 -0.031322590452806366 -0.011922344062429919 0 -0.011359217237982937 -0.0080691553575290859 0 -0.012138303328797844 -0.0095613779712492922 0 -0.010720222278562492 -0.0093276267215571008 0 -0.011359217237982937 -0.0080691553575290859 0 -0.012138303328797844 -0.0095613779712492922 0 -0.013159143901976558 -0.008197122878974273 0 -0.011618365210529835 -0.010924420274301237 0 -0.012138303328797844 -0.0095613779712492922 0 -0.010720222278562492 -0.0093276267215571008 0 -0.011618365210529835 -0.010924420274301237 0 -0.012138303328797844 -0.0095613779712492922 0 -0.012459493421096944 -0.010688939896067435 0 -0.011618365210529835 -0.010924420274301237 0 -0.010720222278562492 -0.0093276267215571008 0 -0.010336560625897398 -0.010257660570100942 0 -0.010720222278562492 -0.0093276267215571008 0 -0.010336560625897398 -0.010257660570100942 0 -0.0096000135582056702 -0.0092268317702835761 0 -0.011359217237982937 -0.0080691553575290859 0 -0.010720222278562492 -0.0093276267215571008 0 -0.0099392473064026446 -0.0080230733067868862 0 -0.010720222278562492 -0.0093276267215571008 0 -0.0099392473064026446 -0.0080230733067868862 0 -0.0096000135582056702 -0.0092268317702835761 0 -0.0099392473064026446 -0.0080230733067868862 0 -0.0096000135582056702 -0.0092268317702835761 0 -0.0082944801244393563 -0.0082602031239652467 0 -0.0099392473064026446 -0.0080230733067868862 0 -0.0082944801244393563 -0.0082602031239652467 0 -0.0091051633898488003 -0.006934997447626573 0 -0.010336560625897398 -0.010257660570100942 0 -0.0096000135582056702 -0.0092268317702835761 0 -0.0090557769948709163 -0.010457165748003717 0 -0.0096000135582056702 -0.0092268317702835761 0 -0.0090557769948709163 -0.010457165748003717 0 -0.0082944801244393563 -0.0082602031239652467 0 -0.040059508726344811 -0.0074567362851508884 0 -0.039960159192835999 -0.0072528661088968665 0 -0.039850342240272375 -0.0071815257034759444 0 -0.028957231512951872 -0.0079999121399307368 0 -0.024040404637738502 -0.007085438254951908 0 -0.033986957467401685 -0.0097148736842083503 0 -0.042350075463282129 -0.007101000619956695 0 -0.040819173645538304 -0.0069704641329397165 0 -0.040360199778707057 -0.0066966449828143246 0 -0.040602738889285922 -0.0058928513530174375 0 -0.028957231512951872 -0.0079999121399307368 0 -0.041435750849812637 -0.0078105151709821552 0 -0.040059508726344811 -0.0074567362851508884 0 -0.040048247568031652 -0.0073941576092255972 0 -0.039960159192835999 -0.0072528661088968665 0 -0.040360199778707057 -0.0066966449828143246 0 -0.040602738889285922 -0.0058928513530174375 0 -0.040137415673594246 -0.0060950825136475125 0 -0.040602738889285922 -0.0058928513530174375 0 -0.040137415673594246 -0.0060950825136475125 0 -0.040072112134575927 -0.0054491377876980237 0 -0.0076939012152988833 -0.0060512950420428587 0 -0.0092139485531405763 -0.0055703702714105805 0 -0.0091051633898488003 -0.006934997447626573 0 -0.024040404637738502 -0.007085438254951908 0 -0.023498431067627366 -0.0054670813767232302 0 -0.040602738889285922 -0.0058928513530174375 0 -0.040107000634416988 -0.0047341226074080539 0 -0.040072112134575927 -0.0054491377876980237 0 -0.0082944801244393563 -0.0082602031239652467 0 -0.0076939012152988833 -0.0060512950420428587 0 -0.0091051633898488003 -0.006934997447626573 0 -0.0076939012152988833 -0.0060512950420428587 0 -0.0092139485531405763 -0.0055703702714105805 0 -0.0083775804396641028 -0.0044849583010144736 0 -0.0076939012152988833 -0.0060512950420428587 0 -0.0071997242529118471 -0.0040650171937949451 0 -0.0083775804396641028 -0.0044849583010144736 0 -0.0092139485531405763 -0.0055703702714105805 0 -0.0083775804396641028 -0.0044849583010144736 0 -0.0094504532046269882 -0.0045504243677180175 0 -0.0092139485531405763 -0.0055703702714105805 0 -0.010402471466325553 -0.0053381218461211483 0 -0.0094504532046269882 -0.0045504243677180175 0 -0.0099392473064026446 -0.0080230733067868862 0 -0.0091051633898488003 -0.006934997447626573 0 -0.010419181560737744 -0.0068142027130225014 0 -0.0092139485531405763 -0.0055703702714105805 0 -0.0091051633898488003 -0.006934997447626573 0 -0.010419181560737744 -0.0068142027130225014 0 -0.011359217237982937 -0.0080691553575290859 0 -0.010419181560737744 -0.0068142027130225014 0 -0.011882167610582976 -0.0064505540314601919 0 -0.010419181560737744 -0.0068142027130225014 0 -0.010402471466325553 -0.0053381218461211483 0 -0.011882167610582976 -0.0064505540314601919 0 -0.011359217237982937 -0.0080691553575290859 0 -0.0099392473064026446 -0.0080230733067868862 0 -0.010419181560737744 -0.0068142027130225014 0 -0.0092139485531405763 -0.0055703702714105805 0 -0.010419181560737744 -0.0068142027130225014 0 -0.010402471466325553 -0.0053381218461211483 0 -0.010402471466325553 -0.0053381218461211483 0 -0.011882167610582976 -0.0064505540314601919 0 -0.012274742931055594 -0.0043223801825026595 0 -0.011359217237982937 -0.0080691553575290859 0 -0.011882167610582976 -0.0064505540314601919 0 -0.013159143901976558 -0.008197122878974273 0 -0.038831174945508175 -0.0058644195906265573 0 -0.037800827680544449 -0.0055298930374175935 0 -0.038357392844556644 -0.0066054287432312404 0 -0.038083736509329891 -0.0073633583476477547 0 -0.037489541533293071 -0.0064206949690827899 0 -0.037931017056059523 -0.0082476663704514203 0 -0.038083736509329891 -0.0073633583476477547 0 -0.037473613564857559 -0.0076376693903651878 0 -0.038083736509329891 -0.0073633583476477547 0 -0.037489541533293071 -0.0064206949690827899 0 -0.037473613564857559 -0.0076376693903651878 0 -0.038357392844556644 -0.0066054287432312404 0 -0.038083736509329891 -0.0073633583476477547 0 -0.038723548434301529 -0.0073508291491460867 0 -0.038545359340404345 -0.0080600223276921512 0 -0.038083736509329891 -0.0073633583476477547 0 -0.038723548434301529 -0.0073508291491460867 0 -0.038357392844556644 -0.0066054287432312404 0 -0.038723548434301529 -0.0073508291491460867 0 -0.039187429506083143 -0.0068890623945705338 0 -0.038723548434301529 -0.0073508291491460867 0 -0.03926900231685005 -0.0075732886414823369 0 -0.039187429506083143 -0.0068890623945705338 0 -0.038952171949851254 -0.0079805332969485193 0 -0.038723548434301529 -0.0073508291491460867 0 -0.03926900231685005 -0.0075732886414823369 0 -0.039652582029962885 -0.0077907450040424391 0 -0.039850342240272375 -0.0071815257034759444 0 -0.03956119997402853 -0.0072206775987419917 0 -0.03926900231685005 -0.0075732886414823369 0 -0.039187429506083143 -0.0068890623945705338 0 -0.03956119997402853 -0.0072206775987419917 0 -0.039652582029962885 -0.0077907450040424391 0 -0.03926900231685005 -0.0075732886414823369 0 -0.03956119997402853 -0.0072206775987419917 0 -0.039187429506083143 -0.0068890623945705338 0 -0.03977685331688148 -0.0066789831560334009 0 -0.039650425877249408 -0.0061465658939643102 0 -0.039187429506083143 -0.0068890623945705338 0 -0.03956119997402853 -0.0072206775987419917 0 -0.03977685331688148 -0.0066789831560334009 0 -0.039850342240272375 -0.0071815257034759444 0 -0.03956119997402853 -0.0072206775987419917 0 -0.03977685331688148 -0.0066789831560334009 0 -0.039960159192835999 -0.0072528661088968665 0 -0.039850342240272375 -0.0071815257034759444 0 -0.03977685331688148 -0.0066789831560334009 0 -0.041435750849812637 -0.0078105151709821552 0 -0.039341359373215569 -0.0065394600291292793 0 -0.040360199778707057 -0.0066966449828143246 0 -0.03977685331688148 -0.0066789831560334009 0 -0.040137415673594246 -0.0060950825136475125 0 -0.040137415673594246 -0.0060950825136475125 0 -0.039650425877249408 -0.0061465658939643102 0 -0.039839986734697151 -0.0056416547738033897 0 -0.03977685331688148 -0.0066789831560334009 0 -0.040137415673594246 -0.0060950825136475125 0 -0.039650425877249408 -0.0061465658939643102 0 -0.039650425877249408 -0.0061465658939643102 0 -0.039839986734697151 -0.0056416547738033897 0 -0.039639524352441065 -0.0054827930373674083 0 -0.039839986734697151 -0.0056416547738033897 0 -0.039639524352441065 -0.0054827930373674083 0 -0.039640911501095465 -0.0050423116241096353 0 -0.040137415673594246 -0.0060950825136475125 0 -0.039839986734697151 -0.0056416547738033897 0 -0.040072112134575927 -0.0054491377876980237 0 -0.038831174945508175 -0.0058644195906265573 0 -0.039695593982520386 -0.0061301162954169527 0 -0.039203863057687055 -0.005098444972012753 0 -0.039650425877249408 -0.0061465658939643102 0 -0.03945913626164213 -0.005187670730734722 0 -0.038357392844556644 -0.0066054287432312404 0 -0.039187429506083143 -0.0068890623945705338 0 -0.039650425877249408 -0.0061465658939643102 0 -0.039650425877249408 -0.0061465658939643102 0 -0.039639524352441065 -0.0054827930373674083 0 -0.03945913626164213 -0.005187670730734722 0 -0.039640911501095465 -0.0050423116241096353 0 -0.039509136761465419 -0.0045351163273226877 0 -0.039442210000648271 -0.0045475448725304035 0 -0.03945913626164213 -0.005187670730734722 0 -0.039640911501095465 -0.0050423116241096353 0 -0.039442210000648271 -0.0045475448725304035 0 -0.039639524352441065 -0.0054827930373674083 0 -0.03945913626164213 -0.005187670730734722 0 -0.039640911501095465 -0.0050423116241096353 0 -0.040107000634416988 -0.0047341226074080539 0 -0.040072112134575927 -0.0054491377876980237 0 -0.039640911501095465 -0.0050423116241096353 0 -0.040107000634416988 -0.0047341226074080539 0 -0.039640911501095465 -0.0050423116241096353 0 -0.039509136761465419 -0.0045351163273226877 0 -0.039839986734697151 -0.0056416547738033897 0 -0.040072112134575927 -0.0054491377876980237 0 -0.039640911501095465 -0.0050423116241096353 0 -0.040107000634416988 -0.0047341226074080539 0 -0.039509136761465419 -0.0045351163273226877 0 -0.039760773293113873 -0.0041025279764977853 0 -0.023498431067627366 -0.0054670813767232302 0 -0.027623576786934022 -0.0032143032360444942 0 -0.041587055460529238 -0.0028296949464148274 0 -0.03901913687590193 -0.0049562814594840392 0 -0.040624559509557907 -0.0030823151229755832 0 -0.039610140571313332 -0.0033308615469446268 0 -0.039442210000648271 -0.0045475448725304035 0 -0.040624559509557907 -0.0030823151229755832 0 -0.039610140571313332 -0.0033308615469446268 0 -0.040055838814939293 -0.0018258138155438962 0 -0.038919536844003629 -0.0029066404214065757 0 -0.039610140571313332 -0.0033308615469446268 0 -0.040055838814939293 -0.0018258138155438962 0 -0.038919536844003629 -0.0029066404214065757 0 -0.039610140571313332 -0.0033308615469446268 0 -0.038816334779575704 -0.0041802732865146982 0 -0.039610140571313332 -0.0033308615469446268 0 -0.039442210000648271 -0.0045475448725304035 0 -0.038816334779575704 -0.0041802732865146982 0 -0.039203863057687055 -0.005098444972012753 0 -0.039442210000648271 -0.0045475448725304035 0 -0.038816334779575704 -0.0041802732865146982 0 -0.039203863057687055 -0.005098444972012753 0 -0.03945913626164213 -0.005187670730734722 0 -0.039442210000648271 -0.0045475448725304035 0 -0.038816334779575704 -0.0041802732865146982 0 -0.037978432145260366 -0.0032750149718794659 0 -0.038124915825961045 -0.0046514129294742985 0 -0.039203863057687055 -0.005098444972012753 0 -0.038816334779575704 -0.0041802732865146982 0 -0.038124915825961045 -0.0046514129294742985 0 -0.038919536844003629 -0.0029066404214065757 0 -0.038816334779575704 -0.0041802732865146982 0 -0.037978432145260366 -0.0032750149718794659 0 -0.037978432145260366 -0.0032750149718794659 0 -0.036858020730821131 -0.0027556968227049347 0 -0.036837581680360949 -0.0044870510922157322 0 -0.037978432145260366 -0.0032750149718794659 0 -0.036858020730821131 -0.0027556968227049347 0 -0.037481689672012944 -0.0020748276660269181 0 -0.037978432145260366 -0.0032750149718794659 0 -0.036837581680360949 -0.0044870510922157322 0 -0.038124915825961045 -0.0046514129294742985 0 -0.036532303503512505 -0.0051382057970017743 0 -0.037800827680544449 -0.0055298930374175935 0 -0.037489541533293071 -0.0064206949690827899 0 -0.036839082949257099 -0.0070824734005246167 0 -0.037473613564857559 -0.0076376693903651878 0 -0.03639863451684891 -0.0057988885524785372 0 -0.037489541533293071 -0.0064206949690827899 0 -0.036839082949257099 -0.0070824734005246167 0 -0.03639863451684891 -0.0057988885524785372 0 -0.036839082949257099 -0.0070824734005246167 0 -0.036081243432250915 -0.0067630610145383539 0 -0.036839082949257099 -0.0070824734005246167 0 -0.036153146438073172 -0.0077698812759767651 0 -0.036081243432250915 -0.0067630610145383539 0 -0.036839082949257099 -0.0070824734005246167 0 -0.036153146438073172 -0.0077698812759767651 0 -0.036772498161073232 -0.0079763553497097447 0 -0.036839082949257099 -0.0070824734005246167 0 -0.037473613564857559 -0.0076376693903651878 0 -0.036772498161073232 -0.0079763553497097447 0 -0.035300979135610609 -0.0075155581600171665 0 -0.035088653077602179 -0.0063872179670153677 0 -0.033912983078569242 -0.0076907392865096158 0 -0.035300979135610609 -0.0075155581600171665 0 -0.033912983078569242 -0.0076907392865096158 0 -0.035198884095374257 -0.0085316934963454768 0 -0.035300979135610609 -0.0075155581600171665 0 -0.036153146438073172 -0.0077698812759767651 0 -0.035198884095374257 -0.0085316934963454768 0 -0.035300979135610609 -0.0075155581600171665 0 -0.036081243432250915 -0.0067630610145383539 0 -0.035088653077602179 -0.0063872179670153677 0 -0.035300979135610609 -0.0075155581600171665 0 -0.036153146438073172 -0.0077698812759767651 0 -0.036081243432250915 -0.0067630610145383539 0 -0.03639863451684891 -0.0057988885524785372 0 -0.036081243432250915 -0.0067630610145383539 0 -0.035088653077602179 -0.0063872179670153677 0 -0.035088653077602179 -0.0063872179670153677 0 -0.034756642263928453 -0.0047540450238129674 0 -0.033547363439737715 -0.0058118028902259524 0 -0.035088653077602179 -0.0063872179670153677 0 -0.033547363439737715 -0.0058118028902259524 0 -0.033912983078569242 -0.0076907392865096158 0 -0.034756642263928453 -0.0047540450238129674 0 -0.03401301135007942 -0.0043556727349393096 0 -0.033547363439737715 -0.0058118028902259524 0 -0.034756642263928453 -0.0047540450238129674 0 -0.03401301135007942 -0.0043556727349393096 0 -0.034591286909310501 -0.0033006469340835895 0 -0.03639863451684891 -0.0057988885524785372 0 -0.035088653077602179 -0.0063872179670153677 0 -0.034756642263928453 -0.0047540450238129674 0 -0.036837581680360949 -0.0044870510922157322 0 -0.034756642263928453 -0.0047540450238129674 0 -0.035878489642822912 -0.0034444648604350751 0 -0.036532303503512505 -0.0051382057970017743 0 -0.034794791358234926 -0.0047673790307638181 0 -0.036858020730821131 -0.0027556968227049347 0 -0.036837581680360949 -0.0044870510922157322 0 -0.035878489642822912 -0.0034444648604350751 0 -0.035878489642822912 -0.0034444648604350751 0 -0.034591286909310501 -0.0033006469340835895 0 -0.035995887179934474 -0.0018653046055985096 0 -0.036858020730821131 -0.0027556968227049347 0 -0.035878489642822912 -0.0034444648604350751 0 -0.035995887179934474 -0.0018653046055985096 0 -0.034591286909310501 -0.0033006469340835895 0 -0.033183954544249147 -0.0035069042112179992 0 -0.034538698729635511 -0.0019105168728941935 0 -0.034756642263928453 -0.0047540450238129674 0 -0.035878489642822912 -0.0034444648604350751 0 -0.034591286909310501 -0.0033006469340835895 0 -0.037344578551891515 -0.00046035249298319878 0 -0.037293993180286748 -0.00034970825736954669 0 -0.037141235258378626 0.00014789891289485391 0 -0.036739224225650395 -0.0017720119423815506 0 -0.035650019932734631 -0.0010877557682782923 0 -0.03401301135007942 -0.0043556727349393096 0 -0.034591286909310501 -0.0033006469340835895 0 -0.033183954544249147 -0.0035069042112179992 0 -0.037240272221309059 -0.00052685600602682208 0 -0.03712949640524206 -0.00034017756334569425 0 -0.037099143928501714 -0.0007887330789994255 0 -0.037458911496634328 -0.00067760308947063222 0 -0.037240272221309059 -0.00052685600602682208 0 -0.037099143928501714 -0.0007887330789994255 0 -0.036739224225650395 -0.0017720119423815506 0 -0.036796604548605727 -0.001019910397863244 0 -0.037458911496634328 -0.00067760308947063222 0 -0.037240272221309059 -0.00052685600602682208 0 -0.037293993180286748 -0.00034970825736954669 0 -0.037240272221309059 -0.00052685600602682208 0 -0.037293993180286748 -0.00034970825736954669 0 -0.03712949640524206 -0.00034017756334569425 0 -0.037293993180286748 -0.00034970825736954669 0 -0.03712949640524206 -0.00034017756334569425 0 -0.037197056859976672 -0.0001059878048948828 0 -0.03712949640524206 -0.00034017756334569425 0 -0.036907936844137568 -0.00044495670317700294 0 -0.036953604720149483 -0.00010789089181973122 0 -0.03712949640524206 -0.00034017756334569425 0 -0.036907936844137568 -0.00044495670317700294 0 -0.037099143928501714 -0.0007887330789994255 0 -0.036907936844137568 -0.00044495670317700294 0 -0.036607258861919179 -0.00044181005477286842 0 -0.036806888351975792 -0.0009075908371145347 0 -0.036907936844137568 -0.00044495670317700294 0 -0.036607258861919179 -0.00044181005477286842 0 -0.036712333196531138 -0.00013505873130501358 0 -0.036607258861919179 -0.00044181005477286842 0 -0.036806888351975792 -0.0009075908371145347 0 -0.036483823653975025 -0.00082875610766061593 0 -0.036806888351975792 -0.0009075908371145347 0 -0.036483823653975025 -0.00082875610766061593 0 -0.036534192737685829 -0.0013329527873855486 0 -0.036907936844137568 -0.00044495670317700294 0 -0.036806888351975792 -0.0009075908371145347 0 -0.037099143928501714 -0.0007887330789994255 0 -0.036806888351975792 -0.0009075908371145347 0 -0.037099143928501714 -0.0007887330789994255 0 -0.037081372637496703 -0.0019497278865482819 0 -0.036806888351975792 -0.0009075908371145347 0 -0.037081372637496703 -0.0019497278865482819 0 -0.036534192737685829 -0.0013329527873855486 0 -0.037458911496634328 -0.00067760308947063222 0 -0.037099143928501714 -0.0007887330789994255 0 -0.037081372637496703 -0.0019497278865482819 0 -0.036739224225650395 -0.0017720119423815506 0 -0.037494803507149066 -0.0019250204890835158 0 -0.03401301135007942 -0.0043556727349393096 0 -0.033183954544249147 -0.0035069042112179992 0 -0.033547363439737715 -0.0058118028902259524 0 -0.038472203976473496 -0.0010734922505394907 0 -0.037501297614826151 -0.0022780795917381651 0 -0.038725137030546898 -0.0025568449765599856 0 -0.036739224225650395 -0.0017720119423815506 0 -0.036058037889705657 -0.0043002135834350457 0 -0.035515881621260917 -0.0010257504830728154 0 -0.03499976832462405 -0.0016801450640279508 0 -0.03525022709433228 -0.00032984418345564801 0 -0.035000062457952175 -0.0016797630287744298 0 -0.035269225239461383 -0.00015118229969086683 0 -0.035000020042299768 -0.0016800760332816459 0 -0.034999953801769144 0.0001576083407602205 0 -0.035310910518601218 4.4379750508633542e-05 0 -0.035515881621260917 -0.0010257504830728154 0 -0.03525022709433228 -0.00032984418345564801 0 -0.035600271465881919 -0.00036052551750905036 0 -0.035515881621260917 -0.0010257504830728154 0 -0.035899554052784791 -0.00049320947055829175 0 -0.035600271465881919 -0.00036052551750905036 0 -0.035515881621260917 -0.0010257504830728154 0 -0.036160241529387877 -0.0010084851474705505 0 -0.035899554052784791 -0.00049320947055829175 0 -0.036160241529387877 -0.0010084851474705505 0 -0.035899554052784791 -0.00049320947055829175 0 -0.036295804669935691 -0.00049392339649638169 0 -0.035899554052784791 -0.00049320947055829175 0 -0.036295804669935691 -0.00049392339649638169 0 -0.036121167459878194 -8.4760350009449898e-05 0 -0.036607258861919179 -0.00044181005477286842 0 -0.036295804669935691 -0.00049392339649638169 0 -0.036438782438043833 -0.00019396132504386743 0 -0.036607258861919179 -0.00044181005477286842 0 -0.036295804669935691 -0.00049392339649638169 0 -0.036483823653975025 -0.00082875610766061593 0 -0.036160241529387877 -0.0010084851474705505 0 -0.036483823653975025 -0.00082875610766061593 0 -0.036534192737685829 -0.0013329527873855486 0 -0.036160241529387877 -0.0010084851474705505 0 -0.036295804669935691 -0.00049392339649638169 0 -0.036483823653975025 -0.00082875610766061593 0 -0.037081372637496703 -0.0019497278865482819 0 -0.036088058009735177 -0.0020771623608597635 0 -0.036534192737685829 -0.0013329527873855486 0 -0.035515881621260917 -0.0010257504830728154 0 -0.036160241529387877 -0.0010084851474705505 0 -0.036088058009735177 -0.0020771623608597635 0 -0.036160241529387877 -0.0010084851474705505 0 -0.036088058009735177 -0.0020771623608597635 0 -0.036534192737685829 -0.0013329527873855486 0 -0.035515881621260917 -0.0010257504830728154 0 -0.036088058009735177 -0.0020771623608597635 0 -0.03499976832462405 -0.0016801450640279508 0 -0.036088058009735177 -0.0020771623608597635 0 -0.03499976832462405 -0.0016801450640279508 0 -0.034999876470623158 -0.003613791071407412 0 -0.036088058009735177 -0.0020771623608597635 0 -0.036439333184536959 -0.0034782223242128233 0 -0.034999876470623158 -0.003613791071407412 0 -0.037494803507149066 -0.0019250204890835158 0 -0.036365706303424193 -0.0034979622352473813 0 -0.037081372637496703 -0.0019497278865482819 0 -0.036088058009735177 -0.0020771623608597635 0 -0.036439333184536959 -0.0034782223242128233 0 -0.036439333184536959 -0.0034782223242128233 0 -0.034999876470623158 -0.003613791071407412 0 -0.036246718864864795 -0.0049513715209585658 0 -0.037501297614826151 -0.0022780795917381651 0 -0.038725137030546898 -0.0025568449765599856 0 -0.037859781815908738 -0.0034871747157264221 0 -0.036058037889705657 -0.0043002135834350457 0 -0.036503894944723288 -0.005750634738304782 0 -0.037501297614826151 -0.0022780795917381651 0 -0.036439333184536959 -0.0034782223242128233 0 -0.037859781815908738 -0.0034871747157264221 0 -0.036439333184536959 -0.0034782223242128233 0 -0.037859781815908738 -0.0034871747157264221 0 -0.037597158659634838 -0.0050774625828810633 0 -0.038725137030546898 -0.0025568449765599856 0 -0.037859781815908738 -0.0034871747157264221 0 -0.039013504329232722 -0.0041351669437014694 0 -0.037859781815908738 -0.0034871747157264221 0 -0.039013504329232722 -0.0041351669437014694 0 -0.037597158659634838 -0.0050774625828810633 0 -0.039013504329232722 -0.0041351669437014694 0 -0.037597158659634838 -0.0050774625828810633 0 -0.03926230598818943 -0.005759079331030946 0 -0.037597158659634838 -0.0050774625828810633 0 -0.036359674223167555 -0.0063580172350893886 0 -0.037851594601557355 -0.0069412432279539983 0 -0.037063047917497198 -0.0085363725487774909 0 -0.036205532834919743 -0.0082545226729231983 0 -0.037597158659634838 -0.0050774625828810633 0 -0.037851594601557355 -0.0069412432279539983 0 -0.03926230598818943 -0.005759079331030946 0 -0.034999876470623158 -0.003613791071407412 0 -0.036246718864864795 -0.0049513715209585658 0 -0.034999941538431119 -0.0055477790276416894 0 -0.036439333184536959 -0.0034782223242128233 0 -0.037597158659634838 -0.0050774625828810633 0 -0.036246718864864795 -0.0049513715209585658 0 -0.037597158659634838 -0.0050774625828810633 0 -0.036246718864864795 -0.0049513715209585658 0 -0.036359674223167555 -0.0063580172350893886 0 -0.036246718864864795 -0.0049513715209585658 0 -0.036359674223167555 -0.0063580172350893886 0 -0.034999941538431119 -0.0055477790276416894 0 -0.036359674223167555 -0.0063580172350893886 0 -0.034999941538431119 -0.0055477790276416894 0 -0.034999947423883515 -0.0074815600829659856 0 -0.036359674223167555 -0.0063580172350893886 0 -0.034999947423883515 -0.0074815600829659856 0 -0.036445755084514787 -0.0081625110295469785 0 -0.036359674223167555 -0.0063580172350893886 0 -0.036445755084514787 -0.0081625110295469785 0 -0.037851594601557355 -0.0069412432279539983 0 -0.034999997362930559 -0.0094154024702432088 0 -0.034999947423883515 -0.0074815600829659856 0 -0.036445755084514787 -0.0081625110295469785 0 -0.035769169454465025 -0.010331072201605328 0 -0.035722838273157254 -0.010313813515798102 0 -0.03574328227362443 -0.010311485450194981 0 -0.035769169454465025 -0.010331072201605328 0 -0.035807068860611642 -0.010511042607651516 0 -0.035722838273157254 -0.010313813515798102 0 -0.035929005744709086 -0.0092192821993063861 0 -0.037063047917497198 -0.0085363725487774909 0 -0.035773932180088744 -0.010536074508085984 0 -0.035621421302774361 -0.010221122255399709 0 -0.035807068860611642 -0.010511042607651516 0 -0.035621421302774361 -0.010221122255399709 0 -0.035769169454465025 -0.010331072201605328 0 -0.035807068860611642 -0.010511042607651516 0 -0.035807068860611642 -0.010511042607651516 0 -0.035923255469349685 -0.010768749227042277 0 -0.035722838273157254 -0.010313813515798102 0 -0.036133352009127047 -0.011170693909778531 0 -0.035923255469349685 -0.010768749227042277 0 -0.035722838273157254 -0.010313813515798102 0 -0.035586984192657774 -0.010825975243483395 0 -0.036205532834919743 -0.0082545226729231983 0 -0.035722838273157254 -0.010313813515798102 0 -0.036369688366463759 -0.010597562914999322 0 -0.036372345094804394 -0.0097702570374457367 0 -0.035722838273157254 -0.010313813515798102 0 -0.036372345094804394 -0.0097702570374457367 0 -0.03584412524451621 -0.0093291612552343778 0 -0.036133352009127047 -0.011170693909778531 0 -0.035722838273157254 -0.010313813515798102 0 -0.036369688366463759 -0.010597562914999322 0 -0.036918207770970914 -0.011102971841274116 0 -0.036369688366463759 -0.010597562914999322 0 -0.036875865063448657 -0.010143039117763195 0 -0.036918207770970914 -0.011102971841274116 0 -0.036133352009127047 -0.011170693909778531 0 -0.036369688366463759 -0.010597562914999322 0 -0.036918207770970914 -0.011102971841274116 0 -0.037685931206690566 -0.01011955528399547 0 -0.036875865063448657 -0.010143039117763195 0 -0.037685931206690566 -0.01011955528399547 0 -0.036875865063448657 -0.010143039117763195 0 -0.037113874343484794 -0.0093587573905529343 0 -0.036369688366463759 -0.010597562914999322 0 -0.036875865063448657 -0.010143039117763195 0 -0.036372345094804394 -0.0097702570374457367 0 -0.036875865063448657 -0.010143039117763195 0 -0.036372345094804394 -0.0097702570374457367 0 -0.037113874343484794 -0.0093587573905529343 0 -0.036372345094804394 -0.0097702570374457367 0 -0.037113874343484794 -0.0093587573905529343 0 -0.036438346358364737 -0.0087737517044478904 0 -0.037866754266650593 -0.0091262887861217404 0 -0.037113874343484794 -0.0093587573905529343 0 -0.037227459745456368 -0.0084916262862957757 0 -0.037113874343484794 -0.0093587573905529343 0 -0.037227459745456368 -0.0084916262862957757 0 -0.036438346358364737 -0.0087737517044478904 0 -0.037473613564857559 -0.0076376693903651878 0 -0.037227459745456368 -0.0084916262862957757 0 -0.036772498161073232 -0.0079763553497097447 0 -0.037227459745456368 -0.0084916262862957757 0 -0.036438346358364737 -0.0087737517044478904 0 -0.036772498161073232 -0.0079763553497097447 0 -0.036153146438073172 -0.0077698812759767651 0 -0.036438346358364737 -0.0087737517044478904 0 -0.036772498161073232 -0.0079763553497097447 0 -0.036206631328547907 -0.0077874981488871824 0 -0.035202222903069326 -0.0087126597001574262 0 -0.036153146438073172 -0.0077698812759767651 0 -0.036438346358364737 -0.0087737517044478904 0 -0.03568646520705912 -0.0085451666916713399 0 -0.036438346358364737 -0.0087737517044478904 0 -0.03568646520705912 -0.0085451666916713399 0 -0.03584412524451621 -0.0093291612552343778 0 -0.033912983078569242 -0.0076907392865096158 0 -0.035198884095374257 -0.0085316934963454768 0 -0.03420423295985895 -0.0093282967760582418 0 -0.036503894944723288 -0.005750634738304782 0 -0.036205532834919743 -0.0082545226729231983 0 -0.035202222903069326 -0.0087126597001574262 0 -0.036205532834919743 -0.0082545226729231983 0 -0.035722838273157254 -0.010313813515798102 0 -0.035200931255443026 -0.0091557314010423541 0 -0.03584412524451621 -0.0093291612552343778 0 -0.03568646520705912 -0.0085451666916713399 0 -0.035200931255443026 -0.0091557314010423541 0 -0.03584412524451621 -0.0093291612552343778 0 -0.036372345094804394 -0.0097702570374457367 0 -0.036438346358364737 -0.0087737517044478904 0 -0.03584412524451621 -0.0093291612552343778 0 -0.0041160402392739293 -0.012572695408284859 0 -0.0048339963219803765 -0.011222481278493086 0 -0.0034294347455620226 -0.010506220697740772 0 -0.0047680384006066378 -0.014449688605957776 0 -0.0077539641608509579 -0.011229424541538217 0 -0.0041160402392739293 -0.012572695408284859 0 -0.0048339963219803765 -0.011222481278493086 0 -0.00657847384098262 -0.013109674858497978 0 -0.0048339963219803765 -0.011222481278493086 0 -0.006168921435182175 -0.010444424945919666 0 -0.00657847384098262 -0.013109674858497978 0 -0.0048339963219803765 -0.011222481278493086 0 -0.006168921435182175 -0.010444424945919666 0 -0.004467382443416797 -0.0090931969091023936 0 -0.0048339963219803765 -0.011222481278493086 0 -0.0034294347455620226 -0.010506220697740772 0 -0.004467382443416797 -0.0090931969091023936 0 -0.0077539641608509579 -0.011229424541538217 0 -0.0074735567563473434 -0.0089653202327581276 0 -0.010851848496652279 -0.010449357140542915 0 -0.009944376184977545 -0.010593535270329352 0 -0.01031036003422253 -0.011260308986632921 0 -0.010851848496652279 -0.010449357140542915 0 -0.009944376184977545 -0.010593535270329352 0 -0.010332103488500279 -0.010003617547590991 0 -0.0077539641608509579 -0.011229424541538217 0 -0.0076256462107694711 -0.013879902344950863 0 -0.025982949248177924 -0.013055363645668153 0 -0.024815708274573817 -0.010081541239158729 0 -0.023709236151584639 -0.012066767032621745 0 -0.025982949248177924 -0.013055363645668153 0 -0.025476670486871546 -0.016739577197212935 0 -0.023315768735619569 -0.016288401405793972 0 -0.009944376184977545 -0.010593535270329352 0 -0.01031036003422253 -0.011260308986632921 0 -0.0096766043156943145 -0.012124989716812067 0 -0.018702195923026431 -0.011854496768657363 0 -0.011504707360203878 -0.014733224571581405 0 -0.0076256462107694711 -0.013879902344950863 0 -0.011504707360203878 -0.014733224571581405 0 -0.0058862378182532133 -0.015854970090002345 0 -0.0058631680568297121 -0.01553266954126732 0 -0.0057132107775502749 -0.015770121880451418 0 -0.0057132107775502749 -0.015770121880451418 0 -0.0057595785525291912 -0.016016415730586368 0 -0.0056444773352621038 -0.015955168025692967 0 -0.0058862378182532133 -0.015854970090002345 0 -0.0057132107775502749 -0.015770121880451418 0 -0.0057595785525291912 -0.016016415730586368 0 -0.0057595785525291912 -0.016016415730586368 0 -0.0056444773352621038 -0.015955168025692967 0 -0.0057116923089657124 -0.01608089649004734 0 -0.0057020926020980153 -0.016159579402205481 0 -0.0057116923089657124 -0.01608089649004734 0 -0.005721025409552727 -0.016145418595178786 0 -0.0056444773352621038 -0.015955168025692967 0 -0.0057020926020980153 -0.016159579402205481 0 -0.0057116923089657124 -0.01608089649004734 0 -0.011504707360203878 -0.014733224571581405 0 -0.0049030498293956967 -0.016898152866223436 0 -0.0057948705889177892 -0.016145806838907342 0 -0.0057020926020980153 -0.016159579402205481 0 -0.0057527301724780971 -0.016173868837571079 0 -0.0057595785525291912 -0.016016415730586368 0 -0.0057116923089657124 -0.01608089649004734 0 -0.005721025409552727 -0.016145418595178786 0 -0.0057595785525291912 -0.016016415730586368 0 -0.0058258379039139744 -0.016059989993164239 0 -0.005721025409552727 -0.016145418595178786 0 -0.0058862378182532133 -0.015854970090002345 0 -0.0057595785525291912 -0.016016415730586368 0 -0.0058258379039139744 -0.016059989993164239 0 -0.0047680384006066378 -0.014449688605957776 0 -0.0053790101765492206 -0.015222921980690016 0 -0.0041160402392739293 -0.012572695408284859 0 -0.0048810812110648399 -0.01451994029119897 0 -0.00657847384098262 -0.013109674858497978 0 -0.0048810812110648399 -0.01451994029119897 0 -0.00657847384098262 -0.013109674858497978 0 -0.0068062532454218989 -0.015422526462122218 0 0.00894161806823888 -0.010216455611767351 0 0.01201945240098326 -0.0087238930542311178 0 0.011101748782872402 -0.013246947765672975 0 0.0027336994129601691 -0.010862070724376997 0 0.0021543900630731109 -0.014307898646016424 0 0.0080132726418252354 -0.012420559425469484 0 0.00894161806823888 -0.010216455611767351 0 0.0065204812643549111 -0.0097749351232441078 0 0.0080132726418252354 -0.012420559425469484 0 0.00894161806823888 -0.010216455611767351 0 0.011101748782872402 -0.013246947765672975 0 0.00894161806823888 -0.010216455611767351 0 0.01201945240098326 -0.0087238930542311178 0 0.0074678623325519899 -0.0073584576755898329 0 0.0035262661801919153 -0.011801472611521702 0 0.0044295179699828423 -0.010498753835666712 0 0.0019996507226125869 -0.010213888905737165 0 0.0035262661801919153 -0.011801472611521702 0 0.0038661218786173123 -0.013326021474439523 0 0.0021477672441114421 -0.013110533177021674 0 0.0035262661801919153 -0.011801472611521702 0 0.0055341587539740984 -0.012200088261322132 0 0.0038661218786173123 -0.013326021474439523 0 0.0035262661801919153 -0.011801472611521702 0 0.0055341587539740984 -0.012200088261322132 0 0.0044295179699828423 -0.010498753835666712 0 0.0080132726418252354 -0.012420559425469484 0 0.0055341587539740984 -0.012200088261322132 0 0.0070193326713969316 -0.014036911526959109 0 0.0080132726418252354 -0.012420559425469484 0 0.0055341587539740984 -0.012200088261322132 0 0.0065204812643549111 -0.0097749351232441078 0 0.0055341587539740984 -0.012200088261322132 0 0.0065204812643549111 -0.0097749351232441078 0 0.0044295179699828423 -0.010498753835666712 0 0.00894161806823888 -0.010216455611767351 0 0.0065204812643549111 -0.0097749351232441078 0 0.0074678623325519899 -0.0073584576755898329 0 0.0065204812643549111 -0.0097749351232441078 0 0.0045354717772014465 -0.0084683691913818165 0 0.0074678623325519899 -0.0073584576755898329 0 0.0044295179699828423 -0.010498753835666712 0 0.0045354717772014465 -0.0084683691913818165 0 0.0019996507226125869 -0.010213888905737165 0 0.0045354717772014465 -0.0084683691913818165 0 0.0029576059290695551 -0.0056740130719460536 0 0.0019996507226125869 -0.010213888905737165 0 0.0065204812643549111 -0.0097749351232441078 0 0.0044295179699828423 -0.010498753835666712 0 0.0045354717772014465 -0.0084683691913818165 0 0.0045354717772014465 -0.0084683691913818165 0 0.0029576059290695551 -0.0056740130719460536 0 0.0046988423203231265 -0.006553300531539131 0 0.0029576059290695551 -0.0056740130719460536 0 0.0046988423203231265 -0.006553300531539131 0 0.0042930424400150404 -0.0052024245374220918 0 0.0046988423203231265 -0.006553300531539131 0 0.005814115703034136 -0.0053321977529680736 0 0.0042930424400150404 -0.0052024245374220918 0 0.0045354717772014465 -0.0084683691913818165 0 0.0046988423203231265 -0.006553300531539131 0 0.0074678623325519899 -0.0073584576755898329 0 0.0046988423203231265 -0.006553300531539131 0 0.0074678623325519899 -0.0073584576755898329 0 0.005814115703034136 -0.0053321977529680736 0 0.0074678623325519899 -0.0073584576755898329 0 0.005814115703034136 -0.0053321977529680736 0 0.0080043966458501637 -0.0048665109783995377 0 0.0061000569763506752 -0.003608652407236805 0 0.005814115703034136 -0.0053321977529680736 0 0.0080043966458501637 -0.0048665109783995377 0 0.0061000569763506752 -0.003608652407236805 0 0.0080043966458501637 -0.0048665109783995377 0 0.0079626767012164132 -0.0032070595096673374 0 0.0061000569763506752 -0.003608652407236805 0 0.0079626767012164132 -0.0032070595096673374 0 0.007096462546822788 -0.0021487524098765627 0 0.0061000569763506752 -0.003608652407236805 0 0.005814115703034136 -0.0053321977529680736 0 0.0048096873286817519 -0.0042444338316430501 0 0.0048096873286817519 -0.0042444338316430501 0 0.0042930424400150404 -0.0052024245374220918 0 0.0034383527551235982 -0.0043962643709521089 0 0.005814115703034136 -0.0053321977529680736 0 0.0048096873286817519 -0.0042444338316430501 0 0.0042930424400150404 -0.0052024245374220918 0 0.0048096873286817519 -0.0042444338316430501 0 0.0042888494364789363 -0.0030864501700968165 0 0.0034383527551235982 -0.0043962643709521089 0 0.0061000569763506752 -0.003608652407236805 0 0.0048096873286817519 -0.0042444338316430501 0 0.0042888494364789363 -0.0030864501700968165 0 0.0042888494364789363 -0.0030864501700968165 0 0.0028849972230312565 -0.0029700286250330184 0 0.0034383527551235982 -0.0043962643709521089 0 0.0029576059290695551 -0.0056740130719460536 0 0.0034383527551235982 -0.0043962643709521089 0 0.002013967928289001 -0.0057826291796720299 0 0.0029576059290695551 -0.0056740130719460536 0 0.0042930424400150404 -0.0052024245374220918 0 0.0034383527551235982 -0.0043962643709521089 0 0.012891773299361621 -0.0040891086423537927 0 0.01201945240098326 -0.0087238930542311178 0 0.010336209957299097 -0.0058028194973247646 0 0.0033139424239975444 -0.007462698672300227 0 0.0027336994129601691 -0.010862070724376997 0 0.0074678623325519899 -0.0073584576755898329 0 0.010336209957299097 -0.0058028194973247646 0 0.0080043966458501637 -0.0048665109783995377 0 0.01201945240098326 -0.0087238930542311178 0 0.0074678623325519899 -0.0073584576755898329 0 0.010336209957299097 -0.0058028194973247646 0 0.010336209957299097 -0.0058028194973247646 0 0.0080043966458501637 -0.0048665109783995377 0 0.0098477116122069868 -0.0035412330585646735 0 0.0080043966458501637 -0.0048665109783995377 0 0.0079626767012164132 -0.0032070595096673374 0 0.0098477116122069868 -0.0035412330585646735 0 0.0079626767012164132 -0.0032070595096673374 0 0.0098477116122069868 -0.0035412330585646735 0 0.0087508976244453571 -0.0018655393986767726 0 0.012891773299361621 -0.0040891086423537927 0 0.0098477116122069868 -0.0035412330585646735 0 0.010419341528771898 -0.0015051360763013466 0 0.012891773299361621 -0.0040891086423537927 0 0.010336209957299097 -0.0058028194973247646 0 0.0098477116122069868 -0.0035412330585646735 0 0.012891773299361621 -0.0040891086423537927 0 0.011873406993971885 -0.00019301116248776222 0 0.013649314678679952 0.00051561689516979744 0 0.012891773299361621 -0.0040891086423537927 0 0.010419341528771898 -0.0015051360763013466 0 0.011873406993971885 -0.00019301116248776222 0 0.010419341528771898 -0.0015051360763013466 0 0.010217764598892067 0.00076753805321326432 0 0.011873406993971885 -0.00019301116248776222 0 0.0098477116122069868 -0.0035412330585646735 0 0.010419341528771898 -0.0015051360763013466 0 0.0087508976244453571 -0.0018655393986767726 0 0.0079626767012164132 -0.0032070595096673374 0 0.0087508976244453571 -0.0018655393986767726 0 0.007096462546822788 -0.0021487524098765627 0 0.0087508976244453571 -0.0018655393986767726 0 0.0089398233161686828 -0.00011450576578640945 0 0.0071818847335477169 -0.00055962395879052308 0 0.010419341528771898 -0.0015051360763013466 0 0.010217764598892067 0.00076753805321326432 0 0.0089398233161686828 -0.00011450576578640945 0 0.010419341528771898 -0.0015051360763013466 0 0.0087508976244453571 -0.0018655393986767726 0 0.0089398233161686828 -0.00011450576578640945 0 0.010217764598892067 0.00076753805321326432 0 0.0089398233161686828 -0.00011450576578640945 0 0.0079068097670005697 0.0013281991194131744 0 0.0089398233161686828 -0.00011450576578640945 0 0.0071818847335477169 -0.00055962395879052308 0 0.0079068097670005697 0.0013281991194131744 0 0.010217764598892067 0.00076753805321326432 0 0.0079068097670005697 0.0013281991194131744 0 0.0096230850081782358 0.0028002443380473621 0 0.010217764598892067 0.00076753805321326432 0 0.011677980902894645 0.0011238582053752148 0 0.0096230850081782358 0.0028002443380473621 0 0.011677980902894645 0.0011238582053752148 0 0.0096230850081782358 0.0028002443380473621 0 0.013024149360636851 0.0017356826951282858 0 0.010679847157646836 0.0028864283304823471 0 0.0097420682715532881 0.0020151589844783517 0 0.011677980902894645 0.0011238582053752148 0 0.013024149360636851 0.0017356826951282858 0 0.013634095599259936 0.00053963159158751557 0 0.011677980902894645 0.0011238582053752148 0 0.011873406993971885 -0.00019301116248776222 0 0.013634095599259936 0.00053963159158751557 0 0.014009541561595382 0.00078544794340675039 0 0.0042286561009944358 -0.0027473554177346866 0 0.010217764598892067 0.00076753805321326432 0 0.011677980902894645 0.0011238582053752148 0 0.011873406993971885 -0.00019301116248776222 0 0.0038291840783587958 -0.0016241119099108946 0 0.0048234179291090128 0.00063550851410966263 0 0.0018306357756593783 -0.0013547904829006702 0 0.0042888494364789363 -0.0030864501700968165 0 0.0028849972230312565 -0.0029700286250330184 0 0.0038291840783587958 -0.0016241119099108946 0 0.0028849972230312565 -0.0029700286250330184 0 0.0038291840783587958 -0.0016241119099108946 0 0.0018306357756593783 -0.0013547904829006702 0 0.0061000569763506752 -0.003608652407236805 0 0.0042888494364789363 -0.0030864501700968165 0 0.0054594156417283385 -0.0015560244670501438 0 0.0042888494364789363 -0.0030864501700968165 0 0.0038291840783587958 -0.0016241119099108946 0 0.0054594156417283385 -0.0015560244670501438 0 0.0038291840783587958 -0.0016241119099108946 0 0.0054594156417283385 -0.0015560244670501438 0 0.0048234179291090128 0.00063550851410966263 0 0.0054594156417283385 -0.0015560244670501438 0 0.007096462546822788 -0.0021487524098765627 0 0.0071818847335477169 -0.00055962395879052308 0 0.0054594156417283385 -0.0015560244670501438 0 0.0071818847335477169 -0.00055962395879052308 0 0.0048234179291090128 0.00063550851410966263 0 0.0061000569763506752 -0.003608652407236805 0 0.0054594156417283385 -0.0015560244670501438 0 0.007096462546822788 -0.0021487524098765627 0 0.0087508976244453571 -0.0018655393986767726 0 0.007096462546822788 -0.0021487524098765627 0 0.0071818847335477169 -0.00055962395879052308 0 0.0071818847335477169 -0.00055962395879052308 0 0.0079068097670005697 0.0013281991194131744 0 0.0048234179291090128 0.00063550851410966263 0 0.0079068097670005697 0.0013281991194131744 0 0.0048234179291090128 0.00063550851410966263 0 0.0061192474189548495 0.0041230948046102099 0 0.0048234179291090128 0.00063550851410966263 0 0.0018306357756593783 -0.0013547904829006702 0 0.0016871382005980572 0.0033949888610925582 0 0.0048234179291090128 0.00063550851410966263 0 0.0061192474189548495 0.0041230948046102099 0 0.0016871382005980572 0.0033949888610925582 0 0.0061192474189548495 0.0041230948046102099 0 0.0052942142897948732 0.0075515504429188437 0 0.0016871382005980572 0.0033949888610925582 0 0.00605250380810291 0.0041000416471911006 0 0.010679847157646836 0.0028864283304823471 0 0.0079068097670005697 0.0013281991194131744 0 0.0061192474189548495 0.0041230948046102099 0 0.0096230850081782358 0.0028002443380473621 0 0.0061192474189548495 0.0041230948046102099 0 0.010298371064414748 0.0031806662605080916 0 0.0083608557611364598 0.0060293484187006318 0 0.0061192474189548495 0.0041230948046102099 0 0.0052942142897948732 0.0075515504429188437 0 0.0083608557611364598 0.0060293484187006318 0 0.0052942142897948732 0.0075515504429188437 0 0.0083608557611364598 0.0060293484187006318 0 0.008604549332148553 0.0094488011432795962 0 0.0052942142897948732 0.0075515504429188437 0 0.0016871382005980572 0.0033949888610925582 0 0.0016221420901706501 0.0085796614444437654 0 0.010298371064414748 0.0031806662605080916 0 0.01144079011823966 0.0056770633005799485 0 0.014162490096090018 0.0021731045075180249 0 0.010111195522875279 0.0081329889559275271 0 0.0097420682715532881 0.0020151589844783517 0 0.0099140595968984519 0.0091996974337355836 0 0.0083459368565351987 0.0098756284874954182 0 0.010228866838409902 0.00739297098423102 0 0.010298371064414748 0.0031806662605080916 0 0.0083608557611364598 0.0060293484187006318 0 0.01144079011823966 0.0056770633005799485 0 0.010111195522875279 0.0081329889559275271 0 0.0075147222886386856 0.01089988138484951 0 0.0088121561438848292 0.011572476608929686 0 0.0083459368565351987 0.0098756284874954182 0 0.006440916751877644 0.012463596666280143 0 0.0083608557611364598 0.0060293484187006318 0 0.01144079011823966 0.0056770633005799485 0 0.008604549332148553 0.0094488011432795962 0 0.0088121561438848292 0.011572476608929686 0 0.0083459368565351987 0.0098756284874954182 0 0.0098801290876231393 0.01029087432986045 0 0.0099140595968984519 0.0091996974337355836 0 0.0083459368565351987 0.0098756284874954182 0 0.0098801290876231393 0.01029087432986045 0 0.0088121561438848292 0.011572476608929686 0 0.0098801290876231393 0.01029087432986045 0 0.010250764532977012 0.011897729890960164 0 0.0098801290876231393 0.01029087432986045 0 0.011710270715955186 0.011277523668124557 0 0.010250764532977012 0.011897729890960164 0 -0.0051373460083843922 0.00039370606760845802 0 -0.0058006602551055201 0.001425834590148573 0 -0.0047818644756744584 0.0023948514848313842 0 0.01217566492286193 0.011465676760722295 0 0.0049377711745851689 0.0072411247289770383 0 0.0049377711745851689 0.0072411247289770383 0 0.0032725965532687958 0.005938383017579275 0 0.0098801290876231393 0.01029087432986045 0 0.011429321557737978 0.011058237501748282 0 0.011170763200182744 0.0092301177270606213 0 0.0049377711745851689 0.0072411247289770383 0 -0.004888205297875179 0.0041210372950239351 0 -0.0061081656771765523 0.00021631292708055609 0 -0.0088127977686606584 0.0019194550858409177 0 -0.0062828765070467316 -0.00020906207906902998 0 -0.0061081656771765523 0.00021631292708055609 0 -0.0068242755336419478 0.001999505898310223 0 -0.0088127977686606584 0.0019194550858409177 0 -0.017156063314071743 -0.0020193712285362969 0 -0.006797510165331081 0.0029063066195935973 0 -0.0051373460083843922 0.00039370606760845802 0 -0.0061081656771765523 0.00021631292708055609 0 -0.0058006602551055201 0.001425834590148573 0 -0.0061081656771765523 0.00021631292708055609 0 -0.0060991546253423325 -0.00011099527924032683 0 -0.0062828765070467316 -0.00020906207906902998 0 -0.0051373460083843922 0.00039370606760845802 0 -0.0061081656771765523 0.00021631292708055609 0 -0.0060944609559782717 -0.00010566874992996243 0 -0.0049438506612860611 0.0032247058270837006 0 -0.004888205297875179 0.0041210372950239351 0 -0.0061081656771765523 0.00021631292708055609 0 -0.0058006602551055201 0.001425834590148573 0 -0.0068242755336419478 0.001999505898310223 0 -0.0072333323296343306 0.0029848997451962823 0 -0.0055684329773237401 0.0047160025967150831 0 -0.0090938716476787543 0.0033304701055883396 0 -0.0068242755336419478 0.001999505898310223 0 -0.0072333323296343306 0.0029848997451962823 0 -0.0088127977686606584 0.0019194550858409177 0 -0.0058006602551055201 0.001425834590148573 0 -0.0068242755336419478 0.001999505898310223 0 -0.0058697560872280488 0.0029611880065628917 0 -0.0068242755336419478 0.001999505898310223 0 -0.0058697560872280488 0.0029611880065628917 0 -0.0072333323296343306 0.0029848997451962823 0 -0.0058697560872280488 0.0029611880065628917 0 -0.0072333323296343306 0.0029848997451962823 0 -0.0055684329773237401 0.0047160025967150831 0 -0.0058697560872280488 0.0029611880065628917 0 -0.0047818644756744584 0.0023948514848313842 0 -0.0044039015135088249 0.0044171761823694347 0 0.0032725965532687958 0.005938383017579275 0 0.0034513600349541317 0.0029991759963964573 0 0.011170763200182744 0.0092301177270606213 0 0.010228866838409902 0.00739297098423102 0 0.010840653915360023 0.0072184418653703916 0 0.0099140595968984519 0.0091996974337355836 0 0.0098801290876231393 0.01029087432986045 0 0.011170763200182744 0.0092301177270606213 0 -0.0058006602551055201 0.001425834590148573 0 -0.0058697560872280488 0.0029611880065628917 0 -0.0047818644756744584 0.0023948514848313842 0 0.0099140595968984519 0.0091996974337355836 0 0.011170763200182744 0.0092301177270606213 0 0.010228866838409902 0.00739297098423102 0 0.0097420682715532881 0.0020151589844783517 0 0.0034513600349541317 0.0029991759963964573 0 0.013024149360636851 0.0017356826951282858 0 0.013691215857137078 0.00088396229002203912 0 0.013634095599259936 0.00053963159158751557 0 0.0034513600349541317 0.0029991759963964573 0 0.0033181276210826204 -0.0017006832480631537 0 0.0059385522607620003 0.0013407203850444051 0 0.0048616915363432489 0.0016177618706381021 0 0.0050052429975882438 0.0024631214849746411 0 0.0015633907531992291 -0.0020410488152986174 0 0.0019280677595950072 5.8324510922449774e-05 0 0.0012770474910814786 0.00085949306394527444 0 0.0097420682715532881 0.0020151589844783517 0 0.0033181276210826204 -0.0017006832480631537 0 0.0033181276210826204 -0.0017006832480631537 0 0.0042286561009944358 -0.0027473554177346866 0 0.0036899735550310338 -0.0022285612918059605 0 0.0059105218331539228 -0.0049802675316968194 0 0.0030125180693449478 -0.00613450781900162 0 0.0033181276210826204 -0.0017006832480631537 0 0.00030525596775591392 -0.0036306973515414045 0 0.00030525596775591392 -0.0036306973515414045 0 0.0042286561009944358 -0.0027473554177346866 0 -0.0055127373161738668 -0.0076533970791898605 0 -0.0056667324454289392 -0.0077152034891285592 0 -0.004467382443416797 -0.0090931969091023936 0 0.00030525596775591392 -0.0036306973515414045 0 -0.0058460767297096724 -0.0018602075912297297 0 -0.0093688945514022338 -0.0094756226424101281 0 -0.009671995231288269 -0.0096107466434758679 0 -0.0099031802473722886 -0.0093532202255087963 0 -0.0058697560872280488 0.0029611880065628917 0 -0.0044039015135088249 0.0044171761823694347 0 -0.0055684329773237401 0.0047160025967150831 0 0.0015633907531992291 -0.0020410488152986174 0 0.0012770474910814786 0.00085949306394527444 0 -0.0030202159005320241 -0.00084190475276313956 0 0.0034513600349541317 0.0029991759963964573 0 -0.0058460767297096724 -0.0018602075912297297 0 -0.0081397330139119477 -0.0046194571869390228 0 -0.011735640628005172 -0.0036954163953149188 0 -0.014516552698599956 -0.0071481325894900442 0 -0.0058460767297096724 -0.0018602075912297297 0 -0.015778503891726341 -0.0030470328714805065 0 -0.010260171302243807 -0.0094629608455480147 0 -0.0099031802473722886 -0.0093532202255087963 0 -0.010104305014440838 -0.0092136782693949485 0 -0.0058460767297096724 -0.0018602075912297297 0 -0.010458638186765977 -0.0066432100250922209 0 -0.009671995231288269 -0.0096107466434758679 0 -0.010260171302243807 -0.0094629608455480147 0 -0.0099031802473722886 -0.0093532202255087963 0 -0.01016835990772286 -0.0087201138894921933 0 -0.010104305014440838 -0.0092136782693949485 0 -0.0098344977153426421 -0.0090831055248849785 0 -0.0099031802473722886 -0.0093532202255087963 0 -0.010104305014440838 -0.0092136782693949485 0 -0.0098344977153426421 -0.0090831055248849785 0 -0.006168921435182175 -0.010444424945919666 0 -0.0056667324454289392 -0.0077152034891285592 0 -0.004467382443416797 -0.0090931969091023936 0 0.0033139424239975444 -0.007462698672300227 0 0.0042286561009944358 -0.0027473554177346866 0 0.00030525596775591392 -0.0036306973515414045 0 -0.0074735567563473434 -0.0089653202327581276 0 -0.0093688945514022338 -0.0094756226424101281 0 -0.0099031802473722886 -0.0093532202255087963 0 -0.0098344977153426421 -0.0090831055248849785 0 -0.025982949248177924 -0.013055363645668153 0 -0.024815708274573817 -0.010081541239158729 0 -0.026441718539832942 -0.0096387837624177537 0 -0.018702195923026431 -0.011854496768657363 0 -0.018779457227825831 -0.0087694314035028555 0 -0.026664473376967816 -0.0091238835841431533 0 -0.018779457227825831 -0.0087694314035028555 0 -0.0077539641608509579 -0.011229424541538217 0 -0.010915077705935416 -0.0089195992509093908 0 -0.010851848496652279 -0.010449357140542915 0 -0.010332103488500279 -0.010003617547590991 0 -0.010339693403426943 -0.0094157982421388068 0 -0.01016835990772286 -0.0087201138894921933 0 -0.010104305014440838 -0.0092136782693949485 0 -0.010339693403426943 -0.0094157982421388068 0 -0.009944376184977545 -0.010593535270329352 0 -0.010332103488500279 -0.010003617547590991 0 -0.010290091684838245 -0.009399166843882931 0 -0.010332103488500279 -0.010003617547590991 0 -0.010290091684838245 -0.009399166843882931 0 -0.010339693403426943 -0.0094157982421388068 0 -0.011735640628005172 -0.0036954163953149188 0 -0.015325788382237065 -0.0027830372281928786 0 -0.014516552698599956 -0.0071481325894900442 0 -0.026094886486907262 -0.0096549026487218626 0 -0.025811709290495713 -0.0082932787027442043 0 -0.026409571369648038 -0.007746900651543388 0 -0.018779457227825831 -0.0087694314035028555 0 -0.015778503891726341 -0.0030470328714805065 0 -0.010260171302243807 -0.0094629608455480147 0 -0.010290091684838245 -0.009399166843882931 0 -0.010339693403426943 -0.0094157982421388068 0 -0.010260171302243807 -0.0094629608455480147 0 -0.010104305014440838 -0.0092136782693949485 0 -0.010339693403426943 -0.0094157982421388068 0 -0.010458638186765977 -0.0066432100250922209 0 -0.018779457227825831 -0.0087694314035028555 0 -0.02521895778896734 -0.0088710471904621443 0 -0.025721006772716062 -0.007467341672103423 0 -0.023826031618149914 -0.0092053548442499397 0 -0.025811709290495713 -0.0082932787027442043 0 -0.02521895778896734 -0.0088710471904621443 0 -0.025721006772716062 -0.007467341672103423 0 -0.024036295325742502 -0.005635582125373898 0 -0.02378944308550739 -0.0092098066139331882 0 -0.026094886486907262 -0.0096549026487218626 0 -0.025811709290495713 -0.0082932787027442043 0 -0.02521895778896734 -0.0088710471904621443 0 -0.023901388091762912 -0.0074417299970061307 0 -0.025684489626018419 -0.0068684247227746064 0 -0.023338717721296254 -0.0089210120636249376 0 -0.024815708274573817 -0.010081541239158729 0 -0.026094886486907262 -0.0096549026487218626 0 -0.02521895778896734 -0.0088710471904621443 0 -0.024815708274573817 -0.010081541239158729 0 -0.02521895778896734 -0.0088710471904621443 0 -0.023826031618149914 -0.0092053548442499397 0 -0.024036295325742502 -0.005635582125373898 0 -0.023621834643820894 -0.0060983284963611935 0 -0.025101159182122114 -0.0064757573546066803 0 -0.024179362190273619 -0.0058046804599573999 0 -0.022880705932145452 -0.0057302668018911007 0 -0.023901388091762912 -0.0074417299970061307 0 -0.025684489626018419 -0.0068684247227746064 0 -0.023472643017792241 -0.0067704309268058925 0 -0.025684489626018419 -0.0068684247227746064 0 -0.022880705932145452 -0.0057302668018911007 0 -0.023472643017792241 -0.0067704309268058925 0 -0.025101159182122114 -0.0064757573546066803 0 -0.024179362190273619 -0.0058046804599573999 0 -0.025153287844881009 -0.0054745076794332796 0 -0.025811709290495713 -0.0082932787027442043 0 -0.025721006772716062 -0.007467341672103423 0 -0.026409571369648038 -0.007746900651543388 0 -0.024036295325742502 -0.005635582125373898 0 -0.015778503891726341 -0.0030470328714805065 0 -0.018726703788748612 -0.0038500913329628126 0 -0.018689618369529655 -0.0038359265479913887 0 -0.018679105145739529 -0.0038650630982676429 0 -0.025101159182122114 -0.0064757573546066803 0 -0.026219684389295905 -0.0055619610552760379 0 -0.025153287844881009 -0.0054745076794332796 0 -0.015778503891726341 -0.0030470328714805065 0 -0.017156063314071743 -0.0020193712285362969 0 -0.024036295325742502 -0.005635582125373898 0 -0.017156063314071743 -0.0020193712285362969 0 -0.0072333323296343306 0.0029848997451962823 0 -0.0090938716476787543 0.0033304701055883396 0 -0.0088127977686606584 0.0019194550858409177 0 -0.014532854155119814 0.0013204234537065988 0 -0.01429297188835485 0.00010295903419047525 0 -0.013532302457328196 0.00049040713496092654 0 -0.017156063314071743 -0.0020193712285362969 0 -0.018300762656095385 0.001534414807111796 0 -0.026219684389295905 -0.0055619610552760379 0 -0.025066401571116382 -0.0040799830004976598 0 -0.026802907242591427 -0.0024330205125109357 0 -0.026219684389295905 -0.0055619610552760379 0 -0.025153287844881009 -0.0054745076794332796 0 -0.025066401571116382 -0.0040799830004976598 0 -0.024179362190273619 -0.0058046804599573999 0 -0.025066401571116382 -0.0040799830004976598 0 -0.023157568182910097 -0.0035909625026489078 0 -0.024179362190273619 -0.0058046804599573999 0 -0.025153287844881009 -0.0054745076794332796 0 -0.025066401571116382 -0.0040799830004976598 0 -0.024179362190273619 -0.0058046804599573999 0 -0.022019154103111078 -0.0053652166749421854 0 -0.022880705932145452 -0.0057302668018911007 0 -0.023929043974080244 -0.0058526121385423409 0 -0.021980920055612266 -0.004588404796913274 0 -0.023157568182910097 -0.0035909625026489078 0 -0.021354793503832136 -0.0050901370477765299 0 -0.021190120478906692 -0.0021741632314458393 0 -0.024179362190273619 -0.0058046804599573999 0 -0.023157568182910097 -0.0035909625026489078 0 -0.021354793503832136 -0.0050901370477765299 0 -0.022019154103111078 -0.0053652166749421854 0 -0.02272548901569706 -0.0068260863631668797 0 -0.022287171745190053 -0.0084574448110328916 0 -0.021980920055612266 -0.004588404796913274 0 -0.022297479274061099 -0.0087900703576661802 0 -0.022880705932145452 -0.0057302668018911007 0 -0.02272548901569706 -0.0068260863631668797 0 -0.023472643017792241 -0.0067704309268058925 0 -0.022019154103111078 -0.0053652166749421854 0 -0.022880705932145452 -0.0057302668018911007 0 -0.02272548901569706 -0.0068260863631668797 0 -0.02272548901569706 -0.0068260863631668797 0 -0.023132511609349007 -0.0077484200342449799 0 -0.022287171745190053 -0.0084574448110328916 0 -0.023901388091762912 -0.0074417299970061307 0 -0.023472643017792241 -0.0067704309268058925 0 -0.023132511609349007 -0.0077484200342449799 0 -0.02272548901569706 -0.0068260863631668797 0 -0.023472643017792241 -0.0067704309268058925 0 -0.023132511609349007 -0.0077484200342449799 0 -0.022117456464391675 -0.0061749094638292737 0 -0.020828795354905831 -0.0074080044069655846 0 -0.022287171745190053 -0.0084574448110328916 0 -0.021980920055612266 -0.004588404796913274 0 -0.019876531046216839 -0.0033558020751036526 0 -0.021403447799797668 -0.0015666654727905943 0 -0.020507198233004009 -0.00045823697607869437 0 -0.021255730062915208 0.00055039944590567255 0 -0.022117456464391675 -0.0061749094638292737 0 -0.020828795354905831 -0.0074080044069655846 0 -0.020272237131862086 -0.0057276710950407237 0 -0.021980920055612266 -0.004588404796913274 0 -0.021197241851551172 -0.00065898975464337851 0 -0.021403447799797668 -0.0015666654727905943 0 -0.020507198233004009 -0.00045823697607869437 0 -0.019551541168199828 -0.0010657855147917915 0 -0.020272237131862086 -0.0057276710950407237 0 -0.018509879993550967 -0.0053277815677550324 0 -0.018997843019531186 -0.0070212083346568544 0 -0.019876531046216839 -0.0033558020751036526 0 -0.018007116204997002 -0.0029357010512591035 0 -0.018509879993550967 -0.0053277815677550324 0 -0.018997843019531186 -0.0070212083346568544 0 -0.017421889115067878 -0.0062979782503110281 0 -0.018997843019531186 -0.0070212083346568544 0 -0.018257344853068017 -0.0089062124766104058 0 -0.017749916682043156 -0.0076426191654631812 0 -0.018997843019531186 -0.0070212083346568544 0 -0.017421889115067878 -0.0062979782503110281 0 -0.017749916682043156 -0.0076426191654631812 0 -0.020828795354905831 -0.0074080044069655846 0 -0.020272237131862086 -0.0057276710950407237 0 -0.018997843019531186 -0.0070212083346568544 0 -0.020828795354905831 -0.0074080044069655846 0 -0.018997843019531186 -0.0070212083346568544 0 -0.019701171983349461 -0.0083436693177439698 0 -0.019701171983349461 -0.0083436693177439698 0 -0.018257344853068017 -0.0089062124766104058 0 -0.019531176492229338 -0.01014948297868767 0 -0.019701171983349461 -0.0083436693177439698 0 -0.019531176492229338 -0.01014948297868767 0 -0.020750966212244676 -0.0090892684448189934 0 -0.020828795354905831 -0.0074080044069655846 0 -0.019701171983349461 -0.0083436693177439698 0 -0.020750966212244676 -0.0090892684448189934 0 -0.018997843019531186 -0.0070212083346568544 0 -0.019701171983349461 -0.0083436693177439698 0 -0.018257344853068017 -0.0089062124766104058 0 -0.018257344853068017 -0.0089062124766104058 0 -0.019531176492229338 -0.01014948297868767 0 -0.017594647834306278 -0.011482758242819337 0 -0.019531176492229338 -0.01014948297868767 0 -0.021554419650661519 -0.010761473832558148 0 -0.020750966212244676 -0.0090892684448189934 0 -0.019531176492229338 -0.01014948297868767 0 -0.021554419650661519 -0.010761473832558148 0 -0.019421376752721643 -0.0129507022320423 0 -0.021500919624812483 -0.010989666207358129 0 -0.02378944308550739 -0.0092098066139331882 0 -0.024815708274573817 -0.010081541239158729 0 -0.023446390926607226 -0.010638666895607971 0 -0.023709236151584639 -0.012066767032621745 0 -0.021591383109133638 -0.011166038201687408 0 -0.023446390926607226 -0.010638666895607971 0 -0.023709236151584639 -0.012066767032621745 0 -0.021591383109133638 -0.011166038201687408 0 -0.023446390926607226 -0.010638666895607971 0 -0.023826031618149914 -0.0092053548442499397 0 -0.024815708274573817 -0.010081541239158729 0 -0.023446390926607226 -0.010638666895607971 0 -0.023826031618149914 -0.0092053548442499397 0 -0.021554419650661519 -0.010761473832558148 0 -0.023338717721296254 -0.0089210120636249376 0 -0.022287171745190053 -0.0084574448110328916 0 -0.023901388091762912 -0.0074417299970061307 0 -0.023338717721296254 -0.0089210120636249376 0 -0.023132511609349007 -0.0077484200342449799 0 -0.023338717721296254 -0.0089210120636249376 0 -0.023132511609349007 -0.0077484200342449799 0 -0.022287171745190053 -0.0084574448110328916 0 -0.020828795354905831 -0.0074080044069655846 0 -0.022287171745190053 -0.0084574448110328916 0 -0.020750966212244676 -0.0090892684448189934 0 -0.021554419650661519 -0.010761473832558148 0 -0.022287171745190053 -0.0084574448110328916 0 -0.020750966212244676 -0.0090892684448189934 0 -0.011882167610582976 -0.0064505540314601919 0 -0.013959685045764982 -0.0060055769789188916 0 -0.013159143901976558 -0.008197122878974273 0 -0.013959685045764982 -0.0060055769789188916 0 -0.012274742931055594 -0.0043223801825026595 0 -0.015672274489724851 -0.002828285369990316 0 -0.011882167610582976 -0.0064505540314601919 0 -0.013959685045764982 -0.0060055769789188916 0 -0.012274742931055594 -0.0043223801825026595 0 -0.013959685045764982 -0.0060055769789188916 0 -0.016123063369979786 -0.005674439795238748 0 -0.015672274489724851 -0.002828285369990316 0 -0.013959685045764982 -0.0060055769789188916 0 -0.014973521053141038 -0.0077101298235325586 0 -0.013159143901976558 -0.008197122878974273 0 -0.013959685045764982 -0.0060055769789188916 0 -0.014973521053141038 -0.0077101298235325586 0 -0.016123063369979786 -0.005674439795238748 0 -0.01653634150498097 -0.0077457783199221036 0 -0.016123063369979786 -0.005674439795238748 0 -0.017421889115067878 -0.0062979782503110281 0 -0.014973521053141038 -0.0077101298235325586 0 -0.01653634150498097 -0.0077457783199221036 0 -0.016123063369979786 -0.005674439795238748 0 -0.016169890699930557 -0.0058450530583911732 0 -0.017177418454559466 -0.0026989221174800607 0 -0.016123063369979786 -0.005674439795238748 0 -0.017421889115067878 -0.0062979782503110281 0 -0.017016141626887939 -0.0049832798643445961 0 -0.018509879993550967 -0.0053277815677550324 0 -0.017421889115067878 -0.0062979782503110281 0 -0.017016141626887939 -0.0049832798643445961 0 -0.01653634150498097 -0.0077457783199221036 0 -0.017421889115067878 -0.0062979782503110281 0 -0.017749916682043156 -0.0076426191654631812 0 -0.018257344853068017 -0.0089062124766104058 0 -0.017749916682043156 -0.0076426191654631812 0 -0.016751458609096301 -0.0094168636190649635 0 -0.01653634150498097 -0.0077457783199221036 0 -0.017749916682043156 -0.0076426191654631812 0 -0.016751458609096301 -0.0094168636190649635 0 -0.016751458609096301 -0.0094168636190649635 0 -0.015988576299164149 -0.011154196873778808 0 -0.017594647834306278 -0.011482758242819337 0 -0.018257344853068017 -0.0089062124766104058 0 -0.016751458609096301 -0.0094168636190649635 0 -0.017594647834306278 -0.011482758242819337 0 -0.015988576299164149 -0.011154196873778808 0 -0.015504769499675719 -0.0094178355553662264 0 -0.014743813532627398 -0.010668253107707601 0 -0.016751458609096301 -0.0094168636190649635 0 -0.015988576299164149 -0.011154196873778808 0 -0.015504769499675719 -0.0094178355553662264 0 -0.014973521053141038 -0.0077101298235325586 0 -0.01653634150498097 -0.0077457783199221036 0 -0.015504769499675719 -0.0094178355553662264 0 -0.01653634150498097 -0.0077457783199221036 0 -0.016751458609096301 -0.0094168636190649635 0 -0.015504769499675719 -0.0094178355553662264 0 -0.014973521053141038 -0.0077101298235325586 0 -0.015504769499675719 -0.0094178355553662264 0 -0.014458157811734975 -0.0091898030918676869 0 -0.014973521053141038 -0.0077101298235325586 0 -0.014458157811734975 -0.0091898030918676869 0 -0.013159143901976558 -0.008197122878974273 0 -0.014458157811734975 -0.0091898030918676869 0 -0.014743813532627398 -0.010668253107707601 0 -0.013535416791093746 -0.010169699450858568 0 -0.014743813532627398 -0.010668253107707601 0 -0.013535416791093746 -0.010169699450858568 0 -0.014006804610169562 -0.011785814874959749 0 -0.015504769499675719 -0.0094178355553662264 0 -0.014458157811734975 -0.0091898030918676869 0 -0.014743813532627398 -0.010668253107707601 0 -0.012138303328797844 -0.0095613779712492922 0 -0.013535416791093746 -0.010169699450858568 0 -0.013159143901976558 -0.008197122878974273 0 -0.012138303328797844 -0.0095613779712492922 0 -0.012459493421096944 -0.010688939896067435 0 -0.013535416791093746 -0.010169699450858568 0 -0.012459493421096944 -0.010688939896067435 0 -0.013535416791093746 -0.010169699450858568 0 -0.013190684896866676 -0.011111306558865263 0 -0.014458157811734975 -0.0091898030918676869 0 -0.013535416791093746 -0.010169699450858568 0 -0.013159143901976558 -0.008197122878974273 0 -0.018535917746813554 -0.014390069058289353 0 -0.018583330451726891 -0.014273881962502665 0 -0.017410231253986105 -0.013815622097868796 0 -0.017382963197323246 -0.012551827065843167 0 -0.01689131090798926 -0.014623488062561908 0 -0.013766301238916024 -0.013383932733640694 0 -0.013191369872568845 -0.011976318338688341 0 -0.014006804610169562 -0.011785814874959749 0 -0.012212618024653595 -0.012404095439104241 0 -0.013766301238916024 -0.013383932733640694 0 -0.013191369872568845 -0.011976318338688341 0 -0.02140861739230572 -0.013461125309774922 0 -0.01689131090798926 -0.014623488062561908 0 -0.021611782977441988 -0.017475349648924072 0 -0.020321629069835249 -0.016958932795635456 0 -0.021293081165833765 -0.016099979947757657 0 -0.012515405242879257 -0.011574467107413349 0 -0.013190684896866676 -0.011111306558865263 0 -0.013191369872568845 -0.011976318338688341 0 -0.013535416791093746 -0.010169699450858568 0 -0.013190684896866676 -0.011111306558865263 0 -0.014006804610169562 -0.011785814874959749 0 -0.012212618024653595 -0.012404095439104241 0 -0.012515405242879257 -0.011574467107413349 0 -0.013191369872568845 -0.011976318338688341 0 -0.012459493421096944 -0.010688939896067435 0 -0.012515405242879257 -0.011574467107413349 0 -0.013190684896866676 -0.011111306558865263 0 -0.013190684896866676 -0.011111306558865263 0 -0.013191369872568845 -0.011976318338688341 0 -0.014006804610169562 -0.011785814874959749 0 -0.014006804610169562 -0.011785814874959749 0 -0.014824925533897202 -0.01311052204415632 0 -0.01515091900257615 -0.012192516749746241 0 -0.014743813532627398 -0.010668253107707601 0 -0.014006804610169562 -0.011785814874959749 0 -0.01515091900257615 -0.012192516749746241 0 -0.013766301238916024 -0.013383932733640694 0 -0.014824925533897202 -0.01311052204415632 0 -0.015104837113836887 -0.013992271676730549 0 -0.013766301238916024 -0.013383932733640694 0 -0.014006804610169562 -0.011785814874959749 0 -0.014824925533897202 -0.01311052204415632 0 -0.014824925533897202 -0.01311052204415632 0 -0.016384591646580977 -0.013736697518199227 0 -0.015104837113836887 -0.013992271676730549 0 -0.015251600458270039 -0.013390515152763249 0 -0.016894136888315835 -0.017263438832569099 0 -0.014824925533897202 -0.01311052204415632 0 -0.01515091900257615 -0.012192516749746241 0 -0.016384591646580977 -0.013736697518199227 0 -0.015988576299164149 -0.011154196873778808 0 -0.014743813532627398 -0.010668253107707601 0 -0.01515091900257615 -0.012192516749746241 0 -0.015988576299164149 -0.011154196873778808 0 -0.01515091900257615 -0.012192516749746241 0 -0.016384591646580977 -0.013736697518199227 0 -0.015988576299164149 -0.011154196873778808 0 -0.016384591646580977 -0.013736697518199227 0 -0.017594647834306278 -0.011482758242819337 0 -0.016384591646580977 -0.013736697518199227 0 -0.015465454567794773 -0.015813889196241566 0 -0.012354476733909457 -0.016284436275299279 0 -0.016384591646580977 -0.013736697518199227 0 -0.015465454567794773 -0.015813889196241566 0 -0.017092466559928111 -0.015743359127573919 0 -0.015099537420802533 -0.016623723362344828 0 -0.015931191181590806 -0.017729311843113965 0 -0.012354476733909457 -0.016284436275299279 0 -0.015465454567794773 -0.015813889196241566 0 -0.016253148984945301 -0.016886714905254448 0 -0.017092466559928111 -0.015743359127573919 0 -0.015465454567794773 -0.015813889196241566 0 -0.015099537420802533 -0.016623723362344828 0 -0.016253148984945301 -0.016886714905254448 0 -0.015099537420802533 -0.016623723362344828 0 -0.015931191181590806 -0.017729311843113965 0 -0.016253148984945301 -0.016886714905254448 0 -0.015931191181590806 -0.017729311843113965 0 -0.016253148984945301 -0.016886714905254448 0 -0.016154331608541638 -0.017854737323618503 0 -0.017622817058934953 -0.020549590577903013 0 -0.01775857777823274 -0.02046784374924247 0 -0.019179516448100026 -0.022602070919811073 0 -0.019527048832622254 -0.022254440919807925 0 -0.019014180691386506 -0.021858530554890211 0 -0.019527048832622254 -0.022254440919807925 0 -0.019014180691386506 -0.021858530554890211 0 -0.019085781523801509 -0.021860579889145332 0 -0.019179516448100026 -0.022602070919811073 0 -0.019527048832622254 -0.022254440919807925 0 -0.019752402932186084 -0.02272714192919267 0 -0.019302289155905896 -0.022718762931281115 0 -0.019179516448100026 -0.022602070919811073 0 -0.019752402932186084 -0.02272714192919267 0 -0.020121475471064132 -0.022851898622087648 0 -0.020212350818121918 -0.023302683030465763 0 -0.020504627422458479 -0.02277783589475986 0 -0.019752402932186084 -0.02272714192919267 0 -0.020073379684572946 -0.022493842174558763 0 -0.020121475471064132 -0.022851898622087648 0 -0.019527048832622254 -0.022254440919807925 0 -0.019752402932186084 -0.02272714192919267 0 -0.020073379684572946 -0.022493842174558763 0 -0.020073379684572946 -0.022493842174558763 0 -0.020121475471064132 -0.022851898622087648 0 -0.020504627422458479 -0.02277783589475986 0 -0.015465454567794773 -0.015813889196241566 0 -0.015099537420802533 -0.016623723362344828 0 -0.012354476733909457 -0.016284436275299279 0 -0.017622817058934953 -0.020549590577903013 0 -0.016894136888315835 -0.017263438832569099 0 -0.019302289155905896 -0.022718762931281115 0 -0.019752402932186084 -0.02272714192919267 0 -0.020212350818121918 -0.023302683030465763 0 -0.019752402932186084 -0.02272714192919267 0 -0.020121475471064132 -0.022851898622087648 0 -0.020212350818121918 -0.023302683030465763 0 -0.016894136888315835 -0.017263438832569099 0 -0.021175289910057696 -0.01944893193807928 0 -0.01689131090798926 -0.014623488062561908 0 -0.016894136888315835 -0.017263438832569099 0 -0.020321629069835249 -0.016958932795635456 0 -0.019005307231871129 -0.016418074281726099 0 -0.020391856485885068 -0.01557964748565595 0 -0.020212350818121918 -0.023302683030465763 0 -0.020504627422458479 -0.02277783589475986 0 -0.020968001788820731 -0.02308555572787975 0 -0.020504627422458479 -0.02277783589475986 0 -0.020968001788820731 -0.02308555572787975 0 -0.020676520901667057 -0.022484567883457811 0 -0.020073379684572946 -0.022493842174558763 0 -0.020504627422458479 -0.02277783589475986 0 -0.020676520901667057 -0.022484567883457811 0 -0.021826992626008575 -0.02313118263761799 0 -0.020968001788820731 -0.02308555572787975 0 -0.020676520901667057 -0.022484567883457811 0 -0.02115405878443501 -0.019311490512298288 0 -0.021175289910057696 -0.01944893193807928 0 -0.021761526167277202 -0.014780176962738489 0 -0.020391856485885068 -0.01557964748565595 0 -0.021293081165833765 -0.016099979947757657 0 -0.020321629069835249 -0.016958932795635456 0 -0.020391856485885068 -0.01557964748565595 0 -0.021293081165833765 -0.016099979947757657 0 -0.022419209012593758 -0.014028730941412673 0 -0.019421376752721643 -0.0129507022320423 0 -0.02090587424729929 -0.016016720344933157 0 -0.022419209012593758 -0.014028730941412673 0 -0.02090587424729929 -0.016016720344933157 0 -0.023315768735619569 -0.016288401405793972 0 -0.025982949248177924 -0.013055363645668153 0 -0.022419209012593758 -0.014028730941412673 0 -0.023315768735619569 -0.016288401405793972 0 -0.025982949248177924 -0.013055363645668153 0 -0.022419209012593758 -0.014028730941412673 0 -0.023709236151584639 -0.012066767032621745 0 -0.021591383109133638 -0.011166038201687408 0 -0.022419209012593758 -0.014028730941412673 0 -0.023709236151584639 -0.012066767032621745 0 -0.021591383109133638 -0.011166038201687408 0 -0.022419209012593758 -0.014028730941412673 0 -0.019421376752721643 -0.0129507022320423 0 -0.021500919624812483 -0.010989666207358129 0 -0.019548727085579289 -0.012835404396403217 0 -0.019421376752721643 -0.0129507022320423 0 -0.017594647834306278 -0.011482758242819337 0 -0.018007919100645149 -0.014111457844301201 0 -0.016384591646580977 -0.013736697518199227 0 -0.017594647834306278 -0.011482758242819337 0 -0.018007919100645149 -0.014111457844301201 0 -0.019531176492229338 -0.01014948297868767 0 -0.019421376752721643 -0.0129507022320423 0 -0.017594647834306278 -0.011482758242819337 0 -0.018007919100645149 -0.014111457844301201 0 -0.018778702527999444 -0.01631816266805183 0 -0.017092466559928111 -0.015743359127573919 0 -0.016384591646580977 -0.013736697518199227 0 -0.018007919100645149 -0.014111457844301201 0 -0.017092466559928111 -0.015743359127573919 0 -0.019421376752721643 -0.0129507022320423 0 -0.018778702527999444 -0.01631816266805183 0 -0.02090587424729929 -0.016016720344933157 0 -0.019421376752721643 -0.0129507022320423 0 -0.018007919100645149 -0.014111457844301201 0 -0.018778702527999444 -0.01631816266805183 0 -0.018778702527999444 -0.01631816266805183 0 -0.019797612790708005 -0.018285133338479097 0 -0.02090587424729929 -0.016016720344933157 0 -0.018778702527999444 -0.01631816266805183 0 -0.017962197795124746 -0.018241500110185188 0 -0.019797612790708005 -0.018285133338479097 0 -0.016253148984945301 -0.016886714905254448 0 -0.017092466559928111 -0.015743359127573919 0 -0.017207644213158055 -0.017157780324552476 0 -0.018778702527999444 -0.01631816266805183 0 -0.017092466559928111 -0.015743359127573919 0 -0.017207644213158055 -0.017157780324552476 0 -0.018778702527999444 -0.01631816266805183 0 -0.017207644213158055 -0.017157780324552476 0 -0.017962197795124746 -0.018241500110185188 0 -0.016253148984945301 -0.016886714905254448 0 -0.016154331608541638 -0.017854737323618503 0 -0.017207644213158055 -0.017157780324552476 0 -0.016154331608541638 -0.017854737323618503 0 -0.017207644213158055 -0.017157780324552476 0 -0.017962197795124746 -0.018241500110185188 0 -0.01775857777823274 -0.02046784374924247 0 -0.018981231585823623 -0.020754003583119126 0 -0.019179516448100026 -0.022602070919811073 0 -0.019014180691386506 -0.021858530554890211 0 -0.018905154902970778 -0.020771642525758211 0 -0.016154331608541638 -0.017854737323618503 0 -0.017962197795124746 -0.018241500110185188 0 -0.018905154902970778 -0.020771642525758211 0 -0.019014180691386506 -0.021858530554890211 0 -0.018905154902970778 -0.020771642525758211 0 -0.018906961732054132 -0.021703096878138223 0 -0.017962197795124746 -0.018241500110185188 0 -0.019797612790708005 -0.018285133338479097 0 -0.018905154902970778 -0.020771642525758211 0 -0.019797612790708005 -0.018285133338479097 0 -0.018905154902970778 -0.020771642525758211 0 -0.020563766503633219 -0.02040860873308644 0 -0.018905154902970778 -0.020771642525758211 0 -0.020563766503633219 -0.02040860873308644 0 -0.018950148965918762 -0.021783782421550806 0 -0.020563766503633219 -0.02040860873308644 0 -0.021657528587571584 -0.018305279861929064 0 -0.023369770760456904 -0.020477840405387228 0 -0.022729769857856026 -0.019618693348315772 0 -0.017205161194231558 -0.019915832547250153 0 -0.019797612790708005 -0.018285133338479097 0 -0.020563766503633219 -0.02040860873308644 0 -0.021657528587571584 -0.018305279861929064 0 -0.019797612790708005 -0.018285133338479097 0 -0.021657528587571584 -0.018305279861929064 0 -0.02090587424729929 -0.016016720344933157 0 -0.021657528587571584 -0.018305279861929064 0 -0.02090587424729929 -0.016016720344933157 0 -0.023315768735619569 -0.016288401405793972 0 -0.025476670486871546 -0.016739577197212935 0 -0.023315768735619569 -0.016288401405793972 0 -0.023187186259489175 -0.019857365666575984 0 -0.021657528587571584 -0.018305279861929064 0 -0.023315768735619569 -0.016288401405793972 0 -0.023187186259489175 -0.019857365666575984 0 -0.011504707360203878 -0.014733224571581405 0 -0.017205161194231558 -0.019915832547250153 0 -0.016003837950411305 -0.027192087781173501 0 -0.015770965297320635 -0.025676172362656575 0 -0.014650793022128144 -0.02580948344114755 0 -0.016003837950411305 -0.027192087781173501 0 -0.015770965297320635 -0.025676172362656575 0 -0.016915709296949692 -0.026264172429506089 0 -0.017205161194231558 -0.019915832547250153 0 -0.0091158964797720919 -0.021048934527016123 0 -0.017205161194231558 -0.019915832547250153 0 -0.01889366118496761 -0.024642803966862008 0 -0.015770965297320635 -0.025676172362656575 0 -0.01595814499791031 -0.024833750047797861 0 -0.014798957953065243 -0.024839591950362731 0 -0.015770965297320635 -0.025676172362656575 0 -0.016728539104318492 -0.025065342239380228 0 -0.01595814499791031 -0.024833750047797861 0 -0.021173488333166245 -0.022744777225161498 0 -0.018342994397253645 -0.023539785547089992 0 -0.018293074123128514 -0.024586196294152415 0 -0.016728539104318492 -0.025065342239380228 0 -0.018293074123128514 -0.024586196294152415 0 -0.016850530934308456 -0.024287436544400763 0 -0.015770965297320635 -0.025676172362656575 0 -0.016728539104318492 -0.025065342239380228 0 -0.016915709296949692 -0.026264172429506089 0 -0.01889366118496761 -0.024642803966862008 0 -0.018570196099894593 -0.024515670252662849 0 -0.016728539104318492 -0.025065342239380228 0 -0.016915709296949692 -0.026264172429506089 0 -0.018293074123128514 -0.024586196294152415 0 -0.020563766503633219 -0.02040860873308644 0 -0.023369770760456904 -0.020477840405387228 0 -0.021173488333166245 -0.022744777225161498 0 -0.020563766503633219 -0.02040860873308644 0 -0.021173488333166245 -0.022744777225161498 0 -0.018950148965918762 -0.021783782421550806 0 -0.018968548812100462 -0.021884329194374209 0 -0.018279040173700922 -0.022940707309907105 0 -0.018950148965918762 -0.021783782421550806 0 -0.017387594007858956 -0.024235945588800115 0 -0.018342994397253645 -0.023539785547089992 0 -0.021173488333166245 -0.022744777225161498 0 -0.018950148965918762 -0.021783782421550806 0 -0.018342994397253645 -0.023539785547089992 0 -0.018905154902970778 -0.020771642525758211 0 -0.018950148965918762 -0.021783782421550806 0 -0.018906961732054132 -0.021703096878138223 0 -0.018950148965918762 -0.021783782421550806 0 -0.018906961732054132 -0.021703096878138223 0 -0.019042959646707248 -0.0218026796139014 0 -0.019085781523801509 -0.021860579889145332 0 -0.018906961732054132 -0.021703096878138223 0 -0.019042959646707248 -0.0218026796139014 0 -0.019014180691386506 -0.021858530554890211 0 -0.019085781523801509 -0.021860579889145332 0 -0.018906961732054132 -0.021703096878138223 0 -0.017387594007858956 -0.024235945588800115 0 -0.018342994397253645 -0.023539785547089992 0 -0.017871329981519121 -0.024135512595521345 0 -0.017387594007858956 -0.024235945588800115 0 -0.017871329981519121 -0.024135512595521345 0 -0.017677595373076865 -0.024123378241882671 0 -0.018342994397253645 -0.023539785547089992 0 -0.017871329981519121 -0.024135512595521345 0 -0.018293074123128514 -0.024586196294152415 0 -0.017871329981519121 -0.024135512595521345 0 -0.018293074123128514 -0.024586196294152415 0 -0.017677595373076865 -0.024123378241882671 0 -0.018293074123128514 -0.024586196294152415 0 -0.017677595373076865 -0.024123378241882671 0 -0.017297453119710513 -0.023932136271608642 0 -0.017677595373076865 -0.024123378241882671 0 -0.017297453119710513 -0.023932136271608642 0 -0.017482223885709268 -0.023452894567022948 0 -0.017387594007858956 -0.024235945588800115 0 -0.017677595373076865 -0.024123378241882671 0 -0.01782817446217037 -0.023827533645703253 0 -0.017677595373076865 -0.024123378241882671 0 -0.01782817446217037 -0.023827533645703253 0 -0.017482223885709268 -0.023452894567022948 0 -0.01782817446217037 -0.023827533645703253 0 -0.017482223885709268 -0.023452894567022948 0 -0.018091813663444516 -0.023212347709200824 0 -0.017482223885709268 -0.023452894567022948 0 -0.018091813663444516 -0.023212347709200824 0 -0.017830558288087793 -0.022997303823702714 0 -0.017297453119710513 -0.023932136271608642 0 -0.017482223885709268 -0.023452894567022948 0 -0.016982992876023256 -0.023469597793850865 0 -0.016982992876023256 -0.023469597793850865 0 -0.01653861952927059 -0.023741329796446088 0 -0.01654229135818364 -0.023272609994470374 0 -0.017297453119710513 -0.023932136271608642 0 -0.016982992876023256 -0.023469597793850865 0 -0.01653861952927059 -0.023741329796446088 0 -0.01653861952927059 -0.023741329796446088 0 -0.01570563189266962 -0.023811617433974586 0 -0.015906703327408438 -0.023411602876859131 0 -0.01570563189266962 -0.023811617433974586 0 -0.015211701957458209 -0.023592193197319384 0 -0.015015221289708492 -0.024108475457923325 0 -0.01570563189266962 -0.023811617433974586 0 -0.015839387353555997 -0.024227756941437237 0 -0.015015221289708492 -0.024108475457923325 0 -0.01653861952927059 -0.023741329796446088 0 -0.01570563189266962 -0.023811617433974586 0 -0.015839387353555997 -0.024227756941437237 0 -0.015839387353555997 -0.024227756941437237 0 -0.01595814499791031 -0.024833750047797861 0 -0.014798957953065243 -0.024839591950362731 0 -0.015839387353555997 -0.024227756941437237 0 -0.015015221289708492 -0.024108475457923325 0 -0.014798957953065243 -0.024839591950362731 0 -0.015839387353555997 -0.024227756941437237 0 -0.01595814499791031 -0.024833750047797861 0 -0.016850530934308456 -0.024287436544400763 0 -0.017297453119710513 -0.023932136271608642 0 -0.01653861952927059 -0.023741329796446088 0 -0.016850530934308456 -0.024287436544400763 0 -0.016728539104318492 -0.025065342239380228 0 -0.01595814499791031 -0.024833750047797861 0 -0.016850530934308456 -0.024287436544400763 0 -0.01653861952927059 -0.023741329796446088 0 -0.015839387353555997 -0.024227756941437237 0 -0.016850530934308456 -0.024287436544400763 0 -0.018293074123128514 -0.024586196294152415 0 -0.017297453119710513 -0.023932136271608642 0 -0.016850530934308456 -0.024287436544400763 0 -0.021441188964660657 -0.021511158042836355 0 -0.021597684576599961 -0.022358874617337876 0 -0.020788958631295668 -0.021883571168271571 0 -0.021597684576599961 -0.022358874617337876 0 -0.020676520901667057 -0.022484567883457811 0 -0.020788958631295668 -0.021883571168271571 0 -0.021597684576599961 -0.022358874617337876 0 -0.021826992626008575 -0.02313118263761799 0 -0.020676520901667057 -0.022484567883457811 0 -0.020676520901667057 -0.022484567883457811 0 -0.020788958631295668 -0.021883571168271571 0 -0.019989196145938484 -0.021969696820382089 0 -0.020400445751202381 -0.021964202526971007 0 -0.019693123413446766 -0.021996670640704954 0 -0.019958615509044004 -0.022112934967468498 0 -0.019443857482644163 -0.022039742740562522 0 -0.019428109267676436 -0.021773363861820872 0 -0.020073379684572946 -0.022493842174558763 0 -0.020676520901667057 -0.022484567883457811 0 -0.019989196145938484 -0.021969696820382089 0 -0.019527048832622254 -0.022254440919807925 0 -0.020073379684572946 -0.022493842174558763 0 -0.019989196145938484 -0.021969696820382089 0 -0.01914224190419405 -0.021924196351776927 0 -0.019693123413446766 -0.021996670640704954 0 -0.019085781523801509 -0.021860579889145332 0 -0.019042959646707248 -0.0218026796139014 0 -0.019443857482644163 -0.022039742740562522 0 -0.019527048832622254 -0.022254440919807925 0 -0.019085781523801509 -0.021860579889145332 0 -0.019989196145938484 -0.021969696820382089 0 -0.018279040173700922 -0.022940707309907105 0 -0.01900379024563989 -0.022731950692813054 0 -0.019042959646707248 -0.0218026796139014 0 -0.019443857482644163 -0.022039742740562522 0 -0.019428109267676436 -0.021773363861820872 0 -0.017387594007858956 -0.024235945588800115 0 -0.01782817446217037 -0.023827533645703253 0 -0.018662736061356627 -0.023747148843372846 0 -0.01782817446217037 -0.023827533645703253 0 -0.018091813663444516 -0.023212347709200824 0 -0.018662736061356627 -0.023747148843372846 0 -0.018091813663444516 -0.023212347709200824 0 -0.018662736061356627 -0.023747148843372846 0 -0.018904537487677477 -0.022326996116178621 0 -0.01900379024563989 -0.022731950692813054 0 -0.019783161360008503 -0.021948264855573232 0 -0.018662736061356627 -0.023747148843372846 0 -0.019845823061272562 -0.021834989725941719 0 -0.018904537487677477 -0.022326996116178621 0 -0.019428109267676436 -0.021773363861820872 0 -0.019845823061272562 -0.021834989725941719 0 -0.020155488976357348 -0.021651854419039614 0 -0.019958615509044004 -0.022112934967468498 0 -0.019428109267676436 -0.021773363861820872 0 -0.020155488976357348 -0.021651854419039614 0 -0.021119429132452967 -0.020920050779416749 0 -0.020541559506859014 -0.021045329856962856 0 -0.020155488976357348 -0.021651854419039614 0 -0.019845823061272562 -0.021834989725941719 0 -0.020541559506859014 -0.021045329856962856 0 -0.020155488976357348 -0.021651854419039614 0 -0.021119429132452967 -0.020920050779416749 0 -0.020803408807032357 -0.020642867387301419 0 -0.020541559506859014 -0.021045329856962856 0 -0.021378218023892122 -0.021531740941537505 0 -0.020400445751202381 -0.021964202526971007 0 -0.021441188964660657 -0.021511158042836355 0 -0.019958615509044004 -0.022112934967468498 0 -0.020155488976357348 -0.021651854419039614 0 -0.021441188964660657 -0.021511158042836355 0 -0.021119429132452967 -0.020920050779416749 0 -0.020155488976357348 -0.021651854419039614 0 -0.020637428500954642 -0.020794648777338481 0 -0.020394791879110457 -0.020790122063701299 0 -0.020363622879247922 -0.020765912431152701 0 -0.020394791879110457 -0.020790122063701299 0 -0.020121064230770914 -0.020759012255866748 0 -0.020363622879247922 -0.020765912431152701 0 -0.02072282277286756 -0.020766241726716237 0 -0.020637428500954642 -0.020794648777338481 0 -0.020394791879110457 -0.020790122063701299 0 -0.02072282277286756 -0.020766241726716237 0 -0.020541559506859014 -0.021045329856962856 0 -0.020394791879110457 -0.020790122063701299 0 -0.020541559506859014 -0.021045329856962856 0 -0.020394791879110457 -0.020790122063701299 0 -0.020108546799976274 -0.02084773352928641 0 -0.02072282277286756 -0.020766241726716237 0 -0.020803408807032357 -0.020642867387301419 0 -0.020541559506859014 -0.021045329856962856 0 -0.020501862379573611 -0.021181516887422969 0 -0.019750932687541536 -0.021295053923029234 0 -0.019845823061272562 -0.021834989725941719 0 -0.019431211995573752 -0.021820328134368273 0 -0.018904537487677477 -0.022326996116178621 0 -0.019845823061272562 -0.021834989725941719 0 -0.020541559506859014 -0.021045329856962856 0 -0.019431211995573752 -0.021820328134368273 0 -0.020394791879110457 -0.020790122063701299 0 -0.020108546799976274 -0.02084773352928641 0 -0.020121064230770914 -0.020759012255866748 0 -0.020108546799976274 -0.02084773352928641 0 -0.020121064230770914 -0.020759012255866748 0 -0.019977357113811142 -0.020750744951506767 0 -0.019750932687541536 -0.021295053923029234 0 -0.019656471121023616 -0.021305956922630397 0 -0.019431211995573752 -0.021820328134368273 0 -0.018660668306727198 -0.022089951435509885 0 -0.018565969210735007 -0.021682251860306975 0 -0.019431211995573752 -0.021820328134368273 0 -0.018660668306727198 -0.022089951435509885 0 -0.018904537487677477 -0.022326996116178621 0 -0.018091813663444516 -0.023212347709200824 0 -0.018904537487677477 -0.022326996116178621 0 -0.018243695337988478 -0.022521416542835803 0 -0.018660668306727198 -0.022089951435509885 0 -0.018904537487677477 -0.022326996116178621 0 -0.018243695337988478 -0.022521416542835803 0 -0.018091813663444516 -0.023212347709200824 0 -0.018243695337988478 -0.022521416542835803 0 -0.017830558288087793 -0.022997303823702714 0 -0.018660668306727198 -0.022089951435509885 0 -0.018076573523675084 -0.022108842493141958 0 -0.018565969210735007 -0.021682251860306975 0 -0.018660668306727198 -0.022089951435509885 0 -0.018243695337988478 -0.022521416542835803 0 -0.018076573523675084 -0.022108842493141958 0 -0.018076573523675084 -0.022108842493141958 0 -0.018565969210735007 -0.021682251860306975 0 -0.017804851155027536 -0.02171967126439318 0 -0.019656471121023616 -0.021305956922630397 0 -0.016367987256267445 -0.021046177986156114 0 -0.01836923603473218 -0.020817017881642051 0 -0.016367987256267445 -0.021046177986156114 0 -0.019954184657452793 -0.020713446582500263 0 -0.01990507284172062 -0.020793819716483385 0 -0.019681127828710912 -0.020644375383950964 0 -0.018565969210735007 -0.021682251860306975 0 -0.017804851155027536 -0.02171967126439318 0 -0.01774747248080329 -0.021068925779918583 0 -0.015665310650740161 -0.020985650307357349 0 -0.016354927356952421 -0.020927805835008452 0 -0.015007852225473113 -0.021242002257973607 0 -0.015665310650740161 -0.020985650307357349 0 -0.016354927356952421 -0.020927805835008452 0 -0.017035625720276882 -0.019675303471130928 0 -0.016354927356952421 -0.020927805835008452 0 -0.018493631373008673 -0.019805033045411053 0 -0.017035625720276882 -0.019675303471130928 0 -0.019954184657452793 -0.020713446582500263 0 -0.01990507284172062 -0.020793819716483385 0 -0.019977357113811142 -0.020750744951506767 0 -0.020108546799976274 -0.02084773352928641 0 -0.01990507284172062 -0.020793819716483385 0 -0.019977357113811142 -0.020750744951506767 0 -0.020121064230770914 -0.020759012255866748 0 -0.019977357113811142 -0.020750744951506767 0 -0.019819215337317914 -0.020823238473193631 0 -0.016354927356952421 -0.020927805835008452 0 -0.018493631373008673 -0.019805033045411053 0 -0.019819215337317914 -0.020823238473193631 0 -0.019954184657452793 -0.020713446582500263 0 -0.019977357113811142 -0.020750744951506767 0 -0.019819215337317914 -0.020823238473193631 0 -0.01836923603473218 -0.020817017881642051 0 -0.019552843064886315 -0.020847192325958049 0 -0.018493631373008673 -0.019805033045411053 0 -0.019819215337317914 -0.020823238473193631 0 -0.019820813015279399 -0.018825774765478902 0 -0.020650516770866316 -0.020459481967378689 0 -0.019819215337317914 -0.020823238473193631 0 -0.019820813015279399 -0.018825774765478902 0 -0.020672161848400296 -0.020580968084596987 0 -0.02015903950440023 -0.018973786009672661 0 -0.020818086643268105 -0.020165763984385691 0 -0.020650516770866316 -0.020459481967378689 0 -0.020535667056677406 -0.02001275667309544 0 -0.020627490235166385 -0.020656103500195113 0 -0.020650516770866316 -0.020459481967378689 0 -0.019819215337317914 -0.020823238473193631 0 -0.020627490235166385 -0.020656103500195113 0 -0.019819215337317914 -0.020823238473193631 0 -0.020363622879247922 -0.020765912431152701 0 -0.020121064230770914 -0.020759012255866748 0 -0.019819215337317914 -0.020823238473193631 0 -0.020363622879247922 -0.020765912431152701 0 -0.016538572393651561 -0.022806821458638056 0 -0.015886745856903837 -0.022532403848838936 0 -0.016038814866770088 -0.023027880116262736 0 -0.016538572393651561 -0.022806821458638056 0 -0.015886745856903837 -0.022532403848838936 0 -0.01653063218888989 -0.022411956715993987 0 -0.015886745856903837 -0.022532403848838936 0 -0.01534714572076888 -0.023080719337094907 0 -0.015167276107964121 -0.022634023900223916 0 -0.01534714572076888 -0.023080719337094907 0 -0.015167276107964121 -0.022634023900223916 0 -0.014490289338700354 -0.022917862206206098 0 -0.015886745856903837 -0.022532403848838936 0 -0.01534714572076888 -0.023080719337094907 0 -0.016038814866770088 -0.023027880116262736 0 -0.01534714572076888 -0.023080719337094907 0 -0.015211701957458209 -0.023592193197319384 0 -0.015906703327408438 -0.023411602876859131 0 -0.01534714572076888 -0.023080719337094907 0 -0.015906703327408438 -0.023411602876859131 0 -0.016038814866770088 -0.023027880116262736 0 -0.01534714572076888 -0.023080719337094907 0 -0.015211701957458209 -0.023592193197319384 0 -0.014542770673140575 -0.023396668701952124 0 -0.01570563189266962 -0.023811617433974586 0 -0.015211701957458209 -0.023592193197319384 0 -0.015906703327408438 -0.023411602876859131 0 -0.01653861952927059 -0.023741329796446088 0 -0.015906703327408438 -0.023411602876859131 0 -0.01654229135818364 -0.023272609994470374 0 -0.015906703327408438 -0.023411602876859131 0 -0.016038814866770088 -0.023027880116262736 0 -0.01654229135818364 -0.023272609994470374 0 -0.016538572393651561 -0.022806821458638056 0 -0.016038814866770088 -0.023027880116262736 0 -0.01654229135818364 -0.023272609994470374 0 -0.017482223885709268 -0.023452894567022948 0 -0.016982992876023256 -0.023469597793850865 0 -0.016991629660273087 -0.022942328358348595 0 -0.017482223885709268 -0.023452894567022948 0 -0.016991629660273087 -0.022942328358348595 0 -0.017582808308482436 -0.022669622291139484 0 -0.016982992876023256 -0.023469597793850865 0 -0.01654229135818364 -0.023272609994470374 0 -0.016991629660273087 -0.022942328358348595 0 -0.016538572393651561 -0.022806821458638056 0 -0.01654229135818364 -0.023272609994470374 0 -0.016991629660273087 -0.022942328358348595 0 -0.017482223885709268 -0.023452894567022948 0 -0.017830558288087793 -0.022997303823702714 0 -0.017582808308482436 -0.022669622291139484 0 -0.018243695337988478 -0.022521416542835803 0 -0.017830558288087793 -0.022997303823702714 0 -0.017582808308482436 -0.022669622291139484 0 -0.017582808308482436 -0.022669622291139484 0 -0.017470968776856905 -0.022163077410633371 0 -0.017016162318491058 -0.022526484612409487 0 -0.018243695337988478 -0.022521416542835803 0 -0.018076573523675084 -0.022108842493141958 0 -0.017582808308482436 -0.022669622291139484 0 -0.018076573523675084 -0.022108842493141958 0 -0.017582808308482436 -0.022669622291139484 0 -0.017470968776856905 -0.022163077410633371 0 -0.016538572393651561 -0.022806821458638056 0 -0.016991629660273087 -0.022942328358348595 0 -0.017016162318491058 -0.022526484612409487 0 -0.016991629660273087 -0.022942328358348595 0 -0.017582808308482436 -0.022669622291139484 0 -0.017016162318491058 -0.022526484612409487 0 -0.017470968776856905 -0.022163077410633371 0 -0.017016162318491058 -0.022526484612409487 0 -0.016924955126789112 -0.022135276913534445 0 -0.016538572393651561 -0.022806821458638056 0 -0.017016162318491058 -0.022526484612409487 0 -0.01653063218888989 -0.022411956715993987 0 -0.017016162318491058 -0.022526484612409487 0 -0.01653063218888989 -0.022411956715993987 0 -0.016924955126789112 -0.022135276913534445 0 -0.01653063218888989 -0.022411956715993987 0 -0.016924955126789112 -0.022135276913534445 0 -0.016399293439253202 -0.022046734009302609 0 -0.016924955126789112 -0.022135276913534445 0 -0.016814256383996647 -0.021764141954391816 0 -0.017330616099387741 -0.021866904612119712 0 -0.016814256383996647 -0.021764141954391816 0 -0.017330616099387741 -0.021866904612119712 0 -0.017269092058135125 -0.021560520024296873 0 -0.016814256383996647 -0.021764141954391816 0 -0.016185668824115696 -0.021751379603937169 0 -0.016399293439253202 -0.022046734009302609 0 -0.016924955126789112 -0.022135276913534445 0 -0.016814256383996647 -0.021764141954391816 0 -0.016399293439253202 -0.022046734009302609 0 -0.018076573523675084 -0.022108842493141958 0 -0.017470968776856905 -0.022163077410633371 0 -0.017804851155027536 -0.02171967126439318 0 -0.017470968776856905 -0.022163077410633371 0 -0.017330616099387741 -0.021866904612119712 0 -0.017804851155027536 -0.02171967126439318 0 -0.017470968776856905 -0.022163077410633371 0 -0.016924955126789112 -0.022135276913534445 0 -0.017330616099387741 -0.021866904612119712 0 -0.017330616099387741 -0.021866904612119712 0 -0.017804851155027536 -0.02171967126439318 0 -0.017269092058135125 -0.021560520024296873 0 -0.017269092058135125 -0.021560520024296873 0 -0.01774747248080329 -0.021068925779918583 0 -0.016730120627677345 -0.021419380536932479 0 -0.017804851155027536 -0.02171967126439318 0 -0.017269092058135125 -0.021560520024296873 0 -0.01774747248080329 -0.021068925779918583 0 -0.016730120627677345 -0.021419380536932479 0 -0.015889959052179284 -0.021474633818850838 0 -0.016414075057286589 -0.020929804242449449 0 -0.01774747248080329 -0.021068925779918583 0 -0.016730120627677345 -0.021419380536932479 0 -0.016414075057286589 -0.020929804242449449 0 -0.016814256383996647 -0.021764141954391816 0 -0.016730120627677345 -0.021419380536932479 0 -0.016185668824115696 -0.021751379603937169 0 -0.016814256383996647 -0.021764141954391816 0 -0.017269092058135125 -0.021560520024296873 0 -0.016730120627677345 -0.021419380536932479 0 -0.016730120627677345 -0.021419380536932479 0 -0.015889959052179284 -0.021474633818850838 0 -0.016185668824115696 -0.021751379603937169 0 -0.015889959052179284 -0.021474633818850838 0 -0.015583769446844755 -0.02182153116892745 0 -0.015239992751716367 -0.021628433857666877 0 -0.015889959052179284 -0.021474633818850838 0 -0.015239992751716367 -0.021628433857666877 0 -0.015497114263462794 -0.021376650665265888 0 -0.015889959052179284 -0.021474633818850838 0 -0.015583769446844755 -0.02182153116892745 0 -0.016185668824115696 -0.021751379603937169 0 -0.015583769446844755 -0.02182153116892745 0 -0.016185668824115696 -0.021751379603937169 0 -0.015848800132286043 -0.022050051067405756 0 -0.016185668824115696 -0.021751379603937169 0 -0.016399293439253202 -0.022046734009302609 0 -0.015848800132286043 -0.022050051067405756 0 -0.015886745856903837 -0.022532403848838936 0 -0.016399293439253202 -0.022046734009302609 0 -0.015848800132286043 -0.022050051067405756 0 -0.015886745856903837 -0.022532403848838936 0 -0.015848800132286043 -0.022050051067405756 0 -0.015355053152745293 -0.022226214829475052 0 -0.015886745856903837 -0.022532403848838936 0 -0.01653063218888989 -0.022411956715993987 0 -0.016399293439253202 -0.022046734009302609 0 -0.015167276107964121 -0.022634023900223916 0 -0.015355053152745293 -0.022226214829475052 0 -0.014798679844137958 -0.022342289109408383 0 -0.015886745856903837 -0.022532403848838936 0 -0.015167276107964121 -0.022634023900223916 0 -0.015355053152745293 -0.022226214829475052 0 -0.015583769446844755 -0.02182153116892745 0 -0.015848800132286043 -0.022050051067405756 0 -0.015355053152745293 -0.022226214829475052 0 -0.015355053152745293 -0.022226214829475052 0 -0.015013152471865457 -0.021939945675508721 0 -0.014798679844137958 -0.022342289109408383 0 -0.015583769446844755 -0.02182153116892745 0 -0.015355053152745293 -0.022226214829475052 0 -0.015013152471865457 -0.021939945675508721 0 -0.015583769446844755 -0.02182153116892745 0 -0.015013152471865457 -0.021939945675508721 0 -0.015239992751716367 -0.021628433857666877 0 -0.015013152471865457 -0.021939945675508721 0 -0.015239992751716367 -0.021628433857666877 0 -0.014697916639832314 -0.021664862713456034 0 -0.014449836477242227 -0.021998907468797211 0 -0.013767624995105124 -0.0221003501334338 0 -0.014269618294421764 -0.022452850228345079 0 -0.014449836477242227 -0.021998907468797211 0 -0.013767624995105124 -0.0221003501334338 0 -0.0142015878767499 -0.021603098108581263 0 -0.014697916639832314 -0.021664862713456034 0 -0.014449836477242227 -0.021998907468797211 0 -0.0142015878767499 -0.021603098108581263 0 -0.015013152471865457 -0.021939945675508721 0 -0.014697916639832314 -0.021664862713456034 0 -0.014449836477242227 -0.021998907468797211 0 -0.015013152471865457 -0.021939945675508721 0 -0.014449836477242227 -0.021998907468797211 0 -0.014798679844137958 -0.022342289109408383 0 -0.013767624995105124 -0.0221003501334338 0 -0.013040726566516921 -0.021740423521799997 0 -0.013820208611654115 -0.021410424956455478 0 -0.013767624995105124 -0.0221003501334338 0 -0.012154419150367465 -0.023720655094657723 0 -0.013691154509957717 -0.023272980720430787 0 -0.013767624995105124 -0.0221003501334338 0 -0.014269618294421764 -0.022452850228345079 0 -0.013691154509957717 -0.023272980720430787 0 -0.014269618294421764 -0.022452850228345079 0 -0.014490289338700354 -0.022917862206206098 0 -0.013691154509957717 -0.023272980720430787 0 -0.015167276107964121 -0.022634023900223916 0 -0.014798679844137958 -0.022342289109408383 0 -0.014490289338700354 -0.022917862206206098 0 -0.014798679844137958 -0.022342289109408383 0 -0.014269618294421764 -0.022452850228345079 0 -0.014490289338700354 -0.022917862206206098 0 -0.014449836477242227 -0.021998907468797211 0 -0.014798679844137958 -0.022342289109408383 0 -0.014269618294421764 -0.022452850228345079 0 -0.011225650330766472 -0.025277850734231857 0 -0.01166058931490184 -0.024898793615265223 0 -0.011423118757461399 -0.025553408127264924 0 -0.013767624995105124 -0.0221003501334338 0 -0.013040726566516921 -0.021740423521799997 0 -0.012154419150367465 -0.023720655094657723 0 -0.012179170582677309 -0.023572590481184798 0 -0.012127966657741239 -0.023777503524630181 0 -0.011225650330766472 -0.025277850734231857 0 -0.012154419150367465 -0.023720655094657723 0 -0.01166058931490184 -0.024898793615265223 0 -0.012154419150367465 -0.023720655094657723 0 -0.011796313954759292 -0.024362037374168873 0 -0.01166058931490184 -0.024898793615265223 0 -0.011796313954759292 -0.024362037374168873 0 -0.012095510938521433 -0.024139521881518453 0 -0.011779098400140136 -0.024391193320383732 0 -0.012154419150367465 -0.023720655094657723 0 -0.011796313954759292 -0.024362037374168873 0 -0.012095510938521433 -0.024139521881518453 0 -0.012154419150367465 -0.023720655094657723 0 -0.012817294040932342 -0.023963422013209924 0 -0.013691154509957717 -0.023272980720430787 0 -0.012154419150367465 -0.023720655094657723 0 -0.012095510938521433 -0.024139521881518453 0 -0.012817294040932342 -0.023963422013209924 0 -0.012817294040932342 -0.023963422013209924 0 -0.01228541734990661 -0.02437874456457563 0 -0.013293366081967193 -0.02423810197141869 0 -0.0128009325236258 -0.024244830052623959 0 -0.012976775129197753 -0.0241559096083763 0 -0.012095510938521433 -0.024139521881518453 0 -0.012817294040932342 -0.023963422013209924 0 -0.01228541734990661 -0.02437874456457563 0 -0.0090160043080761403 -0.02045366029975405 0 -0.0095522754378361153 -0.022087724674604323 0 -0.0128009325236258 -0.024244830052623959 0 -0.0095522754378361153 -0.022087724674604323 0 -0.012095510938521433 -0.024139521881518453 0 -0.01228541734990661 -0.02437874456457563 0 -0.011779098400140136 -0.024391193320383732 0 -0.012452198635941773 -0.02368781640138308 0 -0.012585273459473936 -0.024339139110751053 0 -0.011351603865534146 -0.023205778006077191 0 -0.01534714572076888 -0.023080719337094907 0 -0.014542770673140575 -0.023396668701952124 0 -0.014490289338700354 -0.022917862206206098 0 -0.014542770673140575 -0.023396668701952124 0 -0.014490289338700354 -0.022917862206206098 0 -0.013691154509957717 -0.023272980720430787 0 -0.012817294040932342 -0.023963422013209924 0 -0.013691154509957717 -0.023272980720430787 0 -0.0136925493486831 -0.023801460595986857 0 -0.014542770673140575 -0.023396668701952124 0 -0.013691154509957717 -0.023272980720430787 0 -0.0136925493486831 -0.023801460595986857 0 -0.012817294040932342 -0.023963422013209924 0 -0.0136925493486831 -0.023801460595986857 0 -0.013293366081967193 -0.02423810197141869 0 -0.0136925493486831 -0.023801460595986857 0 -0.014190228268710921 -0.023973839980377873 0 -0.013293366081967193 -0.02423810197141869 0 -0.015211701957458209 -0.023592193197319384 0 -0.014542770673140575 -0.023396668701952124 0 -0.014190228268710921 -0.023973839980377873 0 -0.014542770673140575 -0.023396668701952124 0 -0.0136925493486831 -0.023801460595986857 0 -0.014190228268710921 -0.023973839980377873 0 -0.014190228268710921 -0.023973839980377873 0 -0.015015221289708492 -0.024108475457923325 0 -0.014086971215635083 -0.02442454081430568 0 -0.015211701957458209 -0.023592193197319384 0 -0.014190228268710921 -0.023973839980377873 0 -0.015015221289708492 -0.024108475457923325 0 -0.015015221289708492 -0.024108475457923325 0 -0.014798957953065243 -0.024839591950362731 0 -0.014086971215635083 -0.02442454081430568 0 -0.014798957953065243 -0.024839591950362731 0 -0.0135797205105854 -0.024943377378323056 0 -0.014086971215635083 -0.02442454081430568 0 -0.014190228268710921 -0.023973839980377873 0 -0.014086971215635083 -0.02442454081430568 0 -0.013293366081967193 -0.02423810197141869 0 -0.0135797205105854 -0.024943377378323056 0 -0.014086971215635083 -0.02442454081430568 0 -0.013293366081967193 -0.02423810197141869 0 -0.0135797205105854 -0.024943377378323056 0 -0.013293366081967193 -0.02423810197141869 0 -0.012585273459473936 -0.024339139110751053 0 -0.012452198635941773 -0.02368781640138308 0 -0.013293366081967193 -0.02423810197141869 0 -0.012585273459473936 -0.024339139110751053 0 -0.0059037271496851455 -0.017262427921397983 0 -0.00632145111233514 -0.017122272809790229 0 -0.0063537301043472324 -0.017824162831630307 0 -0.0059037271496851455 -0.017262427921397983 0 -0.0059678536802846294 -0.016661210812213667 0 -0.00632145111233514 -0.017122272809790229 0 -0.0055995755289836874 -0.01663794955443778 0 -0.0059037271496851455 -0.017262427921397983 0 -0.0059678536802846294 -0.016661210812213667 0 -0.0098216275847476404 -0.020913090132541969 0 -0.0090160043080761403 -0.02045366029975405 0 -0.0059678536802846294 -0.016661210812213667 0 -0.0056861039208337301 -0.016282134100963248 0 -0.0057639215454847242 -0.016075015575501561 0 -0.0055995755289836874 -0.01663794955443778 0 -0.0059678536802846294 -0.016661210812213667 0 -0.0056861039208337301 -0.016282134100963248 0 -0.0059678536802846294 -0.016661210812213667 0 -0.0057639215454847242 -0.016075015575501561 0 -0.0066963032561927613 -0.016592519383163473 0 -0.0053790101765492206 -0.015222921980690016 0 -0.0056990107195520534 -0.016018639443308825 0 -0.0048810812110648399 -0.01451994029119897 0 -0.0057639215454847242 -0.016075015575501561 0 -0.0068062532454218989 -0.015422526462122218 0 -0.0056861039208337301 -0.016282134100963248 0 -0.0057639215454847242 -0.016075015575501561 0 -0.005721025409552727 -0.016145418595178786 0 -0.0058258379039139744 -0.016059989993164239 0 -0.0057639215454847242 -0.016075015575501561 0 -0.005721025409552727 -0.016145418595178786 0 -0.0056861039208337301 -0.016282134100963248 0 -0.005721025409552727 -0.016145418595178786 0 -0.0056379096503238477 -0.016268819495421753 0 -0.0057020926020980153 -0.016159579402205481 0 -0.0057527301724780971 -0.016173868837571079 0 -0.0056379096503238477 -0.016268819495421753 0 -0.0057020926020980153 -0.016159579402205481 0 -0.005721025409552727 -0.016145418595178786 0 -0.0056379096503238477 -0.016268819495421753 0 -0.014798957953065243 -0.024839591950362731 0 -0.0135797205105854 -0.024943377378323056 0 -0.014650793022128144 -0.02580948344114755 0 -0.015770965297320635 -0.025676172362656575 0 -0.014798957953065243 -0.024839591950362731 0 -0.014650793022128144 -0.02580948344114755 0 -0.0055995755289836874 -0.01663794955443778 0 -0.0056861039208337301 -0.016282134100963248 0 -0.0056379096503238477 -0.016268819495421753 0 -0.0098216275847476404 -0.020913090132541969 0 -0.0091158964797720919 -0.021048934527016123 0 0.0056872875223612611 -0.016235692633337663 0 0.0048127745942402149 -0.015532890943438585 0 0.0064521088012520272 -0.015441908730187309 0 0.0065501099380550357 -0.01662005254709633 0 0.0056872875223612611 -0.016235692633337663 0 0.0064521088012520272 -0.015441908730187309 0 0.0065501099380550357 -0.01662005254709633 0 0.0056872875223612611 -0.016235692633337663 0 0.0057699305443069488 -0.016955692778018679 0 0.0065501099380550357 -0.01662005254709633 0 0.0077106489957581353 -0.016432121274385071 0 0.0064521088012520272 -0.015441908730187309 0 0.0077106489957581353 -0.016432121274385071 0 0.0064521088012520272 -0.015441908730187309 0 0.0076889882783992003 -0.015243202329399717 0 0.0065501099380550357 -0.01662005254709633 0 0.0077106489957581353 -0.016432121274385071 0 0.0073161742597630209 -0.017357074368712457 0 0.0065501099380550357 -0.01662005254709633 0 0.0073161742597630209 -0.017357074368712457 0 0.0064116178770676352 -0.01746956541725099 0 0.0073161742597630209 -0.017357074368712457 0 0.0069154526355445353 -0.017873794066256329 0 0.0075839521982339351 -0.018077656812750639 0 0.0073161742597630209 -0.017357074368712457 0 0.0064116178770676352 -0.01746956541725099 0 0.0069154526355445353 -0.017873794066256329 0 0.0064116178770676352 -0.01746956541725099 0 0.0064170959897287124 -0.018034382373118833 0 0.0069154526355445353 -0.017873794066256329 0 0.0064116178770676352 -0.01746956541725099 0 0.0057352717206394111 -0.017668151023162246 0 0.0064170959897287124 -0.018034382373118833 0 0.0065501099380550357 -0.01662005254709633 0 0.0064116178770676352 -0.01746956541725099 0 0.0057699305443069488 -0.016955692778018679 0 0.0056872875223612611 -0.016235692633337663 0 0.0057699305443069488 -0.016955692778018679 0 0.0050932157867878605 -0.016884620083547529 0 0.0057699305443069488 -0.016955692778018679 0 0.0057352717206394111 -0.017668151023162246 0 0.0050932157867878605 -0.016884620083547529 0 0.0064116178770676352 -0.01746956541725099 0 0.0057699305443069488 -0.016955692778018679 0 0.0057352717206394111 -0.017668151023162246 0 0.0057352717206394111 -0.017668151023162246 0 0.0050932157867878605 -0.016884620083547529 0 0.0048588545916292839 -0.017950731234579607 0 0.0050932157867878605 -0.016884620083547529 0 0.0039384007927074725 -0.01693412673889599 0 0.0048588545916292839 -0.017950731234579607 0 0.0039384007927074725 -0.01693412673889599 0 0.0033450191046546503 -0.018638267150760768 0 0.0024731969779991166 -0.01707003517342787 0 0.0039384007927074725 -0.01693412673889599 0 0.0032846287652805303 -0.015674604887212413 0 0.0024731969779991166 -0.01707003517342787 0 0.0039384007927074725 -0.01693412673889599 0 0.0032846287652805303 -0.015674604887212413 0 0.0048127745942402149 -0.015532890943438585 0 0.0050932157867878605 -0.016884620083547529 0 0.0039384007927074725 -0.01693412673889599 0 0.0048127745942402149 -0.015532890943438585 0 0.0056872875223612611 -0.016235692633337663 0 0.0050932157867878605 -0.016884620083547529 0 0.0048127745942402149 -0.015532890943438585 0 0.0048127745942402149 -0.015532890943438585 0 0.0039083292021382015 -0.014613431507732469 0 0.0052634546463241018 -0.014198328492030655 0 0.0032846287652805303 -0.015674604887212413 0 0.0048127745942402149 -0.015532890943438585 0 0.0039083292021382015 -0.014613431507732469 0 0.0032846287652805303 -0.015674604887212413 0 0.0039083292021382015 -0.014613431507732469 0 0.0026971879086309502 -0.014489296282114162 0 0.0039083292021382015 -0.014613431507732469 0 0.0038661218786173123 -0.013326021474439523 0 0.0026971879086309502 -0.014489296282114162 0 0.0055341587539740984 -0.012200088261322132 0 0.0038661218786173123 -0.013326021474439523 0 0.0052634546463241018 -0.014198328492030655 0 0.0039083292021382015 -0.014613431507732469 0 0.0038661218786173123 -0.013326021474439523 0 0.0052634546463241018 -0.014198328492030655 0 0.0055341587539740984 -0.012200088261322132 0 0.0052634546463241018 -0.014198328492030655 0 0.0070193326713969316 -0.014036911526959109 0 0.0052634546463241018 -0.014198328492030655 0 0.0064521088012520272 -0.015441908730187309 0 0.0070193326713969316 -0.014036911526959109 0 0.0048127745942402149 -0.015532890943438585 0 0.0052634546463241018 -0.014198328492030655 0 0.0064521088012520272 -0.015441908730187309 0 0.0064521088012520272 -0.015441908730187309 0 0.0076889882783992003 -0.015243202329399717 0 0.0070193326713969316 -0.014036911526959109 0 0.0080132726418252354 -0.012420559425469484 0 0.0089712379319688545 -0.014992007766009462 0 0.011101748782872402 -0.013246947765672975 0 0.0080132726418252354 -0.012420559425469484 0 0.0070193326713969316 -0.014036911526959109 0 0.0089712379319688545 -0.014992007766009462 0 0.0076889882783992003 -0.015243202329399717 0 0.0070193326713969316 -0.014036911526959109 0 0.0089712379319688545 -0.014992007766009462 0 -0.0057639215454847242 -0.016075015575501561 0 -0.0068062532454218989 -0.015422526462122218 0 -0.0066963032561927613 -0.016592519383163473 0 0.0089712379319688545 -0.014992007766009462 0 0.011101748782872402 -0.013246947765672975 0 0.009998852292233136 -0.017649261708004974 0 0.0021543900630731109 -0.014307898646016424 0 0.0016171606116187167 -0.017096175897591569 0 0.0077106489957581353 -0.016432121274385071 0 0.0089712379319688545 -0.014992007766009462 0 0.0084987776591751111 -0.017502217022310976 0 0.0089712379319688545 -0.014992007766009462 0 0.009998852292233136 -0.017649261708004974 0 0.0084987776591751111 -0.017502217022310976 0 0.0077106489957581353 -0.016432121274385071 0 0.0076889882783992003 -0.015243202329399717 0 0.0089712379319688545 -0.014992007766009462 0 0.0073161742597630209 -0.017357074368712457 0 0.0084987776591751111 -0.017502217022310976 0 0.0075839521982339351 -0.018077656812750639 0 0.0077106489957581353 -0.016432121274385071 0 0.0073161742597630209 -0.017357074368712457 0 0.0084987776591751111 -0.017502217022310976 0 0.009998852292233136 -0.017649261708004974 0 0.0081989691267381776 -0.018623646764582787 0 0.0084755101701855275 -0.019315379852250382 0 0.009998852292233136 -0.017649261708004974 0 0.0084755101701855275 -0.019315379852250382 0 0.0087653912024841969 -0.020305537369434842 0 0.0084987776591751111 -0.017502217022310976 0 0.0081989691267381776 -0.018623646764582787 0 0.0075839521982339351 -0.018077656812750639 0 0.0016171606116187167 -0.017096175897591569 0 0.0011632913167011966 -0.018629749934647156 0 0.009998852292233136 -0.017649261708004974 0 0.0084987776591751111 -0.017502217022310976 0 0.0081989691267381776 -0.018623646764582787 0 0.0084755101701855275 -0.019315379852250382 0 0.0079314907680047304 -0.019737673264333976 0 0.0079261876469539898 -0.019199769203610939 0 0.0081989691267381776 -0.018623646764582787 0 0.0084755101701855275 -0.019315379852250382 0 0.0079261876469539898 -0.019199769203610939 0 -0.0066963032561927613 -0.016592519383163473 0 -0.00632145111233514 -0.017122272809790229 0 -0.0067095781700146802 -0.017342062716965423 0 -0.0059678536802846294 -0.016661210812213667 0 -0.0066963032561927613 -0.016592519383163473 0 -0.00632145111233514 -0.017122272809790229 0 -0.00632145111233514 -0.017122272809790229 0 -0.0067095781700146802 -0.017342062716965423 0 -0.0063537301043472324 -0.017824162831630307 0 0.0087653912024841969 -0.020305537369434842 0 0.0077234269667261655 -0.020291263510262818 0 0.0079314907680047304 -0.019737673264333976 0 0.0084755101701855275 -0.019315379852250382 0 0.0087653912024841969 -0.020305537369434842 0 0.0079314907680047304 -0.019737673264333976 0 0.0087653912024841969 -0.020305537369434842 0 0.0077234269667261655 -0.020291263510262818 0 0.0078066723838972627 -0.020802298815550551 0 0.0077234269667261655 -0.020291263510262818 0 0.0073485382954284455 -0.020077103800476774 0 0.0073563770806320244 -0.020575280669347214 0 0.0077234269667261655 -0.020291263510262818 0 0.0075060201391955982 -0.019661416730729721 0 0.0073485382954284455 -0.020077103800476774 0 0.0077234269667261655 -0.020291263510262818 0 0.0075060201391955982 -0.019661416730729721 0 0.0079314907680047304 -0.019737673264333976 0 0.0075060201391955982 -0.019661416730729721 0 0.0079314907680047304 -0.019737673264333976 0 0.0077305389768196741 -0.019396127204241286 0 0.0079261876469539898 -0.019199769203610939 0 0.0077305389768196741 -0.019396127204241286 0 0.007591904432442103 -0.019034854062950367 0 0.0079314907680047304 -0.019737673264333976 0 0.0079261876469539898 -0.019199769203610939 0 0.0077305389768196741 -0.019396127204241286 0 0.0075060201391955982 -0.019661416730729721 0 0.0077305389768196741 -0.019396127204241286 0 0.007591904432442103 -0.019034854062950367 0 0.0057352717206394111 -0.017668151023162246 0 0.0064443836611959788 -0.018668211525448647 0 0.0048588545916292839 -0.017950731234579607 0 0.0057352717206394111 -0.017668151023162246 0 0.0064443836611959788 -0.018668211525448647 0 0.0064170959897287124 -0.018034382373118833 0 0.0069154526355445353 -0.017873794066256329 0 0.0075839521982339351 -0.018077656812750639 0 0.0068488983349227041 -0.018447519447306611 0 0.0080009859561272125 -0.018829097449651267 0 0.0068242793749434174 -0.019113228534671532 0 0.0064170959897287124 -0.018034382373118833 0 0.0069154526355445353 -0.017873794066256329 0 0.0068488983349227041 -0.018447519447306611 0 0.0064443836611959788 -0.018668211525448647 0 0.0064170959897287124 -0.018034382373118833 0 0.0068488983349227041 -0.018447519447306611 0 0.0081989691267381776 -0.018623646764582787 0 0.006435028843971324 -0.018698200689992041 0 0.0068488983349227041 -0.018447519447306611 0 0.0081989691267381776 -0.018623646764582787 0 0.0079261876469539898 -0.019199769203610939 0 0.007591904432442103 -0.019034854062950367 0 0.0081989691267381776 -0.018623646764582787 0 0.0075839521982339351 -0.018077656812750639 0 0.0068488983349227041 -0.018447519447306611 0 0.0068242793749434174 -0.019113228534671532 0 0.0068525662621394447 -0.01904040278362568 0 0.0059513117649460569 -0.019715223845797013 0 0.0065417471928454485 -0.019711653190305829 0 0.0066924272173820784 -0.019289892505575643 0 0.0075060201391955982 -0.019661416730729721 0 0.007591904432442103 -0.019034854062950367 0 0.0067539601724908279 -0.020184443174134873 0 0.0068242793749434174 -0.019113228534671532 0 0.0040248542321920664 -0.019243916873716547 0 0.0064443836611959788 -0.018668211525448647 0 0.0033450191046546503 -0.018638267150760768 0 0.0048588545916292839 -0.017950731234579607 0 0.0068242793749434174 -0.019113228534671532 0 0.0067578957501784158 -0.019764524212870106 0 0.0039384007927074725 -0.01693412673889599 0 0.0033450191046546503 -0.018638267150760768 0 0.0048588545916292839 -0.017950731234579607 0 0.0073485382954284455 -0.020077103800476774 0 0.007111322466796628 -0.020388826529309272 0 0.0067539601724908279 -0.020184443174134873 0 0.0075060201391955982 -0.019661416730729721 0 0.0073485382954284455 -0.020077103800476774 0 0.0067539601724908279 -0.020184443174134873 0 0.0073485382954284455 -0.020077103800476774 0 0.007111322466796628 -0.020388826529309272 0 0.0073563770806320244 -0.020575280669347214 0 0.007111322466796628 -0.020388826529309272 0 0.0069914311627510117 -0.020705578849569545 0 0.0067539601724908279 -0.020184443174134873 0 0.007111322466796628 -0.020388826529309272 0 0.0069914311627510117 -0.020705578849569545 0 0.0073563770806320244 -0.020575280669347214 0 0.0069914311627510117 -0.020705578849569545 0 0.0072894875178429195 -0.021033847228300265 0 0.0070970520558778158 -0.021158910684759818 0 0.0069914311627510117 -0.020705578849569545 0 0.0073563770806320244 -0.020575280669347214 0 0.0072894875178429195 -0.021033847228300265 0 0.0077234269667261655 -0.020291263510262818 0 0.0073563770806320244 -0.020575280669347214 0 0.0078066723838972627 -0.020802298815550551 0 0.0073563770806320244 -0.020575280669347214 0 0.0078066723838972627 -0.020802298815550551 0 0.0072894875178429195 -0.021033847228300265 0 0.0078066723838972627 -0.020802298815550551 0 0.0076765769940765581 -0.021128935471154658 0 0.0072894875178429195 -0.021033847228300265 0 0.0076327360789786702 -0.021260414840053095 0 -4.1981097451686352e-05 -0.020274611979613118 0 0.0076765769940765581 -0.021128935471154658 0 0.007486542918615161 -0.021378707877252403 0 0.0072894875178429195 -0.021033847228300265 0 0.0076765769940765581 -0.021128935471154658 0 0.007486542918615161 -0.021378707877252403 0 0.0081662260098403043 -0.021287221031282277 0 0.0078066723838972627 -0.020802298815550551 0 0.0076765769940765581 -0.021128935471154658 0 0.0081662260098403043 -0.021287221031282277 0 0.0070843558288019642 -0.021190130539014366 0 0.0072894875178429195 -0.021033847228300265 0 0.0070970520558778158 -0.021158910684759818 0 0.007486542918615161 -0.021378707877252403 0 0.0070843558288019642 -0.021190130539014366 0 0.0072894875178429195 -0.021033847228300265 0 0.0011632913167011966 -0.018629749934647156 0 -4.1981097451686352e-05 -0.020274611979613118 0 -0.0067095781700146802 -0.017342062716965423 0 -0.0063537301043472324 -0.017824162831630307 0 -0.0067623657631081489 -0.018064108760627855 0 0.0087653912024841969 -0.020305537369434842 0 0.0078066723838972627 -0.020802298815550551 0 0.0081662260098403043 -0.021287221031282277 0 0.0058396024385484807 -0.021828354211661818 0 0.0046774208276769719 -0.022375204553610101 0 0.0048598111770381371 -0.021521074474107598 0 -4.1981097451686352e-05 -0.020274611979613118 0 -0.004974544194297003 -0.022740337682460584 0 -0.0092456812608810255 -0.023683052017886026 0 -0.004974544194297003 -0.022740337682460584 0 -0.0051186479213300422 -0.022182283643217299 0 -0.0061914303017263422 -0.021935525614195161 0 -0.0048376788724457422 -0.020598817091220498 0 -0.0095522754378361153 -0.022087724674604323 0 -4.1981097451686352e-05 -0.020274611979613118 0 -0.011796313954759292 -0.024362037374168873 0 -0.011779098400140136 -0.024391193320383732 0 -0.011635754573806792 -0.024609947526840797 0 -0.0075598362455653791 -0.023285367463059665 0 -0.0051186479213300422 -0.022182283643217299 0 -0.0061914303017263422 -0.021935525614195161 0 -0.0095522754378361153 -0.022087724674604323 0 -0.0092456812608810255 -0.023683052017886026 0 -0.011796313954759292 -0.024362037374168873 0 -0.011575324608590209 -0.024891452117669688 0 -0.01166058931490184 -0.024898793615265223 0 -0.011796313954759292 -0.024362037374168873 0 -0.011635754573806792 -0.024609947526840797 0 -0.011575324608590209 -0.024891452117669688 0 -0.011575324608590209 -0.024891452117669688 0 -0.011466334138051728 -0.025197773044191282 0 -0.01166058931490184 -0.024898793615265223 0 -0.011635754573806792 -0.024609947526840797 0 -0.011575324608590209 -0.024891452117669688 0 -0.011464585531884709 -0.025064894391141204 0 -0.011575324608590209 -0.024891452117669688 0 -0.011406788500440827 -0.025213200151459215 0 -0.011466334138051728 -0.025197773044191282 0 -0.011575324608590209 -0.024891452117669688 0 -0.011406788500440827 -0.025213200151459215 0 -0.011464585531884709 -0.025064894391141204 0 -0.011406788500440827 -0.025213200151459215 0 -0.011464585531884709 -0.025064894391141204 0 -0.011319081597940905 -0.025315167112177326 0 -0.011635754573806792 -0.024609947526840797 0 -0.011464585531884709 -0.025064894391141204 0 -0.011468949905501709 -0.02506306231086074 0 -0.011464585531884709 -0.025064894391141204 0 -0.011397374278471947 -0.025188468789869033 0 -0.011468949905501709 -0.02506306231086074 0 -0.0057421923533541473 -0.023762014830327388 0 -0.004974544194297003 -0.022740337682460584 0 -0.011397374278471947 -0.025188468789869033 0 -0.011319081597940905 -0.025315167112177326 0 -0.011116687157107012 -0.025529044486170077 0 -0.011464585531884709 -0.025064894391141204 0 -0.011397374278471947 -0.025188468789869033 0 -0.011319081597940905 -0.025315167112177326 0 -0.011255053643128832 -0.025509833449576559 0 -0.011116687157107012 -0.025529044486170077 0 -0.010777997455981594 -0.025892551203476413 0 -0.011319081597940905 -0.025315167112177326 0 -0.011255053643128832 -0.025509833449576559 0 -0.011116687157107012 -0.025529044486170077 0 -0.011406788500440827 -0.025213200151459215 0 -0.011255053643128832 -0.025509833449576559 0 -0.011466334138051728 -0.025197773044191282 0 -0.011406788500440827 -0.025213200151459215 0 -0.011319081597940905 -0.025315167112177326 0 -0.011255053643128832 -0.025509833449576559 0 -0.01140967816536886 -0.025453472949069758 0 -0.01166058931490184 -0.024898793615265223 0 -0.011423118757461399 -0.025553408127264924 0 -0.011255053643128832 -0.025509833449576559 0 -0.011466334138051728 -0.025197773044191282 0 -0.01140967816536886 -0.025453472949069758 0 -0.011466334138051728 -0.025197773044191282 0 -0.01140967816536886 -0.025453472949069758 0 -0.01166058931490184 -0.024898793615265223 0 0.007486542918615161 -0.021378707877252403 0 0.0070843558288019642 -0.021190130539014366 0 0.0069144188642050394 -0.021228315041120969 0 0.0076327360789786702 -0.021260414840053095 0 0.0065994164330161666 -0.021445175173465319 0 0.0058396024385484807 -0.021828354211661818 0 0.0069144188642050394 -0.021228315041120969 0 0.0061054315356155343 -0.020489333180287624 0 0.0058396024385484807 -0.021828354211661818 0 0.0048598111770381371 -0.021521074474107598 0 0.0061054315356155343 -0.020489333180287624 0 -0.004974544194297003 -0.022740337682460584 0 -0.0020387094699510153 -0.02310893127717735 0 -0.011397374278471947 -0.025188468789869033 0 -0.011450115324594869 -0.02512686884032353 0 -0.010814588007955428 -0.025771708019889268 0 -0.011397374278471947 -0.025188468789869033 0 -0.010814588007955428 -0.025771708019889268 0 -0.011116687157107012 -0.025529044486170077 0 -0.010814588007955428 -0.025771708019889268 0 -0.011116687157107012 -0.025529044486170077 0 -0.010777997455981594 -0.025892551203476413 0 0.0069144188642050394 -0.021228315041120969 0 0.0061054315356155343 -0.020489333180287624 0 0.0071100055903420122 -0.020716327866474798 0 0.0061054315356155343 -0.020489333180287624 0 0.0068232472143191763 -0.019894642691650314 0 0.0071100055903420122 -0.020716327866474798 0 -0.0020387094699510153 -0.02310893127717735 0 -0.0020189971639376189 -0.022873550351051628 0 -0.010777997455981594 -0.025892551203476413 0 -0.010129398091448463 -0.026227692427801572 0 -0.010151540962869151 -0.026054995278603648 0 -0.010814588007955428 -0.025771708019889268 0 -0.010777997455981594 -0.025892551203476413 0 -0.010151540962869151 -0.026054995278603648 0 -0.010777997455981594 -0.025892551203476413 0 -0.010129398091448463 -0.026227692427801572 0 -0.01076232190699202 -0.026168713796144941 0 -0.010129398091448463 -0.026227692427801572 0 -0.010151540962869151 -0.026054995278603648 0 -0.0099743711316503305 -0.026270603559629308 0 -0.010129398091448463 -0.026227692427801572 0 -0.0096046105597933223 -0.026511337091481169 0 -0.0099743711316503305 -0.026270603559629308 0 -0.010129398091448463 -0.026227692427801572 0 -0.0096046105597933223 -0.026511337091481169 0 -0.0097929918323042715 -0.02655797379942703 0 -0.0096046105597933223 -0.026511337091481169 0 -0.0099743711316503305 -0.026270603559629308 0 -0.010026882194949439 -0.026564925383296092 0 -0.0096046105597933223 -0.026511337091481169 0 -0.0087513610382669721 -0.027181681749003758 0 -0.010026882194949439 -0.026564925383296092 0 -0.0096046105597933223 -0.026511337091481169 0 -0.0097929918323042715 -0.02655797379942703 0 -0.0087513610382669721 -0.027181681749003758 0 -0.010129398091448463 -0.026227692427801572 0 -0.0097929918323042715 -0.02655797379942703 0 -0.01076232190699202 -0.026168713796144941 0 -0.0097929918323042715 -0.02655797379942703 0 -0.0096858467777253005 -0.026110439161801936 0 -0.0087513610382669721 -0.027181681749003758 0 -0.0097929918323042715 -0.02655797379942703 0 -0.0096858467777253005 -0.026110439161801936 0 -0.01062994310544514 -0.026198149726355969 0 -0.0096858467777253005 -0.026110439161801936 0 -0.0087513610382669721 -0.027181681749003758 0 -0.0076742327863364426 -0.025970921962458513 0 -0.0086056880879143999 -0.027389955433286092 0 -0.0085737698404812594 -0.027491562267599912 0 -0.011205971542666606 -0.025941657138004073 0 -0.01062994310544514 -0.026198149726355969 0 -0.010735122590745029 -0.025733700154487421 0 -0.011205971542666606 -0.025941657138004073 0 -0.01062994310544514 -0.026198149726355969 0 -0.011256558024435889 -0.026105982887211089 0 -0.011205971542666606 -0.025941657138004073 0 -0.011594948791167856 -0.025586483718356048 0 -0.010735122590745029 -0.025733700154487421 0 -0.0096858467777253005 -0.026110439161801936 0 -0.01062994310544514 -0.026198149726355969 0 -0.010735122590745029 -0.025733700154487421 0 -0.0097929918323042715 -0.02655797379942703 0 -0.01062994310544514 -0.026198149726355969 0 -0.01076232190699202 -0.026168713796144941 0 -0.01062994310544514 -0.026198149726355969 0 -0.011256558024435889 -0.026105982887211089 0 -0.01076232190699202 -0.026168713796144941 0 -0.011256558024435889 -0.026105982887211089 0 -0.01076232190699202 -0.026168713796144941 0 -0.011387502934405861 -0.026000553400087372 0 -0.01076232190699202 -0.026168713796144941 0 -0.011199907666489491 -0.025828066500384696 0 -0.011387502934405861 -0.026000553400087372 0 -0.011255053643128832 -0.025509833449576559 0 -0.010777997455981594 -0.025892551203476413 0 -0.011199907666489491 -0.025828066500384696 0 -0.010777997455981594 -0.025892551203476413 0 -0.01076232190699202 -0.026168713796144941 0 -0.011199907666489491 -0.025828066500384696 0 -0.01140967816536886 -0.025453472949069758 0 -0.011199907666489491 -0.025828066500384696 0 -0.011423118757461399 -0.025553408127264924 0 -0.011255053643128832 -0.025509833449576559 0 -0.01140967816536886 -0.025453472949069758 0 -0.011199907666489491 -0.025828066500384696 0 -0.011199907666489491 -0.025828066500384696 0 -0.011423118757461399 -0.025553408127264924 0 -0.011387502934405861 -0.026000553400087372 0 -0.011225650330766472 -0.025277850734231857 0 -0.011423118757461399 -0.025553408127264924 0 -0.011429485472252589 -0.026014221565699141 0 -0.013040726566516921 -0.021740423521799997 0 -0.013898486306838018 -0.021401145674640146 0 -0.013820208611654115 -0.021410424956455478 0 -0.012179170582677309 -0.023572590481184798 0 -0.012667469876238744 -0.02372013849796133 0 -0.011423118757461399 -0.025553408127264924 0 -0.011429485472252589 -0.026014221565699141 0 -0.011387502934405861 -0.026000553400087372 0 -0.011429485472252589 -0.026014221565699141 0 -0.011387502934405861 -0.026000553400087372 0 -0.011608967237754848 -0.026086738998158217 0 -0.014108644097762375 -0.021376693555232688 0 -0.0142015878767499 -0.021603098108581263 0 -0.013820208611654115 -0.021410424956455478 0 -0.014108644097762375 -0.021376693555232688 0 -0.014476974995527673 -0.021491136124981915 0 -0.014990729709041611 -0.021322129696364076 0 -0.014697916639832314 -0.021664862713456034 0 -0.014476974995527673 -0.021491136124981915 0 -0.0142015878767499 -0.021603098108581263 0 -0.014108644097762375 -0.021376693555232688 0 -0.014476974995527673 -0.021491136124981915 0 -0.0142015878767499 -0.021603098108581263 0 -0.013767624995105124 -0.0221003501334338 0 -0.0142015878767499 -0.021603098108581263 0 -0.013820208611654115 -0.021410424956455478 0 -0.013898486306838018 -0.021401145674640146 0 -0.013820208611654115 -0.021410424956455478 0 -0.013702703429240123 -0.021640520402195679 0 -0.014108644097762375 -0.021376693555232688 0 -0.013820208611654115 -0.021410424956455478 0 -0.013702703429240123 -0.021640520402195679 0 -0.014108644097762375 -0.021376693555232688 0 -0.013690480058668847 -0.021462030750960846 0 -0.014990729709041611 -0.021322129696364076 0 -0.014108644097762375 -0.021376693555232688 0 -0.013690480058668847 -0.021462030750960846 0 -0.013702703429240123 -0.021640520402195679 0 -0.014790197730198146 -0.022088075070349242 0 -0.01466091877117473 -0.023522322298174265 0 -0.015847829581032653 -0.022578840179333412 0 -0.016258650926981998 -0.02431039334114786 0 -0.01555357296097846 -0.024030356572937821 0 -0.013690480058668847 -0.021462030750960846 0 -0.013702703429240123 -0.021640520402195679 0 -0.013065152886236405 -0.022654300616726221 0 -0.013702703429240123 -0.021640520402195679 0 -0.013065152886236405 -0.022654300616726221 0 -0.014231540206286674 -0.022587721486525186 0 -0.013898486306838018 -0.021401145674640146 0 -0.013702703429240123 -0.021640520402195679 0 -0.014231540206286674 -0.022587721486525186 0 -0.013503421085845048 -0.023592993084913194 0 -0.013065152886236405 -0.022654300616726221 0 -0.014231540206286674 -0.022587721486525186 0 -0.016258650926981998 -0.02431039334114786 0 -0.01555357296097846 -0.024030356572937821 0 -0.015844755136202888 -0.024900560550486152 0 -0.011256558024435889 -0.026105982887211089 0 -0.011387502934405861 -0.026000553400087372 0 -0.011608967237754848 -0.026086738998158217 0 -0.011256558024435889 -0.026105982887211089 0 -0.011608967237754848 -0.026086738998158217 0 -0.011735697960462237 -0.025931540168058206 0 -0.011429485472252589 -0.026014221565699141 0 -0.011608967237754848 -0.026086738998158217 0 -0.012240052746832729 -0.026024900919564324 0 -0.012667469876238744 -0.02372013849796133 0 -0.013206926595189553 -0.024262448592728202 0 -0.012240052746832729 -0.026024900919564324 0 -0.011735697960462237 -0.025931540168058206 0 -0.012342289545789822 -0.02547371057550497 0 -0.011608967237754848 -0.026086738998158217 0 -0.012240052746832729 -0.026024900919564324 0 -0.011735697960462237 -0.025931540168058206 0 -0.011205971542666606 -0.025941657138004073 0 -0.011735697960462237 -0.025931540168058206 0 -0.011594948791167856 -0.025586483718356048 0 -0.011205971542666606 -0.025941657138004073 0 -0.011256558024435889 -0.026105982887211089 0 -0.011735697960462237 -0.025931540168058206 0 -0.011594948791167856 -0.025586483718356048 0 -0.01215428988553164 -0.02525846140002256 0 -0.012342289545789822 -0.02547371057550497 0 -0.011735697960462237 -0.025931540168058206 0 -0.011594948791167856 -0.025586483718356048 0 -0.012342289545789822 -0.02547371057550497 0 -0.011594948791167856 -0.025586483718356048 0 -0.01215428988553164 -0.02525846140002256 0 -0.011681927536575201 -0.025089081756220127 0 -0.012240052746832729 -0.026024900919564324 0 -0.012342289545789822 -0.02547371057550497 0 -0.013379733832115987 -0.024924142664272651 0 -0.013206926595189553 -0.024262448592728202 0 -0.01336499384602439 -0.02480320299301219 0 -0.012342289545789822 -0.02547371057550497 0 -0.012726983562689321 -0.025090018844894056 0 -0.013379733832115987 -0.024924142664272651 0 -0.01215428988553164 -0.02525846140002256 0 -0.012342289545789822 -0.02547371057550497 0 -0.012726983562689321 -0.025090018844894056 0 -0.012726983562689321 -0.025090018844894056 0 -0.013414329409350424 -0.024795987424665593 0 -0.012449380799601364 -0.024954482642262119 0 -0.012726983562689321 -0.025090018844894056 0 -0.013414329409350424 -0.024795987424665593 0 -0.013379733832115987 -0.024924142664272651 0 -0.013414329409350424 -0.024795987424665593 0 -0.012845945702603386 -0.024661183769124503 0 -0.013884000223399844 -0.024592798181964373 0 -0.013414329409350424 -0.024795987424665593 0 -0.012845945702603386 -0.024661183769124503 0 -0.012449380799601364 -0.024954482642262119 0 -0.012845945702603386 -0.024661183769124503 0 -0.012030973744303914 -0.024630593891423979 0 -0.012449380799601364 -0.024954482642262119 0 -0.012030973744303914 -0.024630593891423979 0 -0.011681927536575201 -0.025089081756220127 0 -0.012449380799601364 -0.024954482642262119 0 -0.01215428988553164 -0.02525846140002256 0 -0.011681927536575201 -0.025089081756220127 0 -0.012449380799601364 -0.024954482642262119 0 -0.01215428988553164 -0.02525846140002256 0 -0.012726983562689321 -0.025090018844894056 0 -0.012449380799601364 -0.024954482642262119 0 -0.016258650926981998 -0.02431039334114786 0 -0.015891433615745115 -0.025234977754269014 0 -0.015844755136202888 -0.024900560550486152 0 -0.013503421085845048 -0.023592993084913194 0 -0.013065152886236405 -0.022654300616726221 0 -0.013208248341297394 -0.024819867975186174 0 -0.013503421085845048 -0.023592993084913194 0 -0.014231540206286674 -0.022587721486525186 0 -0.013379733832115987 -0.024924142664272651 0 -0.01466091877117473 -0.023522322298174265 0 -0.014456573106899238 -0.024959939669652643 0 -0.016258650926981998 -0.02431039334114786 0 -0.015891433615745115 -0.025234977754269014 0 -0.015736746268757693 -0.025381498790379584 0 -0.013503421085845048 -0.023592993084913194 0 -0.013208248341297394 -0.024819867975186174 0 -0.013379733832115987 -0.024924142664272651 0 -0.013414329409350424 -0.024795987424665593 0 -0.013208248341297394 -0.024819867975186174 0 -0.013884000223399844 -0.024592798181964373 0 -0.014456573106899238 -0.024959939669652643 0 -0.013915034883043692 -0.024522677370806885 0 -0.015736746268757693 -0.025381498790379584 0 -0.015601134335785877 -0.025154002982721663 0 -0.013884000223399844 -0.024592798181964373 0 -0.013414329409350424 -0.024795987424665593 0 -0.013208248341297394 -0.024819867975186174 0 -0.013379733832115987 -0.024924142664272651 0 -0.015891433615745115 -0.025234977754269014 0 -0.015736746268757693 -0.025381498790379584 0 -0.015601134335785877 -0.025154002982721663 0 -0.015891433615745115 -0.025234977754269014 0 -0.015601134335785877 -0.025154002982721663 0 -0.016202833462614339 -0.025128501486587611 0 -0.015601134335785877 -0.025154002982721663 0 -0.016202833462614339 -0.025128501486587611 0 -0.015604916119221504 -0.024849695691100959 0 -0.016219061932833664 -0.02483020145998489 0 -0.015487203993415972 -0.024089430479924318 0 -0.016584886233769386 -0.024634056249581981 0 -0.016202833462614339 -0.025128501486587611 0 -0.016219061932833664 -0.02483020145998489 0 -0.016691379421336729 -0.025124642783171613 0 -0.016202833462614339 -0.025128501486587611 0 -0.016219061932833664 -0.02483020145998489 0 -0.015604916119221504 -0.024849695691100959 0 -0.016219061932833664 -0.02483020145998489 0 -0.015604916119221504 -0.024849695691100959 0 -0.015487203993415972 -0.024089430479924318 0 -0.015601134335785877 -0.025154002982721663 0 -0.015604916119221504 -0.024849695691100959 0 -0.013884000223399844 -0.024592798181964373 0 -0.015604916119221504 -0.024849695691100959 0 -0.015487203993415972 -0.024089430479924318 0 -0.013884000223399844 -0.024592798181964373 0 -0.014267760274330223 -0.023106732233121197 0 -0.015487203993415972 -0.024089430479924318 0 -0.013884000223399844 -0.024592798181964373 0 -0.012343577247141373 -0.026090911292807821 0 -0.014172790988137972 -0.026867655775288383 0 -0.014267760274330223 -0.023106732233121197 0 -0.015487203993415972 -0.024089430479924318 0 -0.016080488717229797 -0.023237338443345013 0 -0.016404353075326998 -0.024549128250126603 0 -0.016584886233769386 -0.024634056249581981 0 -0.016699095834812633 -0.024681385582518901 0 -0.014172790988137972 -0.026867655775288383 0 -0.015904380964850823 -0.024371929673766699 0 -0.015487203993415972 -0.024089430479924318 0 -0.016080488717229797 -0.023237338443345013 0 -0.016584886233769386 -0.024634056249581981 0 -0.012499646662828419 -0.024204179134831527 0 -0.012503910619110596 -0.023079692418586033 0 -0.011588447626319841 -0.024040261968151642 0 -0.012030973744303914 -0.024630593891423979 0 -0.012499646662828419 -0.024204179134831527 0 -0.011588447626319841 -0.024040261968151642 0 -0.012845945702603386 -0.024661183769124503 0 -0.012030973744303914 -0.024630593891423979 0 -0.012499646662828419 -0.024204179134831527 0 -0.012845945702603386 -0.024661183769124503 0 -0.012499646662828419 -0.024204179134831527 0 -0.013884000223399844 -0.024592798181964373 0 -0.012499646662828419 -0.024204179134831527 0 -0.013884000223399844 -0.024592798181964373 0 -0.012503910619110596 -0.023079692418586033 0 -0.014267760274330223 -0.023106732233121197 0 -0.013884000223399844 -0.024592798181964373 0 -0.012503910619110596 -0.023079692418586033 0 -0.012343577247141373 -0.026090911292807821 0 -0.011005184433562347 -0.026183782751625782 0 -0.011005184433562347 -0.026183782751625782 0 -0.0090317217914569863 -0.026494856516888383 0 -0.0092876722531341667 -0.029304714997200578 0 -0.0080221344790355111 -0.029419446969674499 0 -0.0085976217830845796 -0.028925688012230982 0 -0.004041105850354605 -0.029559594909471958 0 -0.0040160836285026849 -0.031149165921415197 0 -0.0090317217914569863 -0.026494856516888383 0 -0.0040160836285026849 -0.031149165921415197 0 -0.0054381242997774502 -0.029232863381821385 0 -0.005940748482616099 -0.029152719089956657 0 -0.0049859697982391473 -0.02967798241025452 0 -0.012503910619110596 -0.023079692418586033 0 -0.01102031667751093 -0.023212029228725724 0 -0.011588447626319841 -0.024040261968151642 0 3.3290080456077057e-05 -0.03176714923548471 0 0.00015634128281009481 -0.032341406643899576 0 0.00061014288923313487 -0.032135820791584523 0 -0.01102031667751093 -0.023212029228725724 0 -0.011588447626319841 -0.024040261968151642 0 -0.010729153627983511 -0.024303809352220748 0 -0.011588447626319841 -0.024040261968151642 0 -0.010729153627983511 -0.024303809352220748 0 -0.01115313573625158 -0.024696658500737594 0 -0.012030973744303914 -0.024630593891423979 0 -0.011588447626319841 -0.024040261968151642 0 -0.01115313573625158 -0.024696658500737594 0 -0.01102031667751093 -0.023212029228725724 0 -0.010729153627983511 -0.024303809352220748 0 -0.0096353738546091135 -0.024677397805654602 0 -0.010729153627983511 -0.024303809352220748 0 -0.0096353738546091135 -0.024677397805654602 0 -0.010378681984659549 -0.024802297399958619 0 -0.0090317217914569863 -0.026494856516888383 0 -0.010175260032219583 -0.023739564191984464 0 -0.0089574765165739059 -0.025017440689706745 0 -0.0092653550622817764 -0.025003394399769424 0 -0.0096353738546091135 -0.024677397805654602 0 3.3290080456077057e-05 -0.03176714923548471 0 -0.00031098184477256933 -0.032098496798486115 0 0.00015634128281009481 -0.032341406643899576 0 -0.0090317217914569863 -0.026494856516888383 0 -0.004041105850354605 -0.029559594909471958 0 3.3290080456077057e-05 -0.03176714923548471 0 -0.00081620370570793864 -0.031702247851559465 0 -0.00031098184477256933 -0.032098496798486115 0 -0.00081620370570793864 -0.031702247851559465 0 -0.00054131528068062631 -0.032148941076811842 0 -0.00031098184477256933 -0.032098496798486115 0 -0.0022900286317145478 -0.031517216868377614 0 -0.00081620370570793864 -0.031702247851559465 0 -0.00066914273538532594 -0.031978557608101185 0 -0.004041105850354605 -0.029559594909471958 0 0.00030740950597932633 -0.032001277958847926 0 -0.0044566770589829349 -0.026878989228760471 0 0.00087622692741044436 -0.031667785600885623 0 0.0023304020858919351 -0.028585370034198834 0 0.00082327209958844372 -0.028973991571591768 0 0.00078241133497260998 -0.030448625302117838 0 -0.00081620370570793864 -0.031702247851559465 0 -0.00054131528068062631 -0.032148941076811842 0 -0.00062074232876163985 -0.032042323006109985 0 -0.00081620370570793864 -0.031702247851559465 0 -0.00066914273538532594 -0.031978557608101185 0 -0.00062074232876163985 -0.032042323006109985 0 0.0023304020858919351 -0.028585370034198834 0 0.00052282151882690313 -0.027577153115246111 0 0.00082327209958844372 -0.028973991571591768 0 -0.0044566770589829349 -0.026878989228760471 0 -0.0026012701881757937 -0.025655297669781182 0 -0.0092653550622817764 -0.025003394399769424 0 -0.0091825361008121102 -0.024663903397669436 0 -0.0096353738546091135 -0.024677397805654602 0 -0.004041105850354605 -0.029559594909471958 0 -0.0044566770589829349 -0.026878989228760471 0 -0.0044566770589829349 -0.026878989228760471 0 -0.011416699498862055 -0.024172458892677936 0 -0.0091825361008121102 -0.024663903397669436 0 -0.0096353738546091135 -0.024677397805654602 0 -0.01016933380759248 -0.025094422962133527 0 -0.00864197083894243 -0.022840564695808196 0 -0.0085965068787256897 -0.024887844914299483 0 -0.01016933380759248 -0.025094422962133527 0 -0.00864197083894243 -0.022840564695808196 0 -0.0085965068787256897 -0.024887844914299483 0 -0.0061156175932741653 -0.023811473926463978 0 -0.0085965068787256897 -0.024887844914299483 0 -0.0076742327863364426 -0.025970921962458513 0 -0.0061156175932741653 -0.023811473926463978 0 -0.0096858467777253005 -0.026110439161801936 0 -0.0085965068787256897 -0.024887844914299483 0 -0.0076742327863364426 -0.025970921962458513 0 -0.0096858467777253005 -0.026110439161801936 0 -0.0085965068787256897 -0.024887844914299483 0 -0.01016933380759248 -0.025094422962133527 0 -0.010735122590745029 -0.025733700154487421 0 -0.0109595807631001 -0.025188009733037493 0 -0.01016933380759248 -0.025094422962133527 0 -0.0096858467777253005 -0.026110439161801936 0 -0.010735122590745029 -0.025733700154487421 0 -0.01016933380759248 -0.025094422962133527 0 -0.011594948791167856 -0.025586483718356048 0 -0.010735122590745029 -0.025733700154487421 0 -0.0109595807631001 -0.025188009733037493 0 -0.011594948791167856 -0.025586483718356048 0 -0.011681927536575201 -0.025089081756220127 0 -0.0109595807631001 -0.025188009733037493 0 -0.011681927536575201 -0.025089081756220127 0 -0.0109595807631001 -0.025188009733037493 0 -0.01115313573625158 -0.024696658500737594 0 -0.012030973744303914 -0.024630593891423979 0 -0.011681927536575201 -0.025089081756220127 0 -0.01115313573625158 -0.024696658500737594 0 -0.0109595807631001 -0.025188009733037493 0 -0.01115313573625158 -0.024696658500737594 0 -0.010378681984659549 -0.024802297399958619 0 -0.010729153627983511 -0.024303809352220748 0 -0.01115313573625158 -0.024696658500737594 0 -0.010378681984659549 -0.024802297399958619 0 -0.0109595807631001 -0.025188009733037493 0 -0.010378681984659549 -0.024802297399958619 0 -0.01016933380759248 -0.025094422962133527 0 -0.0096353738546091135 -0.024677397805654602 0 -0.010378681984659549 -0.024802297399958619 0 -0.01016933380759248 -0.025094422962133527 0 -0.023807977821216093 -0.027062896461223573 0 -0.023661707651890067 -0.02689275853698431 0 -0.024712188798687678 -0.025288857050401854 0 -0.02243175873521313 -0.019343744693043525 0 -0.021930122882701349 -0.019322257154015008 0 -0.022083548165907671 -0.021473879817173112 0 -0.023221318145850964 -0.022941803165748519 0 -0.01902862233217999 -0.023848862298108592 0 -0.023221318145850964 -0.022941803165748519 0 -0.019132779274505976 -0.022808640680933249 0 -0.019207854575807898 -0.02156845363862395 0 -0.020338272807842887 -0.02161851740214327 0 -0.01987081793164586 -0.022358582688126356 0 -0.019132779274505976 -0.022808640680933249 0 -0.01902862233217999 -0.023848862298108592 0 -0.013152880032266652 -0.023961504959049224 0 -0.013398809482466308 -0.024091293209251536 0 -0.013484192417853679 -0.024288017857421157 0 -0.019132779274505976 -0.022808640680933249 0 -0.014177912922322334 -0.023154278134891765 0 -0.013181481298580067 -0.023918868645894934 0 -0.013510347339112301 -0.024028845287086261 0 -0.013661849871447475 -0.023935171701190677 0 -0.013181481298580067 -0.023918868645894934 0 -0.013398809482466308 -0.024091293209251536 0 -0.013510347339112301 -0.024028845287086261 0 -0.013181481298580067 -0.023918868645894934 0 -0.013152880032266652 -0.023961504959049224 0 -0.013398809482466308 -0.024091293209251536 0 -0.017529071153498412 -0.022251674416881338 0 -0.016939199380337749 -0.023169143534534267 0 -0.016454229359066177 -0.022204574264837781 0 -0.013398809482466308 -0.024091293209251536 0 -0.013615859930427826 -0.024188215396373686 0 -0.013510347339112301 -0.024028845287086261 0 -0.013398809482466308 -0.024091293209251536 0 -0.013615859930427826 -0.024188215396373686 0 -0.013484192417853679 -0.024288017857421157 0 -0.013615859930427826 -0.024188215396373686 0 -0.013510347339112301 -0.024028845287086261 0 -0.01370408920596195 -0.024002681543958727 0 -0.013510347339112301 -0.024028845287086261 0 -0.013661849871447475 -0.023935171701190677 0 -0.01370408920596195 -0.024002681543958727 0 -0.021930122882701349 -0.019322257154015008 0 -0.02004055384494375 -0.022260093983956737 0 -0.022083548165907671 -0.021473879817173112 0 -0.013330481700566931 -0.023070807082448533 0 -0.013758255243536624 -0.023509147089201626 0 -0.013669545898355295 -0.023831918005178511 0 -0.017597264189583829 -0.021714781911991551 0 -0.014177912922322334 -0.023154278134891765 0 -0.019132779274505976 -0.022808640680933249 0 -0.017597264189583829 -0.021714781911991551 0 -0.013330481700566931 -0.023070807082448533 0 -0.013829523511049244 -0.02322833151155141 0 -0.013758255243536624 -0.023509147089201626 0 -0.013563257510921087 -0.02294472615542793 0 -0.013330481700566931 -0.023070807082448533 0 -0.013829523511049244 -0.02322833151155141 0 -0.013426070773577704 -0.022917516108866519 0 -0.013563257510921087 -0.02294472615542793 0 -0.013330481700566931 -0.023070807082448533 0 -0.01693803585834866 -0.020767925126947324 0 -0.017597264189583829 -0.021714781911991551 0 -0.01693803585834866 -0.020767925126947324 0 -0.015982110950359493 -0.020846413239624172 0 -0.02004055384494375 -0.022260093983956737 0 -0.020414112661110272 -0.023026414520528338 0 -0.022083548165907671 -0.021473879817173112 0 -0.018047149425823122 -0.020428448680557345 0 -0.017970041198791538 -0.020552518198039851 0 -0.017897876030098712 -0.020398790235015726 0 -0.017597264189583829 -0.021714781911991551 0 -0.018853130376657038 -0.020307745973424374 0 -0.01693803585834866 -0.020767925126947324 0 -0.018853130376657038 -0.020307745973424374 0 -0.020414112661110272 -0.023026414520528338 0 -0.022083548165907671 -0.021473879817173112 0 -0.023504629845481743 -0.023614945724183614 0 -0.032415300205774933 -0.020835453586524066 0 -0.033335543301084687 -0.020628786711022619 0 -0.031402824326903916 -0.019730124765120739 0 -0.018853130376657038 -0.020307745973424374 0 -0.021351465032484231 -0.021471196787752965 0 -0.024524168196297391 -0.021750317526411784 0 -0.02243175873521313 -0.019343744693043525 0 -0.022083548165907671 -0.021473879817173112 0 -0.028484783721701389 -0.021305652745985403 0 -0.023221318145850964 -0.022941803165748519 0 -0.024524168196297391 -0.021750317526411784 0 -0.022083548165907671 -0.021473879817173112 0 -0.023504629845481743 -0.023614945724183614 0 -0.020339059047474677 -0.019618632584691053 0 -0.020635273377216396 -0.019670122941633589 0 -0.020535667056677406 -0.02001275667309544 0 -0.020784138301610359 -0.019866885015602621 0 -0.020635273377216396 -0.019670122941633589 0 -0.020535667056677406 -0.02001275667309544 0 -0.018493631373008673 -0.019805033045411053 0 -0.018168105553653866 -0.017689893826134159 0 -0.017035625720276882 -0.019675303471130928 0 -0.018493631373008673 -0.019805033045411053 0 -0.019820813015279399 -0.018825774765478902 0 -0.018168105553653866 -0.017689893826134159 0 -0.018647144698129205 -0.016385323765968879 0 -0.019820813015279399 -0.018825774765478902 0 -0.018168105553653866 -0.017689893826134159 0 -0.018853130376657038 -0.020307745973424374 0 -0.02015903950440023 -0.018973786009672661 0 -0.01339955782969925 -0.022909438568785974 0 -0.013563257510921087 -0.02294472615542793 0 -0.014125838501731471 -0.021909110529823844 0 -0.018225537667825774 -0.016298126191090459 0 -0.018168105553653866 -0.017689893826134159 0 -0.016813781889393715 -0.018324628682129862 0 -0.018225537667825774 -0.016298126191090459 0 -0.018647144698129205 -0.016385323765968879 0 -0.018168105553653866 -0.017689893826134159 0 -0.013563257510921087 -0.02294472615542793 0 -0.014125838501731471 -0.021909110529823844 0 -0.014120658040303604 -0.022808431111881054 0 -0.01693803585834866 -0.020767925126947324 0 -0.015461248975518036 -0.020044692212837837 0 -0.014125838501731471 -0.021909110529823844 0 -0.014664157543249999 -0.022330809226285536 0 -0.014120658040303604 -0.022808431111881054 0 -0.014664157543249999 -0.022330809226285536 0 -0.014481882947188187 -0.023046532724085522 0 -0.014120658040303604 -0.022808431111881054 0 -0.015665310650740161 -0.020985650307357349 0 -0.016813781889393715 -0.018324628682129862 0 -0.017035625720276882 -0.019675303471130928 0 -0.015548604209965415 -0.020920190954687948 0 -0.015461248975518036 -0.020044692212837837 0 -0.018168105553653866 -0.017689893826134159 0 -0.016813781889393715 -0.018324628682129862 0 -0.017035625720276882 -0.019675303471130928 0 -0.015665310650740161 -0.020985650307357349 0 -0.014125838501731471 -0.021909110529823844 0 -0.015202626919913843 -0.021455569353623374 0 -0.015202626919913843 -0.021455569353623374 0 -0.015103802801951609 -0.02195572282391511 0 -0.014664157543249999 -0.022330809226285536 0 -0.014125838501731471 -0.021909110529823844 0 -0.015202626919913843 -0.021455569353623374 0 -0.014664157543249999 -0.022330809226285536 0 -0.015007852225473113 -0.021242002257973607 0 -0.015202626919913843 -0.021455569353623374 0 -0.015103802801951609 -0.02195572282391511 0 -0.015665310650740161 -0.020985650307357349 0 -0.015007852225473113 -0.021242002257973607 0 -0.015202626919913843 -0.021455569353623374 0 -0.015103802801951609 -0.02195572282391511 0 -0.014664157543249999 -0.022330809226285536 0 -0.014968887234053235 -0.022679456809535484 0 -0.014664157543249999 -0.022330809226285536 0 -0.014968887234053235 -0.022679456809535484 0 -0.014481882947188187 -0.023046532724085522 0 -0.014968887234053235 -0.022679456809535484 0 -0.014808906210545595 -0.023388979457085915 0 -0.014481882947188187 -0.023046532724085522 0 -0.014808906210545595 -0.023388979457085915 0 -0.014481882947188187 -0.023046532724085522 0 -0.014336615260337353 -0.023580601562371392 0 -0.014481882947188187 -0.023046532724085522 0 -0.014120658040303604 -0.022808431111881054 0 -0.014160979963545074 -0.023246841507165859 0 -0.013563257510921087 -0.02294472615542793 0 -0.014120658040303604 -0.022808431111881054 0 -0.013829523511049244 -0.02322833151155141 0 -0.014120658040303604 -0.022808431111881054 0 -0.013829523511049244 -0.02322833151155141 0 -0.014160979963545074 -0.023246841507165859 0 -0.013829523511049244 -0.02322833151155141 0 -0.014160979963545074 -0.023246841507165859 0 -0.014023666266787027 -0.02355425213763197 0 -0.013829523511049244 -0.02322833151155141 0 -0.014023666266787027 -0.02355425213763197 0 -0.013758255243536624 -0.023509147089201626 0 -0.014481882947188187 -0.023046532724085522 0 -0.014160979963545074 -0.023246841507165859 0 -0.014336615260337353 -0.023580601562371392 0 -0.014160979963545074 -0.023246841507165859 0 -0.014336615260337353 -0.023580601562371392 0 -0.014023666266787027 -0.02355425213763197 0 -0.014336615260337353 -0.023580601562371392 0 -0.014023666266787027 -0.02355425213763197 0 -0.014113342362878992 -0.023772274220810338 0 -0.014023666266787027 -0.02355425213763197 0 -0.014113342362878992 -0.023772274220810338 0 -0.013914665900329711 -0.023850889857227164 0 -0.014336615260337353 -0.023580601562371392 0 -0.014113342362878992 -0.023772274220810338 0 -0.014246101420120331 -0.023897362178908737 0 -0.014023666266787027 -0.02355425213763197 0 -0.013758255243536624 -0.023509147089201626 0 -0.013914665900329711 -0.023850889857227164 0 -0.013936969053347528 -0.02335045098773645 0 -0.014177912922322334 -0.023154278134891765 0 -0.013758255243536624 -0.023509147089201626 0 -0.013914665900329711 -0.023850889857227164 0 -0.013669545898355295 -0.023831918005178511 0 -0.013914665900329711 -0.023850889857227164 0 -0.013632476014660732 -0.023853537009414737 0 -0.01370408920596195 -0.024002681543958727 0 -0.014177912922322334 -0.023154278134891765 0 -0.014181356546225557 -0.023350990744481888 0 -0.013914665900329711 -0.023850889857227164 0 -0.01386163790923524 -0.024026244586175201 0 -0.014037211183740378 -0.02398623974043362 0 -0.013914665900329711 -0.023850889857227164 0 -0.01370408920596195 -0.024002681543958727 0 -0.01386163790923524 -0.024026244586175201 0 -0.01386163790923524 -0.024026244586175201 0 -0.013908984785441321 -0.024174070918757552 0 -0.014037211183740378 -0.02398623974043362 0 -0.01386163790923524 -0.024026244586175201 0 -0.013908984785441321 -0.024174070918757552 0 -0.013757329511306359 -0.024146761781736484 0 -0.013615859930427826 -0.024188215396373686 0 -0.01370408920596195 -0.024002681543958727 0 -0.013757329511306359 -0.024146761781736484 0 -0.01370408920596195 -0.024002681543958727 0 -0.01386163790923524 -0.024026244586175201 0 -0.013757329511306359 -0.024146761781736484 0 -0.014246101420120331 -0.023897362178908737 0 -0.014037211183740378 -0.02398623974043362 0 -0.014172874827033109 -0.024181226118441285 0 -0.014113342362878992 -0.023772274220810338 0 -0.013914665900329711 -0.023850889857227164 0 -0.014037211183740378 -0.02398623974043362 0 -0.014113342362878992 -0.023772274220810338 0 -0.014246101420120331 -0.023897362178908737 0 -0.014037211183740378 -0.02398623974043362 0 -0.013908984785441321 -0.024174070918757552 0 -0.014037211183740378 -0.02398623974043362 0 -0.014172874827033109 -0.024181226118441285 0 -0.014566502821964903 -0.023943910192911425 0 -0.015200055764517623 -0.023835204563956065 0 -0.014922920669795975 -0.024267161773768395 0 -0.014808906210545595 -0.023388979457085915 0 -0.014566502821964903 -0.023943910192911425 0 -0.015200055764517623 -0.023835204563956065 0 -0.014172874827033109 -0.024181226118441285 0 -0.014566502821964903 -0.023943910192911425 0 -0.014521684523421676 -0.024365193019412392 0 -0.014246101420120331 -0.023897362178908737 0 -0.014172874827033109 -0.024181226118441285 0 -0.014566502821964903 -0.023943910192911425 0 -0.014566502821964903 -0.023943910192911425 0 -0.014922920669795975 -0.024267161773768395 0 -0.014521684523421676 -0.024365193019412392 0 -0.014336615260337353 -0.023580601562371392 0 -0.014246101420120331 -0.023897362178908737 0 -0.014566502821964903 -0.023943910192911425 0 -0.014808906210545595 -0.023388979457085915 0 -0.014336615260337353 -0.023580601562371392 0 -0.014566502821964903 -0.023943910192911425 0 -0.015200055764517623 -0.023835204563956065 0 -0.015343333297136169 -0.024486974918336065 0 -0.014922920669795975 -0.024267161773768395 0 -0.015200055764517623 -0.023835204563956065 0 -0.015779683973563583 -0.024417324005500219 0 -0.015343333297136169 -0.024486974918336065 0 -0.015200055764517623 -0.023835204563956065 0 -0.015765882896806426 -0.023715688953668351 0 -0.015779683973563583 -0.024417324005500219 0 -0.015765882896806426 -0.023715688953668351 0 -0.01535706157555226 -0.022956082702337618 0 -0.016075457798098925 -0.023155659242405872 0 -0.014808906210545595 -0.023388979457085915 0 -0.015200055764517623 -0.023835204563956065 0 -0.01535706157555226 -0.022956082702337618 0 -0.015200055764517623 -0.023835204563956065 0 -0.015765882896806426 -0.023715688953668351 0 -0.01535706157555226 -0.022956082702337618 0 -0.014968887234053235 -0.022679456809535484 0 -0.014808906210545595 -0.023388979457085915 0 -0.01535706157555226 -0.022956082702337618 0 -0.01535706157555226 -0.022956082702337618 0 -0.015353176033262928 -0.022326700372884496 0 -0.015718267466536453 -0.022131066095992708 0 -0.014968887234053235 -0.022679456809535484 0 -0.01535706157555226 -0.022956082702337618 0 -0.015353176033262928 -0.022326700372884496 0 -0.015103802801951609 -0.02195572282391511 0 -0.014968887234053235 -0.022679456809535484 0 -0.015353176033262928 -0.022326700372884496 0 -0.015007852225473113 -0.021242002257973607 0 -0.015103802801951609 -0.02195572282391511 0 -0.015353176033262928 -0.022326700372884496 0 -0.015007852225473113 -0.021242002257973607 0 -0.015353176033262928 -0.022326700372884496 0 -0.015718267466536453 -0.022131066095992708 0 -0.012613914687100771 -0.021087013005007649 0 -0.013643261061408578 -0.021333056945859005 0 -0.013166037056206942 -0.021800074403586788 0 -0.016367987256267445 -0.021046177986156114 0 -0.014071781860222309 -0.021842797238695231 0 -0.016367987256267445 -0.021046177986156114 0 -0.014789189329615659 -0.021145566743976701 0 -0.013643261061408578 -0.021333056945859005 0 -0.013700070972352844 -0.021957651663797085 0 -0.013166037056206942 -0.021800074403586788 0 -0.014071781860222309 -0.021842797238695231 0 -0.014987476211919126 -0.023014337057251845 0 -0.013700070972352844 -0.021957651663797085 0 -0.013166037056206942 -0.021800074403586788 0 -0.013805633161085828 -0.022806839289338628 0 -0.01535706157555226 -0.022956082702337618 0 -0.015718267466536453 -0.022131066095992708 0 -0.016075457798098925 -0.023155659242405872 0 -0.01418874423760135 -0.021971855608852214 0 -0.014853596545505847 -0.022837414087308713 0 -0.013805633161085828 -0.022806839289338628 0 -0.013700070972352844 -0.021957651663797085 0 -0.01418874423760135 -0.021971855608852214 0 -0.013805633161085828 -0.022806839289338628 0 -0.015889959052179284 -0.021474633818850838 0 -0.016414075057286589 -0.020929804242449449 0 -0.015497114263462794 -0.021376650665265888 0 -0.014789189329615659 -0.021145566743976701 0 -0.015218284025614429 -0.021486770960747709 0 -0.016414075057286589 -0.020929804242449449 0 -0.015497114263462794 -0.021376650665265888 0 -0.015037525510114749 -0.021523706431735207 0 -0.013643261061408578 -0.021333056945859005 0 -0.01418874423760135 -0.021971855608852214 0 -0.015037525510114749 -0.021523706431735207 0 -0.013643261061408578 -0.021333056945859005 0 -0.013700070972352844 -0.021957651663797085 0 -0.01418874423760135 -0.021971855608852214 0 -0.015239992751716367 -0.021628433857666877 0 -0.014697916639832314 -0.021664862713456034 0 -0.014990729709041611 -0.021322129696364076 0 -0.014697916639832314 -0.021664862713456034 0 -0.014476974995527673 -0.021491136124981915 0 -0.014990729709041611 -0.021322129696364076 0 -0.015497114263462794 -0.021376650665265888 0 -0.014990729709041611 -0.021322129696364076 0 -0.015037525510114749 -0.021523706431735207 0 -0.015239992751716367 -0.021628433857666877 0 -0.015497114263462794 -0.021376650665265888 0 -0.014990729709041611 -0.021322129696364076 0 -0.01418874423760135 -0.021971855608852214 0 -0.015037525510114749 -0.021523706431735207 0 -0.014853596545505847 -0.022837414087308713 0 -0.015847829581032653 -0.022578840179333412 0 -0.015037525510114749 -0.021523706431735207 0 -0.014853596545505847 -0.022837414087308713 0 -0.014790197730198146 -0.022088075070349242 0 -0.01495142389582854 -0.02145850808490336 0 -0.015847829581032653 -0.022578840179333412 0 -0.014990729709041611 -0.021322129696364076 0 -0.015037525510114749 -0.021523706431735207 0 -0.014853596545505847 -0.022837414087308713 0 -0.01555357296097846 -0.024030356572937821 0 -0.014729018988166189 -0.024025303432401258 0 -0.015847829581032653 -0.022578840179333412 0 -0.014853596545505847 -0.022837414087308713 0 -0.01555357296097846 -0.024030356572937821 0 -0.015765882896806426 -0.023715688953668351 0 -0.016075457798098925 -0.023155659242405872 0 -0.016206243518661862 -0.024123808901450623 0 -0.014987476211919126 -0.023014337057251845 0 -0.015432677058937449 -0.024032988881141963 0 -0.014853596545505847 -0.022837414087308713 0 -0.013805633161085828 -0.022806839289338628 0 -0.014729018988166189 -0.024025303432401258 0 -0.016206243518661862 -0.024123808901450623 0 -0.016007180029630388 -0.02459379853125605 0 -0.015779683973563583 -0.024417324005500219 0 -0.015765882896806426 -0.023715688953668351 0 -0.016206243518661862 -0.024123808901450623 0 -0.015779683973563583 -0.024417324005500219 0 -0.016206243518661862 -0.024123808901450623 0 -0.015844755136202888 -0.024900560550486152 0 -0.016007180029630388 -0.02459379853125605 0 -0.015432677058937449 -0.024032988881141963 0 -0.015811670250179825 -0.024776928106521271 0 -0.01555357296097846 -0.024030356572937821 0 -0.014729018988166189 -0.024025303432401258 0 -0.015844755136202888 -0.024900560550486152 0 -0.015844755136202888 -0.024900560550486152 0 -0.016007180029630388 -0.02459379853125605 0 -0.015999838268150705 -0.024795806292596197 0 -0.015891433615745115 -0.025234977754269014 0 -0.015844755136202888 -0.024900560550486152 0 -0.015999838268150705 -0.024795806292596197 0 -0.016007180029630388 -0.02459379853125605 0 -0.015999838268150705 -0.024795806292596197 0 -0.015779683973563583 -0.024417324005500219 0 -0.016358648153040459 -0.025016618519558137 0 -0.015815974563207852 -0.02513862407950633 0 -0.015999838268150705 -0.024795806292596197 0 -0.015573755675078311 -0.025080307426750898 0 -0.015779683973563583 -0.024417324005500219 0 -0.016762064124186231 -0.025211544226318338 0 -0.016737571607662306 -0.025454265316442105 0 -0.016144673670782997 -0.025138237568296959 0 -0.016202833462614339 -0.025128501486587611 0 -0.016762064124186231 -0.025211544226318338 0 -0.016691379421336729 -0.025124642783171613 0 -0.015891433615745115 -0.025234977754269014 0 -0.016202833462614339 -0.025128501486587611 0 -0.016762064124186231 -0.025211544226318338 0 -0.01595922777955211 -0.025197820965220923 0 -0.016358648153040459 -0.025016618519558137 0 -0.016691379421336729 -0.025124642783171613 0 -0.016584886233769386 -0.024634056249581981 0 -0.017097664675454316 -0.025248651570757095 0 -0.016691379421336729 -0.025124642783171613 0 -0.017097664675454316 -0.025248651570757095 0 -0.016737571607662306 -0.025454265316442105 0 -0.016219061932833664 -0.02483020145998489 0 -0.016691379421336729 -0.025124642783171613 0 -0.016584886233769386 -0.024634056249581981 0 -0.016584886233769386 -0.024634056249581981 0 -0.017097664675454316 -0.025248651570757095 0 -0.016699095834812633 -0.024681385582518901 0 -0.016404353075326998 -0.024549128250126603 0 -0.016983989853299946 -0.024474176670863167 0 -0.017018012215924787 -0.02440277951830477 0 -0.016404353075326998 -0.024549128250126603 0 -0.016983989853299946 -0.024474176670863167 0 -0.016699095834812633 -0.024681385582518901 0 -0.016980901234323626 -0.024734763891990762 0 -0.015305789162862762 -0.027991483809734673 0 -0.017097664675454316 -0.025248651570757095 0 -0.016983989853299946 -0.024474176670863167 0 -0.016699095834812633 -0.024681385582518901 0 -0.017097664675454316 -0.025248651570757095 0 -0.016983989853299946 -0.024474176670863167 0 -0.017042508417704726 -0.024325376195047509 0 -0.017097664675454316 -0.025248651570757095 0 -0.01722097614657991 -0.026328170977716954 0 -0.017808524425822356 -0.026825669459210975 0 -0.016861981769089367 -0.026148497498390447 0 -0.016440098451410905 -0.026781426523395671 0 -0.01689344857121099 -0.027028079108312921 0 -0.016861981769089367 -0.026148497498390447 0 -0.017142537603789993 -0.026717284647255302 0 -0.01689344857121099 -0.027028079108312921 0 -0.017097664675454316 -0.025248651570757095 0 -0.016861981769089367 -0.026148497498390447 0 -0.01722097614657991 -0.026328170977716954 0 -0.016861981769089367 -0.026148497498390447 0 -0.017142537603789993 -0.026717284647255302 0 -0.01722097614657991 -0.026328170977716954 0 -0.01722097614657991 -0.026328170977716954 0 -0.017524577541234359 -0.026875713857277942 0 -0.017808524425822356 -0.026825669459210975 0 -0.017142537603789993 -0.026717284647255302 0 -0.01722097614657991 -0.026328170977716954 0 -0.017524577541234359 -0.026875713857277942 0 -0.017097664675454316 -0.025248651570757095 0 -0.016861981769089367 -0.026148497498390447 0 -0.016737571607662306 -0.025454265316442105 0 -0.016861981769089367 -0.026148497498390447 0 -0.016737571607662306 -0.025454265316442105 0 -0.016417248896487262 -0.026154130438445947 0 -0.016762064124186231 -0.025211544226318338 0 -0.016691379421336729 -0.025124642783171613 0 -0.016737571607662306 -0.025454265316442105 0 -0.016737571607662306 -0.025454265316442105 0 -0.015978034585094981 -0.025901337494849935 0 -0.016417248896487262 -0.026154130438445947 0 -0.016737571607662306 -0.025454265316442105 0 -0.015978034585094981 -0.025901337494849935 0 -0.016144673670782997 -0.025138237568296959 0 -0.015978034585094981 -0.025901337494849935 0 -0.016417248896487262 -0.026154130438445947 0 -0.01584616731410312 -0.026620741916809673 0 -0.01584616731410312 -0.026620741916809673 0 -0.016440098451410905 -0.026781426523395671 0 -0.016062612765827867 -0.027328078438041265 0 -0.016417248896487262 -0.026154130438445947 0 -0.01584616731410312 -0.026620741916809673 0 -0.016440098451410905 -0.026781426523395671 0 -0.016861981769089367 -0.026148497498390447 0 -0.016417248896487262 -0.026154130438445947 0 -0.016440098451410905 -0.026781426523395671 0 -0.01584616731410312 -0.026620741916809673 0 -0.015027645050735446 -0.026929336778291658 0 -0.015480464621271015 -0.027434178533516276 0 -0.015978034585094981 -0.025901337494849935 0 -0.01584616731410312 -0.026620741916809673 0 -0.015369100523780233 -0.026319076369315374 0 -0.01584616731410312 -0.026620741916809673 0 -0.015027645050735446 -0.026929336778291658 0 -0.015369100523780233 -0.026319076369315374 0 -0.015027645050735446 -0.026929336778291658 0 -0.015369100523780233 -0.026319076369315374 0 -0.014845663549357808 -0.026420527764537832 0 -0.015369100523780233 -0.026319076369315374 0 -0.015228122862454879 -0.025916774503091985 0 -0.014845663549357808 -0.026420527764537832 0 -0.015228122862454879 -0.025916774503091985 0 -0.016144673670782997 -0.025138237568296959 0 -0.014597023779828681 -0.025584075249525322 0 -0.015978034585094981 -0.025901337494849935 0 -0.015228122862454879 -0.025916774503091985 0 -0.016144673670782997 -0.025138237568296959 0 -0.015978034585094981 -0.025901337494849935 0 -0.015369100523780233 -0.026319076369315374 0 -0.015228122862454879 -0.025916774503091985 0 -0.015573755675078311 -0.025080307426750898 0 -0.014749242658846239 -0.025074714318021423 0 -0.014597023779828681 -0.025584075249525322 0 -0.015815974563207852 -0.02513862407950633 0 -0.014660315921723309 -0.025536642354406874 0 -0.015573755675078311 -0.025080307426750898 0 -0.014943245779246659 -0.024695638739896063 0 -0.014749242658846239 -0.025074714318021423 0 -0.015573755675078311 -0.025080307426750898 0 -0.015779683973563583 -0.024417324005500219 0 -0.015343333297136169 -0.024486974918336065 0 -0.015573755675078311 -0.025080307426750898 0 -0.015343333297136169 -0.024486974918336065 0 -0.014943245779246659 -0.024695638739896063 0 -0.015343333297136169 -0.024486974918336065 0 -0.014922920669795975 -0.024267161773768395 0 -0.014943245779246659 -0.024695638739896063 0 -0.014405328978328748 -0.024741269924515624 0 -0.014521684523421676 -0.024365193019412392 0 -0.014078047891016061 -0.024441516282009006 0 -0.014943245779246659 -0.024695638739896063 0 -0.014405328978328748 -0.024741269924515624 0 -0.014521684523421676 -0.024365193019412392 0 -0.014922920669795975 -0.024267161773768395 0 -0.014943245779246659 -0.024695638739896063 0 -0.014521684523421676 -0.024365193019412392 0 -0.014172874827033109 -0.024181226118441285 0 -0.014521684523421676 -0.024365193019412392 0 -0.014078047891016061 -0.024441516282009006 0 -0.014172874827033109 -0.024181226118441285 0 -0.013942095802830762 -0.02433651539889347 0 -0.014078047891016061 -0.024441516282009006 0 -0.013908984785441321 -0.024174070918757552 0 -0.014172874827033109 -0.024181226118441285 0 -0.013942095802830762 -0.02433651539889347 0 -0.013942095802830762 -0.02433651539889347 0 -0.014078047891016061 -0.024441516282009006 0 -0.01387020485732186 -0.02454093341555583 0 -0.013615859930427826 -0.024188215396373686 0 -0.013757329511306359 -0.024146761781736484 0 -0.013729737469789661 -0.024348759948683012 0 -0.013908984785441321 -0.024174070918757552 0 -0.013942095802830762 -0.02433651539889347 0 -0.013729737469789661 -0.024348759948683012 0 -0.013908984785441321 -0.024174070918757552 0 -0.013757329511306359 -0.024146761781736484 0 -0.013729737469789661 -0.024348759948683012 0 -0.013942095802830762 -0.02433651539889347 0 -0.013729737469789661 -0.024348759948683012 0 -0.01387020485732186 -0.02454093341555583 0 -0.013729737469789661 -0.024348759948683012 0 -0.013706367193527155 -0.024546715504197941 0 -0.01387020485732186 -0.02454093341555583 0 -0.013729737469789661 -0.024348759948683012 0 -0.013706367193527155 -0.024546715504197941 0 -0.013596381772935316 -0.024423648430522582 0 -0.013706367193527155 -0.024546715504197941 0 -0.013829766723358915 -0.024862627634509887 0 -0.013520929524046042 -0.024585643658994696 0 -0.013706367193527155 -0.024546715504197941 0 -0.01387020485732186 -0.02454093341555583 0 -0.013829766723358915 -0.024862627634509887 0 -0.014405328978328748 -0.024741269924515624 0 -0.014078047891016061 -0.024441516282009006 0 -0.014058835687949432 -0.024739719823187342 0 -0.014078047891016061 -0.024441516282009006 0 -0.01387020485732186 -0.02454093341555583 0 -0.014058835687949432 -0.024739719823187342 0 -0.01387020485732186 -0.02454093341555583 0 -0.014058835687949432 -0.024739719823187342 0 -0.013829766723358915 -0.024862627634509887 0 -0.014108053146082249 -0.025651721596908365 0 -0.012874362279836652 -0.025140573810380942 0 -0.013910024134872166 -0.025574607760707718 0 -0.013506625250433821 -0.025688148408188997 0 -0.013536528635004813 -0.025676003157429992 0 -0.014058835687949432 -0.024739719823187342 0 -0.013829766723358915 -0.024862627634509887 0 -0.014163185852087888 -0.025118376392687079 0 -0.013829766723358915 -0.024862627634509887 0 -0.013910024134872166 -0.025574607760707718 0 -0.014163185852087888 -0.025118376392687079 0 -0.013829766723358915 -0.024862627634509887 0 -0.013910024134872166 -0.025574607760707718 0 -0.013520929524046042 -0.024585643658994696 0 -0.013479773128152099 -0.025778163690345076 0 -0.013910024134872166 -0.025574607760707718 0 -0.013506625250433821 -0.025688148408188997 0 -0.014163185852087888 -0.025118376392687079 0 -0.014749242658846239 -0.025074714318021423 0 -0.014597023779828681 -0.025584075249525322 0 -0.013910024134872166 -0.025574607760707718 0 -0.014163185852087888 -0.025118376392687079 0 -0.014597023779828681 -0.025584075249525322 0 -0.014405328978328748 -0.024741269924515624 0 -0.014163185852087888 -0.025118376392687079 0 -0.014749242658846239 -0.025074714318021423 0 -0.014405328978328748 -0.024741269924515624 0 -0.014058835687949432 -0.024739719823187342 0 -0.014163185852087888 -0.025118376392687079 0 -0.014943245779246659 -0.024695638739896063 0 -0.014405328978328748 -0.024741269924515624 0 -0.014749242658846239 -0.025074714318021423 0 -0.015228122862454879 -0.025916774503091985 0 -0.014597023779828681 -0.025584075249525322 0 -0.014351724263557866 -0.026201755986100524 0 -0.014597023779828681 -0.025584075249525322 0 -0.014351724263557866 -0.026201755986100524 0 -0.013916011548376173 -0.02600429119001519 0 -0.013910024134872166 -0.025574607760707718 0 -0.014597023779828681 -0.025584075249525322 0 -0.013916011548376173 -0.02600429119001519 0 -0.015228122862454879 -0.025916774503091985 0 -0.014351724263557866 -0.026201755986100524 0 -0.014845663549357808 -0.026420527764537832 0 -0.015027645050735446 -0.026929336778291658 0 -0.014845663549357808 -0.026420527764537832 0 -0.014407480271421637 -0.026847711085124834 0 -0.014351724263557866 -0.026201755986100524 0 -0.014845663549357808 -0.026420527764537832 0 -0.014407480271421637 -0.026847711085124834 0 -0.014351724263557866 -0.026201755986100524 0 -0.014407480271421637 -0.026847711085124834 0 -0.013791830414196599 -0.026486615570491173 0 -0.014407480271421637 -0.026847711085124834 0 -0.014149110094481084 -0.027403111291346316 0 -0.01377582392153537 -0.027076661187366548 0 -0.014407480271421637 -0.026847711085124834 0 -0.014149110094481084 -0.027403111291346316 0 -0.01465160405137292 -0.027667327600070603 0 -0.015027645050735446 -0.026929336778291658 0 -0.014407480271421637 -0.026847711085124834 0 -0.01465160405137292 -0.027667327600070603 0 -0.013201402915448671 -0.027243658259714511 0 -0.01377582392153537 -0.027076661187366548 0 -0.013271181814263622 -0.026688776398656258 0 -0.013201402915448671 -0.027243658259714511 0 -0.01377582392153537 -0.027076661187366548 0 -0.013509548061035572 -0.027575489625261747 0 -0.014149110094481084 -0.027403111291346316 0 -0.01377582392153537 -0.027076661187366548 0 -0.013509548061035572 -0.027575489625261747 0 -0.01377582392153537 -0.027076661187366548 0 -0.013791830414196599 -0.026486615570491173 0 -0.013271181814263622 -0.026688776398656258 0 -0.014407480271421637 -0.026847711085124834 0 -0.01377582392153537 -0.027076661187366548 0 -0.013791830414196599 -0.026486615570491173 0 -0.013271181814263622 -0.026688776398656258 0 -0.01349500132119638 -0.026257570221071891 0 -0.013161931761833352 -0.026240115788912301 0 -0.013791830414196599 -0.026486615570491173 0 -0.013271181814263622 -0.026688776398656258 0 -0.01349500132119638 -0.026257570221071891 0 -0.01349500132119638 -0.026257570221071891 0 -0.013513712453021217 -0.025932648289554449 0 -0.013161931761833352 -0.026240115788912301 0 -0.013791830414196599 -0.026486615570491173 0 -0.01349500132119638 -0.026257570221071891 0 -0.013916011548376173 -0.02600429119001519 0 -0.014351724263557866 -0.026201755986100524 0 -0.013791830414196599 -0.026486615570491173 0 -0.013916011548376173 -0.02600429119001519 0 -0.013910024134872166 -0.025574607760707718 0 -0.013916011548376173 -0.02600429119001519 0 -0.013513712453021217 -0.025932648289554449 0 -0.013479773128152099 -0.025778163690345076 0 -0.013910024134872166 -0.025574607760707718 0 -0.013513712453021217 -0.025932648289554449 0 -0.01349500132119638 -0.026257570221071891 0 -0.013916011548376173 -0.02600429119001519 0 -0.013513712453021217 -0.025932648289554449 0 -0.013479773128152099 -0.025778163690345076 0 -0.013513712453021217 -0.025932648289554449 0 -0.013214926190187404 -0.025938627508177992 0 -0.013214926190187404 -0.025938627508177992 0 -0.012919704033857862 -0.025952740899951629 0 -0.013256997642235086 -0.025774053336057069 0 -0.013214926190187404 -0.025938627508177992 0 -0.012919704033857862 -0.025952740899951629 0 -0.012933935330022928 -0.026157811341831767 0 -0.013214926190187404 -0.025938627508177992 0 -0.012933935330022928 -0.026157811341831767 0 -0.013161931761833352 -0.026240115788912301 0 -0.013513712453021217 -0.025932648289554449 0 -0.013214926190187404 -0.025938627508177992 0 -0.013161931761833352 -0.026240115788912301 0 -0.012919704033857862 -0.025952740899951629 0 -0.012669790960868147 -0.026223055531779425 0 -0.012443238966135814 -0.025832445984471462 0 -0.012919704033857862 -0.025952740899951629 0 -0.012443238966135814 -0.025832445984471462 0 -0.013256997642235086 -0.025774053336057069 0 -0.012919704033857862 -0.025952740899951629 0 -0.012669790960868147 -0.026223055531779425 0 -0.012933935330022928 -0.026157811341831767 0 -0.012669790960868147 -0.026223055531779425 0 -0.012849535696077628 -0.026511679562641437 0 -0.012239085146099296 -0.026762383965088763 0 -0.012669790960868147 -0.026223055531779425 0 -0.012933935330022928 -0.026157811341831767 0 -0.012849535696077628 -0.026511679562641437 0 -0.013271181814263622 -0.026688776398656258 0 -0.013161931761833352 -0.026240115788912301 0 -0.012849535696077628 -0.026511679562641437 0 -0.012933935330022928 -0.026157811341831767 0 -0.013161931761833352 -0.026240115788912301 0 -0.012849535696077628 -0.026511679562641437 0 -0.013201402915448671 -0.027243658259714511 0 -0.013271181814263622 -0.026688776398656258 0 -0.012761984172748772 -0.027067148267973344 0 -0.013271181814263622 -0.026688776398656258 0 -0.012849535696077628 -0.026511679562641437 0 -0.012761984172748772 -0.027067148267973344 0 -0.012849535696077628 -0.026511679562641437 0 -0.012761984172748772 -0.027067148267973344 0 -0.012239085146099296 -0.026762383965088763 0 -0.012199173505947942 -0.027500307204107042 0 -0.012761984172748772 -0.027067148267973344 0 -0.012239085146099296 -0.026762383965088763 0 -0.012199173505947942 -0.027500307204107042 0 -0.012761984172748772 -0.027067148267973344 0 -0.012832459359684007 -0.027747461042086828 0 -0.013201402915448671 -0.027243658259714511 0 -0.012761984172748772 -0.027067148267973344 0 -0.012832459359684007 -0.027747461042086828 0 -0.011176768644245768 -0.027332966059327408 0 -0.012239085146099296 -0.026762383965088763 0 -0.012443238966135814 -0.025832445984471462 0 -0.016788877996852213 -0.022934854741426852 0 -0.016697736351854817 -0.024362897659486824 0 -0.01531590203089539 -0.025249171428526111 0 -0.013432660438226744 -0.024315549560184838 0 -0.013720090277784293 -0.025896064258516056 0 -0.012199173505947942 -0.027500307204107042 0 -0.011176768644245768 -0.027332966059327408 0 -0.012239085146099296 -0.026762383965088763 0 -0.017833887082775893 -0.025924648863146046 0 -0.017337508392095281 -0.025152308110532796 0 -0.01531590203089539 -0.025249171428526111 0 -0.016788877996852213 -0.022934854741426852 0 -0.014937470955841619 -0.025519808944365441 0 -0.01531590203089539 -0.025249171428526111 0 -0.017337508392095281 -0.025152308110532796 0 -0.016697736351854817 -0.024362897659486824 0 -0.01531590203089539 -0.025249171428526111 0 -0.015339328602491894 -0.025557899057301034 0 -0.01531590203089539 -0.025249171428526111 0 -0.015198924398794 -0.025465539834747333 0 -0.012669790960868147 -0.026223055531779425 0 -0.012239085146099296 -0.026762383965088763 0 -0.012443238966135814 -0.025832445984471462 0 -0.014937470955841619 -0.025519808944365441 0 -0.01531590203089539 -0.025249171428526111 0 -0.015198924398794 -0.025465539834747333 0 -0.015198924398794 -0.025465539834747333 0 -0.015145801361001779 -0.025550497917594672 0 -0.01494896577397465 -0.025557631179428331 0 -0.015145801361001779 -0.025550497917594672 0 -0.015024790948009792 -0.025667121421958809 0 -0.01494896577397465 -0.025557631179428331 0 -0.015024790948009792 -0.025667121421958809 0 -0.0146026687978634 -0.025638233237224126 0 -0.014582408370523487 -0.025897508115392334 0 -0.015024790948009792 -0.025667121421958809 0 -0.0146026687978634 -0.025638233237224126 0 -0.01494896577397465 -0.025557631179428331 0 -0.014937470955841619 -0.025519808944365441 0 -0.0146026687978634 -0.025638233237224126 0 -0.01494896577397465 -0.025557631179428331 0 -0.014937470955841619 -0.025519808944365441 0 -0.015198924398794 -0.025465539834747333 0 -0.01494896577397465 -0.025557631179428331 0 -0.014937470955841619 -0.025519808944365441 0 -0.0146026687978634 -0.025638233237224126 0 -0.013811294077858761 -0.025708640375506922 0 -0.012443238966135814 -0.025832445984471462 0 -0.013388526466307879 -0.025706687105853238 0 -0.013811294077858761 -0.025708640375506922 0 -0.012443238966135814 -0.025832445984471462 0 -0.013256997642235086 -0.025774053336057069 0 -0.013388526466307879 -0.025706687105853238 0 -0.013720090277784293 -0.025896064258516056 0 -0.013738665056690915 -0.025746342853403055 0 -0.013479773128152099 -0.025778163690345076 0 -0.013256997642235086 -0.025774053336057069 0 -0.013506625250433821 -0.025688148408188997 0 -0.013479773128152099 -0.025778163690345076 0 -0.013214926190187404 -0.025938627508177992 0 -0.013256997642235086 -0.025774053336057069 0 -0.013256997642235086 -0.025774053336057069 0 -0.013506625250433821 -0.025688148408188997 0 -0.013388526466307879 -0.025706687105853238 0 -0.013506625250433821 -0.025688148408188997 0 -0.013388526466307879 -0.025706687105853238 0 -0.013536528635004813 -0.025676003157429992 0 -0.014591838006647923 -0.026918837755346651 0 -0.013811294077858761 -0.025708640375506922 0 -0.013536528635004813 -0.025676003157429992 0 -0.013152880032266652 -0.023961504959049224 0 -0.013520929524046042 -0.024585643658994696 0 -0.013484192417853679 -0.024288017857421157 0 -0.0146026687978634 -0.025638233237224126 0 -0.013811294077858761 -0.025708640375506922 0 -0.014582408370523487 -0.025897508115392334 0 -0.01902862233217999 -0.023848862298108592 0 -0.012874362279836652 -0.025140573810380942 0 -0.014591838006647923 -0.026918837755346651 0 -0.013811294077858761 -0.025708640375506922 0 -0.014582408370523487 -0.025897508115392334 0 -0.013388526466307879 -0.025706687105853238 0 -0.013811294077858761 -0.025708640375506922 0 -0.013536528635004813 -0.025676003157429992 0 -0.013706367193527155 -0.024546715504197941 0 -0.013520929524046042 -0.024585643658994696 0 -0.013596381772935316 -0.024423648430522582 0 -0.013520929524046042 -0.024585643658994696 0 -0.013596381772935316 -0.024423648430522582 0 -0.013484192417853679 -0.024288017857421157 0 -0.013729737469789661 -0.024348759948683012 0 -0.013596381772935316 -0.024423648430522582 0 -0.013603880803391274 -0.024312188656269711 0 -0.013596381772935316 -0.024423648430522582 0 -0.013484192417853679 -0.024288017857421157 0 -0.013603880803391274 -0.024312188656269711 0 -0.013615859930427826 -0.024188215396373686 0 -0.013729737469789661 -0.024348759948683012 0 -0.013603880803391274 -0.024312188656269711 0 -0.013615859930427826 -0.024188215396373686 0 -0.013484192417853679 -0.024288017857421157 0 -0.013603880803391274 -0.024312188656269711 0 -0.014591838006647923 -0.026918837755346651 0 -0.015130976921641844 -0.025936174097122362 0 -0.014582408370523487 -0.025897508115392334 0 -0.025765885197036008 -0.026163586731563122 0 -0.023807977821216093 -0.027062896461223573 0 -0.024712188798687678 -0.025288857050401854 0 -0.01902862233217999 -0.023848862298108592 0 -0.019782127120048537 -0.025973739299970447 0 -0.015024790948009792 -0.025667121421958809 0 -0.015130976921641844 -0.025936174097122362 0 -0.014582408370523487 -0.025897508115392334 0 -0.017351883731392796 -0.030384861259479885 0 -0.015375238807235353 -0.030247593028753499 0 -0.016498421152819898 -0.031837662263849757 0 -0.015107466169013987 -0.03444124568257375 0 -0.013036500049472171 -0.034135378990089248 0 -0.014096854875331624 -0.033621398399413027 0 -0.015634917611095169 -0.032360918955295373 0 -0.013285830977823158 -0.03160430813711481 0 -0.014947075466691074 -0.032696979401888746 0 -0.014096854875331624 -0.033621398399413027 0 -0.013094234071012541 -0.033117326286078413 0 -0.013036500049472171 -0.034135378990089248 0 -0.013094234071012541 -0.033117326286078413 0 -0.01226944833032673 -0.032557702239286293 0 -0.013036500049472171 -0.034135378990089248 0 -0.014096854875331624 -0.033621398399413027 0 -0.013094234071012541 -0.033117326286078413 0 -0.011427081408190586 -0.031459284602808092 0 -0.012386023042701574 -0.032056669559088806 0 -0.01226944833032673 -0.032557702239286293 0 -0.013285830977823158 -0.03160430813711481 0 -0.012266258832737114 -0.032767616392472824 0 -0.011427081408190586 -0.031459284602808092 0 -0.012386023042701574 -0.032056669559088806 0 -0.012127574556221259 -0.031483541760956808 0 -0.012386023042701574 -0.032056669559088806 0 -0.012585868885231305 -0.031478646531759233 0 -0.012822868456746848 -0.032115717472159855 0 -0.012386023042701574 -0.032056669559088806 0 -0.012822868456746848 -0.032115717472159855 0 -0.01226944833032673 -0.032557702239286293 0 -0.012386023042701574 -0.032056669559088806 0 -0.012585868885231305 -0.031478646531759233 0 -0.012127574556221259 -0.031483541760956808 0 -0.012585868885231305 -0.031478646531759233 0 -0.012127574556221259 -0.031483541760956808 0 -0.012167029987629611 -0.030804170218232809 0 -0.013285830977823158 -0.03160430813711481 0 -0.011815846291209173 -0.031472550103447725 0 -0.011506301120075337 -0.031349434097934878 0 -0.012127574556221259 -0.031483541760956808 0 -0.012167029987629611 -0.030804170218232809 0 -0.012167029987629611 -0.030804170218232809 0 -0.012031742014860675 -0.030008879047909387 0 -0.011663457670072784 -0.030440601280855829 0 -0.012167029987629611 -0.030804170218232809 0 -0.012749394504702321 -0.030807422319102294 0 -0.012514729457104129 -0.030088246163751754 0 -0.012585868885231305 -0.031478646531759233 0 -0.012167029987629611 -0.030804170218232809 0 -0.012749394504702321 -0.030807422319102294 0 -0.012167029987629611 -0.030804170218232809 0 -0.012514729457104129 -0.030088246163751754 0 -0.012031742014860675 -0.030008879047909387 0 -0.012514729457104129 -0.030088246163751754 0 -0.012031742014860675 -0.030008879047909387 0 -0.012123087472280407 -0.029408257200734856 0 -0.012031742014860675 -0.030008879047909387 0 -0.011663457670072784 -0.030440601280855829 0 -0.01141501742251441 -0.029679760208860352 0 -0.011663457670072784 -0.030440601280855829 0 -0.010947236812750854 -0.030276687963200447 0 -0.01141501742251441 -0.029679760208860352 0 -0.011506301120075337 -0.031349434097934878 0 -0.011663457670072784 -0.030440601280855829 0 -0.010947236812750854 -0.030276687963200447 0 -0.011506301120075337 -0.031349434097934878 0 -0.012167029987629611 -0.030804170218232809 0 -0.011663457670072784 -0.030440601280855829 0 -0.013285830977823158 -0.03160430813711481 0 -0.013649776850049861 -0.030964433863242057 0 -0.010433455539548149 -0.029209468179560737 0 -0.01141501742251441 -0.029679760208860352 0 -0.011217238238482486 -0.028988779768315195 0 -0.010376145879865345 -0.029309814948109972 0 -0.010947236812750854 -0.030276687963200447 0 -0.01141501742251441 -0.029679760208860352 0 -0.016620768170196001 -0.029791754013615248 0 -0.0094162864790090558 -0.028941245617845734 0 -0.012031742014860675 -0.030008879047909387 0 -0.01141501742251441 -0.029679760208860352 0 -0.012123087472280407 -0.029408257200734856 0 -0.01141501742251441 -0.029679760208860352 0 -0.011847615069827391 -0.02877797394335594 0 -0.012123087472280407 -0.029408257200734856 0 -0.011847615069827391 -0.02877797394335594 0 -0.011217238238482486 -0.028988779768315195 0 -0.011395718212611991 -0.028401701572169327 0 -0.01141501742251441 -0.029679760208860352 0 -0.011847615069827391 -0.02877797394335594 0 -0.011217238238482486 -0.028988779768315195 0 -0.010890200509678108 -0.028669361728299227 0 -0.011217238238482486 -0.028988779768315195 0 -0.011395718212611991 -0.028401701572169327 0 -0.010890200509678108 -0.028669361728299227 0 -0.011176768644245768 -0.027332966059327408 0 -0.011395718212611991 -0.028401701572169327 0 -0.011847615069827391 -0.02877797394335594 0 -0.011395718212611991 -0.028401701572169327 0 -0.011786345015237941 -0.028039994566072299 0 -0.011847615069827391 -0.02877797394335594 0 -0.011786345015237941 -0.028039994566072299 0 -0.012266118232961707 -0.028165351977638871 0 -0.012199173505947942 -0.027500307204107042 0 -0.011176768644245768 -0.027332966059327408 0 -0.011786345015237941 -0.028039994566072299 0 -0.012199173505947942 -0.027500307204107042 0 -0.011786345015237941 -0.028039994566072299 0 -0.012266118232961707 -0.028165351977638871 0 -0.011176768644245768 -0.027332966059327408 0 -0.011395718212611991 -0.028401701572169327 0 -0.011786345015237941 -0.028039994566072299 0 -0.012199173505947942 -0.027500307204107042 0 -0.012832459359684007 -0.027747461042086828 0 -0.012266118232961707 -0.028165351977638871 0 -0.011847615069827391 -0.02877797394335594 0 -0.012266118232961707 -0.028165351977638871 0 -0.012661133473019708 -0.028583790817239368 0 -0.012832459359684007 -0.027747461042086828 0 -0.012661133473019708 -0.028583790817239368 0 -0.013197864122337402 -0.028068755498537004 0 -0.012832459359684007 -0.027747461042086828 0 -0.012266118232961707 -0.028165351977638871 0 -0.012661133473019708 -0.028583790817239368 0 -0.012661133473019708 -0.028583790817239368 0 -0.012123087472280407 -0.029408257200734856 0 -0.012935215410728573 -0.029402421235842087 0 -0.011847615069827391 -0.02877797394335594 0 -0.012661133473019708 -0.028583790817239368 0 -0.012123087472280407 -0.029408257200734856 0 -0.012514729457104129 -0.030088246163751754 0 -0.012123087472280407 -0.029408257200734856 0 -0.012935215410728573 -0.029402421235842087 0 -0.012935215410728573 -0.029402421235842087 0 -0.013758696986353146 -0.029455171293219135 0 -0.013201308259037765 -0.030243775264515344 0 -0.013758696986353146 -0.029455171293219135 0 -0.013394864834566183 -0.028669436089182047 0 -0.014078918637321894 -0.02858677715295331 0 -0.012935215410728573 -0.029402421235842087 0 -0.013758696986353146 -0.029455171293219135 0 -0.013394864834566183 -0.028669436089182047 0 -0.012661133473019708 -0.028583790817239368 0 -0.012935215410728573 -0.029402421235842087 0 -0.013394864834566183 -0.028669436089182047 0 -0.012661133473019708 -0.028583790817239368 0 -0.013394864834566183 -0.028669436089182047 0 -0.013197864122337402 -0.028068755498537004 0 -0.013394864834566183 -0.028669436089182047 0 -0.013881792742987481 -0.027943104148544191 0 -0.014078918637321894 -0.02858677715295331 0 -0.013394864834566183 -0.028669436089182047 0 -0.013197864122337402 -0.028068755498537004 0 -0.013881792742987481 -0.027943104148544191 0 -0.013197864122337402 -0.028068755498537004 0 -0.013881792742987481 -0.027943104148544191 0 -0.013509548061035572 -0.027575489625261747 0 -0.014149110094481084 -0.027403111291346316 0 -0.013881792742987481 -0.027943104148544191 0 -0.013509548061035572 -0.027575489625261747 0 -0.013201402915448671 -0.027243658259714511 0 -0.012832459359684007 -0.027747461042086828 0 -0.013509548061035572 -0.027575489625261747 0 -0.012832459359684007 -0.027747461042086828 0 -0.013197864122337402 -0.028068755498537004 0 -0.013509548061035572 -0.027575489625261747 0 -0.014149110094481084 -0.027403111291346316 0 -0.013881792742987481 -0.027943104148544191 0 -0.01465160405137292 -0.027667327600070603 0 -0.013881792742987481 -0.027943104148544191 0 -0.01465160405137292 -0.027667327600070603 0 -0.014078918637321894 -0.02858677715295331 0 -0.01465160405137292 -0.027667327600070603 0 -0.014675693491674401 -0.02860539466562154 0 -0.015238774958012551 -0.028356150579751587 0 -0.01465160405137292 -0.027667327600070603 0 -0.014675693491674401 -0.02860539466562154 0 -0.014078918637321894 -0.02858677715295331 0 -0.014675693491674401 -0.02860539466562154 0 -0.014078918637321894 -0.02858677715295331 0 -0.014363238888149037 -0.029152994459073333 0 -0.014675693491674401 -0.02860539466562154 0 -0.014363238888149037 -0.029152994459073333 0 -0.014950261099573689 -0.029220903708446704 0 -0.013758696986353146 -0.029455171293219135 0 -0.014078918637321894 -0.02858677715295331 0 -0.014363238888149037 -0.029152994459073333 0 -0.013758696986353146 -0.029455171293219135 0 -0.014363238888149037 -0.029152994459073333 0 -0.014476885721882136 -0.029908994649234254 0 -0.014363238888149037 -0.029152994459073333 0 -0.014476885721882136 -0.029908994649234254 0 -0.014950261099573689 -0.029220903708446704 0 -0.014476885721882136 -0.029908994649234254 0 -0.014806932988433103 -0.031079598676968162 0 -0.015162462227973345 -0.030076609668968649 0 -0.014476885721882136 -0.029908994649234254 0 -0.013904268889090325 -0.030587113990636901 0 -0.014806932988433103 -0.031079598676968162 0 -0.013758696986353146 -0.029455171293219135 0 -0.014476885721882136 -0.029908994649234254 0 -0.013904268889090325 -0.030587113990636901 0 -0.013758696986353146 -0.029455171293219135 0 -0.013904268889090325 -0.030587113990636901 0 -0.013201308259037765 -0.030243775264515344 0 -0.012749394504702321 -0.030807422319102294 0 -0.012514729457104129 -0.030088246163751754 0 -0.013201308259037765 -0.030243775264515344 0 -0.012514729457104129 -0.030088246163751754 0 -0.012935215410728573 -0.029402421235842087 0 -0.013201308259037765 -0.030243775264515344 0 -0.012749394504702321 -0.030807422319102294 0 -0.013201308259037765 -0.030243775264515344 0 -0.013274906296884603 -0.031282923494078206 0 -0.013904268889090325 -0.030587113990636901 0 -0.013201308259037765 -0.030243775264515344 0 -0.013274906296884603 -0.031282923494078206 0 -0.012585868885231305 -0.031478646531759233 0 -0.013274906296884603 -0.031282923494078206 0 -0.012822868456746848 -0.032115717472159855 0 -0.012585868885231305 -0.031478646531759233 0 -0.012749394504702321 -0.030807422319102294 0 -0.013274906296884603 -0.031282923494078206 0 -0.013274906296884603 -0.031282923494078206 0 -0.012822868456746848 -0.032115717472159855 0 -0.013344148453592284 -0.032059540394783127 0 -0.013274906296884603 -0.031282923494078206 0 -0.013344148453592284 -0.032059540394783127 0 -0.014026495179040453 -0.032043466870240685 0 -0.013344148453592284 -0.032059540394783127 0 -0.014026495179040453 -0.032043466870240685 0 -0.013249824824040987 -0.03308432693899447 0 -0.013904268889090325 -0.030587113990636901 0 -0.014026495179040453 -0.032043466870240685 0 -0.014806932988433103 -0.031079598676968162 0 -0.013904268889090325 -0.030587113990636901 0 -0.013274906296884603 -0.031282923494078206 0 -0.014026495179040453 -0.032043466870240685 0 -0.014026495179040453 -0.032043466870240685 0 -0.015179174491277345 -0.032511080623650469 0 -0.014806932988433103 -0.031079598676968162 0 -0.015811385381144561 -0.031726718786814531 0 -0.015179174491277345 -0.032511080623650469 0 -0.016251092927731633 -0.033681540516687584 0 -0.015811385381144561 -0.031726718786814531 0 -0.015179174491277345 -0.032511080623650469 0 -0.014806932988433103 -0.031079598676968162 0 -0.015229776015520538 -0.032399290902953862 0 -0.014590856317782817 -0.034409911779771533 0 -0.013414773669205834 -0.033738249092077052 0 -0.013925852824278016 -0.034704386652876111 0 -0.013444951315452362 -0.035009378977987185 0 -0.015811385381144561 -0.031726718786814531 0 -0.017089875598279708 -0.0310275393951767 0 -0.016251092927731633 -0.033681540516687584 0 -0.013414773669205834 -0.033738249092077052 0 -0.013444951315452362 -0.035009378977987185 0 -0.012964105478541925 -0.035177965834288047 0 -0.015811385381144561 -0.031726718786814531 0 -0.017089875598279708 -0.0310275393951767 0 -0.015857732685658061 -0.030519965107959939 0 -0.017089875598279708 -0.0310275393951767 0 -0.016549564968936527 -0.029665146603280977 0 -0.015857732685658061 -0.030519965107959939 0 -0.017089875598279708 -0.0310275393951767 0 -0.016549564968936527 -0.029665146603280977 0 -0.017486985938764413 -0.028895137152936123 0 -0.016549564968936527 -0.029665146603280977 0 -0.015857732685658061 -0.030519965107959939 0 -0.015746212567244174 -0.029246398330944549 0 -0.015857732685658061 -0.030519965107959939 0 -0.015162462227973345 -0.030076609668968649 0 -0.015746212567244174 -0.029246398330944549 0 -0.015811385381144561 -0.031726718786814531 0 -0.015857732685658061 -0.030519965107959939 0 -0.014806932988433103 -0.031079598676968162 0 -0.015857732685658061 -0.030519965107959939 0 -0.014806932988433103 -0.031079598676968162 0 -0.015162462227973345 -0.030076609668968649 0 -0.014476885721882136 -0.029908994649234254 0 -0.015162462227973345 -0.030076609668968649 0 -0.014950261099573689 -0.029220903708446704 0 -0.015162462227973345 -0.030076609668968649 0 -0.014950261099573689 -0.029220903708446704 0 -0.015746212567244174 -0.029246398330944549 0 -0.015746212567244174 -0.029246398330944549 0 -0.015238774958012551 -0.028356150579751587 0 -0.015941634635207307 -0.028093239086802724 0 -0.014950261099573689 -0.029220903708446704 0 -0.015746212567244174 -0.029246398330944549 0 -0.015238774958012551 -0.028356150579751587 0 -0.014675693491674401 -0.02860539466562154 0 -0.014950261099573689 -0.029220903708446704 0 -0.015238774958012551 -0.028356150579751587 0 -0.01465160405137292 -0.027667327600070603 0 -0.015238774958012551 -0.028356150579751587 0 -0.015480464621271015 -0.027434178533516276 0 -0.015238774958012551 -0.028356150579751587 0 -0.015480464621271015 -0.027434178533516276 0 -0.015941634635207307 -0.028093239086802724 0 -0.01584616731410312 -0.026620741916809673 0 -0.015480464621271015 -0.027434178533516276 0 -0.016062612765827867 -0.027328078438041265 0 -0.015027645050735446 -0.026929336778291658 0 -0.01465160405137292 -0.027667327600070603 0 -0.015480464621271015 -0.027434178533516276 0 -0.016440098451410905 -0.026781426523395671 0 -0.016572624270539384 -0.027586859328836998 0 -0.01689344857121099 -0.027028079108312921 0 -0.016440098451410905 -0.026781426523395671 0 -0.016062612765827867 -0.027328078438041265 0 -0.016572624270539384 -0.027586859328836998 0 -0.015480464621271015 -0.027434178533516276 0 -0.016062612765827867 -0.027328078438041265 0 -0.015941634635207307 -0.028093239086802724 0 -0.016062612765827867 -0.027328078438041265 0 -0.015941634635207307 -0.028093239086802724 0 -0.016572624270539384 -0.027586859328836998 0 -0.015941634635207307 -0.028093239086802724 0 -0.016572624270539384 -0.027586859328836998 0 -0.016516074101526963 -0.028730180960759522 0 -0.016572624270539384 -0.027586859328836998 0 -0.016516074101526963 -0.028730180960759522 0 -0.016975630895591173 -0.028222696907678261 0 -0.015746212567244174 -0.029246398330944549 0 -0.015941634635207307 -0.028093239086802724 0 -0.016516074101526963 -0.028730180960759522 0 -0.016549564968936527 -0.029665146603280977 0 -0.015746212567244174 -0.029246398330944549 0 -0.016516074101526963 -0.028730180960759522 0 -0.016549564968936527 -0.029665146603280977 0 -0.016516074101526963 -0.028730180960759522 0 -0.017486985938764413 -0.028895137152936123 0 -0.014137426918242312 -0.032054807728749135 0 -0.01500411978456288 -0.030162701402740678 0 -0.014876324415708228 -0.032133561983284764 0 -0.017486985938764413 -0.028895137152936123 0 -0.016975630895591173 -0.028222696907678261 0 -0.017339209155316448 -0.027835889801261351 0 -0.016516074101526963 -0.028730180960759522 0 -0.017486985938764413 -0.028895137152936123 0 -0.016975630895591173 -0.028222696907678261 0 -0.015918402533645678 -0.030557648307350391 0 -0.015305789162862762 -0.027991483809734673 0 -0.016572624270539384 -0.027586859328836998 0 -0.016975630895591173 -0.028222696907678261 0 -0.016966669053836921 -0.027595798923813482 0 -0.017486985938764413 -0.028895137152936123 0 -0.017339209155316448 -0.027835889801261351 0 -0.017780328855166685 -0.02685131838986525 0 -0.016966669053836921 -0.027595798923813482 0 -0.017339209155316448 -0.027835889801261351 0 -0.017344932015539084 -0.027308075867832682 0 -0.016975630895591173 -0.028222696907678261 0 -0.016966669053836921 -0.027595798923813482 0 -0.017339209155316448 -0.027835889801261351 0 -0.017339209155316448 -0.027835889801261351 0 -0.017344932015539084 -0.027308075867832682 0 -0.017780328855166685 -0.02685131838986525 0 -0.017344932015539084 -0.027308075867832682 0 -0.017524577541234359 -0.026875713857277942 0 -0.017780328855166685 -0.02685131838986525 0 -0.017142537603789993 -0.026717284647255302 0 -0.017344932015539084 -0.027308075867832682 0 -0.017524577541234359 -0.026875713857277942 0 -0.017142537603789993 -0.026717284647255302 0 -0.017344932015539084 -0.027308075867832682 0 -0.01689344857121099 -0.027028079108312921 0 -0.016572624270539384 -0.027586859328836998 0 -0.016966669053836921 -0.027595798923813482 0 -0.01689344857121099 -0.027028079108312921 0 -0.016966669053836921 -0.027595798923813482 0 -0.017344932015539084 -0.027308075867832682 0 -0.01689344857121099 -0.027028079108312921 0 -0.012968367843307703 -0.029656960987173481 0 -0.011242916932098704 -0.029878289049125786 0 -0.012094537936297313 -0.031160870170033723 0 -0.014172790988137972 -0.026867655775288383 0 -0.015305789162862762 -0.027991483809734673 0 -0.011242916932098704 -0.029878289049125786 0 -0.011108780011357547 -0.032038844718327152 0 -0.012094537936297313 -0.031160870170033723 0 -0.015305789162862762 -0.027991483809734673 0 -0.012758221872498886 -0.032556158203674967 0 -0.016197117671290007 -0.027800526582055354 0 -0.015305789162862762 -0.027991483809734673 0 -0.01569545403713235 -0.027208118837374957 0 -0.015305789162862762 -0.027991483809734673 0 -0.011108780011357547 -0.032038844718327152 0 -0.012094537936297313 -0.031160870170033723 0 -0.012063180088205012 -0.032674310879399295 0 -0.012758221872498886 -0.032556158203674967 0 -0.012980205335808648 -0.033693535570220243 0 -0.011108780011357547 -0.032038844718327152 0 -0.012063180088205012 -0.032674310879399295 0 -0.011036106417256802 -0.033994992678461705 0 -0.012063180088205012 -0.032674310879399295 0 -0.011036106417256802 -0.033994992678461705 0 -0.012430973454699932 -0.033539810411275753 0 -0.014137426918242312 -0.032054807728749135 0 -0.014876324415708228 -0.032133561983284764 0 -0.014699527893416966 -0.033890863939847485 0 -0.013414773669205834 -0.033738249092077052 0 -0.014137426918242312 -0.032054807728749135 0 -0.014699527893416966 -0.033890863939847485 0 -0.015229776015520538 -0.032399290902953862 0 -0.015918402533645678 -0.030557648307350391 0 -0.012980205335808648 -0.033693535570220243 0 -0.011757782171237326 -0.036223865100282318 0 -0.014699527893416966 -0.033890863939847485 0 -0.013925852824278016 -0.034704386652876111 0 -0.014455335358509784 -0.03532482783363166 0 -0.013414773669205834 -0.033738249092077052 0 -0.014699527893416966 -0.033890863939847485 0 -0.013925852824278016 -0.034704386652876111 0 -0.011036106417256802 -0.033994992678461705 0 -0.012275673794150531 -0.034622251770476106 0 -0.012430973454699932 -0.033539810411275753 0 -0.011036106417256802 -0.033994992678461705 0 -0.012275673794150531 -0.034622251770476106 0 -0.010938158671737122 -0.035854066362695752 0 -0.010427674077111435 -0.037642239067811042 0 -0.010435286947864737 -0.037214248043426941 0 -0.010912530661007648 -0.037261517200202293 0 -0.010435286947864737 -0.037214248043426941 0 -0.010912530661007648 -0.037261517200202293 0 -0.010720381982012316 -0.037040494499042044 0 -0.011533394089598571 -0.036069633522331099 0 -0.011757782171237326 -0.036223865100282318 0 -0.013925852824278016 -0.034704386652876111 0 -0.014455335358509784 -0.03532482783363166 0 -0.013627781534366576 -0.035375539310253737 0 -0.011757782171237326 -0.036223865100282318 0 -0.011065194700652125 -0.037265786175304204 0 -0.010952073646036023 -0.037416726441969708 0 -0.010982995512057126 -0.036893093591820879 0 -0.011776285589492327 -0.036782059912134825 0 -0.014455335358509784 -0.03532482783363166 0 -0.013272702081266546 -0.036061446083841771 0 -0.013627781534366576 -0.035375539310253737 0 -0.010982995512057126 -0.036893093591820879 0 -0.011362449095906373 -0.03633846636257438 0 -0.011776285589492327 -0.036782059912134825 0 -0.011757782171237326 -0.036223865100282318 0 -0.012733789649976955 -0.036362189812099897 0 -0.010982995512057126 -0.036893093591820879 0 -0.010555306829451591 -0.036766346331600551 0 -0.011362449095906373 -0.03633846636257438 0 -0.010982995512057126 -0.036893093591820879 0 -0.010720381982012316 -0.037040494499042044 0 -0.010555306829451591 -0.036766346331600551 0 -0.010435286947864737 -0.037214248043426941 0 -0.010720381982012316 -0.037040494499042044 0 -0.010555306829451591 -0.036766346331600551 0 -0.010912530661007648 -0.037261517200202293 0 -0.010982995512057126 -0.036893093591820879 0 -0.010720381982012316 -0.037040494499042044 0 -0.0091130386758694042 -0.037374881198438646 0 -0.0097993995589772294 -0.036149140305683759 0 -0.0088296382048925794 -0.035972235382423882 0 -0.0097993995589772294 -0.036149140305683759 0 -0.0088296382048925794 -0.035972235382423882 0 -0.0098976808616918089 -0.0349999989112409 0 -0.0088296382048925794 -0.035972235382423882 0 -0.0098976808616918089 -0.0349999989112409 0 -0.0078331579110742927 -0.034999939979824701 0 -0.0097993995589772294 -0.036149140305683759 0 -0.0098976808616918089 -0.0349999989112409 0 -0.010455520388112949 -0.035888072749807876 0 -0.0098976808616918089 -0.0349999989112409 0 -0.010455520388112949 -0.035888072749807876 0 -0.01139032451759934 -0.035760710276917115 0 -0.0091130386758694042 -0.037374881198438646 0 -0.0097993995589772294 -0.036149140305683759 0 -0.010750074127621927 -0.036665234749409963 0 -0.010455520388112949 -0.035888072749807876 0 -0.010750074127621927 -0.036665234749409963 0 -0.01139032451759934 -0.035760710276917115 0 -0.010014497302905823 -0.037043169107935418 0 -0.011045475445296608 -0.03649868082301206 0 -0.0097993995589772294 -0.036149140305683759 0 -0.010455520388112949 -0.035888072749807876 0 -0.010750074127621927 -0.036665234749409963 0 -0.011362449095906373 -0.03633846636257438 0 -0.012543268214345689 -0.035800601643100553 0 -0.011776285589492327 -0.036782059912134825 0 -0.010750074127621927 -0.036665234749409963 0 -0.01139032451759934 -0.035760710276917115 0 -0.012543268214345689 -0.035800601643100553 0 -0.011045475445296608 -0.03649868082301206 0 -0.012464104750733377 -0.035844475937250979 0 -0.0098976808616918089 -0.0349999989112409 0 -0.01139032451759934 -0.035760710276917115 0 -0.011962514195092339 -0.034999815400584687 0 -0.01139032451759934 -0.035760710276917115 0 -0.011962514195092339 -0.034999815400584687 0 -0.012543268214345689 -0.035800601643100553 0 -0.011962514195092339 -0.034999815400584687 0 -0.013013591445741457 -0.035882654346163868 0 -0.013730428524918519 -0.035650455855952987 0 -0.011962514195092339 -0.034999815400584687 0 -0.012543268214345689 -0.035800601643100553 0 -0.013013591445741457 -0.035882654346163868 0 -0.012543268214345689 -0.035800601643100553 0 -0.013013591445741457 -0.035882654346163868 0 -0.011776285589492327 -0.036782059912134825 0 -0.012940440897827202 -0.03593186685415671 0 -0.012733789649976955 -0.036362189812099897 0 -0.013013591445741457 -0.035882654346163868 0 -0.012940806942865609 -0.036087046411146267 0 -0.013730428524918519 -0.035650455855952987 0 -0.013013591445741457 -0.035882654346163868 0 -0.012940806942865609 -0.036087046411146267 0 -0.013272702081266546 -0.036061446083841771 0 -0.014824816015528753 -0.035827886760028287 0 -0.015054075576633755 -0.034308572815631488 0 -0.014442572883999862 -0.035546548141138105 0 -0.012940806942865609 -0.036087046411146267 0 -0.013151636299276128 -0.035671181476212406 0 -0.012964105478541925 -0.035177965834288047 0 -0.014824816015528753 -0.035827886760028287 0 -0.016251092927731633 -0.033681540516687584 0 -0.015054075576633755 -0.034308572815631488 0 -0.013907466853336728 -0.03583521224389466 0 -0.014590856317782817 -0.034409911779771533 0 -0.012940806942865609 -0.036087046411146267 0 -0.013272702081266546 -0.036061446083841771 0 -0.013151636299276128 -0.035671181476212406 0 -0.013272702081266546 -0.036061446083841771 0 -0.013151636299276128 -0.035671181476212406 0 -0.013627781534366576 -0.035375539310253737 0 -0.013151636299276128 -0.035671181476212406 0 -0.013444951315452362 -0.035009378977987185 0 -0.012964105478541925 -0.035177965834288047 0 -0.013151636299276128 -0.035671181476212406 0 -0.013627781534366576 -0.035375539310253737 0 -0.013444951315452362 -0.035009378977987185 0 -0.013925852824278016 -0.034704386652876111 0 -0.013627781534366576 -0.035375539310253737 0 -0.013444951315452362 -0.035009378977987185 0 -0.015179174491277345 -0.032511080623650469 0 -0.016251092927731633 -0.033681540516687584 0 -0.015054075576633755 -0.034308572815631488 0 -0.014026495179040453 -0.032043466870240685 0 -0.015179174491277345 -0.032511080623650469 0 -0.015054075576633755 -0.034308572815631488 0 -0.015054075576633755 -0.034308572815631488 0 -0.01438791373788019 -0.036080167615337021 0 -0.014442572883999862 -0.035546548141138105 0 -0.014026495179040453 -0.032043466870240685 0 -0.015054075576633755 -0.034308572815631488 0 -0.013249824824040987 -0.03308432693899447 0 -0.015114821803889841 -0.034409911127384604 0 -0.013965464936959325 -0.034585249851037655 0 -0.012822868456746848 -0.032115717472159855 0 -0.013344148453592284 -0.032059540394783127 0 -0.013249824824040987 -0.03308432693899447 0 -0.012822868456746848 -0.032115717472159855 0 -0.013249824824040987 -0.03308432693899447 0 -0.01226944833032673 -0.032557702239286293 0 -0.013965464936959325 -0.034585249851037655 0 -0.014093703804367688 -0.034951959834587376 0 -0.01453155408578221 -0.03587481182063839 0 -0.015160737854078758 -0.035904826854258734 0 -0.015052717807641898 -0.036442268615626799 0 -0.01438791373788019 -0.036080167615337021 0 -0.01453155408578221 -0.03587481182063839 0 -0.014442572883999862 -0.035546548141138105 0 -0.01453155408578221 -0.03587481182063839 0 -0.01445930193364163 -0.035709390750030552 0 -0.015160737854078758 -0.035904826854258734 0 -0.01438791373788019 -0.036080167615337021 0 -0.01453155408578221 -0.03587481182063839 0 -0.015052717807641898 -0.036442268615626799 0 -0.01453155408578221 -0.03587481182063839 0 -0.014442572883999862 -0.035546548141138105 0 -0.014361240112344504 -0.035782962334152756 0 -0.014824816015528753 -0.035827886760028287 0 -0.014442572883999862 -0.035546548141138105 0 -0.014361240112344504 -0.035782962334152756 0 -0.013907466853336728 -0.03583521224389466 0 -0.013804427207838404 -0.035632550819844774 0 -0.014361240112344504 -0.035782962334152756 0 -0.013730428524918519 -0.035650455855952987 0 -0.01445930193364163 -0.035709390750030552 0 -0.014824816015528753 -0.035827886760028287 0 -0.014361240112344504 -0.035782962334152756 0 -0.013730428524918519 -0.035650455855952987 0 -0.011962514195092339 -0.034999815400584687 0 -0.013730428524918519 -0.035650455855952987 0 -0.014026972336269388 -0.034999937878129432 0 -0.013730428524918519 -0.035650455855952987 0 -0.014179515944570653 -0.035625492515565384 0 -0.014026972336269388 -0.034999937878129432 0 -0.013730428524918519 -0.035650455855952987 0 -0.014179515944570653 -0.035625492515565384 0 -0.01445930193364163 -0.035709390750030552 0 -0.014179515944570653 -0.035625492515565384 0 -0.01488334160237779 -0.035521380739745048 0 -0.015603106339142931 -0.034872001274680674 0 -0.014313467600172819 -0.03558521918233213 0 -0.015861623319399162 -0.035378020203061342 0 -0.014026972336269388 -0.034999937878129432 0 -0.015105411108486819 -0.035383127572852738 0 -0.016090828473791181 -0.034999868146652097 0 -0.014179515944570653 -0.035625492515565384 0 -0.015105411108486819 -0.035383127572852738 0 -0.016095647748391062 -0.035855956656401705 0 -0.014179515944570653 -0.035625492515565384 0 -0.014026972336269388 -0.034999937878129432 0 -0.015105411108486819 -0.035383127572852738 0 -0.01488334160237779 -0.035521380739745048 0 -0.01445930193364163 -0.035709390750030552 0 -0.015160737854078758 -0.035904826854258734 0 -0.014179515944570653 -0.035625492515565384 0 -0.01488334160237779 -0.035521380739745048 0 -0.01445930193364163 -0.035709390750030552 0 -0.01453155408578221 -0.03587481182063839 0 -0.014361240112344504 -0.035782962334152756 0 -0.01445930193364163 -0.035709390750030552 0 -0.01488334160237779 -0.035521380739745048 0 -0.015440431428930691 -0.03547495029604622 0 -0.015160737854078758 -0.035904826854258734 0 -0.015798717822939696 -0.035718593718758219 0 -0.016004454529201542 -0.03611255172749326 0 -0.015160737854078758 -0.035904826854258734 0 -0.015798717822939696 -0.035718593718758219 0 -0.015440431428930691 -0.03547495029604622 0 -0.015160737854078758 -0.035904826854258734 0 -0.015440431428930691 -0.03547495029604622 0 -0.015603106339142931 -0.034872001274680674 0 -0.015973104015311577 -0.035431894356977953 0 -0.015798717822939696 -0.035718593718758219 0 -0.015440431428930691 -0.03547495029604622 0 -0.015973104015311577 -0.035431894356977953 0 -0.01488334160237779 -0.035521380739745048 0 -0.015440431428930691 -0.03547495029604622 0 -0.015603106339142931 -0.034872001274680674 0 -0.015105411108486819 -0.035383127572852738 0 -0.016095647748391062 -0.035855956656401705 0 -0.016090828473791181 -0.034999868146652097 0 -0.017917156867558813 -0.03528018646629956 0 -0.015861623319399162 -0.035378020203061342 0 -0.018155784643967221 -0.035000061747478606 0 -0.016090828473791181 -0.034999868146652097 0 -0.017108027950850108 -0.035398329392442272 0 -0.017750756015560133 -0.034761204667173001 0 -0.015603106339142931 -0.034872001274680674 0 -0.016680366860852048 -0.035283187211847235 0 -0.01808278237938565 -0.035746612471856731 0 -0.016095647748391062 -0.035855956656401705 0 -0.017108027950850108 -0.035398329392442272 0 -0.016095647748391062 -0.035855956656401705 0 -0.016090828473791181 -0.034999868146652097 0 -0.017108027950850108 -0.035398329392442272 0 -0.017446938451641268 -0.035477844648317672 0 -0.016680366860852048 -0.035283187211847235 0 -0.017031191620016456 -0.035809473132163178 0 -0.015603106339142931 -0.034872001274680674 0 -0.016680366860852048 -0.035283187211847235 0 -0.015973104015311577 -0.035431894356977953 0 -0.016680366860852048 -0.035283187211847235 0 -0.015973104015311577 -0.035431894356977953 0 -0.016384970313690652 -0.035766458540843503 0 -0.015798717822939696 -0.035718593718758219 0 -0.016384970313690652 -0.035766458540843503 0 -0.016004454529201542 -0.03611255172749326 0 -0.015798717822939696 -0.035718593718758219 0 -0.015973104015311577 -0.035431894356977953 0 -0.016384970313690652 -0.035766458540843503 0 -0.016384970313690652 -0.035766458540843503 0 -0.017031191620016456 -0.035809473132163178 0 -0.016728699481107317 -0.036218675636119781 0 -0.016680366860852048 -0.035283187211847235 0 -0.016384970313690652 -0.035766458540843503 0 -0.017031191620016456 -0.035809473132163178 0 -0.01741879999068064 -0.036307947158496903 0 -0.017031191620016456 -0.035809473132163178 0 -0.016728699481107317 -0.036218675636119781 0 -0.01741879999068064 -0.036307947158496903 0 -0.016728699481107317 -0.036218675636119781 0 -0.017061131880389605 -0.03672851222797395 0 -0.016728699481107317 -0.036218675636119781 0 -0.017061131880389605 -0.03672851222797395 0 -0.016361575469615409 -0.036562983209382734 0 -0.017061131880389605 -0.03672851222797395 0 -0.016361575469615409 -0.036562983209382734 0 -0.016720763966325675 -0.037102431919562077 0 -0.016361575469615409 -0.036562983209382734 0 -0.015697806169363372 -0.036460451190881371 0 -0.016089617450772975 -0.036837342204310952 0 -0.016361575469615409 -0.036562983209382734 0 -0.016720763966325675 -0.037102431919562077 0 -0.016089617450772975 -0.036837342204310952 0 -0.016361575469615409 -0.036562983209382734 0 -0.016004454529201542 -0.03611255172749326 0 -0.015697806169363372 -0.036460451190881371 0 -0.016728699481107317 -0.036218675636119781 0 -0.016361575469615409 -0.036562983209382734 0 -0.016004454529201542 -0.03611255172749326 0 -0.016384970313690652 -0.035766458540843503 0 -0.016728699481107317 -0.036218675636119781 0 -0.016004454529201542 -0.03611255172749326 0 -0.016004454529201542 -0.03611255172749326 0 -0.015160737854078758 -0.035904826854258734 0 -0.015697806169363372 -0.036460451190881371 0 -0.015160737854078758 -0.035904826854258734 0 -0.015697806169363372 -0.036460451190881371 0 -0.015052717807641898 -0.036442268615626799 0 -0.015697806169363372 -0.036460451190881371 0 -0.015680861092762892 -0.036846820134550595 0 -0.015052717807641898 -0.036442268615626799 0 -0.015697806169363372 -0.036460451190881371 0 -0.015680861092762892 -0.036846820134550595 0 -0.016089617450772975 -0.036837342204310952 0 -0.013249824824040987 -0.03308432693899447 0 -0.01226944833032673 -0.032557702239286293 0 -0.012220667943778666 -0.032553258955320137 0 -0.01438791373788019 -0.036080167615337021 0 -0.015052717807641898 -0.036442268615626799 0 -0.015622597522717198 -0.037336639131016293 0 -0.015680861092762892 -0.036846820134550595 0 -0.015622597522717198 -0.037336639131016293 0 -0.016304714776041191 -0.03722053852796732 0 -0.015680861092762892 -0.036846820134550595 0 -0.015052717807641898 -0.036442268615626799 0 -0.015622597522717198 -0.037336639131016293 0 -0.013094234071012541 -0.033117326286078413 0 -0.01226944833032673 -0.032557702239286293 0 -0.012220667943778666 -0.032553258955320137 0 -0.014947075466691074 -0.032696979401888746 0 -0.013094234071012541 -0.033117326286078413 0 -0.012220667943778666 -0.032553258955320137 0 -0.017447318247610751 -0.038001145855023642 0 -0.015622597522717198 -0.037336639131016293 0 -0.016304714776041191 -0.03722053852796732 0 -0.015918016265587552 -0.035230985268562547 0 -0.014093703804367688 -0.034951959834587376 0 -0.017458587678832495 -0.037237576888130522 0 -0.017061131880389605 -0.03672851222797395 0 -0.016720763966325675 -0.037102431919562077 0 -0.017447318247610751 -0.038001145855023642 0 -0.016720763966325675 -0.037102431919562077 0 -0.016304714776041191 -0.03722053852796732 0 -0.016720763966325675 -0.037102431919562077 0 -0.016304714776041191 -0.03722053852796732 0 -0.016089617450772975 -0.036837342204310952 0 -0.015680861092762892 -0.036846820134550595 0 -0.016304714776041191 -0.03722053852796732 0 -0.016089617450772975 -0.036837342204310952 0 0.00023599530438563342 -0.033386087968793832 0 -0.00010077673474384855 -0.033175763213549286 0 0.00019987984184129793 -0.032896292380290175 0 0.00056715107551206232 -0.03320926450973305 0 0.00023599530438563342 -0.033386087968793832 0 0.00019987984184129793 -0.032896292380290175 0 0.00056715107551206232 -0.03320926450973305 0 0.00051129072697267798 -0.033748958846484059 0 0.00023599530438563342 -0.033386087968793832 0 0.00051129072697267798 -0.033748958846484059 0 0.00023599530438563342 -0.033386087968793832 0 3.1616020097158357e-05 -0.033943875520457106 0 0.00023599530438563342 -0.033386087968793832 0 -0.00010077673474384855 -0.033175763213549286 0 3.1616020097158357e-05 -0.033943875520457106 0 -0.00017091582854279427 -0.033749816054917212 0 -0.00010077673474384855 -0.033175763213549286 0 3.1616020097158357e-05 -0.033943875520457106 0 -0.00017091582854279427 -0.033749816054917212 0 -0.00010077673474384855 -0.033175763213549286 0 -0.00032695847604800171 -0.033204706864650088 0 -0.00010077673474384855 -0.033175763213549286 0 -0.00045687154486727453 -0.032499718709959428 0 -0.00032695847604800171 -0.033204706864650088 0 -0.00010077673474384855 -0.033175763213549286 0 -0.00022039946624116341 -0.032498326506779154 0 -0.00045687154486727453 -0.032499718709959428 0 -0.00010077673474384855 -0.033175763213549286 0 -0.00022039946624116341 -0.032498326506779154 0 0.00019987984184129793 -0.032896292380290175 0 -0.00045687154486727453 -0.032499718709959428 0 -0.00054131528068062631 -0.032148941076811842 0 -0.00062074232876163985 -0.032042323006109985 0 -0.00022039946624116341 -0.032498326506779154 0 -0.00045687154486727453 -0.032499718709959428 0 -0.00054131528068062631 -0.032148941076811842 0 -0.00022039946624116341 -0.032498326506779154 0 -0.00054131528068062631 -0.032148941076811842 0 -0.00031098184477256933 -0.032098496798486115 0 -0.00022039946624116341 -0.032498326506779154 0 -0.00031098184477256933 -0.032098496798486115 0 0.00015634128281009481 -0.032341406643899576 0 -0.00022039946624116341 -0.032498326506779154 0 0.00015634128281009481 -0.032341406643899576 0 0.00019987984184129793 -0.032896292380290175 0 0.00015634128281009481 -0.032341406643899576 0 0.00019987984184129793 -0.032896292380290175 0 0.00058887556799233133 -0.032694405750438339 0 0.00056715107551206232 -0.03320926450973305 0 0.00019987984184129793 -0.032896292380290175 0 0.00058887556799233133 -0.032694405750438339 0 0.00015634128281009481 -0.032341406643899576 0 0.00058887556799233133 -0.032694405750438339 0 0.00061014288923313487 -0.032135820791584523 0 -0.0040160836285026849 -0.031149165921415197 0 -0.0081368754890515094 -0.029843268621419949 0 -0.0040160836285026849 -0.031149165921415197 0 -0.0015356209781495875 -0.03230642080142257 0 0.00058887556799233133 -0.032694405750438339 0 0.00061014288923313487 -0.032135820791584523 0 0.0010407789242606789 -0.032620395586629478 0 -0.0047774512111882651 -0.032327020697532516 0 -0.0056214908990027722 -0.031981982570741391 0 -0.0054879597378076446 -0.031767562597048896 0 -0.0092876722531341667 -0.029304714997200578 0 -0.0085976217830845796 -0.028925688012230982 0 -0.0098385163292463995 -0.028349085674672109 0 -0.010568510350619967 -0.02916496480924273 0 -0.0092876722531341667 -0.029304714997200578 0 -0.0098385163292463995 -0.028349085674672109 0 -0.010568510350619967 -0.02916496480924273 0 -0.0098385163292463995 -0.028349085674672109 0 -0.010720387776503415 -0.028363946452982222 0 0.0010407789242606789 -0.032620395586629478 0 0.0014312309716627567 -0.033061444484927087 0 0.00099545900735852543 -0.033106967778978376 0 -0.0056214908990027722 -0.031981982570741391 0 -0.0054879597378076446 -0.031767562597048896 0 -0.0064480858089208636 -0.031612890998468098 0 -0.0015356209781495875 -0.03230642080142257 0 -0.0050875320279128965 -0.034083364494764394 0 0.00058887556799233133 -0.032694405750438339 0 0.0010407789242606789 -0.032620395586629478 0 0.00099545900735852543 -0.033106967778978376 0 -0.014172790988137972 -0.026867655775288383 0 -0.01134148264430837 -0.030321332073859283 0 -0.012968367843307703 -0.029656960987173481 0 -0.012094537936297313 -0.031160870170033723 0 -0.012973993940839122 -0.031302688473935157 0 -0.01183085192874681 -0.029012001505309738 0 -0.011235266777060316 -0.028280690872763154 0 -0.011228330265241861 -0.028039864988248057 0 -0.012968367843307703 -0.029656960987173481 0 -0.013865228512360299 -0.031239158736446272 0 -0.012973993940839122 -0.031302688473935157 0 -0.010568510350619967 -0.02916496480924273 0 -0.01183085192874681 -0.029012001505309738 0 -0.011235266777060316 -0.028280690872763154 0 -0.0098385163292463995 -0.028349085674672109 0 -0.010720387776503415 -0.028363946452982222 0 -0.011068811573664124 -0.027778657247065852 0 -0.010568510350619967 -0.02916496480924273 0 -0.011235266777060316 -0.028280690872763154 0 -0.010720387776503415 -0.028363946452982222 0 -0.011235266777060316 -0.028280690872763154 0 -0.010720387776503415 -0.028363946452982222 0 -0.011227855063050417 -0.028040973492134337 0 -0.011312372780665443 -0.029240332200384564 0 -0.01134148264430837 -0.030321332073859283 0 -0.0081368754890515094 -0.029843268621419949 0 -0.0097064639153611205 -0.031285026184690617 0 -0.0054879597378076446 -0.031767562597048896 0 -0.0064480858089208636 -0.031612890998468098 0 -0.0061798316639749985 -0.031188097778268316 0 -0.0097064639153611205 -0.031285026184690617 0 -0.0050875320279128965 -0.034083364494764394 0 -0.008601775128451011 -0.032480073753243702 0 -0.0089449839663865993 -0.032309892394246559 0 -0.0098089954809077156 -0.033818757575916771 0 -0.011188551482461458 -0.031786687453725544 0 -0.011748521248357211 -0.031510659041128805 0 -0.011170088399658478 -0.030515240868322389 0 -0.011589209263374742 -0.031505639116380039 0 -0.01134148264430837 -0.030321332073859283 0 -0.010720387776503415 -0.028363946452982222 0 -0.011068811573664124 -0.027778657247065852 0 -0.011227855063050417 -0.028040973492134337 0 -0.011589209263374742 -0.031505639116380039 0 -0.0097064639153611205 -0.031285026184690617 0 -0.0097064639153611205 -0.031285026184690617 0 -0.01134148264430837 -0.030321332073859283 0 -0.012063180088205012 -0.032674310879399295 0 -0.013537112422257146 -0.031981545178653897 0 -0.012931301877651877 -0.032906277924570973 0 -0.012094537936297313 -0.031160870170033723 0 -0.012063180088205012 -0.032674310879399295 0 -0.012973993940839122 -0.031302688473935157 0 -0.012879304421568245 -0.032497349443107303 0 -0.011589209263374742 -0.031505639116380039 0 -0.012063180088205012 -0.032674310879399295 0 -0.013874322465021172 -0.031784295874382355 0 -0.012973993940839122 -0.031302688473935157 0 -0.013874322465021172 -0.031784295874382355 0 -0.013865228512360299 -0.031239158736446272 0 -0.012973993940839122 -0.031302688473935157 0 -0.013537112422257146 -0.031981545178653897 0 -0.012931301877651877 -0.032906277924570973 0 -0.013573828167617581 -0.033385584017173973 0 -0.012063180088205012 -0.032674310879399295 0 -0.012430973454699932 -0.033539810411275753 0 -0.012931301877651877 -0.032906277924570973 0 -0.012430973454699932 -0.033539810411275753 0 -0.012931301877651877 -0.032906277924570973 0 -0.013573828167617581 -0.033385584017173973 0 -0.011589209263374742 -0.031505639116380039 0 -0.0097239518475783597 -0.035968908063978525 0 -0.008601775128451011 -0.032480073753243702 0 -0.0086333258786530989 -0.034899681288276488 0 -0.0098089954809077156 -0.033818757575916771 0 -0.0061558954504964958 -0.03907724297636056 0 -0.0061083648414025429 -0.038855117167470324 0 -0.0057980977063225702 -0.038560378283359016 0 -0.0097239518475783597 -0.035968908063978525 0 -0.0050875320279128965 -0.034083364494764394 0 -0.0063452848333336483 -0.038867714955951538 0 -0.0061558954504964958 -0.03907724297636056 0 -0.0061083648414025429 -0.038855117167470324 0 -0.0097239518475783597 -0.035968908063978525 0 -0.0081276950445850794 -0.038495472872335963 0 -0.0063452848333336483 -0.038867714955951538 0 -0.0061083648414025429 -0.038855117167470324 0 -0.0063537682606059189 -0.038527113765881985 0 -0.0061083648414025429 -0.038855117167470324 0 -0.0060757186172047308 -0.038556066025646707 0 -0.0063537682606059189 -0.038527113765881985 0 -0.011533394089598571 -0.036069633522331099 0 -0.0097239518475783597 -0.035968908063978525 0 -0.012275673794150531 -0.034622251770476106 0 -0.012430973454699932 -0.033539810411275753 0 -0.013573828167617581 -0.033385584017173973 0 -0.010427674077111435 -0.037642239067811042 0 -0.0099915135907836655 -0.037997912699974261 0 -0.0099801198626055555 -0.037549452683122188 0 0.00056715107551206232 -0.03320926450973305 0 0.00058887556799233133 -0.032694405750438339 0 0.00099545900735852543 -0.033106967778978376 0 0.00056715107551206232 -0.03320926450973305 0 0.00099545900735852543 -0.033106967778978376 0 0.00085006729125570676 -0.033452105236217167 0 -0.0050875320279128965 -0.034083364494764394 0 -0.0032416824504426524 -0.036843450899001463 0 0.0014312309716627567 -0.033061444484927087 0 0.00099545900735852543 -0.033106967778978376 0 0.0011872261862747686 -0.033572613492062586 0 0.00099545900735852543 -0.033106967778978376 0 0.0011872261862747686 -0.033572613492062586 0 0.00085006729125570676 -0.033452105236217167 0 -0.0061083648414025429 -0.038855117167470324 0 -0.0060757186172047308 -0.038556066025646707 0 -0.005895352160505133 -0.038719229755116477 0 -0.0065871451168625058 -0.039536579196917943 0 -0.0032416824504426524 -0.036843450899001463 0 -0.0060757186172047308 -0.038556066025646707 0 -0.005895352160505133 -0.038719229755116477 0 -0.0055775958553046174 -0.038624491737410824 0 -0.0032416824504426524 -0.036843450899001463 0 -0.0022251140823170094 -0.036114414189457864 0 0.0011872261862747686 -0.033572613492062586 0 0.00085006729125570676 -0.033452105236217167 0 0.0010035945631206942 -0.033814604582982945 0 0.00051129072697267798 -0.033748958846484059 0 0.00085006729125570676 -0.033452105236217167 0 0.0010035945631206942 -0.033814604582982945 0 0.00056715107551206232 -0.03320926450973305 0 0.00051129072697267798 -0.033748958846484059 0 0.00085006729125570676 -0.033452105236217167 0 0.00051129072697267798 -0.033748958846484059 0 0.0010035945631206942 -0.033814604582982945 0 0.00054213125998181207 -0.034364042566390363 0 -0.0022251140823170094 -0.036114414189457864 0 -0.0019052145366867364 -0.036025352329865368 0 -0.0055775958553046174 -0.038624491737410824 0 -0.0055480115032560083 -0.037761399269858033 0 -0.0043250495584527147 -0.037668366180222013 0 -0.0055775958553046174 -0.038624491737410824 0 -0.0059736440275258065 -0.038277307175721233 0 -0.0055480115032560083 -0.037761399269858033 0 -0.0060757186172047308 -0.038556066025646707 0 -0.0059736440275258065 -0.038277307175721233 0 -0.006178823458756387 -0.038397527460312303 0 -0.0060757186172047308 -0.038556066025646707 0 -0.0055775958553046174 -0.038624491737410824 0 -0.0059736440275258065 -0.038277307175721233 0 -0.0055480115032560083 -0.037761399269858033 0 -0.0063691308014822388 -0.037446865596027841 0 -0.0056208197251803481 -0.036749988079055933 0 -0.0059736440275258065 -0.038277307175721233 0 -0.0055480115032560083 -0.037761399269858033 0 -0.0063691308014822388 -0.037446865596027841 0 -0.0055480115032560083 -0.037761399269858033 0 -0.0056208197251803481 -0.036749988079055933 0 -0.0043250495584527147 -0.037668366180222013 0 -0.010435286947864737 -0.037214248043426941 0 -0.0099801198626055555 -0.037549452683122188 0 -0.0099545548506633288 -0.0370576999582862 0 -0.010427674077111435 -0.037642239067811042 0 -0.010435286947864737 -0.037214248043426941 0 -0.0099801198626055555 -0.037549452683122188 0 -0.0063537682606059189 -0.038527113765881985 0 -0.006178823458756387 -0.038397527460312303 0 -0.0063716456273212397 -0.03812422464254462 0 -0.0081276950445850794 -0.038495472872335963 0 -0.0077830996827099042 -0.037509807899053955 0 -0.0059736440275258065 -0.038277307175721233 0 -0.006178823458756387 -0.038397527460312303 0 -0.0063716456273212397 -0.03812422464254462 0 -0.0056825428934547855 -0.038435156567518725 0 -0.0077830996827099042 -0.037509807899053955 0 -0.0060757186172047308 -0.038556066025646707 0 -0.0063537682606059189 -0.038527113765881985 0 -0.006178823458756387 -0.038397527460312303 0 -0.0063691308014822388 -0.037446865596027841 0 -0.0072776653427596523 -0.037843227757919984 0 -0.0074003536762335224 -0.036314498490257689 0 -0.0059736440275258065 -0.038277307175721233 0 -0.0063691308014822388 -0.037446865596027841 0 -0.0072776653427596523 -0.037843227757919984 0 -0.0077830996827099042 -0.037509807899053955 0 -0.0073027458621089964 -0.036593153959078945 0 -0.0091130386758694042 -0.037374881198438646 0 -0.0074454244036899564 -0.038124173461099808 0 -0.0081997074326486726 -0.036944267086553212 0 -0.010014497302905823 -0.037043169107935418 0 -0.0077830996827099042 -0.037509807899053955 0 -0.010435286947864737 -0.037214248043426941 0 -0.010555306829451591 -0.036766346331600551 0 -0.0099545548506633288 -0.0370576999582862 0 -0.0091130386758694042 -0.037374881198438646 0 -0.0088296382048925794 -0.035972235382423882 0 -0.0081997074326486726 -0.036944267086553212 0 -0.0088296382048925794 -0.035972235382423882 0 -0.0081997074326486726 -0.036944267086553212 0 -0.0074003536762335224 -0.036314498490257689 0 -0.0074454244036899564 -0.038124173461099808 0 -0.0081997074326486726 -0.036944267086553212 0 -0.0074003536762335224 -0.036314498490257689 0 -0.0074003536762335224 -0.036314498490257689 0 -0.0078331579110742927 -0.034999939979824701 0 -0.0057687656849698581 -0.034999992022318939 0 -0.0088296382048925794 -0.035972235382423882 0 -0.0074003536762335224 -0.036314498490257689 0 -0.0078331579110742927 -0.034999939979824701 0 -0.0044795439917416722 -0.036177226902297195 0 -0.0056208197251803481 -0.036749988079055933 0 -0.0043250495584527147 -0.037668366180222013 0 -0.0063691308014822388 -0.037446865596027841 0 -0.0074003536762335224 -0.036314498490257689 0 -0.0056208197251803481 -0.036749988079055933 0 -0.0074003536762335224 -0.036314498490257689 0 -0.0056208197251803481 -0.036749988079055933 0 -0.0057687656849698581 -0.034999992022318939 0 -0.0044795439917416722 -0.036177226902297195 0 -0.0056208197251803481 -0.036749988079055933 0 -0.0057687656849698581 -0.034999992022318939 0 -0.0044795439917416722 -0.036177226902297195 0 -0.0057687656849698581 -0.034999992022318939 0 -0.0037044445150588774 -0.034999932044660176 0 -0.0044795439917416722 -0.036177226902297195 0 -0.0037044445150588774 -0.034999932044660176 0 -0.0029744835618679922 -0.036381386617914332 0 -0.0037044445150588774 -0.034999932044660176 0 -0.0029744835618679922 -0.036381386617914332 0 -0.001639941196379612 -0.035000002017068314 0 -0.0015526704308588505 -0.035588329269941203 0 -0.0016396630345865873 -0.035000036073470124 0 -0.0044795439917416722 -0.036177226902297195 0 -0.0029744835618679922 -0.036381386617914332 0 -0.0043250495584527147 -0.037668366180222013 0 -0.0015526704308588505 -0.035588329269941203 0 -0.0019052145366867364 -0.036025352329865368 0 0.00054213125998181207 -0.034364042566390363 0 -0.00016063709457781009 -0.034540599332139398 0 3.1616020097158357e-05 -0.033943875520457106 0 -0.00013457708920248745 -0.034921751692777878 0 0.00054213125998181207 -0.034364042566390363 0 -0.00016063709457781009 -0.034540599332139398 0 0.00051129072697267798 -0.033748958846484059 0 0.00054213125998181207 -0.034364042566390363 0 3.1616020097158357e-05 -0.033943875520457106 0 -0.00017091582854279427 -0.033749816054917212 0 -0.00023973290544069899 -0.034541068052906541 0 -0.00028386937333131624 -0.033937158469227992 0 -0.00017091582854279427 -0.033749816054917212 0 3.1616020097158357e-05 -0.033943875520457106 0 -0.00023973290544069899 -0.034541068052906541 0 -0.00016063709457781009 -0.034540599332139398 0 -0.00023973290544069899 -0.034541068052906541 0 -0.00064901932000048523 -0.035026135151585626 0 -0.00016063709457781009 -0.034540599332139398 0 3.1616020097158357e-05 -0.033943875520457106 0 -0.00023973290544069899 -0.034541068052906541 0 -0.00023973290544069899 -0.034541068052906541 0 -0.00064901932000048523 -0.035026135151585626 0 7.7677875015966905e-06 -0.034999678787420913 0 -0.00013457708920248745 -0.034921751692777878 0 -0.00016063709457781009 -0.034540599332139398 0 -0.00064901932000048523 -0.035026135151585626 0 -0.00013457708920248745 -0.034921751692777878 0 -0.00064901932000048523 -0.035026135151585626 0 -0.0016362007943254743 -0.03499996772954353 0 -0.00064901932000048523 -0.035026135151585626 0 0.00019521013563168459 -0.034998770194645347 0 7.7677875015966905e-06 -0.034999678787420913 0 -0.00064901932000048523 -0.035026135151585626 0 -0.0016362007943254743 -0.03499996772954353 0 0.00019521013563168459 -0.034998770194645347 0 0.00019521013563168459 -0.034998770194645347 0 0.0020238054568970845 -0.035000485165413035 0 7.7677875015966905e-06 -0.034999678787420913 0 0.0020238054568970845 -0.035000485165413035 0 0.00034170464921843847 -0.034778726117411014 0 7.7677875015966905e-06 -0.034999678787420913 0 0.0020238054568970845 -0.035000485165413035 0 0.00034170464921843847 -0.034778726117411014 0 0.00061522650451958135 -0.034701933415729094 0 -0.00023973290544069899 -0.034541068052906541 0 0.00034170464921843847 -0.034778726117411014 0 7.7677875015966905e-06 -0.034999678787420913 0 0.0020295746954316768 -0.035000013281356143 0 0.0038996490802125439 -0.035957709589220212 0 0.0039851608571785831 -0.035693085638802607 0 0.0020295746954316768 -0.035000013281356143 0 0.0039851608571785831 -0.035693085638802607 0 0.0041185013341854242 -0.034999942051404026 0 0.0014024769825040787 -0.034652965737887245 0 0.0017433331519172944 -0.034907974991934217 0 0.0039063544970216121 -0.03594814614274635 0 0.0039851608571785831 -0.035693085638802607 0 0.0043703449455013187 -0.035510600527649809 0 0.0039851608571785831 -0.035693085638802607 0 0.0041185013341854242 -0.034999942051404026 0 0.0043703449455013187 -0.035510600527649809 0 0.0020238054568970845 -0.035000485165413035 0 -2.9889880406951603e-06 -0.034966179237514647 0 0.00061522650451958135 -0.034701933415729094 0 0.0020305661240767052 -0.035001043378953177 0 0.0014024769825040787 -0.034652965737887245 0 -0.0014817438403062514 -0.03182872310433358 0 -0.0015573916327437519 -0.032013676645230894 0 -0.0014373513140803942 -0.031975670691134057 0 -2.9889880406951603e-06 -0.034966179237514647 0 0.00061522650451958135 -0.034701933415729094 0 -2.5231352268679934e-05 -0.034360529528055891 0 0.0014024769825040787 -0.034652965737887245 0 -0.0010065022712379514 -0.032975684665197645 0 -0.0015573916327437519 -0.032013676645230894 0 -0.0014706251930027762 -0.032155330566560489 0 -0.0014373513140803942 -0.031975670691134057 0 0.00061522650451958135 -0.034701933415729094 0 -2.5231352268679934e-05 -0.034360529528055891 0 -0.00011350030360039365 -0.034328275378876678 0 -0.0010065022712379514 -0.032975684665197645 0 -0.0010726522708695819 -0.033070221127836773 0 -2.5231352268679934e-05 -0.034360529528055891 0 -0.00071452930985885287 -0.033886466881691425 0 -0.00011350030360039365 -0.034328275378876678 0 -0.0015573916327437519 -0.032013676645230894 0 -0.0015510336358390006 -0.03232363819157516 0 -0.0014706251930027762 -0.032155330566560489 0 0.00034170464921843847 -0.034778726117411014 0 -0.00011350030360039365 -0.034328275378876678 0 -0.00028386937333131624 -0.033937158469227992 0 -0.00023973290544069899 -0.034541068052906541 0 0.00034170464921843847 -0.034778726117411014 0 -0.00028386937333131624 -0.033937158469227992 0 0.00034170464921843847 -0.034778726117411014 0 0.00061522650451958135 -0.034701933415729094 0 -0.00011350030360039365 -0.034328275378876678 0 -0.00071452930985885287 -0.033886466881691425 0 -0.00011350030360039365 -0.034328275378876678 0 -0.00028386937333131624 -0.033937158469227992 0 -0.00028386937333131624 -0.033937158469227992 0 -0.00032695847604800171 -0.033204706864650088 0 -0.00057060647565400488 -0.032790961582193461 0 -0.00017091582854279427 -0.033749816054917212 0 -0.00028386937333131624 -0.033937158469227992 0 -0.00032695847604800171 -0.033204706864650088 0 -0.00045687154486727453 -0.032499718709959428 0 -0.00032695847604800171 -0.033204706864650088 0 -0.00057060647565400488 -0.032790961582193461 0 -0.00057060647565400488 -0.032790961582193461 0 -0.0011493567719511645 -0.032721373985653279 0 -0.0006593172280216032 -0.032148144295933087 0 -0.00071452930985885287 -0.033886466881691425 0 -0.00028386937333131624 -0.033937158469227992 0 -0.0011493567719511645 -0.032721373985653279 0 -0.00028386937333131624 -0.033937158469227992 0 -0.00057060647565400488 -0.032790961582193461 0 -0.0011493567719511645 -0.032721373985653279 0 -0.0015510336358390006 -0.03232363819157516 0 -0.0015575753678667256 -0.032349335262308127 0 -0.0011493567719511645 -0.032721373985653279 0 -0.0010726522708695819 -0.033070221127836773 0 -0.0011188310371220323 -0.032679686489752453 0 -0.0015510336358390006 -0.03232363819157516 0 -0.0015575753678667256 -0.032349335262308127 0 -0.0014706251930027762 -0.032155330566560489 0 -0.0015575753678667256 -0.032349335262308127 0 -0.0016328895381951308 -0.032253219636933325 0 -0.0017657762759588716 -0.032158696546322182 0 -0.0015575753678667256 -0.032349335262308127 0 -0.0016328895381951308 -0.032253219636933325 0 -0.0011493567719511645 -0.032721373985653279 0 -0.0016328895381951308 -0.032253219636933325 0 -0.0011493567719511645 -0.032721373985653279 0 -0.0012728749355777435 -0.032151583925364664 0 -0.0012728749355777435 -0.032151583925364664 0 -0.0017328142380467438 -0.031705395667704611 0 -0.0011757216854167318 -0.030974605182307807 0 -0.0011493567719511645 -0.032721373985653279 0 -0.0012728749355777435 -0.032151583925364664 0 -0.0006593172280216032 -0.032148144295933087 0 -0.0016328895381951308 -0.032253219636933325 0 -0.0012728749355777435 -0.032151583925364664 0 -0.0017328142380467438 -0.031705395667704611 0 -0.0016328895381951308 -0.032253219636933325 0 -0.0017328142380467438 -0.031705395667704611 0 -0.0021458435732829365 -0.03165322826890208 0 -0.0017328142380467438 -0.031705395667704611 0 -0.0020274859641947252 -0.03088206357925808 0 -0.0021458435732829365 -0.03165322826890208 0 -0.0017328142380467438 -0.031705395667704611 0 -0.0020274859641947252 -0.03088206357925808 0 -0.0011757216854167318 -0.030974605182307807 0 -0.0011757216854167318 -0.030974605182307807 0 -0.0006593172280216032 -0.032148144295933087 0 0.00078241133497260998 -0.030448625302117838 0 -0.00086584005382516285 -0.032015683631873695 0 0.00087622692741044436 -0.031667785600885623 0 -0.00045687154486727453 -0.032499718709959428 0 -0.0006593172280216032 -0.032148144295933087 0 -0.00062074232876163985 -0.032042323006109985 0 -0.00045687154486727453 -0.032499718709959428 0 -0.00057060647565400488 -0.032790961582193461 0 -0.0006593172280216032 -0.032148144295933087 0 -0.0012728749355777435 -0.032151583925364664 0 -0.0011757216854167318 -0.030974605182307807 0 -0.0006593172280216032 -0.032148144295933087 0 -0.00096249010117975835 -0.03251325866932013 0 -0.0016402895934051437 -0.032065285673192077 0 -0.0015021298929191686 -0.03222672381320775 0 -0.0016402895934051437 -0.032065285673192077 0 -0.0018995185365894241 -0.031929382679221803 0 -0.0015021298929191686 -0.03222672381320775 0 0.0058027102937251163 -0.032778258218459241 0 0.0057607549342674055 -0.033222898751559975 0 0.0061538923800458943 -0.032888157735626408 0 0.0024479691056492454 -0.032619827886802927 0 0.0022043036167714979 -0.032633031649677673 0 0.0058027102937251163 -0.032778258218459241 0 0.0057607549342674055 -0.033222898751559975 0 0.0053974251732509899 -0.033107855437396201 0 0.0057607549342674055 -0.033222898751559975 0 0.0053974251732509899 -0.033107855437396201 0 0.0053220693345108882 -0.033599096203296326 0 0.0022043036167714979 -0.032633031649677673 0 -0.0013723114744716594 -0.03110198838086008 0 -0.0016402895934051437 -0.032065285673192077 0 -0.0021563352611508623 -0.031635086421852081 0 -0.0018995185365894241 -0.031929382679221803 0 -0.0016402895934051437 -0.032065285673192077 0 -0.0021563352611508623 -0.031635086421852081 0 -0.0020971309653596316 -0.031783195650430869 0 -0.0021563352611508623 -0.031635086421852081 0 -0.0021458435732829365 -0.03165322826890208 0 -0.0018995185365894241 -0.031929382679221803 0 -0.0021563352611508623 -0.031635086421852081 0 -0.0021458435732829365 -0.03165322826890208 0 -0.0026382618674945556 -0.031100365466884293 0 -0.0020274859641947252 -0.03088206357925808 0 -0.0021458435732829365 -0.03165322826890208 0 -0.0026382618674945556 -0.031100365466884293 0 -0.0021458435732829365 -0.03165322826890208 0 -0.0018995185365894241 -0.031929382679221803 0 -0.0017657762759588716 -0.032158696546322182 0 -0.0016328895381951308 -0.032253219636933325 0 -0.0021458435732829365 -0.03165322826890208 0 -0.0017657762759588716 -0.032158696546322182 0 -0.0018995185365894241 -0.031929382679221803 0 -0.0017657762759588716 -0.032158696546322182 0 -0.0015021298929191686 -0.03222672381320775 0 -0.0017657762759588716 -0.032158696546322182 0 -0.0014982250199200348 -0.032209721352350736 0 -0.0015021298929191686 -0.03222672381320775 0 -0.0015575753678667256 -0.032349335262308127 0 -0.0014982250199200348 -0.032209721352350736 0 -0.0014706251930027762 -0.032155330566560489 0 -0.0015575753678667256 -0.032349335262308127 0 -0.0017657762759588716 -0.032158696546322182 0 -0.0014982250199200348 -0.032209721352350736 0 -0.0014982250199200348 -0.032209721352350736 0 -0.0010924756502239399 -0.03222477169736216 0 -0.0013091181404425024 -0.032005059285747102 0 -0.00096249010117975835 -0.03251325866932013 0 -0.0010924756502239399 -0.03222477169736216 0 -0.0015021298929191686 -0.03222672381320775 0 -0.0014982250199200348 -0.032209721352350736 0 -0.0010924756502239399 -0.03222477169736216 0 -0.0015021298929191686 -0.03222672381320775 0 -0.00096249010117975835 -0.03251325866932013 0 -0.0010924756502239399 -0.03222477169736216 0 -0.00040303514676286927 -0.03229848280792897 0 -0.0010924756502239399 -0.03222477169736216 0 -0.00040303514676286927 -0.03229848280792897 0 -3.1449682259905686e-05 -0.031841790821049237 0 -0.0010924756502239399 -0.03222477169736216 0 -0.00095661420526756537 -0.031718005693583941 0 -3.1449682259905686e-05 -0.031841790821049237 0 -0.0010924756502239399 -0.03222477169736216 0 -0.00095661420526756537 -0.031718005693583941 0 -0.0013091181404425024 -0.032005059285747102 0 0.0031898413632461464 -0.034539742662715575 0 0.00388269307495848 -0.034864308441006166 0 0.0071710086596368924 -0.03731016474504377 0 0.0089009685776329124 -0.03647485975852767 0 0.0083868873348500201 -0.037744788140529041 0 -0.0014706251930027762 -0.032155330566560489 0 -0.0013091181404425024 -0.032005059285747102 0 -0.0014373513140803942 -0.031975670691134057 0 -0.0014982250199200348 -0.032209721352350736 0 -0.0014706251930027762 -0.032155330566560489 0 -0.0013091181404425024 -0.032005059285747102 0 0.0031898413632461464 -0.034539742662715575 0 0.002053639934728695 -0.034132830086378262 0 -0.00095661420526756537 -0.031718005693583941 0 -0.0013091181404425024 -0.032005059285747102 0 -0.0013179196986593984 -0.031831582944182812 0 -0.0013091181404425024 -0.032005059285747102 0 -0.0014373513140803942 -0.031975670691134057 0 -0.0013179196986593984 -0.031831582944182812 0 0.0039063544970216121 -0.03594814614274635 0 0.0055785920834831972 -0.036696022932179495 0 0.0051756430085017364 -0.035530148446832548 0 -0.0014817438403062514 -0.03182872310433358 0 -0.0014373513140803942 -0.031975670691134057 0 -0.0013179196986593984 -0.031831582944182812 0 0.0014024769825040787 -0.034652965737887245 0 0.002053639934728695 -0.034132830086378262 0 0.0055785920834831972 -0.036696022932179495 0 0.0062074419039626584 -0.03499989697660337 0 0.0072385055619409505 -0.03603827285481967 0 0.0055785920834831972 -0.036696022932179495 0 0.0062074419039626584 -0.03499989697660337 0 0.0051756430085017364 -0.035530148446832548 0 0.0041185013341854242 -0.034999942051404026 0 0.0062074419039626584 -0.03499989697660337 0 0.0051756430085017364 -0.035530148446832548 0 0.0039063544970216121 -0.03594814614274635 0 0.0043703449455013187 -0.035510600527649809 0 0.0051756430085017364 -0.035530148446832548 0 0.0041185013341854242 -0.034999942051404026 0 0.0043703449455013187 -0.035510600527649809 0 0.0051756430085017364 -0.035530148446832548 0 0.0071710086596368924 -0.03731016474504377 0 0.0072385055619409505 -0.03603827285481967 0 0.0089009685776329124 -0.03647485975852767 0 0.0071710086596368924 -0.03731016474504377 0 0.0055785920834831972 -0.036696022932179495 0 0.0072385055619409505 -0.03603827285481967 0 0.0062074419039626584 -0.03499989697660337 0 0.0072385055619409505 -0.03603827285481967 0 0.0082961213661984709 -0.034999960031167961 0 0.0072385055619409505 -0.03603827285481967 0 0.0082961213661984709 -0.034999960031167961 0 0.0089009685776329124 -0.03647485975852767 0 0.0082961213661984709 -0.034999960031167961 0 0.0089009685776329124 -0.03647485975852767 0 0.010384773952825827 -0.034999774474380456 0 0.0089009685776329124 -0.03647485975852767 0 0.010150187240788637 -0.036343454194833515 0 0.0093875004266956337 -0.037497617698547987 0 0.0089009685776329124 -0.03647485975852767 0 0.010150187240788637 -0.036343454194833515 0 0.010384773952825827 -0.034999774474380456 0 0.010150187240788637 -0.036343454194833515 0 0.010384773952825827 -0.034999774474380456 0 0.011607551492276 -0.035863063639473669 0 0.010384773952825827 -0.034999774474380456 0 0.012474355238339176 -0.034999706493519328 0 0.011607551492276 -0.035863063639473669 0 0.012474355238339176 -0.034999706493519328 0 0.011607551492276 -0.035863063639473669 0 0.013395596684018097 -0.035825006229884514 0 0.013040761332385594 -0.036788239748130475 0 0.011607551492276 -0.035863063639473669 0 0.013395596684018097 -0.035825006229884514 0 0.013040761332385594 -0.036788239748130475 0 0.011607551492276 -0.035863063639473669 0 0.010615624996543638 -0.037100179702543021 0 0.010150187240788637 -0.036343454194833515 0 0.011607551492276 -0.035863063639473669 0 0.010615624996543638 -0.037100179702543021 0 0.013040761332385594 -0.036788239748130475 0 0.010615624996543638 -0.037100179702543021 0 0.011637570342453225 -0.038198051747914831 0 0.010615624996543638 -0.037100179702543021 0 0.011637570342453225 -0.038198051747914831 0 0.010305056702514906 -0.03965057194753567 0 0.013040761332385594 -0.036788239748130475 0 0.013488009257101689 -0.03700685507591199 0 0.013828559453739496 -0.037239945257659161 0 0.013031829626250397 -0.036871177369447956 0 0.012669976151625456 -0.037545670216192206 0 0.013040761332385594 -0.036788239748130475 0 0.013502154915351018 -0.036972169920895803 0 0.013488009257101689 -0.03700685507591199 0 0.013488009257101689 -0.03700685507591199 0 0.013743683491399998 -0.036982429219706722 0 0.013828559453739496 -0.037239945257659161 0 0.013488009257101689 -0.03700685507591199 0 0.013743683491399998 -0.036982429219706722 0 0.013555702894885233 -0.036981883176796147 0 0.013502154915351018 -0.036972169920895803 0 0.013555702894885233 -0.036981883176796147 0 0.01340974268251042 -0.037014033249004132 0 0.012669976151625456 -0.037545670216192206 0 0.0099335177649329497 -0.037088061909048571 0 0.013502154915351018 -0.036972169920895803 0 0.013488009257101689 -0.03700685507591199 0 0.013555702894885233 -0.036981883176796147 0 0.013743683491399998 -0.036982429219706722 0 0.013555702894885233 -0.036981883176796147 0 0.013505494673835921 -0.037051223127066643 0 0.013505494673835921 -0.037051223127066643 0 0.01340974268251042 -0.037014033249004132 0 0.013382563159332551 -0.037089144880471825 0 0.013555702894885233 -0.036981883176796147 0 0.013505494673835921 -0.037051223127066643 0 0.01340974268251042 -0.037014033249004132 0 0.0099335177649329497 -0.037088061909048571 0 0.0098879107272874835 -0.034889673742626144 0 0.0096271130663183012 -0.037982620468174577 0 0.0093875004266956337 -0.037497617698547987 0 0.0093082832050246592 -0.038096273851679519 0 0.0099335177649329497 -0.037088061909048571 0 0.0069330350632552619 -0.034302373863452675 0 0.0083868873348500201 -0.037744788140529041 0 0.0093875004266956337 -0.037497617698547987 0 0.0093082832050246592 -0.038096273851679519 0 0.00388269307495848 -0.034864308441006166 0 0.0069330350632552619 -0.034302373863452675 0 -0.00040303514676286927 -0.03229848280792897 0 -3.1449682259905686e-05 -0.031841790821049237 0 0.0012605119646123665 -0.032353043713257895 0 0.0089009685776329124 -0.03647485975852767 0 0.0083868873348500201 -0.037744788140529041 0 0.0093875004266956337 -0.037497617698547987 0 0.010492402099671326 -0.037839178926940407 0 0.0099335177649329497 -0.037088061909048571 0 0.010150187240788637 -0.036343454194833515 0 0.010615624996543638 -0.037100179702543021 0 0.0093875004266956337 -0.037497617698547987 0 0.010615624996543638 -0.037100179702543021 0 0.0096271130663183012 -0.037982620468174577 0 0.0093875004266956337 -0.037497617698547987 0 0.017443755155691406 -0.036070367727476613 0 0.016651927052043384 -0.034999726773756235 0 0.01566599473960565 -0.035806974893312755 0 0.016651927052043384 -0.034999726773756235 0 0.01566599473960565 -0.035806974893312755 0 0.014563174823758712 -0.034999847687182409 0 0.017443755155691406 -0.036070367727476613 0 0.01566599473960565 -0.035806974893312755 0 0.01622964282686477 -0.036796029081281663 0 0.01566599473960565 -0.035806974893312755 0 0.014441036838619857 -0.036366443264735905 0 0.01622964282686477 -0.036796029081281663 0 0.01566599473960565 -0.035806974893312755 0 0.014441036838619857 -0.036366443264735905 0 0.014563174823758712 -0.034999847687182409 0 0.014441036838619857 -0.036366443264735905 0 0.014563174823758712 -0.034999847687182409 0 0.013395596684018097 -0.035825006229884514 0 0.012474355238339176 -0.034999706493519328 0 0.014563174823758712 -0.034999847687182409 0 0.013395596684018097 -0.035825006229884514 0 0.013040761332385594 -0.036788239748130475 0 0.014441036838619857 -0.036366443264735905 0 0.013395596684018097 -0.035825006229884514 0 0.013040761332385594 -0.036788239748130475 0 0.014441036838619857 -0.036366443264735905 0 0.013828559453739496 -0.037239945257659161 0 0.013743683491399998 -0.036982429219706722 0 0.013828559453739496 -0.037239945257659161 0 0.013798163438468885 -0.036681301310849887 0 0.013828559453739496 -0.037239945257659161 0 0.013476592201989638 -0.036541035643242459 0 0.013798163438468885 -0.036681301310849887 0 0.013879213125716086 -0.037244785274972651 0 0.014477796713171639 -0.037527912787112851 0 0.013828559453739496 -0.037239945257659161 0 0.015289038908370691 -0.037376695511747014 0 0.015467085507074572 -0.038539336564999291 0 0.014441036838619857 -0.036366443264735905 0 0.015289038908370691 -0.037376695511747014 0 0.01622964282686477 -0.036796029081281663 0 0.014441036838619857 -0.036366443264735905 0 0.013828559453739496 -0.037239945257659161 0 0.015289038908370691 -0.037376695511747014 0 0.015289038908370691 -0.037376695511747014 0 0.01622964282686477 -0.036796029081281663 0 0.016823835563970099 -0.038009586742894688 0 0.015289038908370691 -0.037376695511747014 0 0.016823835563970099 -0.038009586742894688 0 0.015467085507074572 -0.038539336564999291 0 0.01622964282686477 -0.036796029081281663 0 0.016823835563970099 -0.038009586742894688 0 0.018264735381488487 -0.037375400165763857 0 0.017443755155691406 -0.036070367727476613 0 0.01622964282686477 -0.036796029081281663 0 0.018264735381488487 -0.037375400165763857 0 0.016823835563970099 -0.038009586742894688 0 0.016989244965987152 -0.039334680658737749 0 0.018408589769056048 -0.03878182439884411 0 0.015198060000156085 -0.037710042475349113 0 0.014477796713171639 -0.037527912787112851 0 0.016823835563970099 -0.038009586742894688 0 0.016989244965987152 -0.039334680658737749 0 0.015467085507074572 -0.038539336564999291 0 0.013467885024899101 -0.036077898927790807 0 0.013591573994683293 -0.036106964674456142 0 0.013476592201989638 -0.036541035643242459 0 0.013467885024899101 -0.036077898927790807 0 0.013591573994683293 -0.036106964674456142 0 0.013603409428317623 -0.035855050389361362 0 0.013591573994683293 -0.036106964674456142 0 0.013767823167850034 -0.036204871133015425 0 0.013720006402566411 -0.035900003420082018 0 0.013591573994683293 -0.036106964674456142 0 0.013476592201989638 -0.036541035643242459 0 0.013767823167850034 -0.036204871133015425 0 0.013476592201989638 -0.036541035643242459 0 0.013798163438468885 -0.036681301310849887 0 0.013767823167850034 -0.036204871133015425 0 0.013798163438468885 -0.036681301310849887 0 0.013767823167850034 -0.036204871133015425 0 0.013930752965072443 -0.036362570979167376 0 0.013767823167850034 -0.036204871133015425 0 0.01386699070699378 -0.035890183007067852 0 0.013966028418937246 -0.03609518337284353 0 0.013767823167850034 -0.036204871133015425 0 0.01386699070699378 -0.035890183007067852 0 0.013720006402566411 -0.035900003420082018 0 0.01386699070699378 -0.035890183007067852 0 0.013816782739587313 -0.035707160020158481 0 0.013720006402566411 -0.035900003420082018 0 0.01386699070699378 -0.035890183007067852 0 0.013816782739587313 -0.035707160020158481 0 0.013931164401215036 -0.035696726789476191 0 0.013891794567592153 -0.035540934241244708 0 0.013816782739587313 -0.035707160020158481 0 0.013931164401215036 -0.035696726789476191 0 0.013891794567592153 -0.035540934241244708 0 0.013931164401215036 -0.035696726789476191 0 0.013968034783859004 -0.035573774125484334 0 0.013891794567592153 -0.035540934241244708 0 0.013816782739587313 -0.035707160020158481 0 0.013796159890457944 -0.035554939100337496 0 0.013816782739587313 -0.035707160020158481 0 0.013796159890457944 -0.035554939100337496 0 0.013709645902771848 -0.035697307062410893 0 0.013796159890457944 -0.035554939100337496 0 0.013718665040290175 -0.035551309414662592 0 0.01377686360611235 -0.035443162661711047 0 0.013796159890457944 -0.035554939100337496 0 0.013718665040290175 -0.035551309414662592 0 0.013709645902771848 -0.035697307062410893 0 0.013718665040290175 -0.035551309414662592 0 0.013709645902771848 -0.035697307062410893 0 0.013647386015074649 -0.03562592933000043 0 0.013591573994683293 -0.036106964674456142 0 0.013720006402566411 -0.035900003420082018 0 0.013603409428317623 -0.035855050389361362 0 0.013709645902771848 -0.035697307062410893 0 0.013720006402566411 -0.035900003420082018 0 0.013603409428317623 -0.035855050389361362 0 0.013816782739587313 -0.035707160020158481 0 0.013709645902771848 -0.035697307062410893 0 0.013720006402566411 -0.035900003420082018 0 0.013467885024899101 -0.036077898927790807 0 0.013603409428317623 -0.035855050389361362 0 0.013571694215117508 -0.035762414270850446 0 0.013603409428317623 -0.035855050389361362 0 0.013647386015074649 -0.03562592933000043 0 0.013571694215117508 -0.035762414270850446 0 0.013709645902771848 -0.035697307062410893 0 0.013603409428317623 -0.035855050389361362 0 0.013647386015074649 -0.03562592933000043 0 0.013718665040290175 -0.035551309414662592 0 0.013647386015074649 -0.03562592933000043 0 0.013690260414099181 -0.03544345170669045 0 0.013647386015074649 -0.03562592933000043 0 0.013612022213777638 -0.035518952223576879 0 0.013690260414099181 -0.03544345170669045 0 0.013647386015074649 -0.03562592933000043 0 0.013612022213777638 -0.035518952223576879 0 0.013571694215117508 -0.035762414270850446 0 0.013612022213777638 -0.035518952223576879 0 0.013680170152602129 -0.035437508095925413 0 0.013571694215117508 -0.035762414270850446 0 0.013680170152602129 -0.035437508095925413 0 0.013571694215117508 -0.035762414270850446 0 0.013398516247164873 -0.035886044609277176 0 0.013612022213777638 -0.035518952223576879 0 0.013680170152602129 -0.035437508095925413 0 0.01357936655260329 -0.035388874446884551 0 0.015198060000156085 -0.037710042475349113 0 0.015939757807570076 -0.037853944655830404 0 0.013467885024899101 -0.036077898927790807 0 0.013571694215117508 -0.035762414270850446 0 0.013398516247164873 -0.035886044609277176 0 0.0064981494061566092 -0.032593328814666395 0 0.0061633021676263068 -0.032488930635817322 0 0.0061538923800458943 -0.032888157735626408 0 0.0024479691056492454 -0.032619827886802927 0 0.0028401983035399531 -0.032388128634614141 0 -0.00096249010117975835 -0.03251325866932013 0 -0.00040303514676286927 -0.03229848280792897 0 4.9876660828266668e-05 -0.032613788920909097 0 0.0058027102937251163 -0.032778258218459241 0 0.0061633021676263068 -0.032488930635817322 0 0.0061538923800458943 -0.032888157735626408 0 -0.00040303514676286927 -0.03229848280792897 0 4.9876660828266668e-05 -0.032613788920909097 0 0.0012605119646123665 -0.032353043713257895 0 0.011801697043019498 -0.034943991969277638 0 0.011761836728762695 -0.03521641270645192 0 0.011621154107139335 -0.035140645558486387 0 0.011818462056753914 -0.034162948141505702 0 0.0098879107272874835 -0.034889673742626144 0 0.0028401983035399531 -0.032388128634614141 0 0.0069330350632552619 -0.034302373863452675 0 0.0064981494061566092 -0.032593328814666395 0 0.0061633021676263068 -0.032488930635817322 0 0.0064814705279807082 -0.032217225238332634 0 0.0064981494061566092 -0.032593328814666395 0 0.0064814705279807082 -0.032217225238332634 0 0.0065491427483594612 -0.032253263389648359 0 0.0069330350632552619 -0.034302373863452675 0 0.0098879107272874835 -0.034889673742626144 0 0.0091104177041361565 -0.03607451011276129 0 0.010100784925244442 -0.034962796794642557 0 0.009308675843595687 -0.034543012446681634 0 0.0098879107272874835 -0.034889673742626144 0 0.013592091142756339 -0.036280487089617737 0 0.013505494673835921 -0.037051223127066643 0 0.013382563159332551 -0.037089144880471825 0 0.01351475661728027 -0.037182771358804857 0 0.013743683491399998 -0.036982429219706722 0 0.013505494673835921 -0.037051223127066643 0 0.01351475661728027 -0.037182771358804857 0 0.01376929462606654 -0.037051316795502179 0 0.013592091142756339 -0.036280487089617737 0 0.014226550308228147 -0.036446375308404041 0 0.01411749908699635 -0.036402941293084162 0 0.014243893524761964 -0.036198031817000952 0 0.014353626701537938 -0.036529676558064418 0 0.01411749908699635 -0.036402941293084162 0 0.013931364237428759 -0.036595874321255335 0 0.013592091142756339 -0.036280487089617737 0 0.014086495598757178 -0.036476653454229666 0 0.013743683491399998 -0.036982429219706722 0 0.013798163438468885 -0.036681301310849887 0 0.013931364237428759 -0.036595874321255335 0 0.013743683491399998 -0.036982429219706722 0 0.014353626701537938 -0.036529676558064418 0 0.013931364237428759 -0.036595874321255335 0 0.01411749908699635 -0.036402941293084162 0 0.013931364237428759 -0.036595874321255335 0 0.013930752965072443 -0.036362570979167376 0 0.013798163438468885 -0.036681301310849887 0 0.013931364237428759 -0.036595874321255335 0 0.013930752965072443 -0.036362570979167376 0 0.013767823167850034 -0.036204871133015425 0 0.013930752965072443 -0.036362570979167376 0 0.013966028418937246 -0.03609518337284353 0 0.013930752965072443 -0.036362570979167376 0 0.014085654722855197 -0.036194714037339461 0 0.013966028418937246 -0.03609518337284353 0 0.01411749908699635 -0.036402941293084162 0 0.013930752965072443 -0.036362570979167376 0 0.014085654722855197 -0.036194714037339461 0 0.014085654722855197 -0.036194714037339461 0 0.013966028418937246 -0.03609518337284353 0 0.014128392930170361 -0.035928514140582818 0 0.011818462056753914 -0.034162948141505702 0 0.013592091142756339 -0.036280487089617737 0 0.01444991320313232 -0.036138612478398807 0 0.014226550308228147 -0.036446375308404041 0 0.014243893524761964 -0.036198031817000952 0 0.01411749908699635 -0.036402941293084162 0 0.014085654722855197 -0.036194714037339461 0 0.014243893524761964 -0.036198031817000952 0 0.014085654722855197 -0.036194714037339461 0 0.014243893524761964 -0.036198031817000952 0 0.014128392930170361 -0.035928514140582818 0 0.014243893524761964 -0.036198031817000952 0 0.014279635136334694 -0.036001389886426684 0 0.014128392930170361 -0.035928514140582818 0 0.01444991320313232 -0.036138612478398807 0 0.014243893524761964 -0.036198031817000952 0 0.014279635136334694 -0.036001389886426684 0 0.014128392930170361 -0.035928514140582818 0 0.014286708666441406 -0.035822890857279875 0 0.014178887405422828 -0.035620818375897832 0 0.014279635136334694 -0.036001389886426684 0 0.014128392930170361 -0.035928514140582818 0 0.014286708666441406 -0.035822890857279875 0 0.014128392930170361 -0.035928514140582818 0 0.014047462689478991 -0.035660003279926439 0 0.014178887405422828 -0.035620818375897832 0 0.014128392930170361 -0.035928514140582818 0 0.013986088792957379 -0.035847633233088004 0 0.014047462689478991 -0.035660003279926439 0 0.01386699070699378 -0.035890183007067852 0 0.013966028418937246 -0.03609518337284353 0 0.013986088792957379 -0.035847633233088004 0 0.013966028418937246 -0.03609518337284353 0 0.014128392930170361 -0.035928514140582818 0 0.013986088792957379 -0.035847633233088004 0 0.01386699070699378 -0.035890183007067852 0 0.013986088792957379 -0.035847633233088004 0 0.013931164401215036 -0.035696726789476191 0 0.013986088792957379 -0.035847633233088004 0 0.013931164401215036 -0.035696726789476191 0 0.014047462689478991 -0.035660003279926439 0 0.013931164401215036 -0.035696726789476191 0 0.014047462689478991 -0.035660003279926439 0 0.013968034783859004 -0.035573774125484334 0 0.014047462689478991 -0.035660003279926439 0 0.013968034783859004 -0.035573774125484334 0 0.01403486609950423 -0.035493297912076026 0 0.014047462689478991 -0.035660003279926439 0 0.014111623738019032 -0.035505643442668933 0 0.01403486609950423 -0.035493297912076026 0 0.013968034783859004 -0.035573774125484334 0 0.013964581000639653 -0.035475443019039342 0 0.01403486609950423 -0.035493297912076026 0 0.013891794567592153 -0.035540934241244708 0 0.013968034783859004 -0.035573774125484334 0 0.013964581000639653 -0.035475443019039342 0 0.014047462689478991 -0.035660003279926439 0 0.014178887405422828 -0.035620818375897832 0 0.014111623738019032 -0.035505643442668933 0 0.014178887405422828 -0.035620818375897832 0 0.014111623738019032 -0.035505643442668933 0 0.014192550762415605 -0.035408175005411366 0 0.014178887405422828 -0.035620818375897832 0 0.014385502579670766 -0.035580716026584844 0 0.014192550762415605 -0.035408175005411366 0 0.014286708666441406 -0.035822890857279875 0 0.014178887405422828 -0.035620818375897832 0 0.014385502579670766 -0.035580716026584844 0 0.011818462056753914 -0.034162948141505702 0 0.0096998619317588703 -0.032899723234440036 0 0.01444991320313232 -0.036138612478398807 0 0.014279635136334694 -0.036001389886426684 0 0.014286708666441406 -0.035822890857279875 0 0.01444991320313232 -0.036138612478398807 0 0.014286708666441406 -0.035822890857279875 0 0.014385502579670766 -0.035580716026584844 0 0.014038295259438061 -0.032768055449342984 0 0.013978593604549422 -0.033851470658858206 0 0.013457057910160872 -0.033366143282960871 0 0.011818462056753914 -0.034162948141505702 0 0.014518701367709459 -0.034783167745234676 0 0.012705987633998867 -0.033998917380753432 0 0.013457057910160872 -0.033366143282960871 0 0.013406520300799569 -0.033900481639845277 0 0.0092036555955520901 -0.034254429045420143 0 0.0096998619317588703 -0.032899723234440036 0 0.013978593604549422 -0.033851470658858206 0 0.013457057910160872 -0.033366143282960871 0 0.013406520300799569 -0.033900481639845277 0 0.013978593604549422 -0.033851470658858206 0 0.013406520300799569 -0.033900481639845277 0 0.013445345879475063 -0.034403270798269749 0 0.012705987633998867 -0.033998917380753432 0 0.013406520300799569 -0.033900481639845277 0 0.013445345879475063 -0.034403270798269749 0 0.012705987633998867 -0.033998917380753432 0 0.013445345879475063 -0.034403270798269749 0 0.013080968614384677 -0.035153416433082584 0 0.013445345879475063 -0.034403270798269749 0 0.013080968614384677 -0.035153416433082584 0 0.013968502349306857 -0.035185756879402626 0 0.0098532479665653962 -0.020199513197333891 0 0.01065880838944579 -0.02062770510059889 0 0.011412146534444513 -0.020833222705378893 0 0.01221156205627512 -0.02760908915657594 0 0.012579795831925349 -0.028062726625237629 0 0.013080968614384677 -0.035153416433082584 0 0.014166990154879874 -0.035355298385388222 0 0.013968502349306857 -0.035185756879402626 0 0.01065880838944579 -0.02062770510059889 0 0.010235379007837022 -0.020752540394268573 0 0.010620978188906307 -0.02108878695470499 0 0.0098532479665653962 -0.020199513197333891 0 0.010235379007837022 -0.020752540394268573 0 0.0097179658434523777 -0.020386895998378021 0 0.0098532479665653962 -0.020199513197333891 0 0.01065880838944579 -0.02062770510059889 0 0.010235379007837022 -0.020752540394268573 0 0.010821127838257923 -0.020779905277468799 0 0.011920254910398408 -0.021057607092973083 0 0.01065880838944579 -0.02062770510059889 0 0.011412146534444513 -0.020833222705378893 0 0.012571438540699902 -0.021694684658156348 0 0.014166990154879874 -0.035355298385388222 0 0.013968502349306857 -0.035185756879402626 0 0.014140642355166455 -0.035307686075597478 0 0.014385502579670766 -0.035580716026584844 0 0.013968502349306857 -0.035185756879402626 0 0.014192550762415605 -0.035408175005411366 0 0.014518701367709459 -0.034783167745234676 0 0.01389457793677743 -0.035184007022865928 0 0.013968502349306857 -0.035185756879402626 0 0.014140642355166455 -0.035307686075597478 0 0.014192550762415605 -0.035408175005411366 0 0.013978593604549422 -0.033851470658858206 0 0.013445345879475063 -0.034403270798269749 0 0.013968502349306857 -0.035185756879402626 0 0.014111623738019032 -0.035505643442668933 0 0.014192550762415605 -0.035408175005411366 0 0.014118702534055113 -0.035390783961624227 0 0.014111623738019032 -0.035505643442668933 0 0.014118702534055113 -0.035390783961624227 0 0.01403486609950423 -0.035493297912076026 0 0.014118702534055113 -0.035390783961624227 0 0.014027104605292457 -0.035367067300711069 0 0.014113415939406045 -0.035310075260393127 0 0.014140642355166455 -0.035307686075597478 0 0.014192550762415605 -0.035408175005411366 0 0.014118702534055113 -0.035390783961624227 0 0.014140642355166455 -0.035307686075597478 0 0.014118702534055113 -0.035390783961624227 0 0.014113415939406045 -0.035310075260393127 0 0.013964581000639653 -0.035475443019039342 0 0.01403486609950423 -0.035493297912076026 0 0.014027104605292457 -0.035367067300711069 0 0.014118702534055113 -0.035390783961624227 0 0.01403486609950423 -0.035493297912076026 0 0.014027104605292457 -0.035367067300711069 0 0.013964581000639653 -0.035475443019039342 0 0.014027104605292457 -0.035367067300711069 0 0.013926609442258922 -0.035399325405655588 0 0.014027104605292457 -0.035367067300711069 0 0.013926609442258922 -0.035399325405655588 0 0.013933859000779902 -0.035319180024971426 0 0.014027104605292457 -0.035367067300711069 0 0.013979005060471233 -0.035241219200977121 0 0.014113415939406045 -0.035310075260393127 0 0.013979005060471233 -0.035241219200977121 0 0.014113415939406045 -0.035310075260393127 0 0.014074725587774095 -0.035182106330791475 0 0.014027104605292457 -0.035367067300711069 0 0.013979005060471233 -0.035241219200977121 0 0.013933859000779902 -0.035319180024971426 0 0.012579795831925349 -0.028062726625237629 0 0.013697719981593961 -0.028498672358150935 0 0.014166990154879874 -0.035355298385388222 0 0.014140642355166455 -0.035307686075597478 0 0.014113415939406045 -0.035310075260393127 0 0.011412146534444513 -0.020833222705378893 0 0.012571438540699902 -0.021694684658156348 0 0.013096270191326351 -0.021667878984871589 0 0.014166990154879874 -0.035355298385388222 0 0.014113415939406045 -0.035310075260393127 0 0.014074725587774095 -0.035182106330791475 0 0.011625182385947329 -0.021006741379452323 0 0.011394085733005755 -0.021391565389872243 0 0.011058179256151294 -0.021097611822754134 0 0.011625182385947329 -0.021006741379452323 0 0.011707357812045115 -0.021400244263976187 0 0.012006633966876113 -0.021421822017882248 0 0.011625182385947329 -0.021006741379452323 0 0.011707357812045115 -0.021400244263976187 0 0.011394085733005755 -0.021391565389872243 0 0.013697719981593961 -0.028498672358150935 0 0.013994421948542467 -0.028206444612160333 0 0.013096270191326351 -0.021667878984871589 0 0.014887160278258871 -0.022425315190560537 0 0.014649654223460843 -0.022704328991993646 0 0.011920254910398408 -0.021057607092973083 0 0.014163546312128031 -0.023778952343470668 0 0.012571438540699902 -0.021694684658156348 0 0.013096270191326351 -0.021667878984871589 0 0.014649654223460843 -0.022704328991993646 0 0.011625182385947329 -0.021006741379452323 0 0.012006633966876113 -0.021421822017882248 0 0.012585353347780208 -0.021380081739100755 0 0.013979005060471233 -0.035241219200977121 0 0.014074725587774095 -0.035182106330791475 0 0.013876958720605931 -0.035075307487554733 0 0.012187938845909577 -0.021824594654792414 0 0.011831106590886003 -0.02163925011055063 0 0.011654097005925828 -0.021912529419618198 0 0.014077755373505651 -0.020880788315372118 0 0.014366287534394406 -0.020747989039083429 0 0.014032628852453499 -0.021035601780252378 0 0.012006633966876113 -0.021421822017882248 0 0.012187938845909577 -0.021824594654792414 0 0.012585353347780208 -0.021380081739100755 0 0.013181816704714296 -0.021663646649551564 0 0.014163546312128031 -0.023778952343470668 0 0.012006633966876113 -0.021421822017882248 0 0.012187938845909577 -0.021824594654792414 0 0.011831106590886003 -0.02163925011055063 0 0.011707357812045115 -0.021400244263976187 0 0.011394085733005755 -0.021391565389872243 0 0.011611535747963047 -0.021612374784817086 0 0.011394085733005755 -0.021391565389872243 0 0.011611535747963047 -0.021612374784817086 0 0.011345963287594917 -0.021770482746423476 0 0.011707357812045115 -0.021400244263976187 0 0.012006633966876113 -0.021421822017882248 0 0.011831106590886003 -0.02163925011055063 0 0.011707357812045115 -0.021400244263976187 0 0.011831106590886003 -0.02163925011055063 0 0.011611535747963047 -0.021612374784817086 0 0.011831106590886003 -0.02163925011055063 0 0.011611535747963047 -0.021612374784817086 0 0.011654097005925828 -0.021912529419618198 0 0.011611535747963047 -0.021612374784817086 0 0.011654097005925828 -0.021912529419618198 0 0.011345963287594917 -0.021770482746423476 0 0.011654097005925828 -0.021912529419618198 0 0.011345963287594917 -0.021770482746423476 0 0.011481567089735075 -0.02213672323342189 0 0.011345963287594917 -0.021770482746423476 0 0.010943614301806197 -0.021898384646914678 0 0.011481567089735075 -0.02213672323342189 0 0.011394085733005755 -0.021391565389872243 0 0.011345963287594917 -0.021770482746423476 0 0.010967126373267581 -0.021452813995775484 0 0.011345963287594917 -0.021770482746423476 0 0.010943614301806197 -0.021898384646914678 0 0.010967126373267581 -0.021452813995775484 0 0.0096451443280372272 -0.020269177836463741 0 0.0096874106016787472 -0.020234139969578253 0 0.0096640237250918189 -0.020221523083028811 0 0.010943614301806197 -0.021898384646914678 0 0.010245325012982963 -0.021478817868786096 0 0.010967126373267581 -0.021452813995775484 0 0.0099430711498472747 -0.020848260541739754 0 0.010089351495378538 -0.021241664617054831 0 0.010943614301806197 -0.021898384646914678 0 0.010245325012982963 -0.021478817868786096 0 0.010589457102877793 -0.022164190448181499 0 0.010245325012982963 -0.021478817868786096 0 0.010620978188906307 -0.02108878695470499 0 0.010967126373267581 -0.021452813995775484 0 0.010235379007837022 -0.020752540394268573 0 0.010245325012982963 -0.021478817868786096 0 0.0097179658434523777 -0.020386895998378021 0 0.010235379007837022 -0.020752540394268573 0 0.010245325012982963 -0.021478817868786096 0 0.010620978188906307 -0.02108878695470499 0 0.01065880838944579 -0.02062770510059889 0 0.011625182385947329 -0.021006741379452323 0 0.011058179256151294 -0.021097611822754134 0 0.01065880838944579 -0.02062770510059889 0 0.010620978188906307 -0.02108878695470499 0 0.011058179256151294 -0.021097611822754134 0 0.011394085733005755 -0.021391565389872243 0 0.011058179256151294 -0.021097611822754134 0 0.010967126373267581 -0.021452813995775484 0 0.010620978188906307 -0.02108878695470499 0 0.011058179256151294 -0.021097611822754134 0 0.010967126373267581 -0.021452813995775484 0 0.014262008367043824 -0.033684661602688945 0 0.0139366423946386 -0.034428002407640365 0 0.015069333768628177 -0.034188098290744783 0 0.014262008367043824 -0.033684661602688945 0 0.015069333768628177 -0.034188098290744783 0 0.015052618854757702 -0.033103850609518884 0 0.013680170152602129 -0.035437508095925413 0 0.0139366423946386 -0.034428002407640365 0 0.015069333768628177 -0.034188098290744783 0 0.01391296485349356 -0.035125381376058959 0 0.013799378116428174 -0.03519740848343679 0 0.013680170152602129 -0.035437508095925413 0 0.01357936655260329 -0.035388874446884551 0 0.013376452478883248 -0.035134266629574154 0 0.013719332930362725 -0.03530990894538874 0 0.01357936655260329 -0.035388874446884551 0 0.013690260414099181 -0.03544345170669045 0 0.013719332930362725 -0.03530990894538874 0 0.01357936655260329 -0.035388874446884551 0 0.013376452478883248 -0.035134266629574154 0 0.013612022213777638 -0.035518952223576879 0 0.01357936655260329 -0.035388874446884551 0 0.013690260414099181 -0.03544345170669045 0 0.013719332930362725 -0.03530990894538874 0 0.013690260414099181 -0.03544345170669045 0 0.013777429289559931 -0.035343997672755 0 0.013888594220836012 -0.035124351332468905 0 0.014599155814893445 -0.034645986930044163 0 0.013719332930362725 -0.03530990894538874 0 0.013837317445416358 -0.035046174651321142 0 0.013777429289559931 -0.035343997672755 0 0.015069333768628177 -0.034188098290744783 0 0.016094125506602698 -0.032836068074811868 0 0.015052618854757702 -0.033103850609518884 0 0.013799378116428174 -0.03519740848343679 0 0.017653637649782148 -0.029937671116302758 0 0.013376452478883248 -0.035134266629574154 0 0.015618467754968373 -0.033621617220494532 0 0.015311468809222264 -0.03206968190508324 0 0.013719332930362725 -0.03530990894538874 0 0.013376452478883248 -0.035134266629574154 0 0.015618467754968373 -0.033621617220494532 0 0.013782152823742981 -0.035268480648434027 0 0.013777429289559931 -0.035343997672755 0 0.01380759215744456 -0.035356786242324738 0 0.013782152823742981 -0.035268480648434027 0 0.01380759215744456 -0.035356786242324738 0 0.013827815524525656 -0.035303504809101646 0 0.013660670193405049 -0.035364378180630693 0 0.013850816437472286 -0.035244912689411642 0 0.013837317445416358 -0.035046174651321142 0 0.014029117476083893 -0.035109058009906949 0 0.013777429289559931 -0.035343997672755 0 0.013777429289559931 -0.035343997672755 0 0.01377686360611235 -0.035443162661711047 0 0.01380759215744456 -0.035356786242324738 0 0.013690260414099181 -0.03544345170669045 0 0.013777429289559931 -0.035343997672755 0 0.01377686360611235 -0.035443162661711047 0 0.013718665040290175 -0.035551309414662592 0 0.013690260414099181 -0.03544345170669045 0 0.01377686360611235 -0.035443162661711047 0 0.013796159890457944 -0.035554939100337496 0 0.01377686360611235 -0.035443162661711047 0 0.013847776108609175 -0.035444037573533052 0 0.01377686360611235 -0.035443162661711047 0 0.01380759215744456 -0.035356786242324738 0 0.013847776108609175 -0.035444037573533052 0 0.01380759215744456 -0.035356786242324738 0 0.013870411062901034 -0.035363853808864788 0 0.013847776108609175 -0.035444037573533052 0 0.013891794567592153 -0.035540934241244708 0 0.013796159890457944 -0.035554939100337496 0 0.013847776108609175 -0.035444037573533052 0 0.013891794567592153 -0.035540934241244708 0 0.013847776108609175 -0.035444037573533052 0 0.013926609442258922 -0.035399325405655588 0 0.013891794567592153 -0.035540934241244708 0 0.013964581000639653 -0.035475443019039342 0 0.013926609442258922 -0.035399325405655588 0 0.013870411062901034 -0.035363853808864788 0 0.013926609442258922 -0.035399325405655588 0 0.013933859000779902 -0.035319180024971426 0 0.013870411062901034 -0.035363853808864788 0 0.013847776108609175 -0.035444037573533052 0 0.013926609442258922 -0.035399325405655588 0 0.013979005060471233 -0.035241219200977121 0 0.013933859000779902 -0.035319180024971426 0 0.013902840508230419 -0.03525231549919236 0 0.013933859000779902 -0.035319180024971426 0 0.013873749597224445 -0.035298711275620356 0 0.013902840508230419 -0.03525231549919236 0 0.013870411062901034 -0.035363853808864788 0 0.013933859000779902 -0.035319180024971426 0 0.013873749597224445 -0.035298711275620356 0 0.013870411062901034 -0.035363853808864788 0 0.013827815524525656 -0.035303504809101646 0 0.013873749597224445 -0.035298711275620356 0 0.01380759215744456 -0.035356786242324738 0 0.013870411062901034 -0.035363853808864788 0 0.013827815524525656 -0.035303504809101646 0 0.013827815524525656 -0.035303504809101646 0 0.013873749597224445 -0.035298711275620356 0 0.013841748737048189 -0.035236105678905408 0 0.013782152823742981 -0.035268480648434027 0 0.013841748737048189 -0.035236105678905408 0 0.01385174866763419 -0.035112099257016027 0 0.013873749597224445 -0.035298711275620356 0 0.013841748737048189 -0.035236105678905408 0 0.013902840508230419 -0.03525231549919236 0 0.013841748737048189 -0.035236105678905408 0 0.013902840508230419 -0.03525231549919236 0 0.013876210111692567 -0.03516228904575782 0 0.013782152823742981 -0.035268480648434027 0 0.013827815524525656 -0.035303504809101646 0 0.013841748737048189 -0.035236105678905408 0 0.013979005060471233 -0.035241219200977121 0 0.013902840508230419 -0.03525231549919236 0 0.013876210111692567 -0.03516228904575782 0 0.013979005060471233 -0.035241219200977121 0 0.013876210111692567 -0.03516228904575782 0 0.013876958720605931 -0.035075307487554733 0 0.014029117476083893 -0.035109058009906949 0 0.014380376933288801 -0.034634510349487176 0 0.014310657256926361 -0.034499500560168109 0 0.013660670193405049 -0.035364378180630693 0 0.013893051167173166 -0.03217816823286683 0 0.013841748737048189 -0.035236105678905408 0 0.013876210111692567 -0.03516228904575782 0 0.01385174866763419 -0.035112099257016027 0 0.013876210111692567 -0.03516228904575782 0 0.013852726802149048 -0.035105376941812393 0 0.013876958720605931 -0.035075307487554733 0 0.014346815714103267 -0.033718600459830259 0 0.013893051167173166 -0.03217816823286683 0 0.013893051167173166 -0.03217816823286683 0 0.013994421948542467 -0.028206444612160333 0 0.014193631003117773 -0.028201785373639651 0 0.013510417765170691 -0.029039835325840993 0 0.014768075171087709 -0.029329070442232884 0 0.014429296489077287 -0.026666953628555597 0 0.014104436072880909 -0.026596610883394583 0 0.014452162335327283 -0.026271597929121201 0 0.013994421948542467 -0.028206444612160333 0 0.014595603163861834 -0.029078354269654785 0 0.013893051167173166 -0.03217816823286683 0 0.014595603163861834 -0.029078354269654785 0 0.017811697860589372 -0.031612186455308229 0 0.017316135193614426 -0.03056589988150878 0 0.01674797079930037 -0.031460530206912023 0 0.014595603163861834 -0.029078354269654785 0 0.016497718598271843 -0.023991937173521632 0 0.014595603163861834 -0.029078354269654785 0 0.014905934486974758 -0.024129205499494821 0 0.014905934486974758 -0.024129205499494821 0 0.016497718598271843 -0.023991937173521632 0 0.015548845761906576 -0.024765103968993431 0 0.015304440817039666 -0.024980766815251722 0 0.015744517885673888 -0.025135265095895393 0 0.014372189875179226 -0.020733168815150173 0 0.014366287534394406 -0.020747989039083429 0 0.014292707727505056 -0.020737568262108413 0 0.014429296489077287 -0.026666953628555597 0 0.014452162335327283 -0.026271597929121201 0 0.014679364020324468 -0.026350860477059042 0 0.014905934486974758 -0.024129205499494821 0 0.014163546312128031 -0.023778952343470668 0 0.013994421948542467 -0.028206444612160333 0 0.014163546312128031 -0.023778952343470668 0 0.014077755373505651 -0.020880788315372118 0 0.014372189875179226 -0.020733168815150173 0 0.014366287534394406 -0.020747989039083429 0 0.014366287534394406 -0.020747989039083429 0 0.014387913044812323 -0.020585471871046424 0 0.014571494960318043 -0.020438039270351153 0 0.014387913044812323 -0.020585471871046424 0 0.014254053823800688 -0.02066043019599809 0 0.014470517275975899 -0.020341939829763633 0 0.013181816704714296 -0.021663646649551564 0 0.014905934486974758 -0.024129205499494821 0 0.014364652943444663 -0.020738639887026688 0 0.014287299582483606 -0.020727555498294917 0 0.01418756594629194 -0.02264616240156718 0 0.013633940640059546 -0.023190343831468719 0 0.013750330222542269 -0.023231132385762909 0 0.014387913044812323 -0.020585471871046424 0 0.014292707727505056 -0.020737568262108413 0 0.014254053823800688 -0.02066043019599809 0 0.014366287534394406 -0.020747989039083429 0 0.014387913044812323 -0.020585471871046424 0 0.014292707727505056 -0.020737568262108413 0 0.017182352749230943 -0.022891511197297317 0 0.016959727363389659 -0.022806397882861072 0 0.017069057198186664 -0.022657874427042458 0 0.016497718598271843 -0.023991937173521632 0 0.017284076069130076 -0.020686335453302309 0 0.018846916345061231 -0.02219869218576263 0 0.022973422596448776 -0.019678670079384442 0 0.016497718598271843 -0.023991937173521632 0 0.018846916345061231 -0.02219869218576263 0 0.021756159330662782 -0.019658416233740875 0 0.021696829122441658 -0.019726206011099381 0 0.021836251280689133 -0.019805417967290177 0 0.018846916345061231 -0.02219869218576263 0 0.017284076069130076 -0.020686335453302309 0 0.021696829122441658 -0.019726206011099381 0 0.021836251280689133 -0.019805417967290177 0 0.021840955127917918 -0.020007530027119136 0 0.017284076069130076 -0.020686335453302309 0 0.0196648521294834 -0.017981795591737147 0 0.021836251280689133 -0.019805417967290177 0 0.02205052370493658 -0.019829124892983337 0 0.021840955127917918 -0.020007530027119136 0 0.021756159330662782 -0.019658416233740875 0 0.021836251280689133 -0.019805417967290177 0 0.02205052370493658 -0.019829124892983337 0 0.018846916345061231 -0.02219869218576263 0 0.017653637649782148 -0.029937671116302758 0 0.021978655146117378 -0.019887494966251255 0 0.022019043446197838 -0.019850963608422985 0 0.022070732034849605 -0.019840062363763296 0 0.01647683337513128 -0.030251922562962639 0 0.015247345144007121 -0.031907822448841029 0 0.01674797079930037 -0.031460530206912023 0 0.017811697860589372 -0.031612186455308229 0 0.01674797079930037 -0.031460530206912023 0 0.016344441315693493 -0.032466673232446265 0 0.017316135193614426 -0.03056589988150878 0 0.01647683337513128 -0.030251922562962639 0 0.01674797079930037 -0.031460530206912023 0 0.014599155814893445 -0.034645986930044163 0 0.014595603163861834 -0.029078354269654785 0 0.015247345144007121 -0.031907822448841029 0 0.01674797079930037 -0.031460530206912023 0 0.016344441315693493 -0.032466673232446265 0 0.013837317445416358 -0.035046174651321142 0 0.014029117476083893 -0.035109058009906949 0 0.014310657256926361 -0.034499500560168109 0 0.015618467754968373 -0.033621617220494532 0 0.017811697860589372 -0.031612186455308229 0 0.016344441315693493 -0.032466673232446265 0 0.015618467754968373 -0.033621617220494532 0 0.015311468809222264 -0.03206968190508324 0 0.016344441315693493 -0.032466673232446265 0 0.017653637649782148 -0.029937671116302758 0 0.016748719871655184 -0.030876587317994815 0 0.017653637649782148 -0.029937671116302758 0 0.018678189789555856 -0.025514309741471553 0 0.016094125506602698 -0.032836068074811868 0 0.015052618854757702 -0.033103850609518884 0 0.014670175697680372 -0.032159098827960371 0 0.022019043446197838 -0.019850963608422985 0 0.022070732034849605 -0.019840062363763296 0 0.022165857524947929 -0.019796773879324207 0 0.021978655146117378 -0.019887494966251255 0 0.022070732034849605 -0.019840062363763296 0 0.022123762239344365 -0.019821281075544615 0 0.022070732034849605 -0.019840062363763296 0 0.022123762239344365 -0.019821281075544615 0 0.022165857524947929 -0.019796773879324207 0 0.021756159330662782 -0.019658416233740875 0 0.02205052370493658 -0.019829124892983337 0 0.022123762239344365 -0.019821281075544615 0 0.02205052370493658 -0.019829124892983337 0 0.022123762239344365 -0.019821281075544615 0 0.022112982822225472 -0.0198379131580853 0 0.022123762239344365 -0.019821281075544615 0 0.022173985718045457 -0.019832737906775203 0 0.022112982822225472 -0.0198379131580853 0 0.022123762239344365 -0.019821281075544615 0 0.022165857524947929 -0.019796773879324207 0 0.022173985718045457 -0.019832737906775203 0 0.022165857524947929 -0.019796773879324207 0 0.022274082081501001 -0.01983691003673 0 0.022173985718045457 -0.019832737906775203 0 0.015052618854757702 -0.033103850609518884 0 0.014670175697680372 -0.032159098827960371 0 0.013553565648467122 -0.032900291656599488 0 0.014262008367043824 -0.033684661602688945 0 0.015052618854757702 -0.033103850609518884 0 0.013553565648467122 -0.032900291656599488 0 0.022220226050418856 -0.019845595572119529 0 0.022160628034131404 -0.019852336672334055 0 0.022274606725476542 -0.01984114497238431 0 0.022220226050418856 -0.019845595572119529 0 0.022274082081501001 -0.01983691003673 0 0.022274606725476542 -0.01984114497238431 0 0.022220226050418856 -0.019845595572119529 0 0.022274082081501001 -0.01983691003673 0 0.022173985718045457 -0.019832737906775203 0 0.022220226050418856 -0.019845595572119529 0 0.022173985718045457 -0.019832737906775203 0 0.022155974682393789 -0.01984119416128434 0 0.022155974682393789 -0.01984119416128434 0 0.022160628034131404 -0.019852336672334055 0 0.02207549660442713 -0.01982720182180886 0 0.022155974682393789 -0.01984119416128434 0 0.022112982822225472 -0.0198379131580853 0 0.02207549660442713 -0.01982720182180886 0 0.022173985718045457 -0.019832737906775203 0 0.022155974682393789 -0.01984119416128434 0 0.022112982822225472 -0.0198379131580853 0 0.02205052370493658 -0.019829124892983337 0 0.022112982822225472 -0.0198379131580853 0 0.02207549660442713 -0.01982720182180886 0 0.020868999000259243 -0.017339223109534684 0 0.0196648521294834 -0.017981795591737147 0 0.022220226050418856 -0.019845595572119529 0 0.022155974682393789 -0.01984119416128434 0 0.022160628034131404 -0.019852336672334055 0 0.019494667629739698 -0.015266296137858485 0 0.018458179839421468 -0.014917541567427214 0 0.018625788072904152 -0.013628457000982598 0 0.018458179839421468 -0.014917541567427214 0 0.018625788072904152 -0.013628457000982598 0 0.017191455431508337 -0.014901658397776687 0 0.0196648521294834 -0.017981795591737147 0 0.016582747262526211 -0.0165331034094553 0 0.021739997627344947 -0.019413074698932626 0 0.0196648521294834 -0.017981795591737147 0 0.017284076069130076 -0.020686335453302309 0 0.015154379668199984 -0.019224000657299688 0 0.014387913044812323 -0.020585471871046424 0 0.014470517275975899 -0.020341939829763633 0 0.014571494960318043 -0.020438039270351153 0 0.016841580681965781 -0.018332080425980037 0 0.016378307358361443 -0.018450990058638726 0 0.016475150027981379 -0.018641795599594974 0 0.01670833189245392 -0.018089754588410181 0 0.016841580681965781 -0.018332080425980037 0 0.016378307358361443 -0.018450990058638726 0 0.017191455431508337 -0.014901658397776687 0 0.017011344082887927 -0.017181821513087135 0 0.018746681470450732 -0.016518108608648528 0 0.017011344082887927 -0.017181821513087135 0 0.018746681470450732 -0.016518108608648528 0 0.01871913182264634 -0.018417557200386941 0 0.019494667629739698 -0.015266296137858485 0 0.018458179839421468 -0.014917541567427214 0 0.018746681470450732 -0.016518108608648528 0 0.018458179839421468 -0.014917541567427214 0 0.017191455431508337 -0.014901658397776687 0 0.018746681470450732 -0.016518108608648528 0 0.020868999000259243 -0.017339223109534684 0 0.02133164418310747 -0.018477539856261497 0 0.019494667629739698 -0.015266296137858485 0 0.018746681470450732 -0.016518108608648528 0 0.020434397970575113 -0.016986181211979021 0 0.018746681470450732 -0.016518108608648528 0 0.020434397970575113 -0.016986181211979021 0 0.020033337946161901 -0.018216109501845625 0 0.018746681470450732 -0.016518108608648528 0 0.020033337946161901 -0.018216109501845625 0 0.01871913182264634 -0.018417557200386941 0 0.022160628034131404 -0.019852336672334055 0 0.022225940005309842 -0.019882544302048281 0 0.022274606725476542 -0.01984114497238431 0 0.012728697929793514 -0.02195801107305902 0 0.01180124012387755 -0.020693438348505181 0 0.010861228939234366 -0.021255913369047304 0 0.011360950138500825 -0.022709762174122686 0 0.01107687662490685 -0.022660986121243253 0 0.011486282150453027 -0.02237155524924761 0 0.011604239528690842 -0.022429146406866527 0 0.01107687662490685 -0.022660986121243253 0 0.011604239528690842 -0.022429146406866527 0 0.011168669699170724 -0.022900899716242401 0 0.010861228939234366 -0.021255913369047304 0 0.010089351495378538 -0.021241664617054831 0 0.0097081421895010289 -0.020217083646617409 0 0.0097150623594057239 -0.020220313779068032 0 0.0096874106016787472 -0.020234139969578253 0 0.0097081421895010289 -0.020217083646617409 0 0.0097545276186869548 -0.020203527071864066 0 0.0097150623594057239 -0.020220313779068032 0 0.0097150623594057239 -0.020220313779068032 0 0.0096874106016787472 -0.020234139969578253 0 0.0096640237250918189 -0.020221523083028811 0 0.010856302908260083 -0.022905854140814294 0 0.010989051282807666 -0.022293657256990791 0 0.011481567089735075 -0.02213672323342189 0 0.010943614301806197 -0.021898384646914678 0 0.010589457102877793 -0.022164190448181499 0 0.010989051282807666 -0.022293657256990791 0 0.01107687662490685 -0.022660986121243253 0 0.011486282150453027 -0.02237155524924761 0 0.011481567089735075 -0.02213672323342189 0 0.010856302908260083 -0.022905854140814294 0 0.010589457102877793 -0.022164190448181499 0 0.010989051282807666 -0.022293657256990791 0 0.010943614301806197 -0.021898384646914678 0 0.010989051282807666 -0.022293657256990791 0 0.011481567089735075 -0.02213672323342189 0 0.012187938845909577 -0.021824594654792414 0 0.011654097005925828 -0.021912529419618198 0 0.011486282150453027 -0.02237155524924761 0 0.012224238472685754 -0.02171783214428823 0 0.011486282150453027 -0.02237155524924761 0 0.011604239528690842 -0.022429146406866527 0 0.013181816704714296 -0.021663646649551564 0 0.011161634031604162 -0.022463438997195273 0 0.011654097005925828 -0.021912529419618198 0 0.011486282150453027 -0.02237155524924761 0 0.011481567089735075 -0.02213672323342189 0 0.013181816704714296 -0.021663646649551564 0 0.012728697929793514 -0.02195801107305902 0 0.014077755373505651 -0.020880788315372118 0 0.014032628852453499 -0.021035601780252378 0 0.013768295342830025 -0.021151038470728245 0 0.014470517275975899 -0.020341939829763633 0 0.014571494960318043 -0.020438039270351153 0 0.014722659532421883 -0.020156828054362693 0 0.014287299582483606 -0.020727555498294917 0 0.014397014728977472 -0.02078938484348564 0 0.016378307358361443 -0.018450990058638726 0 0.016475150027981379 -0.018641795599594974 0 0.015993932769911724 -0.018855530690364327 0 0.015154379668199984 -0.019224000657299688 0 0.015519968598690216 -0.019533697154329774 0 0.014470517275975899 -0.020341939829763633 0 0.014722659532421883 -0.020156828054362693 0 0.014661963474189759 -0.020067552013866365 0 0.013777618233977003 -0.021282670297320994 0 0.013768295342830025 -0.021151038470728245 0 0.013555775242509232 -0.021366736444928907 0 0.014032628852453499 -0.021035601780252378 0 0.013777618233977003 -0.021282670297320994 0 0.013768295342830025 -0.021151038470728245 0 0.014722659532421883 -0.020156828054362693 0 0.014661963474189759 -0.020067552013866365 0 0.014845382425808242 -0.019915525381983362 0 0.014397014728977472 -0.02078938484348564 0 0.013045995251385981 -0.020039565494132165 0 0.015993932769911724 -0.018855530690364327 0 0.016055388695199985 -0.018989750910104894 0 0.015566986636675302 -0.01931867658006679 0 0.017191455431508337 -0.014901658397776687 0 0.017011344082887927 -0.017181821513087135 0 0.015704244891613161 -0.016199728717115933 0 0.016475150027981379 -0.018641795599594974 0 0.015993932769911724 -0.018855530690364327 0 0.016055388695199985 -0.018989750910104894 0 0.016582747262526211 -0.0165331034094553 0 0.015984031513047458 -0.017645088042212691 0 0.017011344082887927 -0.017181821513087135 0 0.015704244891613161 -0.016199728717115933 0 0.015586395034474058 -0.017865650786395019 0 0.015519968598690216 -0.019533697154329774 0 0.014090993033393591 -0.0190722072127145 0 0.014661963474189759 -0.020067552013866365 0 0.014813283842211091 -0.019828159774785269 0 0.014845382425808242 -0.019915525381983362 0 0.015704244891613161 -0.016199728717115933 0 0.014178259812794336 -0.017546654684174021 0 0.015586395034474058 -0.017865650786395019 0 0.015984031513047458 -0.017645088042212691 0 0.014351107879860318 -0.018183713569889657 0 0.016055388695199985 -0.018989750910104894 0 0.015584024246750214 -0.019370445893454623 0 0.015566986636675302 -0.01931867658006679 0 0.011811022413170693 -0.019769416444425522 0 0.011724454458535597 -0.019508754082592242 0 0.011420841059208557 -0.019934695461715422 0 0.013806444127868179 -0.017324598936258376 0 0.013732723010664265 -0.017108600445037796 0 0.013608539842921522 -0.017506393018868378 0 0.014351107879860318 -0.018183713569889657 0 0.014090993033393591 -0.0190722072127145 0 0.014351107879860318 -0.018183713569889657 0 0.014298606345203684 -0.018120326100895277 0 0.013045995251385981 -0.020039565494132165 0 0.011438131021059381 -0.019988292695715046 0 0.011700163659525436 -0.01951549173935143 0 0.011227893895504602 -0.019542698287620387 0 0.011420841059208557 -0.019934695461715422 0 0.014090993033393591 -0.0190722072127145 0 0.013045995251385981 -0.020039565494132165 0 0.013777618233977003 -0.021282670297320994 0 0.013598051001192409 -0.021485573257094631 0 0.013555775242509232 -0.021366736444928907 0 0.013045995251385981 -0.020039565494132165 0 0.01180124012387755 -0.020693438348505181 0 0.011700163659525436 -0.01951549173935143 0 0.011568659431018704 -0.019151202647107613 0 0.011227893895504602 -0.019542698287620387 0 0.01180124012387755 -0.020693438348505181 0 0.01145908325890743 -0.01923581872395197 0 0.010861228939234366 -0.021255913369047304 0 0.01180124012387755 -0.020693438348505181 0 0.010861228939234366 -0.021255913369047304 0 0.010434639981046141 -0.019515896221409992 0 0.0097081421895010289 -0.020217083646617409 0 0.0097545276186869548 -0.020203527071864066 0 0.0097912438155333976 -0.020155502723356537 0 0.01139019362553205 -0.018997493587404907 0 0.011476651454234578 -0.019225079182745467 0 0.010994117618786482 -0.019398302594314687 0 0.011476651454234578 -0.019225079182745467 0 0.010994117618786482 -0.019398302594314687 0 0.011227893895504602 -0.019542698287620387 0 0.010994117618786482 -0.019398302594314687 0 0.011227893895504602 -0.019542698287620387 0 0.011031034593287734 -0.019766647669716666 0 0.011227893895504602 -0.019542698287620387 0 0.011031034593287734 -0.019766647669716666 0 0.011420841059208557 -0.019934695461715422 0 0.0097912438155333976 -0.020155502723356537 0 0.0099522578067764607 -0.020160945602206104 0 0.010262737527233869 -0.020148235474578221 0 0.010994117618786482 -0.019398302594314687 0 0.011031034593287734 -0.019766647669716666 0 0.010262737527233869 -0.020148235474578221 0 0.010434639981046141 -0.019515896221409992 0 0.010198820362619545 -0.020237615594718105 0 0.0099522578067764607 -0.020160945602206104 0 0.0098096148379413321 -0.020214417405489807 0 0.0097758143675653452 -0.020167518654254334 0 0.0099522578067764607 -0.020160945602206104 0 0.0098096148379413321 -0.020214417405489807 0 0.010262737527233869 -0.020148235474578221 0 0.0097758143675653452 -0.020167518654254334 0 0.0098187405342948595 -0.02018955931555827 0 0.0097390198333516548 -0.020201445303358909 0 0.0097912438155333976 -0.020155502723356537 0 0.0099522578067764607 -0.020160945602206104 0 0.0098187405342948595 -0.02018955931555827 0 0.0099522578067764607 -0.020160945602206104 0 0.0097758143675653452 -0.020167518654254334 0 0.0098187405342948595 -0.02018955931555827 0 0.0097545276186869548 -0.020203527071864066 0 0.0097912438155333976 -0.020155502723356537 0 0.0098187405342948595 -0.02018955931555827 0 0.0097545276186869548 -0.020203527071864066 0 0.0098187405342948595 -0.02018955931555827 0 0.0097390198333516548 -0.020201445303358909 0 0.0097390198333516548 -0.020201445303358909 0 0.0096424625370669717 -0.020186991416905598 0 0.0096640237250918189 -0.020221523083028811 0 0.0097545276186869548 -0.020203527071864066 0 0.0097150623594057239 -0.020220313779068032 0 0.0097390198333516548 -0.020201445303358909 0 0.0097150623594057239 -0.020220313779068032 0 0.0097390198333516548 -0.020201445303358909 0 0.0096640237250918189 -0.020221523083028811 0 0.0097758143675653452 -0.020167518654254334 0 0.0096424625370669717 -0.020186991416905598 0 0.009541680314627099 -0.020171738671891121 0 0.0097758143675653452 -0.020167518654254334 0 0.0097390198333516548 -0.020201445303358909 0 0.0096424625370669717 -0.020186991416905598 0 0.0096424625370669717 -0.020186991416905598 0 0.0096640237250918189 -0.020221523083028811 0 0.0095888723291645585 -0.020211140157573197 0 0.0094821727053977112 -0.020179266034544997 0 0.0092983970753844573 -0.020177531897515727 0 0.0093191511133727829 -0.02015308703875645 0 0.0096424625370669717 -0.020186991416905598 0 0.0094821727053977112 -0.020179266034544997 0 0.0095888723291645585 -0.020211140157573197 0 0.0096424625370669717 -0.020186991416905598 0 0.0094821727053977112 -0.020179266034544997 0 0.009541680314627099 -0.020171738671891121 0 0.009541680314627099 -0.020171738671891121 0 0.0092983970753844573 -0.020177531897515727 0 0.0092090388179748121 -0.02021960930231265 0 0.0094821727053977112 -0.020179266034544997 0 0.009541680314627099 -0.020171738671891121 0 0.0092983970753844573 -0.020177531897515727 0 0.009541680314627099 -0.020171738671891121 0 0.0094751894221203475 -0.020209722423202296 0 0.0092090388179748121 -0.02021960930231265 0 0.0097758143675653452 -0.020167518654254334 0 0.009541680314627099 -0.020171738671891121 0 0.0094751894221203475 -0.020209722423202296 0 0.0098096148379413321 -0.020214417405489807 0 0.0094751894221203475 -0.020209722423202296 0 0.0094455610358687957 -0.020409209883980074 0 0.0098096148379413321 -0.020214417405489807 0 0.0097758143675653452 -0.020167518654254334 0 0.0094751894221203475 -0.020209722423202296 0 0.0094751894221203475 -0.020209722423202296 0 0.0089177400020312939 -0.020311626893863829 0 0.0094455610358687957 -0.020409209883980074 0 0.0094751894221203475 -0.020209722423202296 0 0.0092090388179748121 -0.02021960930231265 0 0.0089177400020312939 -0.020311626893863829 0 0.008992149629877013 -0.020322408435413958 0 0.0092090388179748121 -0.02021960930231265 0 0.0089177400020312939 -0.020311626893863829 0 0.0094324938259216749 -0.019933027585659163 0 0.0086512858043227246 -0.020228386003665055 0 0.0081147368027116289 -0.019739158884816862 0 0.0081790346143106839 -0.02053994500499351 0 0.0089177400020312939 -0.020311626893863829 0 0.0081147368027116289 -0.019739158884816862 0 0.0075588907503232597 -0.020224113233932819 0 0.0081790346143106839 -0.02053994500499351 0 0.008992149629877013 -0.020322408435413958 0 0.0088335146601775816 -0.020276753073257124 0 0.0090776691043988073 -0.020235791578727749 0 0.008992149629877013 -0.020322408435413958 0 0.0092090388179748121 -0.02021960930231265 0 0.0090776691043988073 -0.020235791578727749 0 0.0068232472143191763 -0.019894642691650314 0 0.0075588907503232597 -0.020224113233932819 0 0.0074405119294747571 -0.019247575882369247 0 0.0081147368027116289 -0.019739158884816862 0 0.0075588907503232597 -0.020224113233932819 0 0.0074405119294747571 -0.019247575882369247 0 0.0094324938259216749 -0.019933027585659163 0 0.0008125646293644477 -0.023914835801116741 0 -0.0020189971639376189 -0.022873550351051628 0 0.0008125646293644477 -0.023914835801116741 0 -0.010151540962869151 -0.026054995278603648 0 -0.010138104456406054 -0.026280850880873587 0 -0.0099743711316503305 -0.026270603559629308 0 -0.010138104456406054 -0.026280850880873587 0 -0.0099743711316503305 -0.026270603559629308 0 -0.010026882194949439 -0.026564925383296092 0 0.0008125646293644477 -0.023914835801116741 0 -0.0085737698404812594 -0.027491562267599912 0 0.0008125646293644477 -0.023914835801116741 0 0.0034853378663802421 -0.024311253687060417 0 -0.0046331104513446892 -0.03062022140741304 0 -0.0043248095847116383 -0.028553543838002047 0 -0.0023396506063783633 -0.027995069662750695 0 -0.0046331104513446892 -0.03062022140741304 0 -0.0063552380575226611 -0.029269287804938194 0 -0.0043248095847116383 -0.028553543838002047 0 -0.0043248095847116383 -0.028553543838002047 0 -0.0023396506063783633 -0.027995069662750695 0 -0.0050255578791422607 -0.027016686242021446 0 -0.0087513610382669721 -0.027181681749003758 0 -0.0063552380575226611 -0.029269287804938194 0 -0.0050255578791422607 -0.027016686242021446 0 -0.0063552380575226611 -0.029269287804938194 0 -0.0043248095847116383 -0.028553543838002047 0 -0.0050255578791422607 -0.027016686242021446 0 -0.0087513610382669721 -0.027181681749003758 0 -0.0076742327863364426 -0.025970921962458513 0 -0.0050255578791422607 -0.027016686242021446 0 0.0092983970753844573 -0.020177531897515727 0 0.0090776691043988073 -0.020235791578727749 0 0.0090669410839334195 -0.020158988769410684 0 0.0092983970753844573 -0.020177531897515727 0 0.0092090388179748121 -0.02021960930231265 0 0.0090776691043988073 -0.020235791578727749 0 0.0088335146601775816 -0.020276753073257124 0 0.0090776691043988073 -0.020235791578727749 0 0.0090669410839334195 -0.020158988769410684 0 0.0034853378663802421 -0.024311253687060417 0 0.0035314060240062024 -0.023754076916161413 0 0.0092983970753844573 -0.020177531897515727 0 0.0090669410839334195 -0.020158988769410684 0 0.0093191511133727829 -0.02015308703875645 0 -0.0023396506063783633 -0.027995069662750695 0 -0.0022776814321196718 -0.027047960134389367 0 -0.0022401202804017682 -0.026896899561384895 0 -0.0023396506063783633 -0.027995069662750695 0 -0.0022401202804017682 -0.026896899561384895 0 -0.0024357129128719209 -0.026210149271375219 0 -0.0024357129128719209 -0.026210149271375219 0 -0.0014827630693057257 -0.028203077790554178 0 -0.0021544925918675676 -0.028004383869597468 0 -0.0022401202804017682 -0.026896899561384895 0 -0.0024357129128719209 -0.026210149271375219 0 -0.0021544925918675676 -0.028004383869597468 0 -0.0022401202804017682 -0.026896899561384895 0 -0.0024593412029657413 -0.027604913971191934 0 -0.0021544925918675676 -0.028004383869597468 0 -0.0024593412029657413 -0.027604913971191934 0 -0.0024602508227209588 -0.02843868097618512 0 -0.0021544925918675676 -0.028004383869597468 0 -0.0024593412029657413 -0.027604913971191934 0 -0.0024602508227209588 -0.02843868097618512 0 -0.0028235567121700183 -0.028141131671509147 0 -0.0022776814321196718 -0.027047960134389367 0 -0.0022401202804017682 -0.026896899561384895 0 -0.0024593412029657413 -0.027604913971191934 0 -0.0076742327863364426 -0.025970921962458513 0 -0.0050255578791422607 -0.027016686242021446 0 -0.0061156175932741653 -0.023811473926463978 0 -0.0050255578791422607 -0.027016686242021446 0 -0.0024357129128719209 -0.026210149271375219 0 -0.0061156175932741653 -0.023811473926463978 0 -0.0023396506063783633 -0.027995069662750695 0 -0.0050255578791422607 -0.027016686242021446 0 -0.0024357129128719209 -0.026210149271375219 0 -0.0024357129128719209 -0.026210149271375219 0 0.00052282151882690313 -0.027577153115246111 0 -0.0014827630693057257 -0.028203077790554178 0 -0.0025365052502877876 -0.026123768121396884 0 -0.0026012701881757937 -0.025655297669781182 0 0.00052282151882690313 -0.027577153115246111 0 0.00082327209958844372 -0.028973991571591768 0 -0.00036140012557139584 -0.029234585303496541 0 -0.00036140012557139584 -0.029234585303496541 0 -0.0014827630693057257 -0.028203077790554178 0 -0.0017152495027410409 -0.029535361437157792 0 0.00052282151882690313 -0.027577153115246111 0 -0.00036140012557139584 -0.029234585303496541 0 -0.0014827630693057257 -0.028203077790554178 0 -0.0011757216854167318 -0.030974605182307807 0 -0.00036140012557139584 -0.029234585303496541 0 0.00078241133497260998 -0.030448625302117838 0 -0.0011757216854167318 -0.030974605182307807 0 -0.00036140012557139584 -0.029234585303496541 0 -0.0017152495027410409 -0.029535361437157792 0 0.00082327209958844372 -0.028973991571591768 0 -0.00036140012557139584 -0.029234585303496541 0 0.00078241133497260998 -0.030448625302117838 0 -0.0024602508227209588 -0.02843868097618512 0 -0.0021544925918675676 -0.028004383869597468 0 -0.0022555093172360458 -0.029602498265266321 0 -0.0021544925918675676 -0.028004383869597468 0 -0.0017152495027410409 -0.029535361437157792 0 -0.0022555093172360458 -0.029602498265266321 0 -0.0024602508227209588 -0.02843868097618512 0 -0.0022555093172360458 -0.029602498265266321 0 -0.0027501131006122869 -0.029211511514965312 0 -0.0014827630693057257 -0.028203077790554178 0 -0.0021544925918675676 -0.028004383869597468 0 -0.0017152495027410409 -0.029535361437157792 0 -0.0020274859641947252 -0.03088206357925808 0 -0.0011757216854167318 -0.030974605182307807 0 -0.0017152495027410409 -0.029535361437157792 0 -0.0020274859641947252 -0.03088206357925808 0 -0.0022555093172360458 -0.029602498265266321 0 -0.0026382618674945556 -0.031100365466884293 0 -0.0020274859641947252 -0.03088206357925808 0 -0.0017152495027410409 -0.029535361437157792 0 -0.0022555093172360458 -0.029602498265266321 0 -0.0022555093172360458 -0.029602498265266321 0 -0.0026382618674945556 -0.031100365466884293 0 -0.0027501131006122869 -0.029211511514965312 0 -0.0026382618674945556 -0.031100365466884293 0 -0.0027501131006122869 -0.029211511514965312 0 -0.0036142489346889127 -0.029250470077538709 0 -0.0027501131006122869 -0.029211511514965312 0 -0.0028235567121700183 -0.028141131671509147 0 -0.0036142489346889127 -0.029250470077538709 0 -0.0028235567121700183 -0.028141131671509147 0 -0.0029972862255424979 -0.028075083641766557 0 -0.003071823695887029 -0.028061171555373562 0 -0.0028580263406252806 -0.028193115415239639 0 -0.0032016744670362758 -0.028767102042196156 0 -0.0024602508227209588 -0.02843868097618512 0 -0.0027501131006122869 -0.029211511514965312 0 -0.0028235567121700183 -0.028141131671509147 0 0.0068862538421270133 -0.029367246631712515 0 0.0028100272403656151 -0.02331088812486299 0 -0.0029972862255424979 -0.028075083641766557 0 -0.0026614666535595692 -0.02803214708242412 0 -0.003071823695887029 -0.028061171555373562 0 -0.0029972862255424979 -0.028075083641766557 0 -0.0028380749509521082 -0.027968736427377152 0 -0.0026614666535595692 -0.02803214708242412 0 -0.0021563352611508623 -0.031635086421852081 0 -0.0026382618674945556 -0.031100365466884293 0 -0.0020971309653596316 -0.031783195650430869 0 -0.0032986459908258274 -0.030987591455029301 0 -0.0013723114744716594 -0.03110198838086008 0 -0.0026382618674945556 -0.031100365466884293 0 -0.0036142489346889127 -0.029250470077538709 0 -0.0046826187164774151 -0.0305534840322042 0 -0.0032016744670362758 -0.028767102042196156 0 -0.0013723114744716594 -0.03110198838086008 0 0.0053974251732509899 -0.033107855437396201 0 0.0049566673337372242 -0.033488970720104594 0 0.0053220693345108882 -0.033599096203296326 0 -0.0013723114744716594 -0.03110198838086008 0 0.0068862538421270133 -0.029367246631712515 0 0.0092036555955520901 -0.034254429045420143 0 0.0068862538421270133 -0.029367246631712515 0 0.012705987633998867 -0.033998917380753432 0 0.013080968614384677 -0.035153416433082584 0 0.011839984196039323 -0.034767600779635331 0 0.01221156205627512 -0.02760908915657594 0 0.0068862538421270133 -0.029367246631712515 0 0.0098532479665653962 -0.020199513197333891 0 0.0095313639150795531 -0.020270453595939257 0 0.0097179658434523777 -0.020386895998378021 0 0.0095313639150795531 -0.020270453595939257 0 0.0097179658434523777 -0.020386895998378021 0 0.0095760112879660388 -0.020300770206414864 0 0.0095313639150795531 -0.020270453595939257 0 0.0095760112879660388 -0.020300770206414864 0 0.0094737392444659094 -0.020255348564381 0 0.0095760112879660388 -0.020300770206414864 0 0.0096086135163237513 -0.020268301631201791 0 0.0094737392444659094 -0.020255348564381 0 0.0097179658434523777 -0.020386895998378021 0 0.0095760112879660388 -0.020300770206414864 0 0.0096086135163237513 -0.020268301631201791 0 0.0099430711498472747 -0.020848260541739754 0 0.0097391513100003393 -0.020414693479042706 0 0.0096451443280372272 -0.020269177836463741 0 0.0097179658434523777 -0.020386895998378021 0 0.0096086135163237513 -0.020268301631201791 0 0.0096451443280372272 -0.020269177836463741 0 0.0096640237250918189 -0.020221523083028811 0 0.0096086135163237513 -0.020268301631201791 0 0.0096640237250918189 -0.020221523083028811 0 0.0096086135163237513 -0.020268301631201791 0 0.0095888723291645585 -0.020211140157573197 0 0.0096086135163237513 -0.020268301631201791 0 0.0095888723291645585 -0.020211140157573197 0 0.009487516881554971 -0.020205804233080819 0 0.0094821727053977112 -0.020179266034544997 0 0.0095888723291645585 -0.020211140157573197 0 0.009487516881554971 -0.020205804233080819 0 0.0094821727053977112 -0.020179266034544997 0 0.0093191511133727829 -0.02015308703875645 0 0.009487516881554971 -0.020205804233080819 0 0.0035314060240062024 -0.023754076916161413 0 0.0028100272403656151 -0.02331088812486299 0 -0.0022776814321196718 -0.027047960134389367 0 -0.0024593412029657413 -0.027604913971191934 0 -0.003071823695887029 -0.028061171555373562 0 -0.0024593412029657413 -0.027604913971191934 0 -0.0028235567121700183 -0.028141131671509147 0 -0.003071823695887029 -0.028061171555373562 0 0.0093191511133727829 -0.02015308703875645 0 0.009487516881554971 -0.020205804233080819 0 0.0094737392444659094 -0.020255348564381 0 0.0096086135163237513 -0.020268301631201791 0 0.009487516881554971 -0.020205804233080819 0 0.0094737392444659094 -0.020255348564381 0 0.035633452582529604 -0.027443057273186945 0 0.034997359378998817 -0.031064801222364425 0 0.035001100935763085 -0.025980570117150967 0 0.033048563853593227 -0.037666002705790395 0 0.032086283538503353 -0.037311711873839727 0 0.033811606974558664 -0.036265181333148939 0 0.034345277646663973 -0.032742200260381535 0 0.034727169365340788 -0.032747174191982927 0 0.033048563853593227 -0.037666002705790395 0 0.032380279075667262 -0.038352649710613453 0 0.032642071636886184 -0.038694219160692031 0 0.035633452582529604 -0.027443057273186945 0 0.035001100935763085 -0.025980570117150967 0 0.035468669626544359 -0.025403472190854155 0 0.034345277646663973 -0.032742200260381535 0 0.03421360594068 -0.031084663513117214 0 0.033048563853593227 -0.037666002705790395 0 0.031835163793564006 -0.038257284652275889 0 0.032086283538503353 -0.037311711873839727 0 0.033048563853593227 -0.037666002705790395 0 0.031835163793564006 -0.038257284652275889 0 0.032380279075667262 -0.038352649710613453 0 0.031835163793564006 -0.038257284652275889 0 0.031153436068251418 -0.037853192996677366 0 0.030851046042298737 -0.038565911865124543 0 0.031835163793564006 -0.038257284652275889 0 0.031153436068251418 -0.037853192996677366 0 0.032086283538503353 -0.037311711873839727 0 0.031153436068251418 -0.037853192996677366 0 0.030234929912614443 -0.038039379489293777 0 0.030851046042298737 -0.038565911865124543 0 0.031153436068251418 -0.037853192996677366 0 0.030657854388821123 -0.03681763572662939 0 0.030234929912614443 -0.038039379489293777 0 0.031153436068251418 -0.037853192996677366 0 0.032086283538503353 -0.037311711873839727 0 0.030657854388821123 -0.03681763572662939 0 0.030657854388821123 -0.03681763572662939 0 0.032066436396286833 -0.035417236567089359 0 0.031399058397895842 -0.035097124287065129 0 0.030657854388821123 -0.03681763572662939 0 0.031399058397895842 -0.035097124287065129 0 0.030640283614545301 -0.035646449695947956 0 0.030657854388821123 -0.03681763572662939 0 0.032066436396286833 -0.035417236567089359 0 0.032488438129730776 -0.036318842277968631 0 0.032086283538503353 -0.037311711873839727 0 0.030657854388821123 -0.03681763572662939 0 0.032488438129730776 -0.036318842277968631 0 0.032066436396286833 -0.035417236567089359 0 0.032995605594452776 -0.034975166569801638 0 0.032488438129730776 -0.036318842277968631 0 0.035633452582529604 -0.027443057273186945 0 0.035765663380201443 -0.029512478624303451 0 0.034997359378998817 -0.031064801222364425 0 0.032995605594452776 -0.034975166569801638 0 0.032488438129730776 -0.036318842277968631 0 0.033811606974558664 -0.036265181333148939 0 0.032995605594452776 -0.034975166569801638 0 0.033811606974558664 -0.036265181333148939 0 0.034598588678869835 -0.032637500858462939 0 0.032086283538503353 -0.037311711873839727 0 0.032488438129730776 -0.036318842277968631 0 0.033811606974558664 -0.036265181333148939 0 0.035765663380201443 -0.029512478624303451 0 0.034598588678869835 -0.032637500858462939 0 0.034997359378998817 -0.031064801222364425 0 0.034727169365340788 -0.032747174191982927 0 0.034627784013023015 -0.032547601760592154 0 0.032995605594452776 -0.034975166569801638 0 0.034598588678869835 -0.032637500858462939 0 0.03280299538180155 -0.034189536641255472 0 0.034598588678869835 -0.032637500858462939 0 0.033923670887819855 -0.033865847678572716 0 0.03280299538180155 -0.034189536641255472 0 0.034598588678869835 -0.032637500858462939 0 0.034997359378998817 -0.031064801222364425 0 0.033923670887819855 -0.033865847678572716 0 0.034997359378998817 -0.031064801222364425 0 0.033923670887819855 -0.033865847678572716 0 0.034998240627886222 -0.034998094154289006 0 0.033923670887819855 -0.033865847678572716 0 0.034998240627886222 -0.034998094154289006 0 0.031873941514785328 -0.034997503613590608 0 0.031873941514785328 -0.034997503613590608 0 0.031837367195997661 -0.034651985912811364 0 0.030596353189313523 -0.03514756747292605 0 0.033923670887819855 -0.033865847678572716 0 0.031873941514785328 -0.034997503613590608 0 0.031837367195997661 -0.034651985912811364 0 0.031837367195997661 -0.034651985912811364 0 0.031399058397895842 -0.035097124287065129 0 0.030248320956070229 -0.035415991684050664 0 0.033923670887819855 -0.033865847678572716 0 0.031837367195997661 -0.034651985912811364 0 0.03280299538180155 -0.034189536641255472 0 0.032066436396286833 -0.035417236567089359 0 0.032995605594452776 -0.034975166569801638 0 0.03280299538180155 -0.034189536641255472 0 0.032066436396286833 -0.035417236567089359 0 0.03280299538180155 -0.034189536641255472 0 0.031399058397895842 -0.035097124287065129 0 0.031837367195997661 -0.034651985912811364 0 0.03280299538180155 -0.034189536641255472 0 0.031399058397895842 -0.035097124287065129 0 0.031399058397895842 -0.035097124287065129 0 0.030248320956070229 -0.035415991684050664 0 0.030640283614545301 -0.035646449695947956 0 0.029390172636126494 -0.035752571196957975 0 0.030044865076219028 -0.036108861534072993 0 0.031837367195997661 -0.034651985912811364 0 0.030248320956070229 -0.035415991684050664 0 0.030596353189313523 -0.03514756747292605 0 0.028587118142468716 -0.036091436906263895 0 0.028031219774847887 -0.036524176556430296 0 0.029402440614344487 -0.03642563085093839 0 0.028587118142468716 -0.036091436906263895 0 0.027810599504837372 -0.036104518337088477 0 0.028031219774847887 -0.036524176556430296 0 0.028587118142468716 -0.036091436906263895 0 0.027963779909989384 -0.035657473409551464 0 0.027810599504837372 -0.036104518337088477 0 0.029390172636126494 -0.035752571196957975 0 0.028529094374100419 -0.035453003563281744 0 0.031873941514785328 -0.034997503613590608 0 0.030596353189313523 -0.03514756747292605 0 0.027621572289138526 -0.034999335179337246 0 0.030596353189313523 -0.03514756747292605 0 0.029142367026789014 -0.035376329942678766 0 0.027621572289138526 -0.034999335179337246 0 0.030248320956070229 -0.035415991684050664 0 0.030596353189313523 -0.03514756747292605 0 0.029142367026789014 -0.035376329942678766 0 0.027618270445530103 -0.034999643387098822 0 0.027134163316835856 -0.035743856858323049 0 0.026137682509128287 -0.034999749804260454 0 0.028529094374100419 -0.035453003563281744 0 0.027619451176713515 -0.034999880341365565 0 0.027963779909989384 -0.035657473409551464 0 0.027618270445530103 -0.034999643387098822 0 0.027134163316835856 -0.035743856858323049 0 0.027963779909989384 -0.035657473409551464 0 0.027134163316835856 -0.035743856858323049 0 0.027810599504837372 -0.036104518337088477 0 0.027134163316835856 -0.035743856858323049 0 0.026985804505136383 -0.036337011479590557 0 0.025887408700605113 -0.035896515568017616 0 0.027134163316835856 -0.035743856858323049 0 0.026985804505136383 -0.036337011479590557 0 0.027810599504837372 -0.036104518337088477 0 0.026985804505136383 -0.036337011479590557 0 0.027810599504837372 -0.036104518337088477 0 0.028031219774847887 -0.036524176556430296 0 0.026985804505136383 -0.036337011479590557 0 0.028031219774847887 -0.036524176556430296 0 0.027007360780460975 -0.03680684678307275 0 0.028031219774847887 -0.036524176556430296 0 0.027007360780460975 -0.03680684678307275 0 0.027746379625235375 -0.037036476174962085 0 0.027007360780460975 -0.03680684678307275 0 0.027216905695427233 -0.037212545417923716 0 0.027746379625235375 -0.037036476174962085 0 0.027216905695427233 -0.037212545417923716 0 0.027702198853072329 -0.037505427953228636 0 0.027746379625235375 -0.037036476174962085 0 0.027216905695427233 -0.037212545417923716 0 0.027702198853072329 -0.037505427953228636 0 0.027154462401081946 -0.037647597474409079 0 0.028185419384827663 -0.037291278986859182 0 0.028608487343905541 -0.036918443905828609 0 0.028763097515526824 -0.037423725014089901 0 0.027702198853072329 -0.037505427953228636 0 0.028185419384827663 -0.037291278986859182 0 0.027746379625235375 -0.037036476174962085 0 0.028185419384827663 -0.037291278986859182 0 0.027746379625235375 -0.037036476174962085 0 0.028608487343905541 -0.036918443905828609 0 0.028185419384827663 -0.037291278986859182 0 0.028763097515526824 -0.037423725014089901 0 0.028243151486559918 -0.037601287350605632 0 0.027702198853072329 -0.037505427953228636 0 0.028185419384827663 -0.037291278986859182 0 0.028243151486559918 -0.037601287350605632 0 0.028031219774847887 -0.036524176556430296 0 0.027746379625235375 -0.037036476174962085 0 0.028608487343905541 -0.036918443905828609 0 0.028031219774847887 -0.036524176556430296 0 0.028608487343905541 -0.036918443905828609 0 0.029402440614344487 -0.03642563085093839 0 0.028608487343905541 -0.036918443905828609 0 0.029402440614344487 -0.03642563085093839 0 0.029476399334907574 -0.036952861324958952 0 0.030637788830970396 -0.036846940507034971 0 0.030044865076219028 -0.036108861534072993 0 0.030657854388821123 -0.03681763572662939 0 0.029476399334907574 -0.036952861324958952 0 0.029439178527036466 -0.037608838145226142 0 0.030657854388821123 -0.03681763572662939 0 0.029402440614344487 -0.03642563085093839 0 0.029476399334907574 -0.036952861324958952 0 0.028608487343905541 -0.036918443905828609 0 0.029476399334907574 -0.036952861324958952 0 0.028763097515526824 -0.037423725014089901 0 0.029476399334907574 -0.036952861324958952 0 0.028763097515526824 -0.037423725014089901 0 0.029439178527036466 -0.037608838145226142 0 0.028763097515526824 -0.037423725014089901 0 0.029439178527036466 -0.037608838145226142 0 0.028692181362907677 -0.037967124526135564 0 0.029439178527036466 -0.037608838145226142 0 0.029502643450499865 -0.038194144410727583 0 0.028692181362907677 -0.037967124526135564 0 0.030657854388821123 -0.03681763572662939 0 0.029439178527036466 -0.037608838145226142 0 0.030234929912614443 -0.038039379489293777 0 0.030234929912614443 -0.038039379489293777 0 0.029502643450499865 -0.038194144410727583 0 0.029988074227673443 -0.038828363492107269 0 0.029439178527036466 -0.037608838145226142 0 0.030234929912614443 -0.038039379489293777 0 0.029502643450499865 -0.038194144410727583 0 0.029502643450499865 -0.038194144410727583 0 0.029167081826582245 -0.038500445624307038 0 0.029988074227673443 -0.038828363492107269 0 0.029502643450499865 -0.038194144410727583 0 0.029167081826582245 -0.038500445624307038 0 0.028692181362907677 -0.037967124526135564 0 0.029167081826582245 -0.038500445624307038 0 0.028565533961008093 -0.038411659202632023 0 0.028692181362907677 -0.037967124526135564 0 0.028565533961008093 -0.038411659202632023 0 0.028692181362907677 -0.037967124526135564 0 0.028121321508051498 -0.038188825330229464 0 0.028692181362907677 -0.037967124526135564 0 0.028121321508051498 -0.038188825330229464 0 0.028034895528753954 -0.037870827907234138 0 0.028565533961008093 -0.038411659202632023 0 0.028121321508051498 -0.038188825330229464 0 0.028254108803301616 -0.038693767905077621 0 0.028121321508051498 -0.038188825330229464 0 0.027631315884606201 -0.038361027712054845 0 0.028254108803301616 -0.038693767905077621 0 0.025467009428469349 -0.039210754890331663 0 0.024002150874090276 -0.038892090012779774 0 0.025758870619988796 -0.03934481004304128 0 0.028121321508051498 -0.038188825330229464 0 0.027631315884606201 -0.038361027712054845 0 0.027653046899425583 -0.037892027148579775 0 0.027631315884606201 -0.038361027712054845 0 0.027653046899425583 -0.037892027148579775 0 0.027154462401081946 -0.037647597474409079 0 0.028121321508051498 -0.038188825330229464 0 0.027653046899425583 -0.037892027148579775 0 0.028034895528753954 -0.037870827907234138 0 0.026632040189484136 -0.038862046687138579 0 0.025602186830069748 -0.038103400399531952 0 0.027702198853072329 -0.037505427953228636 0 0.027653046899425583 -0.037892027148579775 0 0.027154462401081946 -0.037647597474409079 0 0.027702198853072329 -0.037505427953228636 0 0.027653046899425583 -0.037892027148579775 0 0.028034895528753954 -0.037870827907234138 0 0.027702198853072329 -0.037505427953228636 0 0.028243151486559918 -0.037601287350605632 0 0.028034895528753954 -0.037870827907234138 0 0.028763097515526824 -0.037423725014089901 0 0.028692181362907677 -0.037967124526135564 0 0.028243151486559918 -0.037601287350605632 0 0.028692181362907677 -0.037967124526135564 0 0.028243151486559918 -0.037601287350605632 0 0.028034895528753954 -0.037870827907234138 0 0.02311109639695046 -0.039059476456564303 0 0.023547360094777377 -0.03887782181840424 0 0.023447053734853913 -0.039231768988367229 0 0.02311109639695046 -0.039059476456564303 0 0.023334253303334107 -0.038595362074511086 0 0.023547360094777377 -0.03887782181840424 0 0.02311109639695046 -0.039059476456564303 0 0.02262439228254421 -0.039303998226907527 0 0.02272519446640401 -0.038843539934747179 0 0.023334253303334107 -0.038595362074511086 0 0.02272519446640401 -0.038843539934747179 0 0.022921880407192913 -0.038268488295052805 0 0.02311109639695046 -0.039059476456564303 0 0.023334253303334107 -0.038595362074511086 0 0.02272519446640401 -0.038843539934747179 0 0.025467009428469349 -0.039210754890331663 0 0.023980905975399269 -0.038560743846952281 0 0.024002150874090276 -0.038892090012779774 0 0.023334253303334107 -0.038595362074511086 0 0.023980905975399269 -0.038560743846952281 0 0.023547360094777377 -0.03887782181840424 0 0.023980905975399269 -0.038560743846952281 0 0.024002150874090276 -0.038892090012779774 0 0.023547360094777377 -0.03887782181840424 0 0.024002150874090276 -0.038892090012779774 0 0.023547360094777377 -0.03887782181840424 0 0.023447053734853913 -0.039231768988367229 0 0.024091862960782483 -0.038846822876131809 0 0.025008156650389524 -0.039453526707349883 0 0.024002150874090276 -0.038892090012779774 0 0.023856939033005939 -0.039517056425461744 0 0.023447053734853913 -0.039231768988367229 0 0.024002150874090276 -0.038892090012779774 0 0.023856939033005939 -0.039517056425461744 0 0.024275786158195523 -0.039824743104734092 0 0.023856939033005939 -0.039517056425461744 0 0.023467139422261977 -0.039575439454006926 0 0.023447053734853913 -0.039231768988367229 0 0.023856939033005939 -0.039517056425461744 0 0.02368095229176775 -0.039799685030006672 0 0.023927933995725743 -0.039864031287004262 0 0.023856939033005939 -0.039517056425461744 0 0.023927933995725743 -0.039864031287004262 0 0.024275786158195523 -0.039824743104734092 0 0.023856939033005939 -0.039517056425461744 0 0.023467139422261977 -0.039575439454006926 0 0.02368095229176775 -0.039799685030006672 0 0.023467139422261977 -0.039575439454006926 0 0.023246680696571268 -0.039833202173350665 0 0.02368095229176775 -0.039799685030006672 0 0.023467139422261977 -0.039575439454006926 0 0.023014131759813462 -0.039526856566630623 0 0.023246680696571268 -0.039833202173350665 0 0.023467139422261977 -0.039575439454006926 0 0.023447053734853913 -0.039231768988367229 0 0.023014131759813462 -0.039526856566630623 0 0.02311109639695046 -0.039059476456564303 0 0.023447053734853913 -0.039231768988367229 0 0.023014131759813462 -0.039526856566630623 0 0.02311109639695046 -0.039059476456564303 0 0.023014131759813462 -0.039526856566630623 0 0.02262439228254421 -0.039303998226907527 0 0.023014131759813462 -0.039526856566630623 0 0.022407811857447103 -0.039751628366861157 0 0.022737481022318547 -0.040017867941507447 0 0.023014131759813462 -0.039526856566630623 0 0.022407811857447103 -0.039751628366861157 0 0.02262439228254421 -0.039303998226907527 0 0.022407811857447103 -0.039751628366861157 0 0.022178625669482116 -0.039256911209999162 0 0.021988436694125209 -0.039807485387944472 0 0.022407811857447103 -0.039751628366861157 0 0.022178625669482116 -0.039256911209999162 0 0.02262439228254421 -0.039303998226907527 0 0.0215162377022898 -0.03985101958744084 0 0.021988436694125209 -0.039807485387944472 0 0.021915926864030974 -0.040123919521192396 0 0.022178625669482116 -0.039256911209999162 0 0.0215162377022898 -0.03985101958744084 0 0.021988436694125209 -0.039807485387944472 0 0.022178625669482116 -0.039256911209999162 0 0.0215162377022898 -0.03985101958744084 0 0.021632902088680218 -0.038657600022047399 0 0.021500001848201805 -0.039836526552021578 0 0.021339519098034731 -0.039029438079370399 0 0.022178625669482116 -0.039256911209999162 0 0.021632902088680218 -0.038657600022047399 0 0.022287528530030319 -0.038418059003020498 0 0.022178625669482116 -0.039256911209999162 0 0.02272519446640401 -0.038843539934747179 0 0.022287528530030319 -0.038418059003020498 0 0.022178625669482116 -0.039256911209999162 0 0.02262439228254421 -0.039303998226907527 0 0.02272519446640401 -0.038843539934747179 0 0.02272519446640401 -0.038843539934747179 0 0.022287528530030319 -0.038418059003020498 0 0.022921880407192913 -0.038268488295052805 0 0.022287528530030319 -0.038418059003020498 0 0.022674673734334863 -0.037789411685453786 0 0.022921880407192913 -0.038268488295052805 0 0.021632902088680218 -0.038657600022047399 0 0.022287528530030319 -0.038418059003020498 0 0.021690452177054544 -0.037826599850547177 0 0.022674673734334863 -0.037789411685453786 0 0.022438285318340172 -0.037237218015503157 0 0.021690452177054544 -0.037826599850547177 0 0.022287528530030319 -0.038418059003020498 0 0.022674673734334863 -0.037789411685453786 0 0.021690452177054544 -0.037826599850547177 0 0.022674673734334863 -0.037789411685453786 0 0.022921880407192913 -0.038268488295052805 0 0.023538229702471183 -0.0377850039948164 0 0.022674673734334863 -0.037789411685453786 0 0.023538229702471183 -0.0377850039948164 0 0.023248666143234693 -0.037026966564088312 0 0.023334253303334107 -0.038595362074511086 0 0.022921880407192913 -0.038268488295052805 0 0.023538229702471183 -0.0377850039948164 0 0.025602186830069748 -0.038103400399531952 0 0.025019729261152569 -0.037428622995595712 0 0.027216905695427233 -0.037212545417923716 0 0.027154462401081946 -0.037647597474409079 0 0.026534465978765104 -0.037111042671113557 0 0.023334253303334107 -0.038595362074511086 0 0.023980905975399269 -0.038560743846952281 0 0.023538229702471183 -0.0377850039948164 0 0.027007360780460975 -0.03680684678307275 0 0.027216905695427233 -0.037212545417923716 0 0.026534465978765104 -0.037111042671113557 0 0.026985804505136383 -0.036337011479590557 0 0.027007360780460975 -0.03680684678307275 0 0.025694869858908873 -0.036656894742313761 0 0.027007360780460975 -0.03680684678307275 0 0.026534465978765104 -0.037111042671113557 0 0.025694869858908873 -0.036656894742313761 0 0.025019729261152569 -0.037428622995595712 0 0.024455509975301954 -0.036810336055171165 0 0.025694869858908873 -0.036656894742313761 0 0.025887408700605113 -0.035896515568017616 0 0.024558988797749714 -0.036022393498343803 0 0.024455509975301954 -0.036810336055171165 0 0.02381093798462143 -0.036038179846853376 0 0.026985804505136383 -0.036337011479590557 0 0.025694869858908873 -0.036656894742313761 0 0.025887408700605113 -0.035896515568017616 0 0.025887408700605113 -0.035896515568017616 0 0.024655483153262565 -0.034999716655850346 0 0.024558988797749714 -0.036022393498343803 0 0.025887408700605113 -0.035896515568017616 0 0.024655483153262565 -0.034999716655850346 0 0.026137682509128287 -0.034999749804260454 0 0.027134163316835856 -0.035743856858323049 0 0.025887408700605113 -0.035896515568017616 0 0.026137682509128287 -0.034999749804260454 0 0.022001330255450469 -0.034999965101972438 0 0.023172038086950508 -0.035000042328997276 0 0.022432975926503208 -0.035931274000310862 0 0.022001330255450469 -0.034999965101972438 0 0.022432975926503208 -0.035931274000310862 0 0.021354024884969378 -0.0362540023249057 0 0.024655483153262565 -0.034999716655850346 0 0.023173682105500318 -0.034999910436016808 0 0.024558988797749714 -0.036022393498343803 0 0.023172997913229243 -0.03499999649765298 0 0.02381093798462143 -0.036038179846853376 0 0.023172038086950508 -0.035000042328997276 0 0.023104285827809722 -0.036218891237883598 0 0.022432975926503208 -0.035931274000310862 0 0.022432975926503208 -0.035931274000310862 0 0.022213385508058799 -0.036571617320023272 0 0.021354024884969378 -0.0362540023249057 0 0.023104285827809722 -0.036218891237883598 0 0.022432975926503208 -0.035931274000310862 0 0.022213385508058799 -0.036571617320023272 0 0.022213385508058799 -0.036571617320023272 0 0.022438285318340172 -0.037237218015503157 0 0.021632957492678271 -0.037081621920689929 0 0.023248666143234693 -0.037026966564088312 0 0.023104285827809722 -0.036218891237883598 0 0.022438285318340172 -0.037237218015503157 0 0.023104285827809722 -0.036218891237883598 0 0.022213385508058799 -0.036571617320023272 0 0.022438285318340172 -0.037237218015503157 0 0.022674673734334863 -0.037789411685453786 0 0.023248666143234693 -0.037026966564088312 0 0.022438285318340172 -0.037237218015503157 0 0.022438285318340172 -0.037237218015503157 0 0.021632957492678271 -0.037081621920689929 0 0.021690452177054544 -0.037826599850547177 0 0.020649616134504608 -0.037448702851623925 0 0.019728712317390425 -0.038228438632182747 0 0.020775587507077666 -0.038466879265473299 0 0.021136689200237081 -0.037260898364762318 0 0.021232961908825718 -0.038149626405962568 0 0.020649616134504608 -0.037448702851623925 0 0.019707606877203077 -0.037177029826589499 0 0.019728712317390425 -0.038228438632182747 0 0.021136689200237081 -0.037260898364762318 0 0.020993235468643685 -0.036240474196905917 0 0.020649616134504608 -0.037448702851623925 0 0.019707606877203077 -0.037177029826589499 0 0.020641274112393422 -0.036317901989980549 0 0.022213385508058799 -0.036571617320023272 0 0.021632957492678271 -0.037081621920689929 0 0.021354024884969378 -0.0362540023249057 0 0.020641274112393422 -0.036317901989980549 0 0.019874417876342466 -0.035697374636626512 0 0.019187641335480909 -0.036345079929731142 0 0.019707606877203077 -0.037177029826589499 0 0.020641274112393422 -0.036317901989980549 0 0.019187641335480909 -0.036345079929731142 0 0.020641274112393422 -0.036317901989980549 0 0.019874417876342466 -0.035697374636626512 0 0.020828816293290739 -0.034999875631603956 0 0.019874417876342466 -0.035697374636626512 0 0.020828816293290739 -0.034999875631603956 0 0.018740807183455058 -0.034999837761827322 0 0.020993235468643685 -0.036240474196905917 0 0.02082967700289665 -0.035000152519410722 0 0.022001330255450469 -0.034999965101972438 0 0.021354024884969378 -0.0362540023249057 0 0.020830178246334482 -0.034999847037628984 0 0.017443755155691406 -0.036070367727476613 0 0.016651927052043384 -0.034999726773756235 0 0.018740807183455058 -0.034999837761827322 0 0.017443755155691406 -0.036070367727476613 0 0.018740807183455058 -0.034999837761827322 0 0.019187641335480909 -0.036345079929731142 0 0.019874417876342466 -0.035697374636626512 0 0.018740807183455058 -0.034999837761827322 0 0.019187641335480909 -0.036345079929731142 0 0.017443755155691406 -0.036070367727476613 0 0.019187641335480909 -0.036345079929731142 0 0.018264735381488487 -0.037375400165763857 0 0.019707606877203077 -0.037177029826589499 0 0.019187641335480909 -0.036345079929731142 0 0.018264735381488487 -0.037375400165763857 0 0.018264735381488487 -0.037375400165763857 0 0.018408589769056048 -0.03878182439884411 0 0.019728712317390425 -0.038228438632182747 0 0.019707606877203077 -0.037177029826589499 0 0.018264735381488487 -0.037375400165763857 0 0.019728712317390425 -0.038228438632182747 0 0.016823835563970099 -0.038009586742894688 0 0.018264735381488487 -0.037375400165763857 0 0.018408589769056048 -0.03878182439884411 0 0.016989244965987152 -0.039334680658737749 0 0.018408589769056048 -0.03878182439884411 0 0.018320260019070778 -0.039936723184938135 0 0.018408589769056048 -0.03878182439884411 0 0.018320260019070778 -0.039936723184938135 0 0.019084915100131716 -0.039593318669984973 0 0.018408589769056048 -0.03878182439884411 0 0.019649067300773544 -0.039159273993541778 0 0.019084915100131716 -0.039593318669984973 0 0.018408589769056048 -0.03878182439884411 0 0.019728712317390425 -0.038228438632182747 0 0.019649067300773544 -0.039159273993541778 0 0.019728712317390425 -0.038228438632182747 0 0.020775587507077666 -0.038466879265473299 0 0.020323743350001491 -0.038942167593356516 0 0.021010015583158858 -0.039325364900549047 0 0.020775587507077666 -0.038466879265473299 0 0.020323743350001491 -0.038942167593356516 0 0.021339519098034731 -0.039029438079370399 0 0.021232961908825718 -0.038149626405962568 0 0.021010015583158858 -0.039325364900549047 0 0.020323743350001491 -0.038942167593356516 0 0.020391831567694158 -0.039466795936940566 0 0.019728712317390425 -0.038228438632182747 0 0.020323743350001491 -0.038942167593356516 0 0.019649067300773544 -0.039159273993541778 0 0.020323743350001491 -0.038942167593356516 0 0.019649067300773544 -0.039159273993541778 0 0.020391831567694158 -0.039466795936940566 0 0.019649067300773544 -0.039159273993541778 0 0.019986124259696116 -0.039931002196403685 0 0.019084915100131716 -0.039593318669984973 0 0.019649067300773544 -0.039159273993541778 0 0.020391831567694158 -0.039466795936940566 0 0.019986124259696116 -0.039931002196403685 0 0.020391831567694158 -0.039466795936940566 0 0.020896124705515811 -0.039952664997920717 0 0.019986124259696116 -0.039931002196403685 0 0.021010015583158858 -0.039325364900549047 0 0.020391831567694158 -0.039466795936940566 0 0.020896124705515811 -0.039952664997920717 0 0.020896124705515811 -0.039952664997920717 0 0.019986124259696116 -0.039931002196403685 0 0.020498894567381378 -0.041250399628855537 0 0.0215162377022898 -0.03985101958744084 0 0.021010015583158858 -0.039325364900549047 0 0.020896124705515811 -0.039952664997920717 0 0.0215162377022898 -0.03985101958744084 0 0.020896124705515811 -0.039952664997920717 0 0.021463282693045829 -0.040149573907218059 0 0.012599692053915862 -0.035228369807282701 0 0.013398516247164873 -0.035886044609277176 0 0.013267402938591296 -0.034862491934418413 0 0.019986124259696116 -0.039931002196403685 0 0.019443302663163672 -0.040471718488814964 0 0.019084915100131716 -0.039593318669984973 0 0.015305385747715452 -0.038269056475176699 0 0.015939757807570076 -0.037853944655830404 0 0.013680170152602129 -0.035437508095925413 0 0.013398516247164873 -0.035886044609277176 0 0.013267402938591296 -0.034862491934418413 0 0.019443302663163672 -0.040471718488814964 0 0.018320260019070778 -0.039936723184938135 0 0.019084915100131716 -0.039593318669984973 0 0.012603804497952632 -0.033827648065648787 0 0.013543851592736486 -0.033884392900666443 0 0.013267402938591296 -0.034862491934418413 0 0.014262008367043824 -0.033684661602688945 0 0.013543851592736486 -0.033884392900666443 0 0.013553565648467122 -0.032900291656599488 0 0.012603804497952632 -0.033827648065648787 0 0.013543851592736486 -0.033884392900666443 0 0.013553565648467122 -0.032900291656599488 0 0.014262008367043824 -0.033684661602688945 0 0.0139366423946386 -0.034428002407640365 0 0.013543851592736486 -0.033884392900666443 0 0.013680170152602129 -0.035437508095925413 0 0.0139366423946386 -0.034428002407640365 0 0.013267402938591296 -0.034862491934418413 0 0.0139366423946386 -0.034428002407640365 0 0.013543851592736486 -0.033884392900666443 0 0.013267402938591296 -0.034862491934418413 0 0.012599692053915862 -0.035228369807282701 0 0.012603804497952632 -0.033827648065648787 0 0.013267402938591296 -0.034862491934418413 0 0.019986124259696116 -0.039931002196403685 0 0.019443302663163672 -0.040471718488814964 0 0.020498894567381378 -0.041250399628855537 0 0.012599692053915862 -0.035228369807282701 0 0.012603804497952632 -0.033827648065648787 0 0.01149339628628362 -0.034186514960574191 0 0.015305385747715452 -0.038269056475176699 0 0.020761522840129838 -0.034019628155686758 0 0.02075108821035803 -0.042773241641237053 0 0.020761522840129838 -0.034019628155686758 0 0.020896124705515811 -0.039952664997920717 0 0.021463282693045829 -0.040149573907218059 0 0.021382519026878603 -0.040302090239174429 0 0.021463282693045829 -0.040149573907218059 0 0.021382519026878603 -0.040302090239174429 0 0.021707308754650621 -0.0403213199338609 0 0.021382519026878603 -0.040302090239174429 0 0.021946002788486556 -0.04025515507200883 0 0.021707308754650621 -0.0403213199338609 0 0.020761522840129838 -0.034019628155686758 0 0.024215937308638188 -0.030520292022217437 0 0.012603804497952632 -0.033827648065648787 0 0.01149339628628362 -0.034186514960574191 0 0.011726130530083239 -0.032447137376353997 0 0.020761522840129838 -0.034019628155686758 0 0.018817257540790486 -0.025981118296794843 0 0.026474514456701292 -0.022270040147761246 0 0.026678240324085657 -0.020884996664090123 0 0.025764885706732809 -0.021350324871107985 0 0.026678240324085657 -0.020884996664090123 0 0.026800836035939166 -0.019722711967571405 0 0.025894152742416174 -0.020171424763065618 0 0.026678240324085657 -0.020884996664090123 0 0.025894152742416174 -0.020171424763065618 0 0.025764885706732809 -0.021350324871107985 0 0.018817257540790486 -0.025981118296794843 0 0.02072536638322673 -0.022802118560174986 0 0.011726130530083239 -0.032447137376353997 0 0.013368889050879938 -0.031457436377479053 0 0.012072643798643885 -0.030686804685439977 0 0.012603804497952632 -0.033827648065648787 0 0.011726130530083239 -0.032447137376353997 0 0.013553565648467122 -0.032900291656599488 0 0.011726130530083239 -0.032447137376353997 0 0.013553565648467122 -0.032900291656599488 0 0.013368889050879938 -0.031457436377479053 0 0.014670175697680372 -0.032159098827960371 0 0.013553565648467122 -0.032900291656599488 0 0.013368889050879938 -0.031457436377479053 0 0.018678189789555856 -0.025514309741471553 0 0.01728194745668438 -0.02591814126033759 0 0.022165857524947929 -0.019796773879324207 0 0.022274082081501001 -0.01983691003673 0 0.022414689613312007 -0.019825491509095985 0 0.022287590823646623 -0.019829667166572262 0 0.022374261636915964 -0.019880299941608684 0 0.022274082081501001 -0.01983691003673 0 0.022492292655643363 -0.019899564995071558 0 0.022479374648259162 -0.019937171718817589 0 0.022274082081501001 -0.01983691003673 0 0.022414689613312007 -0.019825491509095985 0 0.022492292655643363 -0.019899564995071558 0 0.01728194745668438 -0.02591814126033759 0 0.02072536638322673 -0.022802118560174986 0 0.022414689613312007 -0.019825491509095985 0 0.022492292655643363 -0.019899564995071558 0 0.022581068689247617 -0.019896798053045991 0 0.022492292655643363 -0.019899564995071558 0 0.022623634648829511 -0.019938930255991284 0 0.022581068689247617 -0.019896798053045991 0 0.022492292655643363 -0.019899564995071558 0 0.022479374648259162 -0.019937171718817589 0 0.022623634648829511 -0.019938930255991284 0 0.022225940005309842 -0.019882544302048281 0 0.022274606725476542 -0.01984114497238431 0 0.022397509393172164 -0.019882800455367899 0 0.022374261636915964 -0.019880299941608684 0 0.022521467236293589 -0.019935754457923099 0 0.022479374648259162 -0.019937171718817589 0 0.022617135904274496 -0.019961763187526689 0 0.022623634648829511 -0.019938930255991284 0 0.022765810677807086 -0.019975723986067104 0 0.022617135904274496 -0.019961763187526689 0 0.022623634648829511 -0.019938930255991284 0 0.022225940005309842 -0.019882544302048281 0 0.022397509393172164 -0.019882800455367899 0 0.022374759483560623 -0.019983362024994032 0 0.024759505186984401 -0.019595208059196838 0 0.025131090686962607 -0.01931030008211496 0 0.025382196669910286 -0.019447997297715902 0 0.024759505186984401 -0.019595208059196838 0 0.025382196669910286 -0.019447997297715902 0 0.025134454817008697 -0.019761325435794598 0 0.024089422639512487 -0.019590131199384509 0 0.024759505186984401 -0.019595208059196838 0 0.024582979554049967 -0.019191910370219487 0 0.023347655877489472 -0.020032843617047189 0 0.023973066233953209 -0.018764270887036454 0 0.024759505186984401 -0.019595208059196838 0 0.024582979554049967 -0.019191910370219487 0 0.025131090686962607 -0.01931030008211496 0 0.025131090686962607 -0.01931030008211496 0 0.025696439877621366 -0.019185596559736506 0 0.025382196669910286 -0.019447997297715902 0 0.025131090686962607 -0.01931030008211496 0 0.024759642459088804 -0.018656674890686245 0 0.025696439877621366 -0.019185596559736506 0 0.02072536638322673 -0.022802118560174986 0 0.027509148877850075 -0.018405049391815951 0 0.024582979554049967 -0.019191910370219487 0 0.025131090686962607 -0.01931030008211496 0 0.024759642459088804 -0.018656674890686245 0 0.023973066233953209 -0.018764270887036454 0 0.02072536638322673 -0.022802118560174986 0 0.026800836035939166 -0.019722711967571405 0 0.025696439877621366 -0.019185596559736506 0 0.025894152742416174 -0.020171424763065618 0 0.025567693775752163 -0.019642973886577014 0 0.025696439877621366 -0.019185596559736506 0 0.025894152742416174 -0.020171424763065618 0 0.025567693775752163 -0.019642973886577014 0 0.025328098216616746 -0.019943127419596973 0 0.025392054637673075 -0.020508158521503988 0 0.025567693775752163 -0.019642973886577014 0 0.025392054637673075 -0.020508158521503988 0 0.025894152742416174 -0.020171424763065618 0 0.025567693775752163 -0.019642973886577014 0 0.025772532523023181 -0.019338052236631244 0 0.025687465920604897 -0.019442643853911108 0 0.025567693775752163 -0.019642973886577014 0 0.025696439877621366 -0.019185596559736506 0 0.025772532523023181 -0.019338052236631244 0 0.025696439877621366 -0.019185596559736506 0 0.025772532523023181 -0.019338052236631244 0 0.025860853025181658 -0.019321964560311364 0 0.025696439877621366 -0.019185596559736506 0 0.025860853025181658 -0.019321964560311364 0 0.025382196669910286 -0.019447997297715902 0 0.025772532523023181 -0.019338052236631244 0 0.025981138434659212 -0.019343154652864111 0 0.025687465920604897 -0.019442643853911108 0 0.025772532523023181 -0.019338052236631244 0 0.025981138434659212 -0.019343154652864111 0 0.025860853025181658 -0.019321964560311364 0 0.025981138434659212 -0.019343154652864111 0 0.026568619367239765 -0.01947600817701008 0 0.025860853025181658 -0.019321964560311364 0 0.026568619367239765 -0.01947600817701008 0 0.025860853025181658 -0.019321964560311364 0 0.025608606331472147 -0.01986977971989437 0 0.025860853025181658 -0.019321964560311364 0 0.025382196669910286 -0.019447997297715902 0 0.025608606331472147 -0.01986977971989437 0 0.028045275209771004 -0.019334600254351866 0 0.028341416519624654 -0.019027212031127304 0 0.028219775263862188 -0.0199831972497055 0 0.030376126646363369 -0.021038740947116226 0 0.028341416519624654 -0.019027212031127304 0 0.031033637692221217 -0.022994025245836745 0 0.028418338854730926 -0.019025280789211604 0 0.029286539275838335 -0.021863000658358903 0 0.030376126646363369 -0.021038740947116226 0 0.031810321486399486 -0.022098844219064429 0 0.031033637692221217 -0.022994025245836745 0 0.02801338310378897 -0.019557312688024547 0 0.028045275209771004 -0.019334600254351866 0 0.028219775263862188 -0.0199831972497055 0 0.025981138434659212 -0.019343154652864111 0 0.026568619367239765 -0.01947600817701008 0 0.025589712698299016 -0.019298531602194482 0 0.026568619367239765 -0.01947600817701008 0 0.028045275209771004 -0.019334600254351866 0 0.028013855482052472 -0.019009013733941312 0 0.026150679377153131 -0.020120894640317299 0 0.02752655368545821 -0.017693203997731919 0 0.026568619367239765 -0.01947600817701008 0 0.02801338310378897 -0.019557312688024547 0 0.028045275209771004 -0.019334600254351866 0 0.025589712698299016 -0.019298531602194482 0 0.025548437715669826 -0.019444268994374316 0 0.025367229781841978 -0.019590199098187273 0 0.028045275209771004 -0.019334600254351866 0 0.028013855482052472 -0.019009013733941312 0 0.028341416519624654 -0.019027212031127304 0 0.025981138434659212 -0.019343154652864111 0 0.025589712698299016 -0.019298531602194482 0 0.02568542049888755 -0.019400477797185164 0 0.025981138434659212 -0.019343154652864111 0 0.025687465920604897 -0.019442643853911108 0 0.02568542049888755 -0.019400477797185164 0 0.025687465920604897 -0.019442643853911108 0 0.02568542049888755 -0.019400477797185164 0 0.02556256998409075 -0.019487305868888728 0 0.025589712698299016 -0.019298531602194482 0 0.02568542049888755 -0.019400477797185164 0 0.025548437715669826 -0.019444268994374316 0 0.02568542049888755 -0.019400477797185164 0 0.025548437715669826 -0.019444268994374316 0 0.02556256998409075 -0.019487305868888728 0 0.02931115784392254 -0.018397766063384387 0 0.030760702280919573 -0.01793631901912408 0 0.030753397603282068 -0.015776150682097811 0 0.02752655368545821 -0.017693203997731919 0 0.026035499129464366 -0.025129163714964466 0 0.028013855482052472 -0.019009013733941312 0 0.02931115784392254 -0.018397766063384387 0 0.030753397603282068 -0.015776150682097811 0 0.028013855482052472 -0.019009013733941312 0 0.02931115784392254 -0.018397766063384387 0 0.028766939641367673 -0.018851195651463693 0 0.028766939641367673 -0.018851195651463693 0 0.028341416519624654 -0.019027212031127304 0 0.029446146140478767 -0.019271405273310411 0 0.028013855482052472 -0.019009013733941312 0 0.028766939641367673 -0.018851195651463693 0 0.028341416519624654 -0.019027212031127304 0 0.030376126646363369 -0.021038740947116226 0 0.028341416519624654 -0.019027212031127304 0 0.029446146140478767 -0.019271405273310411 0 0.02931115784392254 -0.018397766063384387 0 0.029446146140478767 -0.019271405273310411 0 0.030379616308924585 -0.019204764286748242 0 0.02931115784392254 -0.018397766063384387 0 0.028766939641367673 -0.018851195651463693 0 0.029446146140478767 -0.019271405273310411 0 0.030376126646363369 -0.021038740947116226 0 0.029446146140478767 -0.019271405273310411 0 0.030379616308924585 -0.019204764286748242 0 0.030376126646363369 -0.021038740947116226 0 0.030379616308924585 -0.019204764286748242 0 0.031730580702061244 -0.019895875541679809 0 0.030379616308924585 -0.019204764286748242 0 0.031209944521578135 -0.018704901398854848 0 0.031730580702061244 -0.019895875541679809 0 0.02931115784392254 -0.018397766063384387 0 0.030379616308924585 -0.019204764286748242 0 0.030760702280919573 -0.01793631901912408 0 0.030379616308924585 -0.019204764286748242 0 0.031209944521578135 -0.018704901398854848 0 0.030760702280919573 -0.01793631901912408 0 0.025589712698299016 -0.019298531602194482 0 0.025367229781841978 -0.019590199098187273 0 0.025200527334169432 -0.019679741012182492 0 0.025367229781841978 -0.019590199098187273 0 0.025200527334169432 -0.019679741012182492 0 0.025328098216616746 -0.019943127419596973 0 0.025567693775752163 -0.019642973886577014 0 0.025687465920604897 -0.019442643853911108 0 0.025515348810249583 -0.019616557875832923 0 0.025367229781841978 -0.019590199098187273 0 0.025515348810249583 -0.019616557875832923 0 0.025328098216616746 -0.019943127419596973 0 0.025687465920604897 -0.019442643853911108 0 0.02556256998409075 -0.019487305868888728 0 0.025515348810249583 -0.019616557875832923 0 0.025367229781841978 -0.019590199098187273 0 0.02556256998409075 -0.019487305868888728 0 0.025515348810249583 -0.019616557875832923 0 0.025548437715669826 -0.019444268994374316 0 0.025367229781841978 -0.019590199098187273 0 0.02556256998409075 -0.019487305868888728 0 0.025567693775752163 -0.019642973886577014 0 0.025515348810249583 -0.019616557875832923 0 0.025328098216616746 -0.019943127419596973 0 0.021623473184596613 -0.040488792054654672 0 0.024188313542665374 -0.038643967114124163 0 0.026035499129464366 -0.025129163714964466 0 0.022697827189153662 -0.029338666817932069 0 0.019835673889040034 -0.036908585588226607 0 0.020897454973470619 -0.038104594045649823 0 0.020050013099257417 -0.037922305104055025 0 0.020050013099257417 -0.037922305104055025 0 0.020259949442928065 -0.038895848809135262 0 0.019196291096581494 -0.037762681586584024 0 0.019835673889040034 -0.036908585588226607 0 0.020050013099257417 -0.037922305104055025 0 0.019196291096581494 -0.037762681586584024 0 0.020897454973470619 -0.038104594045649823 0 0.020050013099257417 -0.037922305104055025 0 0.020259949442928065 -0.038895848809135262 0 0.023604271452426617 -0.041898145959527414 0 0.024211734736887917 -0.041587995983847596 0 0.024209063774012149 -0.041993038240770393 0 0.023604271452426617 -0.041898145959527414 0 0.023639889244730591 -0.041320944294348162 0 0.024211734736887917 -0.041587995983847596 0 0.023639889244730591 -0.041320944294348162 0 0.024042192410457061 -0.041208047330272099 0 0.024211734736887917 -0.041587995983847596 0 0.023639889244730591 -0.041320944294348162 0 0.023807929118252288 -0.04095981621460703 0 0.023372897862689257 -0.040844010802193062 0 0.023639889244730591 -0.041320944294348162 0 0.023807929118252288 -0.04095981621460703 0 0.024042192410457061 -0.041208047330272099 0 0.023604271452426617 -0.041898145959527414 0 0.023639889244730591 -0.041320944294348162 0 0.022845682055865981 -0.041299575907399411 0 0.023639889244730591 -0.041320944294348162 0 0.022845682055865981 -0.041299575907399411 0 0.023372897862689257 -0.040844010802193062 0 0.020259949442928065 -0.038895848809135262 0 0.021207346401800265 -0.039893671528871293 0 0.021036898045583351 -0.039061451753756887 0 0.020897454973470619 -0.038104594045649823 0 0.021036898045583351 -0.039061451753756887 0 0.021747020464001877 -0.039297340673670425 0 0.021207346401800265 -0.039893671528871293 0 0.021036898045583351 -0.039061451753756887 0 0.021747020464001877 -0.039297340673670425 0 0.021623473184596613 -0.040488792054654672 0 0.022068161296897332 -0.040580789579806827 0 0.022697827189153662 -0.029338666817932069 0 0.02356221050230627 -0.029904618848028409 0 0.020897454973470619 -0.038104594045649823 0 0.020259949442928065 -0.038895848809135262 0 0.021036898045583351 -0.039061451753756887 0 0.025392054637673075 -0.020508158521503988 0 0.025894152742416174 -0.020171424763065618 0 0.025764885706732809 -0.021350324871107985 0 0.02356221050230627 -0.029904618848028409 0 0.024215937308638188 -0.030520292022217437 0 0.021207346401800265 -0.039893671528871293 0 0.021750620178927531 -0.039999998172248162 0 0.021935708362909166 -0.040469135019166907 0 0.021747020464001877 -0.039297340673670425 0 0.021946002788486556 -0.04025515507200883 0 0.021750620178927531 -0.039999998172248162 0 0.021207346401800265 -0.039893671528871293 0 0.021747020464001877 -0.039297340673670425 0 0.021750620178927531 -0.039999998172248162 0 0.021935708362909166 -0.040469135019166907 0 0.022352580613125991 -0.040206497818714472 0 0.022803269497505961 -0.040471478499586391 0 0.022845682055865981 -0.041299575907399411 0 0.021935708362909166 -0.040469135019166907 0 0.022803269497505961 -0.040471478499586391 0 0.022068161296897332 -0.040580789579806827 0 0.021921240414383571 -0.040474707244969439 0 0.021946002788486556 -0.04025515507200883 0 0.021935708362909166 -0.040469135019166907 0 0.021707308754650621 -0.0403213199338609 0 0.021946002788486556 -0.04025515507200883 0 0.021750620178927531 -0.039999998172248162 0 0.021935708362909166 -0.040469135019166907 0 0.021463282693045829 -0.040149573907218059 0 0.021707308754650621 -0.0403213199338609 0 0.021915926864030974 -0.040123919521192396 0 0.021935708362909166 -0.040469135019166907 0 0.021707308754650621 -0.0403213199338609 0 0.021915926864030974 -0.040123919521192396 0 0.0215162377022898 -0.03985101958744084 0 0.021463282693045829 -0.040149573907218059 0 0.021915926864030974 -0.040123919521192396 0 0.022352580613125991 -0.040206497818714472 0 0.022737481022318547 -0.040017867941507447 0 0.022803269497505961 -0.040471478499586391 0 0.021935708362909166 -0.040469135019166907 0 0.021915926864030974 -0.040123919521192396 0 0.022352580613125991 -0.040206497818714472 0 0.022407811857447103 -0.039751628366861157 0 0.021915926864030974 -0.040123919521192396 0 0.022352580613125991 -0.040206497818714472 0 0.022407811857447103 -0.039751628366861157 0 0.021988436694125209 -0.039807485387944472 0 0.021915926864030974 -0.040123919521192396 0 0.022407811857447103 -0.039751628366861157 0 0.022352580613125991 -0.040206497818714472 0 0.022737481022318547 -0.040017867941507447 0 0.023014131759813462 -0.039526856566630623 0 0.022737481022318547 -0.040017867941507447 0 0.023246680696571268 -0.039833202173350665 0 0.022737481022318547 -0.040017867941507447 0 0.023112666738332201 -0.040117874817778267 0 0.023246680696571268 -0.039833202173350665 0 0.022737481022318547 -0.040017867941507447 0 0.023112666738332201 -0.040117874817778267 0 0.022803269497505961 -0.040471478499586391 0 0.023112666738332201 -0.040117874817778267 0 0.023440357937415644 -0.040034321000586327 0 0.023406413495769458 -0.040352984810493445 0 0.023112666738332201 -0.040117874817778267 0 0.023406413495769458 -0.040352984810493445 0 0.022803269497505961 -0.040471478499586391 0 0.023112666738332201 -0.040117874817778267 0 0.023246680696571268 -0.039833202173350665 0 0.023440357937415644 -0.040034321000586327 0 0.023246680696571268 -0.039833202173350665 0 0.02368095229176775 -0.039799685030006672 0 0.023440357937415644 -0.040034321000586327 0 0.02368095229176775 -0.039799685030006672 0 0.023440357937415644 -0.040034321000586327 0 0.023755070167887703 -0.040080504885051667 0 0.02368095229176775 -0.039799685030006672 0 0.023927933995725743 -0.039864031287004262 0 0.023755070167887703 -0.040080504885051667 0 0.023927933995725743 -0.039864031287004262 0 0.024027017512753605 -0.0401020989276092 0 0.023755070167887703 -0.040080504885051667 0 0.024027017512753605 -0.0401020989276092 0 0.023866577564018335 -0.040375185860128129 0 0.024226877517398101 -0.040380936558400381 0 0.024027017512753605 -0.0401020989276092 0 0.023755070167887703 -0.040080504885051667 0 0.023866577564018335 -0.040375185860128129 0 0.023440357937415644 -0.040034321000586327 0 0.023755070167887703 -0.040080504885051667 0 0.023406413495769458 -0.040352984810493445 0 0.023755070167887703 -0.040080504885051667 0 0.023406413495769458 -0.040352984810493445 0 0.023866577564018335 -0.040375185860128129 0 0.023406413495769458 -0.040352984810493445 0 0.023678145969094271 -0.040640509768859884 0 0.023372897862689257 -0.040844010802193062 0 0.023406413495769458 -0.040352984810493445 0 0.023678145969094271 -0.040640509768859884 0 0.023866577564018335 -0.040375185860128129 0 0.023678145969094271 -0.040640509768859884 0 0.023866577564018335 -0.040375185860128129 0 0.024033995598515105 -0.040668097773217102 0 0.023678145969094271 -0.040640509768859884 0 0.023807929118252288 -0.04095981621460703 0 0.024033995598515105 -0.040668097773217102 0 0.023807929118252288 -0.04095981621460703 0 0.024200193811274761 -0.040954433467253241 0 0.024033995598515105 -0.040668097773217102 0 0.023678145969094271 -0.040640509768859884 0 0.023807929118252288 -0.04095981621460703 0 0.023372897862689257 -0.040844010802193062 0 0.022845682055865981 -0.041299575907399411 0 0.023372897862689257 -0.040844010802193062 0 0.022803269497505961 -0.040471478499586391 0 0.023406413495769458 -0.040352984810493445 0 0.023372897862689257 -0.040844010802193062 0 0.022803269497505961 -0.040471478499586391 0 0.028178020306487563 -0.039567369021965247 0 0.02857566941495069 -0.039753635598368399 0 0.028883492827740349 -0.040857236998716767 0 0.028406615535443921 -0.039453325339661532 0 0.028178020306487563 -0.039567369021965247 0 0.02857566941495069 -0.039753635598368399 0 0.028406615535443921 -0.039453325339661532 0 0.028178020306487563 -0.039567369021965247 0 0.027897763148559927 -0.039498388305349762 0 0.028406615535443921 -0.039453325339661532 0 0.027897763148559927 -0.039498388305349762 0 0.028487129499789772 -0.039125691447801238 0 0.028406615535443921 -0.039453325339661532 0 0.028896605779807304 -0.039308185294757665 0 0.028487129499789772 -0.039125691447801238 0 0.028406615535443921 -0.039453325339661532 0 0.028896605779807304 -0.039308185294757665 0 0.02857566941495069 -0.039753635598368399 0 0.028896605779807304 -0.039308185294757665 0 0.02857566941495069 -0.039753635598368399 0 0.028873298545136691 -0.03993926549012955 0 0.024697645695902454 -0.040644562788367339 0 0.024454846972376421 -0.04091977743710816 0 0.02463490807590302 -0.041123631374608949 0 0.024697645695902454 -0.040644562788367339 0 0.024454846972376421 -0.04091977743710816 0 0.024343267971213188 -0.040709452959286685 0 0.024454846972376421 -0.04091977743710816 0 0.024343267971213188 -0.040709452959286685 0 0.024200193811274761 -0.040954433467253241 0 0.024343267971213188 -0.040709452959286685 0 0.024200193811274761 -0.040954433467253241 0 0.024033995598515105 -0.040668097773217102 0 0.023866577564018335 -0.040375185860128129 0 0.024033995598515105 -0.040668097773217102 0 0.024226877517398101 -0.040380936558400381 0 0.024343267971213188 -0.040709452959286685 0 0.024033995598515105 -0.040668097773217102 0 0.024226877517398101 -0.040380936558400381 0 0.024697645695902454 -0.040644562788367339 0 0.024343267971213188 -0.040709452959286685 0 0.024226877517398101 -0.040380936558400381 0 0.028178020306487563 -0.039567369021965247 0 0.027897763148559927 -0.039498388305349762 0 0.025758870619988796 -0.03934481004304128 0 0.026632040189484136 -0.038862046687138579 0 0.02774673185599074 -0.039619706500537762 0 0.025467009428469349 -0.039210754890331663 0 0.027897763148559927 -0.039498388305349762 0 0.025758870619988796 -0.03934481004304128 0 0.026232730215677288 -0.040172527483298276 0 0.025008156650389524 -0.039453526707349883 0 0.024697645695902454 -0.040644562788367339 0 0.024226877517398101 -0.040380936558400381 0 0.024275786158195523 -0.039824743104734092 0 0.027631315884606201 -0.038361027712054845 0 0.027897763148559927 -0.039498388305349762 0 0.028254108803301616 -0.038693767905077621 0 0.024027017512753605 -0.0401020989276092 0 0.024226877517398101 -0.040380936558400381 0 0.024275786158195523 -0.039824743104734092 0 0.023927933995725743 -0.039864031287004262 0 0.024027017512753605 -0.0401020989276092 0 0.024275786158195523 -0.039824743104734092 0 0.027897763148559927 -0.039498388305349762 0 0.028254108803301616 -0.038693767905077621 0 0.028487129499789772 -0.039125691447801238 0 0.028896605779807304 -0.039308185294757665 0 0.028487129499789772 -0.039125691447801238 0 0.028812218214622865 -0.038816757231975488 0 0.028254108803301616 -0.038693767905077621 0 0.028487129499789772 -0.039125691447801238 0 0.028812218214622865 -0.038816757231975488 0 0.028565533961008093 -0.038411659202632023 0 0.028254108803301616 -0.038693767905077621 0 0.028812218214622865 -0.038816757231975488 0 0.029167081826582245 -0.038500445624307038 0 0.028565533961008093 -0.038411659202632023 0 0.028812218214622865 -0.038816757231975488 0 0.02935389838406216 -0.038976373764000503 0 0.029988074227673443 -0.038828363492107269 0 0.029763520578451202 -0.039485131896527408 0 0.029167081826582245 -0.038500445624307038 0 0.028812218214622865 -0.038816757231975488 0 0.02935389838406216 -0.038976373764000503 0 0.029167081826582245 -0.038500445624307038 0 0.02935389838406216 -0.038976373764000503 0 0.029988074227673443 -0.038828363492107269 0 0.028896605779807304 -0.039308185294757665 0 0.028812218214622865 -0.038816757231975488 0 0.02935389838406216 -0.038976373764000503 0 0.029988074227673443 -0.038828363492107269 0 0.030240153029934842 -0.039314637465177132 0 0.029763520578451202 -0.039485131896527408 0 0.029988074227673443 -0.038828363492107269 0 0.030240153029934842 -0.039314637465177132 0 0.030552115251089661 -0.038986900717426692 0 0.028896605779807304 -0.039308185294757665 0 0.02935389838406216 -0.038976373764000503 0 0.029763520578451202 -0.039485131896527408 0 0.028896605779807304 -0.039308185294757665 0 0.028873298545136691 -0.03993926549012955 0 0.029763520578451202 -0.039485131896527408 0 0.029900743317986343 -0.039590837211496706 0 0.029149187427325546 -0.039845839584532756 0 0.029763520578451202 -0.039485131896527408 0 0.029082362783090773 -0.040635185600922961 0 0.028959924124037372 -0.041128150557353992 0 0.028873298545136691 -0.03993926549012955 0 0.029763520578451202 -0.039485131896527408 0 0.029082362783090773 -0.040635185600922961 0 0.029763520578451202 -0.039485131896527408 0 0.030134400602772799 -0.039343739596672839 0 0.03043334277375339 -0.039269838384267432 0 0.030240153029934842 -0.039314637465177132 0 0.030270498348115616 -0.039259923152304491 0 0.030503172885997368 -0.039297635685767482 0 0.030240153029934842 -0.039314637465177132 0 0.029763520578451202 -0.039485131896527408 0 0.030134400602772799 -0.039343739596672839 0 0.030240153029934842 -0.039314637465177132 0 0.030134400602772799 -0.039343739596672839 0 0.030270498348115616 -0.039259923152304491 0 0.030281566041334987 -0.039038942313181495 0 0.030276368582617098 -0.039128314633091722 0 0.030422608577414471 -0.03869919983534769 0 0.030270498348115616 -0.039259923152304491 0 0.030281566041334987 -0.039038942313181495 0 0.030276368582617098 -0.039128314633091722 0 0.030134400602772799 -0.039343739596672839 0 0.030270498348115616 -0.039259923152304491 0 0.030276368582617098 -0.039128314633091722 0 0.030693299852287293 -0.03918184053573532 0 0.03087921459018577 -0.038799575285129242 0 0.030422608577414471 -0.03869919983534769 0 0.030134400602772799 -0.039343739596672839 0 0.030276368582617098 -0.039128314633091722 0 0.03043334277375339 -0.039269838384267432 0 0.030276368582617098 -0.039128314633091722 0 0.03043334277375339 -0.039269838384267432 0 0.030422608577414471 -0.03869919983534769 0 0.029149187427325546 -0.039845839584532756 0 0.030729821644390885 -0.038606566423973657 0 0.027240270077009548 -0.03942494799670699 0 0.026921460476097232 -0.039744837378056105 0 0.027111349636720045 -0.039279342629525135 0 0.029149187427325546 -0.039845839584532756 0 0.028972641256879716 -0.039120267671071567 0 0.024718652576571114 -0.041991142008161314 0 0.024747288929353285 -0.041586915238944464 0 0.02515414191177668 -0.041466206643776267 0 0.025800198826192933 -0.040946276353946695 0 0.027941709545192695 -0.040621016387556365 0 0.027240270077009548 -0.03942494799670699 0 0.026921460476097232 -0.039744837378056105 0 0.02696251989035062 -0.039819797285194809 0 0.024697645695902454 -0.040644562788367339 0 0.02515414191177668 -0.041466206643776267 0 0.024828728209284362 -0.041297358796434161 0 0.02857566941495069 -0.039753635598368399 0 0.028873298545136691 -0.03993926549012955 0 0.028883492827740349 -0.040857236998716767 0 0.026232730215677288 -0.040172527483298276 0 0.027941709545192695 -0.040621016387556365 0 0.029082362783090773 -0.040635185600922961 0 0.028959924124037372 -0.041128150557353992 0 0.028849752687933373 -0.04092394306550394 0 0.029149187427325546 -0.039845839584532756 0 0.027941709545192695 -0.040621016387556365 0 0.024697645695902454 -0.040644562788367339 0 0.024828728209284362 -0.041297358796434161 0 0.02463490807590302 -0.041123631374608949 0 0.028287152783694515 -0.040470040571981454 0 0.027941709545192695 -0.040621016387556365 0 0.024747288929353285 -0.041586915238944464 0 0.02515414191177668 -0.041466206643776267 0 0.024828728209284362 -0.041297358796434161 0 0.024747288929353285 -0.041586915238944464 0 0.024828728209284362 -0.041297358796434161 0 0.024567995631701908 -0.041374025500008613 0 0.024828728209284362 -0.041297358796434161 0 0.02463490807590302 -0.041123631374608949 0 0.024567995631701908 -0.041374025500008613 0 0.028873298545136691 -0.03993926549012955 0 0.029082362783090773 -0.040635185600922961 0 0.028883492827740349 -0.040857236998716767 0 0.023807929118252288 -0.04095981621460703 0 0.024200193811274761 -0.040954433467253241 0 0.024042192410457061 -0.041208047330272099 0 0.024200193811274761 -0.040954433467253241 0 0.024042192410457061 -0.041208047330272099 0 0.02434683973284189 -0.041213638721918001 0 0.024454846972376421 -0.04091977743710816 0 0.024200193811274761 -0.040954433467253241 0 0.02434683973284189 -0.041213638721918001 0 0.024454846972376421 -0.04091977743710816 0 0.02463490807590302 -0.041123631374608949 0 0.02434683973284189 -0.041213638721918001 0 0.02463490807590302 -0.041123631374608949 0 0.02434683973284189 -0.041213638721918001 0 0.024567995631701908 -0.041374025500008613 0 0.02434683973284189 -0.041213638721918001 0 0.024567995631701908 -0.041374025500008613 0 0.024211734736887917 -0.041587995983847596 0 0.024747288929353285 -0.041586915238944464 0 0.024567995631701908 -0.041374025500008613 0 0.024211734736887917 -0.041587995983847596 0 0.024042192410457061 -0.041208047330272099 0 0.02434683973284189 -0.041213638721918001 0 0.024211734736887917 -0.041587995983847596 0 0.023604271452426617 -0.041898145959527414 0 0.024209063774012149 -0.041993038240770393 0 0.02429842758094182 -0.042490592140475181 0 0.024718652576571114 -0.041991142008161314 0 0.024211734736887917 -0.041587995983847596 0 0.024209063774012149 -0.041993038240770393 0 0.024718652576571114 -0.041991142008161314 0 0.024747288929353285 -0.041586915238944464 0 0.024211734736887917 -0.041587995983847596 0 0.027535090367576617 -0.039017985273436563 0 0.027111349636720045 -0.039279342629525135 0 0.02731839027970763 -0.038799852074228015 0 0.024718652576571114 -0.041991142008161314 0 0.024209063774012149 -0.041993038240770393 0 0.02429842758094182 -0.042490592140475181 0 0.025800198826192933 -0.040946276353946695 0 0.024188313542665374 -0.038643967114124163 0 0.024188313542665374 -0.038643967114124163 0 0.028194624225633985 -0.037200579315258449 0 0.03087921459018577 -0.038799575285129242 0 0.030737547194690733 -0.038398433907044852 0 0.03117472207826372 -0.0382241668257172 0 0.028972641256879716 -0.039120267671071567 0 0.028194624225633985 -0.037200579315258449 0 0.03087921459018577 -0.038799575285129242 0 0.030737547194690733 -0.038398433907044852 0 0.030422608577414471 -0.03869919983534769 0 0.027240270077009548 -0.03942494799670699 0 0.027535090367576617 -0.039017985273436563 0 0.027111349636720045 -0.039279342629525135 0 0.030720937730567804 -0.037785743962149801 0 0.030705575616664864 -0.037685009245691917 0 0.030682857951825727 -0.037453733270443601 0 0.030737547194690733 -0.038398433907044852 0 0.030720937730567804 -0.037785743962149801 0 0.030480239668387886 -0.038230349290740234 0 0.030737547194690733 -0.038398433907044852 0 0.030720937730567804 -0.037785743962149801 0 0.03117472207826372 -0.0382241668257172 0 0.030976793615729328 -0.038398258391753676 0 0.028194624225633985 -0.037200579315258449 0 0.029797919390066228 -0.030943052421306117 0 0.02726562577781266 -0.034211895446247031 0 0.025250219558327801 -0.03228238988250199 0 0.029797919390066228 -0.030943052421306117 0 0.025250219558327801 -0.03228238988250199 0 0.027063517997430623 -0.028420342702498165 0 0.026035499129464366 -0.025129163714964466 0 0.024188313542665374 -0.038643967114124163 0 0.028194624225633985 -0.037200579315258449 0 0.031093672120447016 -0.026423176325089722 0 0.026035499129464366 -0.025129163714964466 0 0.031093672120447016 -0.026423176325089722 0 0.030760702280919573 -0.01793631901912408 0 0.030753397603282068 -0.015776150682097811 0 0.032675607343980222 -0.017397601292014533 0 0.033153825411502011 -0.01749961477171973 0 0.031093672120447016 -0.026423176325089722 0 0.031730580702061244 -0.019895875541679809 0 0.033199133961682517 -0.017876815068768866 0 0.035141253007669015 -0.019637755094874195 0 0.031209944521578135 -0.018704901398854848 0 0.030760702280919573 -0.01793631901912408 0 0.032675607343980222 -0.017397601292014533 0 0.031209944521578135 -0.018704901398854848 0 0.031730580702061244 -0.019895875541679809 0 0.032675607343980222 -0.017397601292014533 0 0.030376126646363369 -0.021038740947116226 0 0.031730580702061244 -0.019895875541679809 0 0.035141253007669015 -0.019637755094874195 0 0.031093672120447016 -0.026423176325089722 0 0.034423065701346796 -0.023078652287832475 0 0.034423065701346796 -0.023078652287832475 0 0.033335651687820989 -0.030435390267461782 0 0.030720937730567804 -0.037785743962149801 0 0.03064954222194078 -0.037317576480382315 0 0.030467491538220603 -0.037850279138536287 0 0.038419897178579826 -0.020076011579336632 0 0.037929737076664687 -0.019645491707679198 0 0.037771086363495132 -0.019941096705106826 0 0.030720937730567804 -0.037785743962149801 0 0.030682857951825727 -0.037453733270443601 0 0.03064954222194078 -0.037317576480382315 0 0.034211042545778302 -0.019392755450034802 0 0.035974423000955123 -0.021052212639358414 0 0.034524159436085333 -0.022268253522386712 0 0.034211042545778302 -0.019392755450034802 0 0.034524159436085333 -0.022268253522386712 0 0.032855640803489447 -0.021358138389683937 0 0.034423065701346796 -0.023078652287832475 0 0.03680775291524821 -0.020385108006035841 0 0.031810321486399486 -0.022098844219064429 0 0.032855640803489447 -0.021358138389683937 0 0.033204955566480357 -0.023448648755133892 0 0.031025387659370861 -0.02003214206088277 0 0.034423065701346796 -0.023078652287832475 0 0.034524159436085333 -0.022268253522386712 0 0.032855640803489447 -0.021358138389683937 0 0.033204955566480357 -0.023448648755133892 0 0.030376126646363369 -0.021038740947116226 0 0.034211042545778302 -0.019392755450034802 0 0.032855640803489447 -0.021358138389683937 0 0.030376126646363369 -0.021038740947116226 0 0.031810321486399486 -0.022098844219064429 0 0.032855640803489447 -0.021358138389683937 0 0.037278984852907246 -0.019658868950529925 0 0.037351832655808222 -0.019904585560547347 0 0.037145590581904919 -0.019698896464971655 0 0.037278984852907246 -0.019658868950529925 0 0.037339071139844443 -0.019500541325940899 0 0.03751833640834213 -0.019652390324438086 0 0.037278984852907246 -0.019658868950529925 0 0.037168089961768326 -0.019517779446785084 0 0.037145590581904919 -0.019698896464971655 0 0.037278984852907246 -0.019658868950529925 0 0.037168089961768326 -0.019517779446785084 0 0.037339071139844443 -0.019500541325940899 0 0.037168089961768326 -0.019517779446785084 0 0.037339071139844443 -0.019500541325940899 0 0.037285352216467539 -0.019382524553036372 0 0.037339071139844443 -0.019500541325940899 0 0.037403393272598902 -0.019372358707619646 0 0.037285352216467539 -0.019382524553036372 0 0.037339071139844443 -0.019500541325940899 0 0.037435071350619305 -0.019402153665614312 0 0.037403393272598902 -0.019372358707619646 0 0.035974423000955123 -0.021052212639358414 0 0.034524159436085333 -0.022268253522386712 0 0.037746334474569938 -0.022675262979772928 0 0.037718623286303189 -0.019991902313807468 0 0.03744402512971403 -0.020780154850958826 0 0.037339071139844443 -0.019500541325940899 0 0.03751833640834213 -0.019652390324438086 0 0.037504601626367172 -0.019332730162834245 0 0.037929737076664687 -0.019645491707679198 0 0.03751833640834213 -0.019652390324438086 0 0.037504601626367172 -0.019332730162834245 0 0.03680775291524821 -0.020385108006035841 0 0.03744402512971403 -0.020780154850958826 0 0.037929737076664687 -0.019645491707679198 0 0.03751833640834213 -0.019652390324438086 0 0.037771086363495132 -0.019941096705106826 0 0.037278984852907246 -0.019658868950529925 0 0.03751833640834213 -0.019652390324438086 0 0.037351832655808222 -0.019904585560547347 0 0.038419897178579826 -0.020076011579336632 0 0.037771086363495132 -0.019941096705106826 0 0.037569667443460769 -0.020632937468333109 0 0.037351832655808222 -0.019904585560547347 0 0.037771086363495132 -0.019941096705106826 0 0.037569667443460769 -0.020632937468333109 0 0.03751833640834213 -0.019652390324438086 0 0.037351832655808222 -0.019904585560547347 0 0.037771086363495132 -0.019941096705106826 0 0.037351832655808222 -0.019904585560547347 0 0.037105873224030937 -0.019905066768577766 0 0.037145590581904919 -0.019698896464971655 0 0.038356942383069602 -0.01806666426704763 0 0.034693330282830809 -0.025608109202817163 0 0.037351832655808222 -0.019904585560547347 0 0.037569667443460769 -0.020632937468333109 0 0.036062225287069788 -0.021438612896540261 0 0.037351832655808222 -0.019904585560547347 0 0.03727343411061302 -0.020222705944222132 0 0.037105873224030937 -0.019905066768577766 0 0.030467491538220603 -0.037850279138536287 0 0.030175270417342345 -0.038435832747499156 0 0.030480239668387886 -0.038230349290740234 0 0.033335651687820989 -0.030435390267461782 0 0.034693330282830809 -0.025608109202817163 0 0.030175270417342345 -0.038435832747499156 0 0.030480239668387886 -0.038230349290740234 0 0.030422608577414471 -0.03869919983534769 0 0.030720937730567804 -0.037785743962149801 0 0.030467491538220603 -0.037850279138536287 0 0.030480239668387886 -0.038230349290740234 0 0.030737547194690733 -0.038398433907044852 0 0.030480239668387886 -0.038230349290740234 0 0.030422608577414471 -0.03869919983534769 0 0.030281566041334987 -0.039038942313181495 0 0.030175270417342345 -0.038435832747499156 0 0.030422608577414471 -0.03869919983534769 0 0.030281566041334987 -0.039038942313181495 0 0.030175270417342345 -0.038435832747499156 0 0.030323270244484488 -0.039080609847644339 0 0.034693330282830809 -0.025608109202817163 0 0.032915612808792738 -0.031799723942355286 0 0.036243771699353493 -0.022936630048711097 0 0.036448093194072183 -0.022730841384169264 0 0.036481400794985609 -0.022737777930970315 0 0.037237551573401265 -0.021196414753952564 0 0.035928478784948398 -0.022127378651571036 0 0.036481400794985609 -0.022737777930970315 0 0.036083434704881873 -0.02254935921176842 0 0.036399855539438329 -0.02277674120349605 0 0.036927175840019096 -0.020701997457489161 0 0.036682838279873176 -0.020193871297654008 0 0.036168040063664753 -0.021498896999225796 0 0.036448093194072183 -0.022730841384169264 0 0.036481400794985609 -0.022737777930970315 0 0.036399855539438329 -0.02277674120349605 0 0.036927175840019096 -0.020701997457489161 0 0.036682838279873176 -0.020193871297654008 0 0.037105873224030937 -0.019905066768577766 0 0.034693330282830809 -0.025608109202817163 0 0.037237551573401265 -0.021196414753952564 0 0.03727343411061302 -0.020222705944222132 0 0.036927175840019096 -0.020701997457489161 0 0.037105873224030937 -0.019905066768577766 0 0.03627298962205986 -0.017641702358098515 0 0.035945122698572085 -0.016553486496533459 0 0.037250959683421826 -0.016666002731367514 0 0.037105873224030937 -0.019905066768577766 0 0.036844903537644316 -0.019623690158573983 0 0.037145590581904919 -0.019698896464971655 0 0.036682838279873176 -0.020193871297654008 0 0.037105873224030937 -0.019905066768577766 0 0.036844903537644316 -0.019623690158573983 0 0.036844903537644316 -0.019623690158573983 0 0.036261741933497717 -0.018947168264591276 0 0.037484491566143259 -0.01851669298927076 0 0.036298317726003108 -0.018169996438350745 0 0.037043660656756898 -0.018486230285349924 0 0.036874368493544585 -0.019760153847704329 0 0.037043660656756898 -0.018486230285349924 0 0.036844903537644316 -0.019623690158573983 0 0.037145590581904919 -0.019698896464971655 0 0.036987274990860165 -0.019463403420246158 0 0.037168089961768326 -0.019517779446785084 0 0.037145590581904919 -0.019698896464971655 0 0.036987274990860165 -0.019463403420246158 0 0.036298317726003108 -0.018169996438350745 0 0.034999843643746885 -0.018893734678656841 0 0.03627298962205986 -0.017641702358098515 0 0.034999889727517115 -0.018892919855815798 0 0.034999696848248704 -0.017035180088270735 0 0.036682838279873176 -0.020193871297654008 0 0.036844903537644316 -0.019623690158573983 0 0.036020224428656954 -0.019817222652499092 0 0.036844903537644316 -0.019623690158573983 0 0.036261741933497717 -0.018947168264591276 0 0.036020224428656954 -0.019817222652499092 0 0.036261741933497717 -0.018947168264591276 0 0.036020224428656954 -0.019817222652499092 0 0.034999960845188069 -0.018894847114449005 0 0.036020224428656954 -0.019817222652499092 0 0.034999897056036976 -0.020679426383684061 0 0.036168040063664753 -0.021498896999225796 0 0.036020224428656954 -0.019817222652499092 0 0.034999960845188069 -0.018894847114449005 0 0.034999897056036976 -0.020679426383684061 0 0.036682838279873176 -0.020193871297654008 0 0.036020224428656954 -0.019817222652499092 0 0.036168040063664753 -0.021498896999225796 0 0.034999897056036976 -0.020679426383684061 0 0.036168040063664753 -0.021498896999225796 0 0.034999883507286084 -0.02246545448463546 0 0.036083434704881873 -0.02254935921176842 0 0.035000115320670634 -0.022466946442636197 0 0.035840995653514139 -0.023195742049196381 0 0.035928478784948398 -0.022127378651571036 0 0.035000308089927656 -0.022465718685942469 0 0.035840995653514139 -0.023195742049196381 0 0.034999803046987688 -0.024224055206860724 0 0.036146700280460825 -0.024071058959665798 0 0.035000115320670634 -0.022466946442636197 0 0.035840995653514139 -0.023195742049196381 0 0.034999803046987688 -0.024224055206860724 0 0.035840995653514139 -0.023195742049196381 0 0.036487717431008308 -0.023092901016239505 0 0.036146700280460825 -0.024071058959665798 0 0.033868305872789294 -0.031025779471008774 0 0.033861893849494729 -0.03181434021512744 0 0.036083434704881873 -0.02254935921176842 0 0.036487717431008308 -0.023092901016239505 0 0.036399855539438329 -0.02277674120349605 0 0.036083434704881873 -0.02254935921176842 0 0.035840995653514139 -0.023195742049196381 0 0.036487717431008308 -0.023092901016239505 0 0.032915612808792738 -0.031799723942355286 0 0.033868305872789294 -0.031025779471008774 0 0.030323270244484488 -0.039080609847644339 0 0.030956078079691599 -0.039395262233177637 0 0.030503172885997368 -0.039297635685767482 0 0.036448093194072183 -0.022730841384169264 0 0.036487717431008308 -0.023092901016239505 0 0.036399855539438329 -0.02277674120349605 0 0.030270498348115616 -0.039259923152304491 0 0.030281566041334987 -0.039038942313181495 0 0.030503172885997368 -0.039297635685767482 0 0.030281566041334987 -0.039038942313181495 0 0.030323270244484488 -0.039080609847644339 0 0.030503172885997368 -0.039297635685767482 0 0.030240153029934842 -0.039314637465177132 0 0.030503172885997368 -0.039297635685767482 0 0.030771495115835722 -0.039191938948677132 0 0.030956078079691599 -0.039395262233177637 0 0.030771495115835722 -0.039191938948677132 0 0.031809997435386386 -0.039197972415716105 0 0.030956078079691599 -0.039395262233177637 0 0.030503172885997368 -0.039297635685767482 0 0.030771495115835722 -0.039191938948677132 0 0.031350531642618085 -0.038869143477781393 0 0.030771495115835722 -0.039191938948677132 0 0.031809997435386386 -0.039197972415716105 0 0.030240153029934842 -0.039314637465177132 0 0.030552115251089661 -0.038986900717426692 0 0.030771495115835722 -0.039191938948677132 0 0.031350531642618085 -0.038869143477781393 0 0.030552115251089661 -0.038986900717426692 0 0.030771495115835722 -0.039191938948677132 0 0.029988074227673443 -0.038828363492107269 0 0.030552115251089661 -0.038986900717426692 0 0.030851046042298737 -0.038565911865124543 0 0.031350531642618085 -0.038869143477781393 0 0.030552115251089661 -0.038986900717426692 0 0.030851046042298737 -0.038565911865124543 0 0.030234929912614443 -0.038039379489293777 0 0.029988074227673443 -0.038828363492107269 0 0.030851046042298737 -0.038565911865124543 0 0.031835163793564006 -0.038257284652275889 0 0.031350531642618085 -0.038869143477781393 0 0.030851046042298737 -0.038565911865124543 0 0.031835163793564006 -0.038257284652275889 0 0.031350531642618085 -0.038869143477781393 0 0.032007311313712816 -0.038749422212414522 0 0.031835163793564006 -0.038257284652275889 0 0.032007311313712816 -0.038749422212414522 0 0.032380279075667262 -0.038352649710613453 0 0.035000016255589142 -0.025983089498472618 0 0.035427308170001552 -0.025360744210848378 0 0.034999803046987688 -0.024224055206860724 0 0.035002169145503741 -0.025982490492190757 0 0.03421360594068 -0.031084663513117214 0 0.032007311313712816 -0.038749422212414522 0 0.032380279075667262 -0.038352649710613453 0 0.032642071636886184 -0.038694219160692031 0 0.03421360594068 -0.031084663513117214 0 0.033861893849494729 -0.03181434021512744 0 0.035427308170001552 -0.025360744210848378 0 0.034999803046987688 -0.024224055206860724 0 0.036146700280460825 -0.024071058959665798 0 0.032007311313712816 -0.038749422212414522 0 0.032642071636886184 -0.038694219160692031 0 0.031809997435386386 -0.039197972415716105 0 0.031350531642618085 -0.038869143477781393 0 0.032007311313712816 -0.038749422212414522 0 0.031809997435386386 -0.039197972415716105 0 0.035919885379044468 -0.010605980387862273 0 0.036375353944116055 -0.009480625827879386 0 0.037345427609283235 -0.010495306551390459 0 0.035919885379044468 -0.010605980387862273 0 0.035000049518459024 -0.0096032005348891218 0 0.034999846876744595 -0.011462206073152749 0 0.035919885379044468 -0.010605980387862273 0 0.035000049518459024 -0.0096032005348891218 0 0.036375353944116055 -0.009480625827879386 0 0.035000049518459024 -0.0096032005348891218 0 0.036375353944116055 -0.009480625827879386 0 0.035723963224085213 -0.0086727179340508019 0 0.036375353944116055 -0.009480625827879386 0 0.037431475906243496 -0.009250371551378549 0 0.036868528601598956 -0.0082948131740522499 0 0.036375353944116055 -0.009480625827879386 0 0.036868528601598956 -0.0082948131740522499 0 0.035723963224085213 -0.0086727179340508019 0 0.036375353944116055 -0.009480625827879386 0 0.037431475906243496 -0.009250371551378549 0 0.037345427609283235 -0.010495306551390459 0 0.037431475906243496 -0.009250371551378549 0 0.038702390029528078 -0.0088859666386805897 0 0.037345427609283235 -0.010495306551390459 0 0.03756260950695163 -0.010506703262372174 0 0.036814337832271553 -0.011981599888949517 0 0.036570452333256898 -0.013286305382677728 0 0.036553609882248719 -0.013397396948277355 0 0.036407985141320841 -0.013221654148943916 0 0.037431475906243496 -0.009250371551378549 0 0.038702390029528078 -0.0088859666386805897 0 0.036868528601598956 -0.0082948131740522499 0 0.036759837829562499 -0.013456693649303885 0 0.036644442003696598 -0.013809886755191471 0 0.036646351139912305 -0.013284876978129934 0 0.036570452333256898 -0.013286305382677728 0 0.036553609882248719 -0.013397396948277355 0 0.036759837829562499 -0.013456693649303885 0 0.03756260950695163 -0.010506703262372174 0 0.036553609882248719 -0.013397396948277355 0 0.036632054814047521 -0.013583560266861647 0 0.036578054537664488 -0.013483922034099174 0 0.036646351139912305 -0.013284876978129934 0 0.036553609882248719 -0.013397396948277355 0 0.036632054814047521 -0.013583560266861647 0 0.036553609882248719 -0.013397396948277355 0 0.036407985141320841 -0.013221654148943916 0 0.036578054537664488 -0.013483922034099174 0 0.036407985141320841 -0.013221654148943916 0 0.036547908868281263 -0.013395942143964369 0 0.036305863605169297 -0.013109902172606467 0 0.036407985141320841 -0.013221654148943916 0 0.036578054537664488 -0.013483922034099174 0 0.036547908868281263 -0.013395942143964369 0 0.036632054814047521 -0.013583560266861647 0 0.036578054537664488 -0.013483922034099174 0 0.036615227678452128 -0.013641119843781982 0 0.036578054537664488 -0.013483922034099174 0 0.036647938627091731 -0.013585966907254613 0 0.036547908868281263 -0.013395942143964369 0 0.036578054537664488 -0.013483922034099174 0 0.036647938627091731 -0.013585966907254613 0 0.036615227678452128 -0.013641119843781982 0 0.036715609043540424 -0.013669238600539426 0 0.036547908868281263 -0.013395942143964369 0 0.036546756780855998 -0.013688545971737793 0 0.036647938627091731 -0.013585966907254613 0 0.036715609043540424 -0.013669238600539426 0 0.036547908868281263 -0.013395942143964369 0 0.036547908868281263 -0.013395942143964369 0 0.036305863605169297 -0.013109902172606467 0 0.036546756780855998 -0.013688545971737793 0 0.036305863605169297 -0.013109902172606467 0 0.036036387371802543 -0.013539194958634097 0 0.036546756780855998 -0.013688545971737793 0 0.036305863605169297 -0.013109902172606467 0 0.035842365828859774 -0.012465826154541176 0 0.036036387371802543 -0.013539194958634097 0 0.036814337832271553 -0.011981599888949517 0 0.035900680565316291 -0.012465438535356631 0 0.036407985141320841 -0.013221654148943916 0 0.036305863605169297 -0.013109902172606467 0 0.035842365828859774 -0.012465826154541176 0 0.035919885379044468 -0.010605980387862273 0 0.037345427609283235 -0.010495306551390459 0 0.035842365828859774 -0.012465826154541176 0 0.035919885379044468 -0.010605980387862273 0 0.034999846876744595 -0.011462206073152749 0 0.035842365828859774 -0.012465826154541176 0 0.035842365828859774 -0.012465826154541176 0 0.035000016677176927 -0.013319973454487277 0 0.036036387371802543 -0.013539194958634097 0 0.034999846876744595 -0.011462206073152749 0 0.035842365828859774 -0.012465826154541176 0 0.035000016677176927 -0.013319973454487277 0 0.035000016677176927 -0.013319973454487277 0 0.036036387371802543 -0.013539194958634097 0 0.035810729434127296 -0.014383397714762986 0 0.036036387371802543 -0.013539194958634097 0 0.035810729434127296 -0.014383397714762986 0 0.036410506572274674 -0.014371709038119415 0 0.035810729434127296 -0.014383397714762986 0 0.034999759141728599 -0.015177328760117419 0 0.036320773628696026 -0.015395218378684815 0 0.035810729434127296 -0.014383397714762986 0 0.036320773628696026 -0.015395218378684815 0 0.036410506572274674 -0.014371709038119415 0 0.035000016677176927 -0.013319973454487277 0 0.035810729434127296 -0.014383397714762986 0 0.034999759141728599 -0.015177328760117419 0 0.034999759141728599 -0.015177328760117419 0 0.035945122698572085 -0.016553486496533459 0 0.034999696848248704 -0.017035180088270735 0 0.034999759141728599 -0.015177328760117419 0 0.036320773628696026 -0.015395218378684815 0 0.035945122698572085 -0.016553486496533459 0 0.03627298962205986 -0.017641702358098515 0 0.035945122698572085 -0.016553486496533459 0 0.034999696848248704 -0.017035180088270735 0 0.036320773628696026 -0.015395218378684815 0 0.035945122698572085 -0.016553486496533459 0 0.037250959683421826 -0.016666002731367514 0 0.037043660656756898 -0.018486230285349924 0 0.036856517592599822 -0.01931540500306524 0 0.036103704063657753 -0.019451013616086577 0 0.036534821040933224 -0.018664208011165698 0 0.036749551597491388 -0.019212928600826091 0 0.037043660656756898 -0.018486230285349924 0 0.03692110813493564 -0.016981734604461007 0 0.037168089961768326 -0.019517779446785084 0 0.036987274990860165 -0.019463403420246158 0 0.037187472562117893 -0.019314859188992232 0 0.036320773628696026 -0.015395218378684815 0 0.037250959683421826 -0.016666002731367514 0 0.036883100229844923 -0.015022040109293975 0 0.037250959683421826 -0.016666002731367514 0 0.036883100229844923 -0.015022040109293975 0 0.037436912643977409 -0.015379370882549672 0 0.036883100229844923 -0.015022040109293975 0 0.03689574194002361 -0.014204595321169043 0 0.037436912643977409 -0.015379370882549672 0 0.036883100229844923 -0.015022040109293975 0 0.03689574194002361 -0.014204595321169043 0 0.036410506572274674 -0.014371709038119415 0 0.036320773628696026 -0.015395218378684815 0 0.036883100229844923 -0.015022040109293975 0 0.036410506572274674 -0.014371709038119415 0 0.03689574194002361 -0.014204595321169043 0 0.036410506572274674 -0.014371709038119415 0 0.036546756780855998 -0.013688545971737793 0 0.036036387371802543 -0.013539194958634097 0 0.036410506572274674 -0.014371709038119415 0 0.036546756780855998 -0.013688545971737793 0 0.036715609043540424 -0.013669238600539426 0 0.03689574194002361 -0.014204595321169043 0 0.036546756780855998 -0.013688545971737793 0 0.036715609043540424 -0.013669238600539426 0 0.03689574194002361 -0.014204595321169043 0 0.036737048103681016 -0.013725479667045992 0 0.036715609043540424 -0.013669238600539426 0 0.036737048103681016 -0.013725479667045992 0 0.036580972832043208 -0.013580501338398086 0 0.03689574194002361 -0.014204595321169043 0 0.036737048103681016 -0.013725479667045992 0 0.037175272566979667 -0.014249840650121044 0 0.036737048103681016 -0.013725479667045992 0 0.036526818387104809 -0.013495830046632545 0 0.037175272566979667 -0.014249840650121044 0 0.035921785551146418 -0.014577655458301374 0 0.035648768718877906 -0.015702419495000151 0 0.035921785551146418 -0.014577655458301374 0 0.03713948899947133 -0.016133234735613643 0 0.037457281727717368 -0.016878306095530128 0 0.036979263331626107 -0.017789307852943522 0 0.03798702317880339 -0.017727431813421235 0 0.036737048103681016 -0.013725479667045992 0 0.036526818387104809 -0.013495830046632545 0 0.036453550932580944 -0.013492824971092245 0 0.036979263331626107 -0.017789307852943522 0 0.037712027598064489 -0.018397457373155839 0 0.03798702317880339 -0.017727431813421235 0 0.03689574194002361 -0.014204595321169043 0 0.037175272566979667 -0.014249840650121044 0 0.037436912643977409 -0.015379370882549672 0 0.03713948899947133 -0.016133234735613643 0 0.03692110813493564 -0.016981734604461007 0 0.036979263331626107 -0.017789307852943522 0 0.036534821040933224 -0.018664208011165698 0 0.037114586142716247 -0.018472851901120621 0 0.036534821040933224 -0.018664208011165698 0 0.036963764845235794 -0.018835273640632394 0 0.037114586142716247 -0.018472851901120621 0 0.036979263331626107 -0.017789307852943522 0 0.037114586142716247 -0.018472851901120621 0 0.037712027598064489 -0.018397457373155839 0 0.037712027598064489 -0.018397457373155839 0 0.037483820001630738 -0.018996177365990075 0 0.037878934532563052 -0.019041310870967221 0 0.037114586142716247 -0.018472851901120621 0 0.037712027598064489 -0.018397457373155839 0 0.037483820001630738 -0.018996177365990075 0 0.036963764845235794 -0.018835273640632394 0 0.037114586142716247 -0.018472851901120621 0 0.037483820001630738 -0.018996177365990075 0 0.037483820001630738 -0.018996177365990075 0 0.037437899172233516 -0.019419383997397961 0 0.037878934532563052 -0.019041310870967221 0 0.03744402512971403 -0.020780154850958826 0 0.036792190380280178 -0.021799783323776939 0 0.037483820001630738 -0.018996177365990075 0 0.037437899172233516 -0.019419383997397961 0 0.037403393272598902 -0.019372358707619646 0 0.037483820001630738 -0.018996177365990075 0 0.037403393272598902 -0.019372358707619646 0 0.037285352216467539 -0.019382524553036372 0 0.03744402512971403 -0.020780154850958826 0 0.037354981784666237 -0.020634554768322613 0 0.036963764845235794 -0.018835273640632394 0 0.037483820001630738 -0.018996177365990075 0 0.036749551597491388 -0.019212928600826091 0 0.037483820001630738 -0.018996177365990075 0 0.037285352216467539 -0.019382524553036372 0 0.037187472562117893 -0.019314859188992232 0 0.03749874126443483 -0.019011442619774176 0 0.036856517592599822 -0.01931540500306524 0 0.037168089961768326 -0.019517779446785084 0 0.037285352216467539 -0.019382524553036372 0 0.037187472562117893 -0.019314859188992232 0 0.036534821040933224 -0.018664208011165698 0 0.036963764845235794 -0.018835273640632394 0 0.036749551597491388 -0.019212928600826091 0 0.026488605620528859 -0.018299191241510207 0 0.027847032442748079 -0.018445189505581595 0 0.028219775263862188 -0.0199831972497055 0 0.033204955566480357 -0.023448648755133892 0 0.033277015384166893 -0.026162727066062579 0 0.031033637692221217 -0.022994025245836745 0 0.032820372179951707 -0.018984451200147263 0 0.029286539275838335 -0.021863000658358903 0 0.031810321486399486 -0.022098844219064429 0 0.033204955566480357 -0.023448648755133892 0 0.031033637692221217 -0.022994025245836745 0 0.034524159436085333 -0.022268253522386712 0 0.033204955566480357 -0.023448648755133892 0 0.03549791546032393 -0.024454187987551061 0 0.033204955566480357 -0.023448648755133892 0 0.03549791546032393 -0.024454187987551061 0 0.033277015384166893 -0.026162727066062579 0 0.034524159436085333 -0.022268253522386712 0 0.037746334474569938 -0.022675262979772928 0 0.03549791546032393 -0.024454187987551061 0 0.037712027598064489 -0.018397457373155839 0 0.037878934532563052 -0.019041310870967221 0 0.038462794002759461 -0.018550443920005204 0 0.036792190380280178 -0.021799783323776939 0 0.032820372179951707 -0.018984451200147263 0 0.037712027598064489 -0.018397457373155839 0 0.038462794002759461 -0.018550443920005204 0 0.03798702317880339 -0.017727431813421235 0 0.026488605620528859 -0.018299191241510207 0 0.027847032442748079 -0.018445189505581595 0 0.028284220612550995 -0.016429350637670412 0 0.032820372179951707 -0.018984451200147263 0 0.030104947375245755 -0.015173983056295162 0 0.032622837535023028 -0.013441747140167437 0 0.032528416869455568 -0.014051062069190426 0 0.032046975492541693 -0.013791122183301892 0 0.032528416869455568 -0.014051062069190426 0 0.032280332081556215 -0.014412171374114546 0 0.031970619502863944 -0.0143750043168384 0 0.032528416869455568 -0.014051062069190426 0 0.031970619502863944 -0.0143750043168384 0 0.032046975492541693 -0.013791122183301892 0 0.032820372179951707 -0.018984451200147263 0 0.035648768718877906 -0.015702419495000151 0 0.032622837535023028 -0.013441747140167437 0 0.032528416869455568 -0.014051062069190426 0 0.033037562608940356 -0.014079452387957566 0 0.032528416869455568 -0.014051062069190426 0 0.033037562608940356 -0.014079452387957566 0 0.032726053923083288 -0.014348163729802388 0 0.033037562608940356 -0.014079452387957566 0 0.033044489156402075 -0.014408350513879882 0 0.032726053923083288 -0.014348163729802388 0 0.033261563994465157 -0.014428699310412676 0 0.033037562608940356 -0.014079452387957566 0 0.033044489156402075 -0.014408350513879882 0 0.033044489156402075 -0.014408350513879882 0 0.032726053923083288 -0.014348163729802388 0 0.032856158013960218 -0.014506168163592428 0 0.032528416869455568 -0.014051062069190426 0 0.032280332081556215 -0.014412171374114546 0 0.032726053923083288 -0.014348163729802388 0 0.032280332081556215 -0.014412171374114546 0 0.032726053923083288 -0.014348163729802388 0 0.032445895595601459 -0.014540615169709153 0 0.032726053923083288 -0.014348163729802388 0 0.032445895595601459 -0.014540615169709153 0 0.032856158013960218 -0.014506168163592428 0 0.032280332081556215 -0.014412171374114546 0 0.032445895595601459 -0.014540615169709153 0 0.031882040189573024 -0.014607271548008375 0 0.032445895595601459 -0.014540615169709153 0 0.032707263292273969 -0.014672989746165349 0 0.032856158013960218 -0.014506168163592428 0 0.032445895595601459 -0.014540615169709153 0 0.032707263292273969 -0.014672989746165349 0 0.032171804209229979 -0.014654267580455778 0 0.032707263292273969 -0.014672989746165349 0 0.032739130668483253 -0.015414096837870142 0 0.032216799881969731 -0.014897865449125382 0 0.032707263292273969 -0.014672989746165349 0 0.032216799881969731 -0.014897865449125382 0 0.032171804209229979 -0.014654267580455778 0 0.035320924656748 -0.014188090036333555 0 0.03355335321584859 -0.014426016555904012 0 0.033605296996887107 -0.014767438957768575 0 0.035185061603772917 -0.01518644704907593 0 0.032739130668483253 -0.015414096837870142 0 0.032707263292273969 -0.014672989746165349 0 0.033605296996887107 -0.014767438957768575 0 0.032739130668483253 -0.015414096837870142 0 0.033261563994465157 -0.014428699310412676 0 0.033605296996887107 -0.014767438957768575 0 0.033161506592097531 -0.014534901121321503 0 0.035921785551146418 -0.014577655458301374 0 0.033306414650848576 -0.014521345611723559 0 0.032707263292273969 -0.014672989746165349 0 0.032856158013960218 -0.014506168163592428 0 0.033161506592097531 -0.014534901121321503 0 0.032707263292273969 -0.014672989746165349 0 0.033605296996887107 -0.014767438957768575 0 0.033161506592097531 -0.014534901121321503 0 0.033044489156402075 -0.014408350513879882 0 0.032856158013960218 -0.014506168163592428 0 0.033161506592097531 -0.014534901121321503 0 0.033261563994465157 -0.014428699310412676 0 0.033044489156402075 -0.014408350513879882 0 0.033161506592097531 -0.014534901121321503 0 0.035863621977864094 -0.012712080352841883 0 0.036206645024166408 -0.013301596521972586 0 0.035230738994507224 -0.014035170228840666 0 0.035863621977864094 -0.012712080352841883 0 0.033605296996887107 -0.014767438957768575 0 0.035230738994507224 -0.014035170228840666 0 0.036526818387104809 -0.013495830046632545 0 0.036453550932580944 -0.013492824971092245 0 0.036206645024166408 -0.013301596521972586 0 0.035921785551146418 -0.014577655458301374 0 0.035778415614380374 -0.013812538284860471 0 0.036453550932580944 -0.013492824971092245 0 0.036347165916644136 -0.013556908949455543 0 0.036206645024166408 -0.013301596521972586 0 0.036347165916644136 -0.013556908949455543 0 0.036206645024166408 -0.013301596521972586 0 0.035984416766377376 -0.013770372950175407 0 0.035984416766377376 -0.013770372950175407 0 0.035230738994507224 -0.014035170228840666 0 0.035960461801471652 -0.014100323903516686 0 0.036206645024166408 -0.013301596521972586 0 0.035984416766377376 -0.013770372950175407 0 0.035230738994507224 -0.014035170228840666 0 0.036347165916644136 -0.013556908949455543 0 0.035984416766377376 -0.013770372950175407 0 0.036374093280959349 -0.013730352103007269 0 0.035984416766377376 -0.013770372950175407 0 0.036374093280959349 -0.013730352103007269 0 0.035960461801471652 -0.014100323903516686 0 0.036647938627091731 -0.013585966907254613 0 0.036715609043540424 -0.013669238600539426 0 0.036580972832043208 -0.013580501338398086 0 0.036737048103681016 -0.013725479667045992 0 0.036453550932580944 -0.013492824971092245 0 0.036580972832043208 -0.013580501338398086 0 0.036453550932580944 -0.013492824971092245 0 0.036347165916644136 -0.013556908949455543 0 0.036580972832043208 -0.013580501338398086 0 0.036347165916644136 -0.013556908949455543 0 0.036580972832043208 -0.013580501338398086 0 0.036374093280959349 -0.013730352103007269 0 0.036647938627091731 -0.013585966907254613 0 0.036580972832043208 -0.013580501338398086 0 0.036374093280959349 -0.013730352103007269 0 0.036434798178315929 -0.01376417318274094 0 0.035320924656748 -0.014188090036333555 0 0.036615227678452128 -0.013641119843781982 0 0.035583534448573866 -0.013299412756181008 0 0.036177721810713888 -0.013742205237978472 0 0.036647938627091731 -0.013585966907254613 0 0.036374093280959349 -0.013730352103007269 0 0.036615227678452128 -0.013641119843781982 0 0.036374093280959349 -0.013730352103007269 0 0.036615227678452128 -0.013641119843781982 0 0.035960461801471652 -0.014100323903516686 0 0.036615227678452128 -0.013641119843781982 0 0.035960461801471652 -0.014100323903516686 0 0.035185061603772917 -0.01518644704907593 0 0.033605296996887107 -0.014767438957768575 0 0.035230738994507224 -0.014035170228840666 0 0.035185061603772917 -0.01518644704907593 0 0.035230738994507224 -0.014035170228840666 0 0.035960461801471652 -0.014100323903516686 0 0.035185061603772917 -0.01518644704907593 0 0.035583534448573866 -0.013299412756181008 0 0.035664286014953833 -0.013802382585825055 0 0.035118221409599304 -0.014068532989684039 0 0.035583534448573866 -0.013299412756181008 0 0.035664286014953833 -0.013802382585825055 0 0.036177721810713888 -0.013742205237978472 0 0.035664286014953833 -0.013802382585825055 0 0.035865122235425644 -0.014155752644010528 0 0.036177721810713888 -0.013742205237978472 0 0.035664286014953833 -0.013802382585825055 0 0.035865122235425644 -0.014155752644010528 0 0.035118221409599304 -0.014068532989684039 0 0.036632054814047521 -0.013583560266861647 0 0.036615227678452128 -0.013641119843781982 0 0.036177721810713888 -0.013742205237978472 0 0.035865122235425644 -0.014155752644010528 0 0.036177721810713888 -0.013742205237978472 0 0.036343532747430699 -0.014054574621099755 0 0.036632054814047521 -0.013583560266861647 0 0.036177721810713888 -0.013742205237978472 0 0.036343532747430699 -0.014054574621099755 0 0.036754563772806115 -0.014615120740051026 0 0.036632054814047521 -0.013583560266861647 0 0.036343532747430699 -0.014054574621099755 0 0.036306206173997935 -0.014493601504069396 0 0.035459793685700076 -0.014897242979938358 0 0.036689377442480763 -0.015113294918168778 0 0.036754563772806115 -0.014615120740051026 0 0.036343532747430699 -0.014054574621099755 0 0.036306206173997935 -0.014493601504069396 0 0.035865122235425644 -0.014155752644010528 0 0.036343532747430699 -0.014054574621099755 0 0.036306206173997935 -0.014493601504069396 0 0.036759837829562499 -0.013456693649303885 0 0.036586055182877761 -0.014084454656060532 0 0.036698042747639888 -0.014604013522115124 0 0.036306206173997935 -0.014493601504069396 0 0.036689377442480763 -0.015113294918168778 0 0.035865122235425644 -0.014155752644010528 0 0.035459793685700076 -0.014897242979938358 0 0.035118221409599304 -0.014068532989684039 0 0.035865122235425644 -0.014155752644010528 0 0.036306206173997935 -0.014493601504069396 0 0.035459793685700076 -0.014897242979938358 0 0.030487502407724139 -0.013443172207822212 0 0.031429479891192283 -0.013856328430822542 0 0.031319364028773 -0.013250888222809896 0 0.032451129235412733 -0.014600948714507782 0 0.032744871427436179 -0.014182811673470698 0 0.035459793685700076 -0.014897242979938358 0 0.033847658442226369 -0.014629286353509439 0 0.035118221409599304 -0.014068532989684039 0 0.031429479891192283 -0.013856328430822542 0 0.031829198992687401 -0.013697362298841101 0 0.031319364028773 -0.013250888222809896 0 0.032739130668483253 -0.015414096837870142 0 0.032006029061637686 -0.014974006221962313 0 0.032216799881969731 -0.014897865449125382 0 0.03355335321584859 -0.014426016555904012 0 0.032499507428274503 -0.01440072943199255 0 0.033847658442226369 -0.014629286353509439 0 0.034250040691066727 -0.013462548842086926 0 0.032879076733341048 -0.013833466198645752 0 0.033847658442226369 -0.014629286353509439 0 0.034250040691066727 -0.013462548842086926 0 0.035118221409599304 -0.014068532989684039 0 0.035583534448573866 -0.013299412756181008 0 0.034250040691066727 -0.013462548842086926 0 0.035118221409599304 -0.014068532989684039 0 0.032077597210626099 -0.014325763041367699 0 0.031989505890766677 -0.01474273412217043 0 0.032006029061637686 -0.014974006221962313 0 0.032320754129345555 -0.014202017013431531 0 0.032077597210626099 -0.014325763041367699 0 0.032879076733341048 -0.013833466198645752 0 0.032153329315895617 -0.014343015559770576 0 0.032499507428274503 -0.01440072943199255 0 0.032077597210626099 -0.014325763041367699 0 0.032024140766242229 -0.014648009174557832 0 0.031989505890766677 -0.01474273412217043 0 0.031989505890766677 -0.01474273412217043 0 0.032006029061637686 -0.014974006221962313 0 0.032002564458715743 -0.014812646991216833 0 0.033847658442226369 -0.014629286353509439 0 0.032320754129345555 -0.014202017013431531 0 0.032879076733341048 -0.013833466198645752 0 0.032744871427436179 -0.014182811673470698 0 0.032295620494432256 -0.014211368294591496 0 0.032320754129345555 -0.014202017013431531 0 0.031829198992687401 -0.013697362298841101 0 0.03212350469838296 -0.013737936208501401 0 0.031429479891192283 -0.013856328430822542 0 0.032320754129345555 -0.014202017013431531 0 0.031829198992687401 -0.013697362298841101 0 0.031829198992687401 -0.013697362298841101 0 0.03212350469838296 -0.013737936208501401 0 0.032021557570079726 -0.01340513786652915 0 0.032077597210626099 -0.014325763041367699 0 0.032120056103109626 -0.014534274525594986 0 0.032339098062020746 -0.013671915273285793 0 0.032320754129345555 -0.014202017013431531 0 0.032077597210626099 -0.014325763041367699 0 0.032339098062020746 -0.013671915273285793 0 0.032320754129345555 -0.014202017013431531 0 0.03212350469838296 -0.013737936208501401 0 0.032339098062020746 -0.013671915273285793 0 0.020575393708122815 -0.012493675914042539 0 0.020509968568711474 -0.011340109568290143 0 0.019186792811682965 -0.011734225570525149 0 0.020575393708122815 -0.012493675914042539 0 0.020281646868656383 -0.014091146344345898 0 0.019186792811682965 -0.011734225570525149 0 0.026392253002072617 -0.013826127289162169 0 0.025156602353309149 -0.012610478447154875 0 0.020575393708122815 -0.012493675914042539 0 0.021475695522977262 -0.01320569183780501 0 0.020281646868656383 -0.014091146344345898 0 0.020575393708122815 -0.012493675914042539 0 0.021524404684722213 -0.012025965297473311 0 0.020509968568711474 -0.011340109568290143 0 0.021524404684722213 -0.012025965297473311 0 0.022465067391321692 -0.012774103722747957 0 0.022612365746929299 -0.011636037275399832 0 0.020575393708122815 -0.012493675914042539 0 0.021524404684722213 -0.012025965297473311 0 0.021475695522977262 -0.01320569183780501 0 0.021524404684722213 -0.012025965297473311 0 0.021475695522977262 -0.01320569183780501 0 0.022465067391321692 -0.012774103722747957 0 0.021475695522977262 -0.01320569183780501 0 0.022665380106959534 -0.014406633077256875 0 0.022465067391321692 -0.012774103722747957 0 0.021475695522977262 -0.01320569183780501 0 0.020281646868656383 -0.014091146344345898 0 0.022665380106959534 -0.014406633077256875 0 0.032077597210626099 -0.014325763041367699 0 0.032024140766242229 -0.014648009174557832 0 0.032120056103109626 -0.014534274525594986 0 0.032120056103109626 -0.014534274525594986 0 0.032006274371487134 -0.014659160323225503 0 0.031974434830923479 -0.014688306555045339 0 0.032024140766242229 -0.014648009174557832 0 0.032120056103109626 -0.014534274525594986 0 0.032006274371487134 -0.014659160323225503 0 0.026392253002072617 -0.013826127289162169 0 0.025437665959175897 -0.018208691780518683 0 0.020281646868656383 -0.014091146344345898 0 0.021410879451141281 -0.016436219194831844 0 0.022665380106959534 -0.014406633077256875 0 0.023834057553426279 -0.01998387622682378 0 0.024523866523865193 -0.019745418265208075 0 0.024268933851989312 -0.019288539584482834 0 0.025437665959175897 -0.018208691780518683 0 0.023159209914854879 -0.016705712326509463 0 0.023834057553426279 -0.01998387622682378 0 0.024210825711886069 -0.020789892430500792 0 0.024617235754052842 -0.020248318974268247 0 0.031974434830923479 -0.014688306555045339 0 0.0319782689559414 -0.014639749436618875 0 0.032090818812702322 -0.014651974350390394 0 0.025437665959175897 -0.018208691780518683 0 0.029835996909646258 -0.018210870202922672 0 0.032006274371487134 -0.014659160323225503 0 0.031974434830923479 -0.014688306555045339 0 0.0319782689559414 -0.014639749436618875 0 0.031753543766919676 -0.014608710165376765 0 0.03194474996847927 -0.014700111315506144 0 0.031943168390504761 -0.014699918456117476 0 0.0319782689559414 -0.014639749436618875 0 0.031753543766919676 -0.014608710165376765 0 0.03194474996847927 -0.014700111315506144 0 0.0319782689559414 -0.014639749436618875 0 0.031753543766919676 -0.014608710165376765 0 0.032090818812702322 -0.014651974350390394 0 0.032006274371487134 -0.014659160323225503 0 0.0319782689559414 -0.014639749436618875 0 0.03194474996847927 -0.014700111315506144 0 0.03194474996847927 -0.014700111315506144 0 0.032002564458715743 -0.014812646991216833 0 0.031943168390504761 -0.014699918456117476 0 0.031989505890766677 -0.01474273412217043 0 0.03194474996847927 -0.014700111315506144 0 0.032002564458715743 -0.014812646991216833 0 0.032024140766242229 -0.014648009174557832 0 0.031989505890766677 -0.01474273412217043 0 0.03194474996847927 -0.014700111315506144 0 0.032024140766242229 -0.014648009174557832 0 0.032006274371487134 -0.014659160323225503 0 0.03194474996847927 -0.014700111315506144 0 0.032006029061637686 -0.014974006221962313 0 0.032216799881969731 -0.014897865449125382 0 0.032002564458715743 -0.014812646991216833 0 0.032216799881969731 -0.014897865449125382 0 0.032002564458715743 -0.014812646991216833 0 0.031943168390504761 -0.014699918456117476 0 0.032216799881969731 -0.014897865449125382 0 0.032171804209229979 -0.014654267580455778 0 0.031943168390504761 -0.014699918456117476 0 0.031753543766919676 -0.014608710165376765 0 0.032171804209229979 -0.014654267580455778 0 0.031943168390504761 -0.014699918456117476 0 0.031753543766919676 -0.014608710165376765 0 0.032171804209229979 -0.014654267580455778 0 0.031882040189573024 -0.014607271548008375 0 0.032445895595601459 -0.014540615169709153 0 0.032171804209229979 -0.014654267580455778 0 0.031882040189573024 -0.014607271548008375 0 0.031753543766919676 -0.014608710165376765 0 0.031882040189573024 -0.014607271548008375 0 0.031187754719704818 -0.014737541805529117 0 0.031882040189573024 -0.014607271548008375 0 0.031970619502863944 -0.0143750043168384 0 0.031187754719704818 -0.014737541805529117 0 0.032280332081556215 -0.014412171374114546 0 0.031882040189573024 -0.014607271548008375 0 0.031970619502863944 -0.0143750043168384 0 0.031753543766919676 -0.014608710165376765 0 0.031187754719704818 -0.014737541805529117 0 0.032090818812702322 -0.014651974350390394 0 0.031729014991870676 -0.016241356057857512 0 0.031187754719704818 -0.014737541805529117 0 0.032090818812702322 -0.014651974350390394 0 0.02940628279558035 -0.018771658222267649 0 0.029835996909646258 -0.018210870202922672 0 0.031729014991870676 -0.016241356057857512 0 0.031187754719704818 -0.014737541805529117 0 0.028284220612550995 -0.016429350637670412 0 0.031970619502863944 -0.0143750043168384 0 0.031187754719704818 -0.014737541805529117 0 0.032046975492541693 -0.013791122183301892 0 0.031043408653295263 -0.014715398534841731 0 0.030104947375245755 -0.015173983056295162 0 0.027847032442748079 -0.018445189505581595 0 0.031729014991870676 -0.016241356057857512 0 0.028284220612550995 -0.016429350637670412 0 0.027847032442748079 -0.018445189505581595 0 0.031729014991870676 -0.016241356057857512 0 0.028706631744864097 -0.019616016221969883 0 0.02940628279558035 -0.018771658222267649 0 0.028862953226678228 -0.019502500104346347 0 0.027388446154375815 -0.021237949142371718 0 0.027347224638671983 -0.020236069111750247 0 0.026345659039771034 -0.02049198473620226 0 0.027388446154375815 -0.021237949142371718 0 0.027347224638671983 -0.020236069111750247 0 0.028706631744864097 -0.019616016221969883 0 0.026568619367239765 -0.01947600817701008 0 0.02801338310378897 -0.019557312688024547 0 0.027784819096487733 -0.019733413625005854 0 0.027347224638671983 -0.020236069111750247 0 0.027784819096487733 -0.019733413625005854 0 0.028706631744864097 -0.019616016221969883 0 0.026568619367239765 -0.01947600817701008 0 0.027347224638671983 -0.020236069111750247 0 0.027784819096487733 -0.019733413625005854 0 0.02801338310378897 -0.019557312688024547 0 0.027784819096487733 -0.019733413625005854 0 0.028272094716642528 -0.019697703911665535 0 0.02801338310378897 -0.019557312688024547 0 0.028272094716642528 -0.019697703911665535 0 0.028219775263862188 -0.0199831972497055 0 0.027847032442748079 -0.018445189505581595 0 0.028219775263862188 -0.0199831972497055 0 0.028706631744864097 -0.019616016221969883 0 0.028272094716642528 -0.019697703911665535 0 0.028219775263862188 -0.0199831972497055 0 0.028706631744864097 -0.019616016221969883 0 0.027784819096487733 -0.019733413625005854 0 0.028272094716642528 -0.019697703911665535 0 0.028706631744864097 -0.019616016221969883 0 0.025382196669910286 -0.019447997297715902 0 0.025608606331472147 -0.01986977971989437 0 0.025134454817008697 -0.019761325435794598 0 0.025608606331472147 -0.01986977971989437 0 0.025503547808645503 -0.020500969741542609 0 0.024792647686986996 -0.020116596351238431 0 0.026568619367239765 -0.01947600817701008 0 0.027347224638671983 -0.020236069111750247 0 0.026345659039771034 -0.02049198473620226 0 0.026568619367239765 -0.01947600817701008 0 0.025608606331472147 -0.01986977971989437 0 0.026345659039771034 -0.02049198473620226 0 0.027388446154375815 -0.021237949142371718 0 0.026345659039771034 -0.02049198473620226 0 0.02652047081439296 -0.021324584309594781 0 0.026289406633727825 -0.020560777317676426 0 0.025904984196610501 -0.021046396348034371 0 0.026345659039771034 -0.02049198473620226 0 0.025503547808645503 -0.020500969741542609 0 0.025671315270216453 -0.021044672203815951 0 0.025608606331472147 -0.01986977971989437 0 0.026345659039771034 -0.02049198473620226 0 0.025503547808645503 -0.020500969741542609 0 0.025503547808645503 -0.020500969741542609 0 0.025192492791372947 -0.020987303227488426 0 0.024931183648548624 -0.020644639102063947 0 0.025503547808645503 -0.020500969741542609 0 0.025192492791372947 -0.020987303227488426 0 0.025671315270216453 -0.021044672203815951 0 0.026011540421863565 -0.021219472593623855 0 0.025692730723083354 -0.021732496322520212 0 0.026167914682479348 -0.021741771267337014 0 0.025192492791372947 -0.020987303227488426 0 0.025080270631018354 -0.021626558281486619 0 0.024918465742409125 -0.021299096386062279 0 0.025904984196610501 -0.021046396348034371 0 0.024995791981688092 -0.02182723473354423 0 0.025192492791372947 -0.020987303227488426 0 0.025671315270216453 -0.021044672203815951 0 0.025080270631018354 -0.021626558281486619 0 0.027388446154375815 -0.021237949142371718 0 0.02652047081439296 -0.021324584309594781 0 0.026600096390096126 -0.021915815145342646 0 0.026345659039771034 -0.02049198473620226 0 0.026011540421863565 -0.021219472593623855 0 0.02652047081439296 -0.021324584309594781 0 0.026011540421863565 -0.021219472593623855 0 0.02652047081439296 -0.021324584309594781 0 0.026167914682479348 -0.021741771267337014 0 0.02652047081439296 -0.021324584309594781 0 0.026600096390096126 -0.021915815145342646 0 0.026167914682479348 -0.021741771267337014 0 0.026115766151006088 -0.022527826669132178 0 0.026600096390096126 -0.021915815145342646 0 0.026167914682479348 -0.021741771267337014 0 0.025437665959175897 -0.018208691780518683 0 0.024995791981688092 -0.02182723473354423 0 0.026115766151006088 -0.022527826669132178 0 0.025692730723083354 -0.021732496322520212 0 0.026167914682479348 -0.021741771267337014 0 0.025022585626255079 -0.021557562342251018 0 0.02454113017850286 -0.021520775346669966 0 0.024300985414309324 -0.02231975186643809 0 0.024995791981688092 -0.02182723473354423 0 0.024567372764363649 -0.021109962520606495 0 0.02454113017850286 -0.021520775346669966 0 0.024047197055828636 -0.02146752920050567 0 0.024300985414309324 -0.02231975186643809 0 0.025022585626255079 -0.021557562342251018 0 0.02454113017850286 -0.021520775346669966 0 0.024918465742409125 -0.021299096386062279 0 0.023354915698983552 -0.021628770344937789 0 0.023163242941263842 -0.022211255193289949 0 0.024300985414309324 -0.02231975186643809 0 0.024047197055828636 -0.02146752920050567 0 0.023354915698983552 -0.021628770344937789 0 0.024300985414309324 -0.02231975186643809 0 0.024047197055828636 -0.02146752920050567 0 0.023354915698983552 -0.021628770344937789 0 0.023779121207264841 -0.021060859968888727 0 0.023354915698983552 -0.021628770344937789 0 0.023779121207264841 -0.021060859968888727 0 0.023208615172702559 -0.021106866662936142 0 0.024047197055828636 -0.02146752920050567 0 0.023779121207264841 -0.021060859968888727 0 0.024404143818350245 -0.021167524184153703 0 0.023779121207264841 -0.021060859968888727 0 0.0243097958757258 -0.020686672925643308 0 0.023706999621334327 -0.020609046079450796 0 0.023779121207264841 -0.021060859968888727 0 0.024404143818350245 -0.021167524184153703 0 0.0243097958757258 -0.020686672925643308 0 0.023779121207264841 -0.021060859968888727 0 0.023706999621334327 -0.020609046079450796 0 0.023165852408767416 -0.020727052581039563 0 0.024918465742409125 -0.021299096386062279 0 0.024404143818350245 -0.021167524184153703 0 0.024776129495734947 -0.020975401946002899 0 0.024995791981688092 -0.02182723473354423 0 0.024896709271504804 -0.021473974500843183 0 0.02454113017850286 -0.021520775346669966 0 0.024918465742409125 -0.021299096386062279 0 0.024404143818350245 -0.021167524184153703 0 0.02454113017850286 -0.021520775346669966 0 0.024047197055828636 -0.02146752920050567 0 0.024404143818350245 -0.021167524184153703 0 0.024404143818350245 -0.021167524184153703 0 0.024776129495734947 -0.020975401946002899 0 0.0243097958757258 -0.020686672925643308 0 0.025192492791372947 -0.020987303227488426 0 0.024776129495734947 -0.020975401946002899 0 0.024931183648548624 -0.020644639102063947 0 0.025192492791372947 -0.020987303227488426 0 0.024918465742409125 -0.021299096386062279 0 0.024776129495734947 -0.020975401946002899 0 0.025503547808645503 -0.020500969741542609 0 0.024931183648548624 -0.020644639102063947 0 0.024792647686986996 -0.020116596351238431 0 0.024776129495734947 -0.020975401946002899 0 0.024931183648548624 -0.020644639102063947 0 0.0243097958757258 -0.020686672925643308 0 0.024931183648548624 -0.020644639102063947 0 0.0243097958757258 -0.020686672925643308 0 0.024792647686986996 -0.020116596351238431 0 0.0243097958757258 -0.020686672925643308 0 0.023706999621334327 -0.020609046079450796 0 0.024059099067557831 -0.020233803780951 0 0.023706999621334327 -0.020609046079450796 0 0.024059099067557831 -0.020233803780951 0 0.023128067126443597 -0.020293027055990103 0 0.024059099067557831 -0.020233803780951 0 0.024273423688908554 -0.019838740374746189 0 0.023128067126443597 -0.020293027055990103 0 0.0243097958757258 -0.020686672925643308 0 0.024059099067557831 -0.020233803780951 0 0.024792647686986996 -0.020116596351238431 0 0.024059099067557831 -0.020233803780951 0 0.024273423688908554 -0.019838740374746189 0 0.024792647686986996 -0.020116596351238431 0 0.024089422639512487 -0.019590131199384509 0 0.024273423688908554 -0.019838740374746189 0 0.023128067126443597 -0.020293027055990103 0 0.024089422639512487 -0.019590131199384509 0 0.024759505186984401 -0.019595208059196838 0 0.024273423688908554 -0.019838740374746189 0 0.025608606331472147 -0.01986977971989437 0 0.025134454817008697 -0.019761325435794598 0 0.024792647686986996 -0.020116596351238431 0 0.024759505186984401 -0.019595208059196838 0 0.025134454817008697 -0.019761325435794598 0 0.024792647686986996 -0.020116596351238431 0 0.024759505186984401 -0.019595208059196838 0 0.024273423688908554 -0.019838740374746189 0 0.024792647686986996 -0.020116596351238431 0 0.022397509393172164 -0.019882800455367899 0 0.022481640686656541 -0.020091301143134545 0 0.022374759483560623 -0.019983362024994032 0 0.022521467236293589 -0.019935754457923099 0 0.022735911278337295 -0.020203824313851787 0 0.022397509393172164 -0.019882800455367899 0 0.022481640686656541 -0.020091301143134545 0 0.02277225109571963 -0.020205809908661145 0 0.022481640686656541 -0.020091301143134545 0 0.022374759483560623 -0.019983362024994032 0 0.022316974052753739 -0.020092217866074912 0 0.023347655877489472 -0.020032843617047189 0 0.02318373573252307 -0.020251104144654 0 0.022765810677807086 -0.019975723986067104 0 0.022617135904274496 -0.019961763187526689 0 0.02277225109571963 -0.020205809908661145 0 0.022765810677807086 -0.019975723986067104 0 0.02277225109571963 -0.020205809908661145 0 0.023128067126443597 -0.020293027055990103 0 0.023128067126443597 -0.020293027055990103 0 0.022818029972278768 -0.020485826507099715 0 0.023165852408767416 -0.020727052581039563 0 0.023706999621334327 -0.020609046079450796 0 0.023128067126443597 -0.020293027055990103 0 0.023165852408767416 -0.020727052581039563 0 0.02277225109571963 -0.020205809908661145 0 0.022818029972278768 -0.020485826507099715 0 0.022591835771668047 -0.020435604542995683 0 0.02277225109571963 -0.020205809908661145 0 0.023128067126443597 -0.020293027055990103 0 0.022818029972278768 -0.020485826507099715 0 0.022818029972278768 -0.020485826507099715 0 0.022591835771668047 -0.020435604542995683 0 0.022551230360933112 -0.020604601536942997 0 0.022471735409109052 -0.020498509890959107 0 0.02243453762101064 -0.020358906504154096 0 0.022331002151648644 -0.020604762359319427 0 0.022323285217609158 -0.020544784996062323 0 0.021848191119158342 -0.019456083025732547 0 0.02243453762101064 -0.020358906504154096 0 0.022331002151648644 -0.020604762359319427 0 0.022316974052753739 -0.020092217866074912 0 0.021611662699560313 -0.019957701662216394 0 0.022331002151648644 -0.020604762359319427 0 0.021382052446396547 -0.01878029502138108 0 0.022471735409109052 -0.020498509890959107 0 0.022591835771668047 -0.020435604542995683 0 0.022551230360933112 -0.020604601536942997 0 0.02277225109571963 -0.020205809908661145 0 0.022591835771668047 -0.020435604542995683 0 0.02243453762101064 -0.020358906504154096 0 0.022471735409109052 -0.020498509890959107 0 0.022591835771668047 -0.020435604542995683 0 0.02243453762101064 -0.020358906504154096 0 0.022481640686656541 -0.020091301143134545 0 0.02277225109571963 -0.020205809908661145 0 0.02243453762101064 -0.020358906504154096 0 0.022481640686656541 -0.020091301143134545 0 0.02243453762101064 -0.020358906504154096 0 0.022316974052753739 -0.020092217866074912 0 0.021611662699560313 -0.019957701662216394 0 0.022251971877557439 -0.020774723591226282 0 0.022331002151648644 -0.020604762359319427 0 0.022471735409109052 -0.020498509890959107 0 0.022551230360933112 -0.020604601536942997 0 0.022331002151648644 -0.020604762359319427 0 0.022551230360933112 -0.020604601536942997 0 0.022513902286921971 -0.020790092544795146 0 0.022331002151648644 -0.020604762359319427 0 0.022513902286921971 -0.020790092544795146 0 0.022251971877557439 -0.020774723591226282 0 0.022331002151648644 -0.020604762359319427 0 0.022513902286921971 -0.020790092544795146 0 0.022302005046071022 -0.021081532445979448 0 0.022809149032624248 -0.020954084084803114 0 0.022513902286921971 -0.020790092544795146 0 0.022251971877557439 -0.020774723591226282 0 0.022302005046071022 -0.021081532445979448 0 0.022251971877557439 -0.020774723591226282 0 0.022302005046071022 -0.021081532445979448 0 0.021885278125004966 -0.020943733289614058 0 0.021885278125004966 -0.020943733289614058 0 0.021623348436516657 -0.021246863280425538 0 0.021312313962343888 -0.020637572146362578 0 0.022302005046071022 -0.021081532445979448 0 0.021885278125004966 -0.020943733289614058 0 0.021623348436516657 -0.021246863280425538 0 0.022251971877557439 -0.020774723591226282 0 0.021885278125004966 -0.020943733289614058 0 0.021312313962343888 -0.020637572146362578 0 0.023779121207264841 -0.021060859968888727 0 0.023165852408767416 -0.020727052581039563 0 0.023208615172702559 -0.021106866662936142 0 0.023165852408767416 -0.020727052581039563 0 0.022809149032624248 -0.020954084084803114 0 0.023208615172702559 -0.021106866662936142 0 0.023165852408767416 -0.020727052581039563 0 0.022785453797764674 -0.020704533221418745 0 0.022809149032624248 -0.020954084084803114 0 0.022818029972278768 -0.020485826507099715 0 0.023165852408767416 -0.020727052581039563 0 0.022785453797764674 -0.020704533221418745 0 0.022818029972278768 -0.020485826507099715 0 0.022551230360933112 -0.020604601536942997 0 0.022785453797764674 -0.020704533221418745 0 0.022513902286921971 -0.020790092544795146 0 0.022785453797764674 -0.020704533221418745 0 0.022809149032624248 -0.020954084084803114 0 0.022551230360933112 -0.020604601536942997 0 0.022513902286921971 -0.020790092544795146 0 0.022785453797764674 -0.020704533221418745 0 0.022302005046071022 -0.021081532445979448 0 0.022809149032624248 -0.020954084084803114 0 0.022769719404771238 -0.021341071103625753 0 0.022809149032624248 -0.020954084084803114 0 0.023208615172702559 -0.021106866662936142 0 0.022769719404771238 -0.021341071103625753 0 0.022769719404771238 -0.021341071103625753 0 0.022196977839111474 -0.02159693635545944 0 0.022450804455109115 -0.022129380890872803 0 0.023354915698983552 -0.021628770344937789 0 0.022769719404771238 -0.021341071103625753 0 0.022450804455109115 -0.022129380890872803 0 0.023354915698983552 -0.021628770344937789 0 0.023208615172702559 -0.021106866662936142 0 0.022769719404771238 -0.021341071103625753 0 0.023354915698983552 -0.021628770344937789 0 0.022450804455109115 -0.022129380890872803 0 0.023163242941263842 -0.022211255193289949 0 0.021623348436516657 -0.021246863280425538 0 0.022196977839111474 -0.02159693635545944 0 0.021770052056646734 -0.022092346208579843 0 0.022302005046071022 -0.021081532445979448 0 0.021623348436516657 -0.021246863280425538 0 0.022196977839111474 -0.02159693635545944 0 0.022302005046071022 -0.021081532445979448 0 0.022769719404771238 -0.021341071103625753 0 0.022196977839111474 -0.02159693635545944 0 0.022196977839111474 -0.02159693635545944 0 0.021770052056646734 -0.022092346208579843 0 0.022450804455109115 -0.022129380890872803 0 0.021770052056646734 -0.022092346208579843 0 0.02224662652357853 -0.022681867141524637 0 0.021114736979799386 -0.022534005774817477 0 0.021770052056646734 -0.022092346208579843 0 0.02224662652357853 -0.022681867141524637 0 0.022450804455109115 -0.022129380890872803 0 0.02224662652357853 -0.022681867141524637 0 0.02162732746200962 -0.023240881660021598 0 0.022293029167187887 -0.023529958171157831 0 0.02224662652357853 -0.022681867141524637 0 0.02162732746200962 -0.023240881660021598 0 0.021114736979799386 -0.022534005774817477 0 0.02224662652357853 -0.022681867141524637 0 0.023125188184459577 -0.022858683633639802 0 0.022293029167187887 -0.023529958171157831 0 0.02224662652357853 -0.022681867141524637 0 0.023163242941263842 -0.022211255193289949 0 0.023125188184459577 -0.022858683633639802 0 0.02224662652357853 -0.022681867141524637 0 0.022450804455109115 -0.022129380890872803 0 0.023163242941263842 -0.022211255193289949 0 0.023225654398331051 -0.022659472034505482 0 0.023523355792646333 -0.021916511795293213 0 0.024617235754052842 -0.020248318974268247 0 0.024523866523865193 -0.019745418265208075 0 0.025028420236606393 -0.019717861046677963 0 0.024567372764363649 -0.021109962520606495 0 0.023523355792646333 -0.021916511795293213 0 0.023163242941263842 -0.022211255193289949 0 0.024300985414309324 -0.02231975186643809 0 0.02347530094966737 -0.023326514744454213 0 0.023834057553426279 -0.01998387622682378 0 0.024617235754052842 -0.020248318974268247 0 0.024523866523865193 -0.019745418265208075 0 0.023523355792646333 -0.021916511795293213 0 0.024090107814025541 -0.021910114334103625 0 0.024523866523865193 -0.019745418265208075 0 0.025028420236606393 -0.019717861046677963 0 0.024879545764905191 -0.019151863145453366 0 0.02297926518824326 -0.023420957833404966 0 0.022661091945449005 -0.023939797804770839 0 0.022293029167187887 -0.023529958171157831 0 0.022819900387040241 -0.022804474371717551 0 0.02297926518824326 -0.023420957833404966 0 0.022293029167187887 -0.023529958171157831 0 0.024879545764905191 -0.019151863145453366 0 0.024268933851989312 -0.019288539584482834 0 0.024715871340405999 -0.018567426785965947 0 0.023159209914854879 -0.016705712326509463 0 0.024003711145887237 -0.016860213584082805 0 0.024523866523865193 -0.019745418265208075 0 0.024879545764905191 -0.019151863145453366 0 0.024268933851989312 -0.019288539584482834 0 0.022465067391321692 -0.012774103722747957 0 0.02390976072603725 -0.012404508594233473 0 0.022612365746929299 -0.011636037275399832 0 0.022665380106959534 -0.014406633077256875 0 0.022465067391321692 -0.012774103722747957 0 0.02390976072603725 -0.012404508594233473 0 0.024090107814025541 -0.021910114334103625 0 0.024003711145887237 -0.016860213584082805 0 0.02297926518824326 -0.023420957833404966 0 0.023144719995381542 -0.023997432379196666 0 0.022661091945449005 -0.023939797804770839 0 0.023144719995381542 -0.023997432379196666 0 0.022661091945449005 -0.023939797804770839 0 0.022741848136914121 -0.024618917415667522 0 0.02214156402294579 -0.02417775854089059 0 0.02175114222058842 -0.023753945995579243 0 0.022293029167187887 -0.023529958171157831 0 0.022661091945449005 -0.023939797804770839 0 0.02214156402294579 -0.02417775854089059 0 0.022293029167187887 -0.023529958171157831 0 0.02214156402294579 -0.02417775854089059 0 0.021464934842142295 -0.024157576803366197 0 0.02175114222058842 -0.023753945995579243 0 0.021464934842142295 -0.024157576803366197 0 0.02175114222058842 -0.023753945995579243 0 0.021240725822042041 -0.023703785397539867 0 0.02175114222058842 -0.023753945995579243 0 0.02162732746200962 -0.023240881660021598 0 0.022293029167187887 -0.023529958171157831 0 0.02175114222058842 -0.023753945995579243 0 0.02162732746200962 -0.023240881660021598 0 0.021240725822042041 -0.023703785397539867 0 0.023523355792646333 -0.021916511795293213 0 0.022107408924134455 -0.023847297345005746 0 0.02279963487894858 -0.013120759977362442 0 0.023576655587145241 -0.01857493013177014 0 0.022317425407092358 -0.02523160879782024 0 0.021560353170314888 -0.025115452386009273 0 0.022154306638846395 -0.0247416965933362 0 0.022317425407092358 -0.02523160879782024 0 0.022154306638846395 -0.0247416965933362 0 0.022741848136914121 -0.024618917415667522 0 0.02279963487894858 -0.013120759977362442 0 0.021537699863608335 -0.018653670552387144 0 0.019869994132004354 -0.01093924082648718 0 0.020944909829244317 -0.011268913027852687 0 0.02058189724294927 -0.010683052091715382 0 0.020944909829244317 -0.011268913027852687 0 0.02058189724294927 -0.010683052091715382 0 0.021234144859315456 -0.010803194356421292 0 0.021560353170314888 -0.025115452386009273 0 0.021695269522132889 -0.024562445334311945 0 0.022154306638846395 -0.0247416965933362 0 0.02214156402294579 -0.02417775854089059 0 0.021464934842142295 -0.024157576803366197 0 0.021695269522132889 -0.024562445334311945 0 0.021560353170314888 -0.025115452386009273 0 0.021695269522132889 -0.024562445334311945 0 0.02110795378210098 -0.024614974534537683 0 0.021464934842142295 -0.024157576803366197 0 0.021695269522132889 -0.024562445334311945 0 0.02110795378210098 -0.024614974534537683 0 0.022661091945449005 -0.023939797804770839 0 0.02214156402294579 -0.02417775854089059 0 0.022741848136914121 -0.024618917415667522 0 0.02214156402294579 -0.02417775854089059 0 0.022154306638846395 -0.0247416965933362 0 0.022741848136914121 -0.024618917415667522 0 0.02214156402294579 -0.02417775854089059 0 0.021695269522132889 -0.024562445334311945 0 0.022154306638846395 -0.0247416965933362 0 0.02388131032604213 -0.012755851126405723 0 0.024984924847201408 -0.010988233240909659 0 0.023321482860891828 -0.010471930912097005 0 0.024003711145887237 -0.016860213584082805 0 0.023576655587145241 -0.01857493013177014 0 0.02390976072603725 -0.012404508594233473 0 0.023321482860891828 -0.010471930912097005 0 0.022612365746929299 -0.011636037275399832 0 0.024003711145887237 -0.016860213584082805 0 0.023079446014365138 -0.0090072936774121138 0 0.023321482860891828 -0.010471930912097005 0 0.022612365746929299 -0.011636037275399832 0 0.021470436310957099 -0.010466875803968566 0 0.023321482860891828 -0.010471930912097005 0 0.024522318266429297 -0.0088494081758577169 0 0.022965921777151517 -0.0083629874794650984 0 0.023321482860891828 -0.010471930912097005 0 0.022965921777151517 -0.0083629874794650984 0 0.021960474001685614 -0.009153663058670691 0 0.024984924847201408 -0.010988233240909659 0 0.023321482860891828 -0.010471930912097005 0 0.024522318266429297 -0.0088494081758577169 0 0.026024592809019059 -0.0093389812096788 0 0.024984924847201408 -0.010988233240909659 0 0.024522318266429297 -0.0088494081758577169 0 0.02279963487894858 -0.013120759977362442 0 0.024545001601188776 -0.0089382223174897715 0 0.024808791325209328 -0.0077234790923271911 0 0.024167297196768731 -0.0086722325677222791 0 0.02360474577879302 -0.0071324207972497155 0 0.02540781737499493 -0.0090365751284397968 0 0.024808791325209328 -0.0077234790923271911 0 0.024167297196768731 -0.0086722325677222791 0 0.024167297196768731 -0.0086722325677222791 0 0.022965921777151517 -0.0083629874794650984 0 0.02360474577879302 -0.0071324207972497155 0 0.022965921777151517 -0.0083629874794650984 0 0.022519814751489963 -0.0073077108687115257 0 0.021530744541789635 -0.0078299810956582606 0 0.024545001601188776 -0.0089382223174897715 0 0.023058772040215569 -0.0083930537459985053 0 0.022965921777151517 -0.0083629874794650984 0 0.022519814751489963 -0.0073077108687115257 0 0.02360474577879302 -0.0071324207972497155 0 0.022519814751489963 -0.0073077108687115257 0 0.022406360565151728 -0.0062379704288010292 0 0.02360474577879302 -0.0071324207972497155 0 0.022406360565151728 -0.0062379704288010292 0 0.02360474577879302 -0.0071324207972497155 0 0.023231407098284966 -0.0058724516235734532 0 0.024808791325209328 -0.0077234790923271911 0 0.02360474577879302 -0.0071324207972497155 0 0.024600849906084056 -0.0059968349867141005 0 0.02360474577879302 -0.0071324207972497155 0 0.024600849906084056 -0.0059968349867141005 0 0.023231407098284966 -0.0058724516235734532 0 0.019335006276273912 -0.00088901849781465494 0 0.01949754064259113 -0.0024558675065030461 0 0.020950915724016389 -0.0023330229329582204 0 0.021073392044999903 -0.0051255209543342685 0 0.023043052699667492 -0.004106465534681969 0 0.024808791325209328 -0.0077234790923271911 0 0.026244020960913807 -0.0077300620702980445 0 0.024600849906084056 -0.0059968349867141005 0 0.02540781737499493 -0.0090365751284397968 0 0.024808791325209328 -0.0077234790923271911 0 0.026244020960913807 -0.0077300620702980445 0 0.02279963487894858 -0.013120759977362442 0 0.021073392044999903 -0.0051255209543342685 0 0.019869994132004354 -0.01093924082648718 0 0.02058189724294927 -0.010683052091715382 0 0.020454482121329449 -0.0099883819818161537 0 0.018316248925708285 -0.0021415749990482342 0 0.018039698548708471 -0.002082032533652019 0 0.018062872632174765 -0.0021421336025269381 0 0.021073392044999903 -0.0051255209543342685 0 0.018966846579538101 -0.0056305897464142213 0 0.02058189724294927 -0.010683052091715382 0 0.020454482121329449 -0.0099883819818161537 0 0.021234144859315456 -0.010803194356421292 0 0.018316248925708285 -0.0021415749990482342 0 0.018436078970510698 -0.0022484419895121817 0 0.018062872632174765 -0.0021421336025269381 0 0.021073392044999903 -0.0051255209543342685 0 0.018496109066437491 -0.0014201032345320746 0 0.019335006276273912 -0.00088901849781465494 0 0.018436078970510698 -0.0022484419895121817 0 0.01949754064259113 -0.0024558675065030461 0 0.01949754064259113 -0.0024558675065030461 0 0.019688199878294912 -0.0034519656942757909 0 0.018427967762573019 -0.0029429331287163306 0 0.018436078970510698 -0.0022484419895121817 0 0.01949754064259113 -0.0024558675065030461 0 0.018427967762573019 -0.0029429331287163306 0 0.01949754064259113 -0.0024558675065030461 0 0.019688199878294912 -0.0034519656942757909 0 0.020950915724016389 -0.0023330229329582204 0 0.019688199878294912 -0.0034519656942757909 0 0.020968693937533554 -0.0037699786739164407 0 0.020950915724016389 -0.0023330229329582204 0 0.019688199878294912 -0.0034519656942757909 0 0.019672080344377382 -0.0044265605443695455 0 0.020968693937533554 -0.0037699786739164407 0 0.019688199878294912 -0.0034519656942757909 0 0.018603362252821502 -0.0034418805072541723 0 0.018468825015326117 -0.0039882660029487713 0 0.019312683192526537 -0.0040550926899390856 0 0.018678962583611462 -0.0020724121987460674 0 0.019688199878294912 -0.0034519656942757909 0 0.019672080344377382 -0.0044265605443695455 0 0.018492464333850253 -0.0044359765436081918 0 0.019688199878294912 -0.0034519656942757909 0 0.018603362252821502 -0.0034418805072541723 0 0.018427967762573019 -0.0029429331287163306 0 0.019672080344377382 -0.0044265605443695455 0 0.019732974995880902 -0.0055342326328555822 0 0.018492464333850253 -0.0044359765436081918 0 0.02003591462075402 -0.00012109137372327403 0 0.018678962583611462 -0.0020724121987460674 0 0.020564000464101746 0.0045393705491969466 0 0.019058901498424995 0.0043564890335226697 0 0.018969082476362583 0.0057018394133951178 0 0.019672080344377382 -0.0044265605443695455 0 0.021476823876436856 -0.0046513941245648676 0 0.020968693937533554 -0.0037699786739164407 0 0.019672080344377382 -0.0044265605443695455 0 0.019732974995880902 -0.0055342326328555822 0 0.021476823876436856 -0.0046513941245648676 0 0.020722321651117738 0.0043520552411069422 0 0.020564000464101746 0.0045393705491969466 0 0.022106019259627033 0.0034317253764739367 0 0.019732974995880902 -0.0055342326328555822 0 0.021476823876436856 -0.0046513941245648676 0 0.021280393686581262 -0.0068910934929605318 0 0.02003591462075402 -0.00012109137372327403 0 0.021454724358634387 -0.0020838535714565566 0 0.020722321651117738 0.0043520552411069422 0 0.020947420587166837 0.0037151211094616382 0 0.022106019259627033 0.0034317253764739367 0 0.020722321651117738 0.0043520552411069422 0 0.020947420587166837 0.0037151211094616382 0 0.020176491841224206 0.0038466745720195151 0 0.020947420587166837 0.0037151211094616382 0 0.020176491841224206 0.0038466745720195151 0 0.020809299224954076 0.0032363514027659284 0 0.020338344197268765 0.0043765704941157585 0 0.019732497943113065 0.0044059686749627087 0 0.020722321651117738 0.0043520552411069422 0 0.020176491841224206 0.0038466745720195151 0 0.019211008195169358 0.0045515389851480013 0 0.020722321651117738 0.0043520552411069422 0 0.020564000464101746 0.0045393705491969466 0 0.019058901498424995 0.0043564890335226697 0 0.020176491841224206 0.0038466745720195151 0 0.019467561643899491 0.0036260226744306784 0 0.020003242444738254 0.0031880267356925174 0 0.020176491841224206 0.0038466745720195151 0 0.019467561643899491 0.0036260226744306784 0 0.019211008195169358 0.0045515389851480013 0 0.022912467704533271 -0.005971280652001823 0 0.024149159550716202 -0.0049536398451474044 0 0.024625966577853112 -0.0062438393648053129 0 0.022912467704533271 -0.005971280652001823 0 0.021476823876436856 -0.0046513941245648676 0 0.021280393686581262 -0.0068910934929605318 0 0.021476823876436856 -0.0046513941245648676 0 0.023061853918349536 -0.0048109621744626572 0 0.023739292825241485 -0.0036244055659588902 0 0.021560079664975734 -0.0045448539432311778 0 0.023061716217562461 -0.0038482020436800988 0 0.022912467704533271 -0.005971280652001823 0 0.021476823876436856 -0.0046513941245648676 0 0.023061853918349536 -0.0048109621744626572 0 0.023061853918349536 -0.0048109621744626572 0 0.023739292825241485 -0.0036244055659588902 0 0.024149159550716202 -0.0049536398451474044 0 0.022912467704533271 -0.005971280652001823 0 0.023061853918349536 -0.0048109621744626572 0 0.024149159550716202 -0.0049536398451474044 0 0.021476823876436856 -0.0046513941245648676 0 0.02234383736455868 -0.0039990254320082597 0 0.022443226399555385 -0.004098851208400086 0 0.02234383736455868 -0.0039990254320082597 0 0.022443226399555385 -0.004098851208400086 0 0.021646743397496417 -0.005007938897851629 0 0.021476823876436856 -0.0046513941245648676 0 0.022443226399555385 -0.004098851208400086 0 0.020968693937533554 -0.0037699786739164407 0 0.022376837350265199 -0.0040828744471459594 0 0.023043052699667492 -0.004106465534681969 0 0.022443226399555385 -0.004098851208400086 0 0.020968693937533554 -0.0037699786739164407 0 0.020950915724016389 -0.0023330229329582204 0 0.022443226399555385 -0.004098851208400086 0 0.024600849906084056 -0.0059968349867141005 0 0.023231407098284966 -0.0058724516235734532 0 0.022443226399555385 -0.004098851208400086 0 0.022447369670251953 -0.0053261682236025992 0 0.023231407098284966 -0.0058724516235734532 0 0.022443226399555385 -0.004098851208400086 0 0.022447369670251953 -0.0053261682236025992 0 0.021646743397496417 -0.005007938897851629 0 0.022406360565151728 -0.0062379704288010292 0 0.022447369670251953 -0.0053261682236025992 0 0.023231407098284966 -0.0058724516235734532 0 0.022406360565151728 -0.0062379704288010292 0 0.022447369670251953 -0.0053261682236025992 0 0.021646743397496417 -0.005007938897851629 0 0.021646743397496417 -0.005007938897851629 0 0.020333786314979712 -0.0060163252959535779 0 0.0214110690346219 -0.0064813357127995862 0 0.022406360565151728 -0.0062379704288010292 0 0.021646743397496417 -0.005007938897851629 0 0.0214110690346219 -0.0064813357127995862 0 0.021646743397496417 -0.005007938897851629 0 0.020333786314979712 -0.0060163252959535779 0 0.020185857570231513 -0.0050383306254206395 0 0.020333786314979712 -0.0060163252959535779 0 0.019758551891502159 -0.0054246653389613663 0 0.019368775480786631 -0.005923235691155891 0 0.020333786314979712 -0.0060163252959535779 0 0.019758551891502159 -0.0054246653389613663 0 0.020185857570231513 -0.0050383306254206395 0 0.020185857570231513 -0.0050383306254206395 0 0.020864267736552543 -0.0042095149135015254 0 0.019132051245304201 -0.0047045277389797368 0 0.022967503702242289 -0.003364865258939179 0 0.02701250999455776 -0.0062986592237543118 0 0.026071740457122645 -0.0027685688301771535 0 0.027855433271067286 -0.00367793492898653 0 0.028349720120188989 -0.0024839066288680658 0 0.021646743397496417 -0.005007938897851629 0 0.020185857570231513 -0.0050383306254206395 0 0.020864267736552543 -0.0042095149135015254 0 0.023061716217562461 -0.0038482020436800988 0 0.022967503702242289 -0.003364865258939179 0 0.023739292825241485 -0.0036244055659588902 0 0.026071740457122645 -0.0027685688301771535 0 0.025212573829394697 -0.0041818801366085238 0 0.02234383736455868 -0.0039990254320082597 0 0.021646743397496417 -0.005007938897851629 0 0.020864267736552543 -0.0042095149135015254 0 0.023739292825241485 -0.0036244055659588902 0 0.024149159550716202 -0.0049536398451474044 0 0.025212573829394697 -0.0041818801366085238 0 0.024149159550716202 -0.0049536398451474044 0 0.025535187903981127 -0.0051266823734704807 0 0.025212573829394697 -0.0041818801366085238 0 0.025535187903981127 -0.0051266823734704807 0 0.025212573829394697 -0.0041818801366085238 0 0.02657787422899148 -0.0044322937101490389 0 0.026071740457122645 -0.0027685688301771535 0 0.025212573829394697 -0.0041818801366085238 0 0.02657787422899148 -0.0044322937101490389 0 0.026071740457122645 -0.0027685688301771535 0 0.02657787422899148 -0.0044322937101490389 0 0.027855433271067286 -0.00367793492898653 0 0.02657787422899148 -0.0044322937101490389 0 0.027979479099660705 -0.0051278117823884426 0 0.027855433271067286 -0.00367793492898653 0 0.02657787422899148 -0.0044322937101490389 0 0.026281744818178333 -0.0059374077510367107 0 0.027979479099660705 -0.0051278117823884426 0 0.025535187903981127 -0.0051266823734704807 0 0.02657787422899148 -0.0044322937101490389 0 0.026281744818178333 -0.0059374077510367107 0 0.026281744818178333 -0.0059374077510367107 0 0.027668569352493386 -0.0069301877326260197 0 0.025347411174941083 -0.0077142047303121837 0 0.026281744818178333 -0.0059374077510367107 0 0.027979479099660705 -0.0051278117823884426 0 0.027668569352493386 -0.0069301877326260197 0 0.026281744818178333 -0.0059374077510367107 0 0.024625966577853112 -0.0062438393648053129 0 0.025347411174941083 -0.0077142047303121837 0 0.024149159550716202 -0.0049536398451474044 0 0.025535187903981127 -0.0051266823734704807 0 0.024625966577853112 -0.0062438393648053129 0 0.025535187903981127 -0.0051266823734704807 0 0.026281744818178333 -0.0059374077510367107 0 0.024625966577853112 -0.0062438393648053129 0 0.035506588344808306 -0.00036346187894086679 0 0.042372902346444155 0.0012248820648863182 0 0.042305488010168597 0.00061882720384038366 0 0.041797908338171139 0.00041166876513054569 0 0.04180903179250281 0.0010810674439989637 0 0.030013041884518258 -0.0060709654898335724 0 0.027979479099660705 -0.0051278117823884426 0 0.027668569352493386 -0.0069301877326260197 0 0.035506588344808306 -0.00036346187894086679 0 0.028666699214744889 -0.0019704353314876728 0 0.030013041884518258 -0.0060709654898335724 0 0.027979479099660705 -0.0051278117823884426 0 0.029077151269293035 -0.00407530521783603 0 0.027979479099660705 -0.0051278117823884426 0 0.027855433271067286 -0.00367793492898653 0 0.029077151269293035 -0.00407530521783603 0 0.027855433271067286 -0.00367793492898653 0 0.029077151269293035 -0.00407530521783603 0 0.028767993812198897 -0.0031761852247296162 0 0.042264885553914271 0.00058935616624666268 0 0.042076249250804547 -0.00062721983624063797 0 0.041797908338171139 0.00041166876513054569 0 0.035506588344808306 -0.00036346187894086679 0 0.036453728010865327 -0.0021614208439093056 0 0.030013041884518258 -0.0060709654898335724 0 0.029077151269293035 -0.00407530521783603 0 0.030414050026953576 -0.0036327528305806515 0 0.029077151269293035 -0.00407530521783603 0 0.030414050026953576 -0.0036327528305806515 0 0.029534371820327737 -0.0030783955337352637 0 0.029896365699728353 -0.0022938088673198393 0 0.028450567726306289 -0.0019703547398512724 0 0.030847883023769437 -0.0011853348281365508 0 0.036453728010865327 -0.0021614208439093056 0 0.034419133683921889 -0.0034895343403262649 0 0.030414050026953576 -0.0036327528305806515 0 0.029896365699728353 -0.0022938088673198393 0 0.030847883023769437 -0.0011853348281365508 0 0.042076249250804547 -0.00062721983624063797 0 0.041836031264051353 -0.0018690079146528036 0 0.041565844946947754 -0.0014647340806385617 0 0.030414050026953576 -0.0036327528305806515 0 0.029534371820327737 -0.0030783955337352637 0 0.029896365699728353 -0.0022938088673198393 0 0.029534371820327737 -0.0030783955337352637 0 0.029896365699728353 -0.0022938088673198393 0 0.029020666314554404 -0.0025604845960064439 0 0.026071740457122645 -0.0027685688301771535 0 0.028440152298112274 -0.001972688508832593 0 0.028349720120188989 -0.0024839066288680658 0 0.027855433271067286 -0.00367793492898653 0 0.028767993812198897 -0.0031761852247296162 0 0.028349720120188989 -0.0024839066288680658 0 0.029077151269293035 -0.00407530521783603 0 0.029534371820327737 -0.0030783955337352637 0 0.028767993812198897 -0.0031761852247296162 0 0.028767993812198897 -0.0031761852247296162 0 0.029020666314554404 -0.0025604845960064439 0 0.028349720120188989 -0.0024839066288680658 0 0.029534371820327737 -0.0030783955337352637 0 0.028767993812198897 -0.0031761852247296162 0 0.029020666314554404 -0.0025604845960064439 0 0.029896365699728353 -0.0022938088673198393 0 0.029020666314554404 -0.0025604845960064439 0 0.028450567726306289 -0.0019703547398512724 0 0.029020666314554404 -0.0025604845960064439 0 0.028450567726306289 -0.0019703547398512724 0 0.028349720120188989 -0.0024839066288680658 0 0.02701250999455776 -0.0062986592237543118 0 0.027546560632002639 -0.0040329879242025695 0 0.019132051245304201 -0.0047045277389797368 0 0.019368775480786631 -0.005923235691155891 0 0.018608866818576823 -0.0069791362365546989 0 0.032334638969121164 -0.010386453072428803 0 0.032020197247451601 -0.010952976770882906 0 0.0321668697634961 -0.011260122221610092 0 0.02701250999455776 -0.0062986592237543118 0 0.024732148554841328 -0.0093087934228907442 0 0.032334638969121164 -0.010386453072428803 0 0.032008255711562489 -0.010631436721980225 0 0.032020197247451601 -0.010952976770882906 0 0.019758551891502159 -0.0054246653389613663 0 0.019132051245304201 -0.0047045277389797368 0 0.019368775480786631 -0.005923235691155891 0 0.019758551891502159 -0.0054246653389613663 0 0.020185857570231513 -0.0050383306254206395 0 0.019132051245304201 -0.0047045277389797368 0 0.02701250999455776 -0.0062986592237543118 0 0.034419133683921889 -0.0034895343403262649 0 0.032334638969121164 -0.010386453072428803 0 0.03172038635589873 -0.010615917684249994 0 0.032008255711562489 -0.010631436721980225 0 0.03172038635589873 -0.010615917684249994 0 0.032020197247451601 -0.010952976770882906 0 0.031528545916831255 -0.010668959445004919 0 0.032020197247451601 -0.010952976770882906 0 0.031611015754781667 -0.011029977991958748 0 0.031585365062087242 -0.010742933860311901 0 0.031339814880102491 -0.010818709506993337 0 0.034946345181047167 -0.0074345915841868915 0 0.03172038635589873 -0.010615917684249994 0 0.032008255711562489 -0.010631436721980225 0 0.031866013968597284 -0.010714424430931714 0 0.032008255711562489 -0.010631436721980225 0 0.032020197247451601 -0.010952976770882906 0 0.031866013968597284 -0.010714424430931714 0 0.03172038635589873 -0.010615917684249994 0 0.032020197247451601 -0.010952976770882906 0 0.031866013968597284 -0.010714424430931714 0 0.032020197247451601 -0.010952976770882906 0 0.031763896414287736 -0.011303587046655459 0 0.031611015754781667 -0.011029977991958748 0 0.032020197247451601 -0.010952976770882906 0 0.031763896414287736 -0.011303587046655459 0 0.0321668697634961 -0.011260122221610092 0 0.032820103922294223 -0.011866679176977517 0 0.028936913064331882 -0.011361940017043125 0 0.031763896414287736 -0.011303587046655459 0 0.032287554550513436 -0.012488760453625024 0 0.031498612109565748 -0.01213617717705002 0 0.031763896414287736 -0.011303587046655459 0 0.0321668697634961 -0.011260122221610092 0 0.031995549671816635 -0.011853926662130662 0 0.01940047215760134 -0.0084650364605602137 0 0.018608866818576823 -0.0069791362365546989 0 0.019859447687742945 -0.0072829361817982156 0 0.024732148554841328 -0.0093087934228907442 0 0.028936913064331882 -0.011361940017043125 0 0.01940047215760134 -0.0084650364605602137 0 0.018608866818576823 -0.0069791362365546989 0 0.018149471208562452 -0.0093963101745419622 0 0.018608866818576823 -0.0069791362365546989 0 0.019350892039904477 -0.0066908392286769616 0 0.019859447687742945 -0.0072829361817982156 0 0.020333786314979712 -0.0060163252959535779 0 0.019368775480786631 -0.005923235691155891 0 0.019350892039904477 -0.0066908392286769616 0 0.019368775480786631 -0.005923235691155891 0 0.018608866818576823 -0.0069791362365546989 0 0.019350892039904477 -0.0066908392286769616 0 0.019859447687742945 -0.0072829361817982156 0 0.0214110690346219 -0.0064813357127995862 0 0.021530744541789635 -0.0078299810956582606 0 0.020333786314979712 -0.0060163252959535779 0 0.019859447687742945 -0.0072829361817982156 0 0.0214110690346219 -0.0064813357127995862 0 0.020333786314979712 -0.0060163252959535779 0 0.019350892039904477 -0.0066908392286769616 0 0.019859447687742945 -0.0072829361817982156 0 0.022519814751489963 -0.0073077108687115257 0 0.022406360565151728 -0.0062379704288010292 0 0.0214110690346219 -0.0064813357127995862 0 0.022519814751489963 -0.0073077108687115257 0 0.0214110690346219 -0.0064813357127995862 0 0.021530744541789635 -0.0078299810956582606 0 0.021530744541789635 -0.0078299810956582606 0 0.020597133225613781 -0.008700514366200016 0 0.021960474001685614 -0.009153663058670691 0 0.022965921777151517 -0.0083629874794650984 0 0.021530744541789635 -0.0078299810956582606 0 0.021960474001685614 -0.009153663058670691 0 0.01940047215760134 -0.0084650364605602137 0 0.019859447687742945 -0.0072829361817982156 0 0.020597133225613781 -0.008700514366200016 0 0.019859447687742945 -0.0072829361817982156 0 0.021530744541789635 -0.0078299810956582606 0 0.020597133225613781 -0.008700514366200016 0 0.020597133225613781 -0.008700514366200016 0 0.019790516923824459 -0.0099947827390117136 0 0.021470436310957099 -0.010466875803968566 0 0.01940047215760134 -0.0084650364605602137 0 0.020597133225613781 -0.008700514366200016 0 0.019790516923824459 -0.0099947827390117136 0 0.020597133225613781 -0.008700514366200016 0 0.021960474001685614 -0.009153663058670691 0 0.021470436310957099 -0.010466875803968566 0 0.023321482860891828 -0.010471930912097005 0 0.021960474001685614 -0.009153663058670691 0 0.021470436310957099 -0.010466875803968566 0 0.021524404684722213 -0.012025965297473311 0 0.022612365746929299 -0.011636037275399832 0 0.021470436310957099 -0.010466875803968566 0 0.021524404684722213 -0.012025965297473311 0 0.021470436310957099 -0.010466875803968566 0 0.020509968568711474 -0.011340109568290143 0 0.019790516923824459 -0.0099947827390117136 0 0.021470436310957099 -0.010466875803968566 0 0.020509968568711474 -0.011340109568290143 0 0.019790516923824459 -0.0099947827390117136 0 0.020509968568711474 -0.011340109568290143 0 0.019186792811682965 -0.011734225570525149 0 0.03212350469838296 -0.013737936208501401 0 0.032339098062020746 -0.013671915273285793 0 0.032021557570079726 -0.01340513786652915 0 0.032339098062020746 -0.013671915273285793 0 0.032021557570079726 -0.01340513786652915 0 0.03207404437792781 -0.012856826986814507 0 0.025156602353309149 -0.012610478447154875 0 0.028936913064331882 -0.011361940017043125 0 0.031829198992687401 -0.013697362298841101 0 0.032021557570079726 -0.01340513786652915 0 0.031319364028773 -0.013250888222809896 0 0.032346851766607655 -0.013662774996060393 0 0.028936913064331882 -0.011361940017043125 0 0.032021557570079726 -0.01340513786652915 0 0.032287554550513436 -0.012488760453625024 0 0.031665361224544268 -0.012788056338626445 0 0.032287554550513436 -0.012488760453625024 0 0.031665361224544268 -0.012788056338626445 0 0.031498612109565748 -0.01213617717705002 0 0.01940047215760134 -0.0084650364605602137 0 0.019790516923824459 -0.0099947827390117136 0 0.018149471208562452 -0.0093963101745419622 0 0.019790516923824459 -0.0099947827390117136 0 0.019186792811682965 -0.011734225570525149 0 0.018149471208562452 -0.0093963101745419622 0 0.03117556519415858 -0.012675158174227662 0 0.030690736332915462 -0.012272290819581096 0 0.031498612109565748 -0.01213617717705002 0 0.030636331380790784 -0.012837437049177646 0 0.03117556519415858 -0.012675158174227662 0 0.030690736332915462 -0.012272290819581096 0 0.031665361224544268 -0.012788056338626445 0 0.03117556519415858 -0.012675158174227662 0 0.031498612109565748 -0.01213617717705002 0 0.031665361224544268 -0.012788056338626445 0 0.03117556519415858 -0.012675158174227662 0 0.031319364028773 -0.013250888222809896 0 0.032021557570079726 -0.01340513786652915 0 0.031665361224544268 -0.012788056338626445 0 0.031319364028773 -0.013250888222809896 0 0.030636331380790784 -0.012837437049177646 0 0.03117556519415858 -0.012675158174227662 0 0.031319364028773 -0.013250888222809896 0 0.030487502407724139 -0.013443172207822212 0 0.030636331380790784 -0.012837437049177646 0 0.031319364028773 -0.013250888222809896 0 0.030487502407724139 -0.013443172207822212 0 0.030636331380790784 -0.012837437049177646 0 0.030105341238031484 -0.01297964669434145 0 0.030487502407724139 -0.013443172207822212 0 0.030105341238031484 -0.01297964669434145 0 0.029653841114640058 -0.013090987882115388 0 0.032451129235412733 -0.014600948714507782 0 0.035861639064693675 -0.010750739417659054 0 0.030105341238031484 -0.01297964669434145 0 0.029654743257917268 -0.013049963876250611 0 0.029653841114640058 -0.013090987882115388 0 0.030105341238031484 -0.01297964669434145 0 0.030121298728021072 -0.012403412004434643 0 0.029654743257917268 -0.013049963876250611 0 0.035717741172660418 -0.0088860609218257055 0 0.034685199791422906 -0.0083194480561367759 0 0.03464712390206913 -0.010131434339272941 0 0.032411146866911086 -0.010913787578080309 0 0.035225833642168865 -0.01072632149957654 0 0.030636331380790784 -0.012837437049177646 0 0.030105341238031484 -0.01297964669434145 0 0.030121298728021072 -0.012403412004434643 0 0.030636331380790784 -0.012837437049177646 0 0.030121298728021072 -0.012403412004434643 0 0.030690736332915462 -0.012272290819581096 0 0.030121298728021072 -0.012403412004434643 0 0.030673489410894109 -0.011588013771736537 0 0.030690736332915462 -0.012272290819581096 0 0.032411146866911086 -0.010913787578080309 0 0.033587564108707946 -0.0097370578518449474 0 0.035717741172660418 -0.0088860609218257055 0 0.036030463054423506 -0.0078352550401967896 0 0.036637986471614079 -0.0077154561731700667 0 0.035717741172660418 -0.0088860609218257055 0 0.036030463054423506 -0.0078352550401967896 0 0.035350498065974595 -0.0076926565284816612 0 0.035717741172660418 -0.0088860609218257055 0 0.035350498065974595 -0.0076926565284816612 0 0.034685199791422906 -0.0083194480561367759 0 0.035350498065974595 -0.0076926565284816612 0 0.035581160091177191 -0.0068951099582503497 0 0.034700159036294531 -0.0064345409333595388 0 0.035350498065974595 -0.0076926565284816612 0 0.034700159036294531 -0.0064345409333595388 0 0.034685199791422906 -0.0083194480561367759 0 0.036030463054423506 -0.0078352550401967896 0 0.035350498065974595 -0.0076926565284816612 0 0.035581160091177191 -0.0068951099582503497 0 0.036091318454851272 -0.0075537579427415527 0 0.036120639571077695 -0.0072012360015167778 0 0.036030463054423506 -0.0078352550401967896 0 0.036579696479741922 -0.0071892181110609346 0 0.036181599736823222 -0.0069171939129712085 0 0.036030463054423506 -0.0078352550401967896 0 0.035581160091177191 -0.0068951099582503497 0 0.036310363998704333 -0.0065348912083692777 0 0.036030463054423506 -0.0078352550401967896 0 0.036579696479741922 -0.0071892181110609346 0 0.036637986471614079 -0.0077154561731700667 0 0.036579696479741922 -0.0071892181110609346 0 0.036637986471614079 -0.0077154561731700667 0 0.037029972701336081 -0.0069247080234757091 0 0.036637986471614079 -0.0077154561731700667 0 0.037372134013254447 -0.0067982369023030578 0 0.037029972701336081 -0.0069247080234757091 0 0.033587564108707946 -0.0097370578518449474 0 0.035190172784734422 -0.0081547400796451262 0 0.030673489410894109 -0.011588013771736537 0 0.031243426109308265 -0.011479841687627486 0 0.031321797778011265 -0.010802666203533706 0 0.030673489410894109 -0.011588013771736537 0 0.030690736332915462 -0.012272290819581096 0 0.031243426109308265 -0.011479841687627486 0 0.030690736332915462 -0.012272290819581096 0 0.031498612109565748 -0.01213617717705002 0 0.031243426109308265 -0.011479841687627486 0 0.031763896414287736 -0.011303587046655459 0 0.031498612109565748 -0.01213617717705002 0 0.031243426109308265 -0.011479841687627486 0 0.031243426109308265 -0.011479841687627486 0 0.031611015754781667 -0.011029977991958748 0 0.031321797778011265 -0.010802666203533706 0 0.031763896414287736 -0.011303587046655459 0 0.031243426109308265 -0.011479841687627486 0 0.031611015754781667 -0.011029977991958748 0 0.037397971480209874 -0.0067976181621802953 0 0.037569899994341308 -0.0066019603958139524 0 0.036845869515718756 -0.0067433608864517682 0 0.031611015754781667 -0.011029977991958748 0 0.031321797778011265 -0.010802666203533706 0 0.031585365062087242 -0.010742933860311901 0 0.035190172784734422 -0.0081547400796451262 0 0.034946345181047167 -0.0074345915841868915 0 0.035930005851590209 -0.0076099998947829423 0 0.036123334462155703 -0.0073850998148630347 0 0.036320212980891949 -0.0074699914422489549 0 0.035190172784734422 -0.0081547400796451262 0 0.037456558231802439 -0.0063404875755395714 0 0.041292696213304482 -0.0018930543870474587 0 0.041275335110653566 -0.0016311104258605684 0 0.041124145766905713 -0.0014329977437372921 0 0.041292696213304482 -0.0018930543870474587 0 0.041275335110653566 -0.0016311104258605684 0 0.04135606428932654 -0.0017439519143925973 0 0.041275335110653566 -0.0016311104258605684 0 0.04135606428932654 -0.0017439519143925973 0 0.041565844946947754 -0.0014647340806385617 0 0.04135606428932654 -0.0017439519143925973 0 0.041477987836017062 -0.0017785245684104336 0 0.041565844946947754 -0.0014647340806385617 0 0.041477987836017062 -0.0017785245684104336 0 0.041610739232980615 -0.0017357792670251102 0 0.041565844946947754 -0.0014647340806385617 0 0.041836031264051353 -0.0018690079146528036 0 0.041610739232980615 -0.0017357792670251102 0 0.041565844946947754 -0.0014647340806385617 0 0.041836031264051353 -0.0018690079146528036 0 0.041610739232980615 -0.0017357792670251102 0 0.041610319889314518 -0.0018481696316761571 0 0.041836031264051353 -0.0018690079146528036 0 0.041610319889314518 -0.0018481696316761571 0 0.041480861360056902 -0.0019859278184702744 0 0.034419133683921889 -0.0034895343403262649 0 0.034946345181047167 -0.0074345915841868915 0 0.041477987836017062 -0.0017785245684104336 0 0.041610739232980615 -0.0017357792670251102 0 0.041610319889314518 -0.0018481696316761571 0 0.041292696213304482 -0.0018930543870474587 0 0.041480861360056902 -0.0019859278184702744 0 0.041399333834902963 -0.0018467058470410444 0 0.037456558231802439 -0.0063404875755395714 0 0.034946345181047167 -0.0074345915841868915 0 0.04135606428932654 -0.0017439519143925973 0 0.041477987836017062 -0.0017785245684104336 0 0.041399333834902963 -0.0018467058470410444 0 0.041292696213304482 -0.0018930543870474587 0 0.04135606428932654 -0.0017439519143925973 0 0.041399333834902963 -0.0018467058470410444 0 0.041477987836017062 -0.0017785245684104336 0 0.041480861360056902 -0.0019859278184702744 0 0.041399333834902963 -0.0018467058470410444 0 0.041477987836017062 -0.0017785245684104336 0 0.041610319889314518 -0.0018481696316761571 0 0.041480861360056902 -0.0019859278184702744 0 0.037569899994341308 -0.0066019603958139524 0 0.036845869515718756 -0.0067433608864517682 0 0.036315801644498658 -0.0060233166056978564 0 0.036579696479741922 -0.0071892181110609346 0 0.036845869515718756 -0.0067433608864517682 0 0.036181599736823222 -0.0069171939129712085 0 0.036579696479741922 -0.0071892181110609346 0 0.036845869515718756 -0.0067433608864517682 0 0.037029972701336081 -0.0069247080234757091 0 0.037397971480209874 -0.0067976181621802953 0 0.036845869515718756 -0.0067433608864517682 0 0.037029972701336081 -0.0069247080234757091 0 0.035190172784734422 -0.0081547400796451262 0 0.037204586229520789 -0.0071784179592757911 0 0.041292696213304482 -0.0018930543870474587 0 0.041124145766905713 -0.0014329977437372921 0 0.039851441446964904 -0.0012402050074630184 0 0.040648001523323173 -0.00096529523792893406 0 0.041124145766905713 -0.0014329977437372921 0 0.039851441446964904 -0.0012402050074630184 0 0.037456558231802439 -0.0063404875755395714 0 0.038326516791322311 -0.0034207762735422656 0 0.040648001523323173 -0.00096529523792893406 0 0.041099597855636147 -0.00067566413911683359 0 0.040498998940840671 -0.00053337105058023893 0 0.040648001523323173 -0.00096529523792893406 0 0.040498998940840671 -0.00053337105058023893 0 0.039851441446964904 -0.0012402050074630184 0 0.041565844946947754 -0.0014647340806385617 0 0.041397098149882225 -0.0013649777708491663 0 0.041526709412574296 -0.00095639222753958139 0 0.041275335110653566 -0.0016311104258605684 0 0.041565844946947754 -0.0014647340806385617 0 0.041397098149882225 -0.0013649777708491663 0 0.041275335110653566 -0.0016311104258605684 0 0.041397098149882225 -0.0013649777708491663 0 0.041124145766905713 -0.0014329977437372921 0 0.041397098149882225 -0.0013649777708491663 0 0.041124145766905713 -0.0014329977437372921 0 0.041526709412574296 -0.00095639222753958139 0 0.040648001523323173 -0.00096529523792893406 0 0.041124145766905713 -0.0014329977437372921 0 0.041099597855636147 -0.00067566413911683359 0 0.041124145766905713 -0.0014329977437372921 0 0.041526709412574296 -0.00095639222753958139 0 0.041099597855636147 -0.00067566413911683359 0 0.042076249250804547 -0.00062721983624063797 0 0.041565844946947754 -0.0014647340806385617 0 0.041526709412574296 -0.00095639222753958139 0 0.041526709412574296 -0.00095639222753958139 0 0.041504350056316933 -0.00038865541514430718 0 0.041099597855636147 -0.00067566413911683359 0 0.042076249250804547 -0.00062721983624063797 0 0.041504350056316933 -0.00038865541514430718 0 0.041797908338171139 0.00041166876513054569 0 0.042076249250804547 -0.00062721983624063797 0 0.041526709412574296 -0.00095639222753958139 0 0.041504350056316933 -0.00038865541514430718 0 0.041504350056316933 -0.00038865541514430718 0 0.041005535968573724 -0.00012313484217527099 0 0.041797908338171139 0.00041166876513054569 0 0.041504350056316933 -0.00038865541514430718 0 0.041005535968573724 -0.00012313484217527099 0 0.041099597855636147 -0.00067566413911683359 0 0.041005535968573724 -0.00012313484217527099 0 0.041066086486305373 0.00066032371215426003 0 0.040044323335087888 -0.00010141234705952788 0 0.041005535968573724 -0.00012313484217527099 0 0.041099597855636147 -0.00067566413911683359 0 0.040498998940840671 -0.00053337105058023893 0 0.041005535968573724 -0.00012313484217527099 0 0.040498998940840671 -0.00053337105058023893 0 0.040044323335087888 -0.00010141234705952788 0 0.041066086486305373 0.00066032371215426003 0 0.040044323335087888 -0.00010141234705952788 0 0.040300859648442558 0.0010313961106814533 0 0.041066086486305373 0.00066032371215426003 0 0.041797908338171139 0.00041166876513054569 0 0.04180903179250281 0.0010810674439989637 0 0.041005535968573724 -0.00012313484217527099 0 0.041066086486305373 0.00066032371215426003 0 0.041797908338171139 0.00041166876513054569 0 0.039609586615842365 -0.00012425192961111205 0 0.03874338921700507 0.00018453258369973099 0 0.038736035542951588 -0.00064396356501578058 0 0.039609586615842365 -0.00012425192961111205 0 0.03874338921700507 0.00018453258369973099 0 0.039469926970334052 0.00069460052840016268 0 0.039609586615842365 -0.00012425192961111205 0 0.040502436157890703 -0.00069171086981445386 0 0.040661396409828882 0.00068306531290696863 0 0.039609586615842365 -0.00012425192961111205 0 0.039469926970334052 0.00069460052840016268 0 0.040661396409828882 0.00068306531290696863 0 0.04041226888740225 -1.7318709806009721e-05 0 0.040460731289423423 0.00077959057308187474 0 0.040502436157890703 -0.00069171086981445386 0 0.039590410831686573 -0.00097673579909717239 0 0.040301942059447329 -0.0020020843565186314 0 0.04041226888740225 -1.7318709806009721e-05 0 0.038326516791322311 -0.0034207762735422656 0 0.039609586615842365 -0.00012425192961111205 0 0.040502436157890703 -0.00069171086981445386 0 0.039590410831686573 -0.00097673579909717239 0 0.040498998940840671 -0.00053337105058023893 0 0.040044323335087888 -0.00010141234705952788 0 0.039851441446964904 -0.0012402050074630184 0 0.039609586615842365 -0.00012425192961111205 0 0.039590410831686573 -0.00097673579909717239 0 0.038736035542951588 -0.00064396356501578058 0 0.038331776464177861 -0.00062770720356439193 0 0.0375581558255276 -0.0026001745478974993 0 0.039590410831686573 -0.00097673579909717239 0 0.038736035542951588 -0.00064396356501578058 0 0.038708646948989449 -0.001293223264827824 0 0.03476205736248774 -0.0044161076268073463 0 0.036528346958082512 -0.0052068965202858135 0 0.035561505921300265 -0.0057528043742041957 0 0.03476205736248774 -0.0044161076268073463 0 0.035561505921300265 -0.0057528043742041957 0 0.034700159036294531 -0.0064345409333595388 0 0.0375581558255276 -0.0026001745478974993 0 0.038326516791322311 -0.0034207762735422656 0 0.039590410831686573 -0.00097673579909717239 0 0.038708646948989449 -0.001293223264827824 0 0.040301942059447329 -0.0020020843565186314 0 0.0375581558255276 -0.0026001745478974993 0 0.036887280023920714 -0.0054792084146306616 0 0.038326516791322311 -0.0034207762735422656 0 0.036120639571077695 -0.0072012360015167778 0 0.036528346958082512 -0.0052068965202858135 0 0.036310363998704333 -0.0065348912083692777 0 0.035561505921300265 -0.0057528043742041957 0 0.036845869515718756 -0.0067433608864517682 0 0.036315801644498658 -0.0060233166056978564 0 0.036181599736823222 -0.0069171939129712085 0 0.035581160091177191 -0.0068951099582503497 0 0.036310363998704333 -0.0065348912083692777 0 0.035561505921300265 -0.0057528043742041957 0 0.035581160091177191 -0.0068951099582503497 0 0.035561505921300265 -0.0057528043742041957 0 0.034700159036294531 -0.0064345409333595388 0 0.039277132227432635 -0.0040857586770362024 0 0.03802979625979952 -0.0028905555266616869 0 0.037811914532848497 -0.0048605951619640477 0 0.03802979625979952 -0.0028905555266616869 0 0.036838328480185534 -0.0036059897522632521 0 0.037811914532848497 -0.0048605951619640477 0 0.03802979625979952 -0.0028905555266616869 0 0.037017858288331526 -0.0023168183608417436 0 0.036838328480185534 -0.0036059897522632521 0 0.03802979625979952 -0.0028905555266616869 0 0.037783692830845622 -0.0012938671718962715 0 0.037017858288331526 -0.0023168183608417436 0 0.039342111072922896 -0.0020200815458794896 0 0.039277132227432635 -0.0040857586770362024 0 0.03802979625979952 -0.0028905555266616869 0 0.038736035542951588 -0.00064396356501578058 0 0.038718831827830841 -0.001282469204769873 0 0.038192598025719365 -0.00034908398344607575 0 0.039342111072922896 -0.0020200815458794896 0 0.03802979625979952 -0.0028905555266616869 0 0.037783692830845622 -0.0012938671718962715 0 0.0375581558255276 -0.0026001745478974993 0 0.037822057544238834 -0.00098655560637826885 0 0.038718831827830841 -0.001282469204769873 0 0.037413345229181862 -0.00077505427702874278 0 0.038192598025719365 -0.00034908398344607575 0 0.037413345229181862 -0.00077505427702874278 0 0.037963891054501986 0.00034832512074345318 0 0.036984979262286638 0.00041735378815029983 0 0.037413345229181862 -0.00077505427702874278 0 0.037963891054501986 0.00034832512074345318 0 0.038192598025719365 -0.00034908398344607575 0 0.03874338921700507 0.00018453258369973099 0 0.037963891054501986 0.00034832512074345318 0 0.038192598025719365 -0.00034908398344607575 0 0.03874338921700507 0.00018453258369973099 0 0.038736035542951588 -0.00064396356501578058 0 0.038192598025719365 -0.00034908398344607575 0 0.034999984533445092 -6.3187699738804012e-05 0 0.036150616197417877 -0.00051280060511837706 0 0.034999679137434792 -0.0011330905733636591 0 0.034999984533445092 -6.3187699738804012e-05 0 0.036150616197417877 -0.00051280060511837706 0 0.03593386470098104 0.00076372932282859295 0 0.037822057544238834 -0.00098655560637826885 0 0.036141141265028945 -0.00051477372620861727 0 0.037413345229181862 -0.00077505427702874278 0 0.036150616197417877 -0.00051280060511837706 0 0.036984979262286638 0.00041735378815029983 0 0.036150616197417877 -0.00051280060511837706 0 0.03593386470098104 0.00076372932282859295 0 0.036984979262286638 0.00041735378815029983 0 0.037783692830845622 -0.0012938671718962715 0 0.036150616197417877 -0.00051280060511837706 0 0.037017858288331526 -0.0023168183608417436 0 0.036150616197417877 -0.00051280060511837706 0 0.03583656473068432 -0.0019823997409951369 0 0.037017858288331526 -0.0023168183608417436 0 0.034998863570373649 -0.0012395252658030549 0 0.035106891400407104 -0.0029849123376349952 0 0.036150616197417877 -0.00051280060511837706 0 0.03583656473068432 -0.0019823997409951369 0 0.034999679137434792 -0.0011330905733636591 0 0.03583656473068432 -0.0019823997409951369 0 0.034999679137434792 -0.0011330905733636591 0 0.035049186976280712 -0.0029713949531806759 0 0.035000003905325691 -0.0011335710159920563 0 0.03499999252117908 -0.0019837968395158881 0 0.03515948669257387 -0.0030437453798877407 0 0.03499999252117908 -0.0019837968395158881 0 0.03515948669257387 -0.0030437453798877407 0 0.035000010688097598 -0.0039042777003374745 0 0.03583656473068432 -0.0019823997409951369 0 0.035049186976280712 -0.0029713949531806759 0 0.036065170537032357 -0.0029714694557700237 0 0.03583656473068432 -0.0019823997409951369 0 0.037017858288331526 -0.0023168183608417436 0 0.036065170537032357 -0.0029714694557700237 0 0.037017858288331526 -0.0023168183608417436 0 0.036065170537032357 -0.0029714694557700237 0 0.036838328480185534 -0.0036059897522632521 0 0.036838328480185534 -0.0036059897522632521 0 0.035881233745904073 -0.003872817992865314 0 0.036486145037422778 -0.0048080391182147289 0 0.036065170537032357 -0.0029714694557700237 0 0.036838328480185534 -0.0036059897522632521 0 0.035881233745904073 -0.003872817992865314 0 0.035049186976280712 -0.0029713949531806759 0 0.035881233745904073 -0.003872817992865314 0 0.035193744755227407 -0.0049628471542723894 0 0.03515948669257387 -0.0030437453798877407 0 0.035000010688097598 -0.0039042777003374745 0 0.035298047604744635 -0.0049539313643267953 0 0.035106891400407104 -0.0029849123376349952 0 0.035249318695104101 -0.0049819414613833154 0 0.035049186976280712 -0.0029713949531806759 0 0.036065170537032357 -0.0029714694557700237 0 0.035881233745904073 -0.003872817992865314 0 0.035000010688097598 -0.0039042777003374745 0 0.035298047604744635 -0.0049539313643267953 0 0.034999974045315511 -0.0058248446117098078 0 0.035193744755227407 -0.0049628471542723894 0 0.036063662377760014 -0.0059091642232046698 0 0.036486145037422778 -0.0048080391182147289 0 0.035881233745904073 -0.003872817992865314 0 0.035193744755227407 -0.0049628471542723894 0 0.036486145037422778 -0.0048080391182147289 0 0.035193744755227407 -0.0049628471542723894 0 0.036063662377760014 -0.0059091642232046698 0 0.035405354090653124 -0.0068703513527658931 0 0.035249318695104101 -0.0049819414613833154 0 0.035393334137165666 -0.0067623950830899802 0 0.035298047604744635 -0.0049539313643267953 0 0.034999974045315511 -0.0058248446117098078 0 0.035405354090653124 -0.0068703513527658931 0 0.036063662377760014 -0.0059091642232046698 0 0.036947966465889596 -0.0058150365642004017 0 0.036517833526057801 -0.0070071362693201944 0 0.036063662377760014 -0.0059091642232046698 0 0.036947966465889596 -0.0058150365642004017 0 0.036486145037422778 -0.0048080391182147289 0 0.036947966465889596 -0.0058150365642004017 0 0.036486145037422778 -0.0048080391182147289 0 0.037811914532848497 -0.0048605951619640477 0 0.036838328480185534 -0.0036059897522632521 0 0.036486145037422778 -0.0048080391182147289 0 0.037811914532848497 -0.0048605951619640477 0 0.039277132227432635 -0.0040857586770362024 0 0.037811914532848497 -0.0048605951619640477 0 0.039195641479420118 -0.006124864080575488 0 0.036887280023920714 -0.0054792084146306616 0 0.03717976487452835 -0.0068217945341674802 0 0.037811914532848497 -0.0048605951619640477 0 0.039195641479420118 -0.006124864080575488 0 0.037898088649446271 -0.0066412995808438494 0 0.036947966465889596 -0.0058150365642004017 0 0.037898088649446271 -0.0066412995808438494 0 0.036517833526057801 -0.0070071362693201944 0 0.036947966465889596 -0.0058150365642004017 0 0.037811914532848497 -0.0048605951619640477 0 0.037898088649446271 -0.0066412995808438494 0 0.037898088649446271 -0.0066412995808438494 0 0.037693325878499613 -0.0077833222459643718 0 0.036517833526057801 -0.0070071362693201944 0 0.037898088649446271 -0.0066412995808438494 0 0.038483402720471419 -0.0076396290677857902 0 0.037693325878499613 -0.0077833222459643718 0 0.03717976487452835 -0.0068217945341674802 0 0.035225833642168865 -0.01072632149957654 0 0.039195641479420118 -0.006124864080575488 0 0.038483402720471419 -0.0076396290677857902 0 0.039113118502358123 -0.0081456707522910687 0 0.039195641479420118 -0.006124864080575488 0 0.037898088649446271 -0.0066412995808438494 0 0.038483402720471419 -0.0076396290677857902 0 0.038388487254235375 -0.0088097995854334015 0 0.038969835217727428 -0.0082249504422758322 0 0.037693325878499613 -0.0077833222459643718 0 0.038483402720471419 -0.0076396290677857902 0 0.039109721919363079 -0.0082467491173605478 0 0.037693325878499613 -0.0077833222459643718 0 0.035861639064693675 -0.010750739417659054 0 0.038777172127450049 -0.0076559301138297217 0 0.038483402720471419 -0.0076396290677857902 0 0.039113118502358123 -0.0081456707522910687 0 0.039109721919363079 -0.0082467491173605478 0 0.035225833642168865 -0.01072632149957654 0 0.035861639064693675 -0.010750739417659054 0 0.036586158659803913 -0.011516903212299669 0 0.036490221226532484 -0.011481557821802785 0 0.03658498529562209 -0.011380246949039854 0 0.036759837829562499 -0.013456693649303885 0 0.035861639064693675 -0.010750739417659054 0 0.03756260950695163 -0.010506703262372174 0 0.035861639064693675 -0.010750739417659054 0 0.038388487254235375 -0.0088097995854334015 0 0.037693325878499613 -0.0077833222459643718 0 0.036726089431020924 -0.0082789920780061733 0 0.03756260950695163 -0.010506703262372174 0 0.036955126173863748 -0.0080986883368323517 0 0.037693325878499613 -0.0077833222459643718 0 0.036726089431020924 -0.0082789920780061733 0 0.036517833526057801 -0.0070071362693201944 0 0.036726089431020924 -0.0082789920780061733 0 0.034999931144663834 -0.0077452143098066077 0 0.036517833526057801 -0.0070071362693201944 0 0.036955126173863748 -0.0080986883368323517 0 0.035000156770560391 -0.0077454598056708865 0 0.036868528601598956 -0.0082948131740522499 0 0.03500000012539331 -0.0077453200894062983 0 0.035723963224085213 -0.0086727179340508019 0 0.035000049518459024 -0.0096032005348891218 0 0.03500000012539331 -0.0077453200894062983 0 0.035723963224085213 -0.0086727179340508019 0 0.034999931144663834 -0.0077452143098066077 0 0.035405354090653124 -0.0068703513527658931 0 0.036517833526057801 -0.0070071362693201944 0 0.034999974045315511 -0.0058248446117098078 0 0.034999931144663834 -0.0077452143098066077 0 0.035405354090653124 -0.0068703513527658931 0 0.036063662377760014 -0.0059091642232046698 0 0.035405354090653124 -0.0068703513527658931 0 0.036517833526057801 -0.0070071362693201944 0 0.0090772515567459737 -0.019460683801136806 0 0.0086698037933782869 -0.019759379762015913 0 0.0096904881807720403 -0.019939673107584051 0 0.0090647704146461366 -0.019695269435173284 0 0.0096904881807720403 -0.019939673107584051 0 0.0090188568835517201 -0.020224908132680578 0 0.008714947240463301 -0.019698674043223095 0 0.0097047816331306668 -0.019904534616939532 0 0.0090772515567459737 -0.019460683801136806 0 0.0096640810029249551 -0.019533746821510684 0 0.0096904881807720403 -0.019939673107584051 0 0.0090647704146461366 -0.019695269435173284 0 0.0090188568835517201 -0.020224908132680578 0 0.009784005319063243 -0.019108985227943798 0 0.011925457823841976 -0.01170982226788414 0 0.014003838510347083 -0.010995739708792002 0 0.0086698037933782869 -0.019759379762015913 0 0.0086006936999279918 -0.019302069448378329 0 0.0082903253039779464 -0.019477848493241186 0 0.0090772515567459737 -0.019460683801136806 0 0.0086698037933782869 -0.019759379762015913 0 0.0086006936999279918 -0.019302069448378329 0 0.0090772515567459737 -0.019460683801136806 0 0.0086006936999279918 -0.019302069448378329 0 0.0088416183575598661 -0.018955639330429163 0 0.0086006936999279918 -0.019302069448378329 0 0.0084607356638304598 -0.01897914854006345 0 0.0088416183575598661 -0.018955639330429163 0 0.0097269963204321304 -0.020462890106316394 0 0.010004056414899905 -0.020399914681277647 0 0.010134660608592283 -0.020460026158035539 0 0.0097269963204321304 -0.020462890106316394 0 0.010004056414899905 -0.020399914681277647 0 0.0097911076138552326 -0.020405691051854895 0 0.009374040649644028 -0.019587799929138026 0 0.0099194670166038237 -0.020068697540385955 0 0.0090772515567459737 -0.019460683801136806 0 0.0088416183575598661 -0.018955639330429163 0 0.0096640810029249551 -0.019533746821510684 0 0.010004056414899905 -0.020399914681277647 0 0.010163483487659438 -0.02033629281334785 0 0.0097911076138552326 -0.020405691051854895 0 0.010318405395194127 -0.022989328363176114 0 0.009642139095115819 -0.021882231163517021 0 0.010249426117867524 -0.022142531061264327 0 0.010491321552048355 -0.02022258697270295 0 0.010163483487659438 -0.02033629281334785 0 0.0097911076138552326 -0.020405691051854895 0 0.011221512209134182 -0.021311507946771124 0 0.0096749955853522047 -0.021181498296291665 0 0.010318405395194127 -0.022989328363176114 0 0.010901184143427509 -0.022546958992663499 0 0.010249426117867524 -0.022142531061264327 0 0.010452398989785512 -0.020239270805470114 0 0.010491321552048355 -0.02022258697270295 0 0.010341533829511865 -0.02029013819640792 0 0.011162822541064342 -0.021288181036038127 0 0.011221512209134182 -0.021311507946771124 0 0.010452398989785512 -0.020239270805470114 0 0.010594336278915971 -0.020159518065772944 0 0.010604578858273027 -0.02032037370669685 0 0.010452398989785512 -0.020239270805470114 0 0.010454945722137317 -0.020312559764045883 0 0.010604578858273027 -0.02032037370669685 0 0.010454945722137317 -0.020312559764045883 0 0.010341533829511865 -0.02029013819640792 0 0.010351934940842196 -0.020376215053262821 0 0.010491321552048355 -0.02022258697270295 0 0.010341533829511865 -0.02029013819640792 0 0.010163483487659438 -0.02033629281334785 0 0.010004056414899905 -0.020399914681277647 0 0.010198141578722279 -0.020372013626856107 0 0.010134660608592283 -0.020460026158035539 0 0.010452398989785512 -0.020239270805470114 0 0.010454945722137317 -0.020312559764045883 0 0.010341533829511865 -0.02029013819640792 0 0.010341533829511865 -0.02029013819640792 0 0.010198141578722279 -0.020372013626856107 0 0.010351934940842196 -0.020376215053262821 0 0.010341533829511865 -0.02029013819640792 0 0.010198141578722279 -0.020372013626856107 0 0.010163483487659438 -0.02033629281334785 0 0.010004056414899905 -0.020399914681277647 0 0.010198141578722279 -0.020372013626856107 0 0.010163483487659438 -0.02033629281334785 0 0.010901184143427509 -0.022546958992663499 0 0.011266157829956666 -0.022033009887040021 0 0.011720939584544975 -0.023165075945725221 0 0.010318405395194127 -0.022989328363176114 0 0.010901184143427509 -0.022546958992663499 0 0.011720939584544975 -0.023165075945725221 0 0.011221512209134182 -0.021311507946771124 0 0.013114846065887444 -0.022341086277629509 0 0.012846100153751339 -0.021482609816154529 0 0.013922098768082038 -0.022487479362644953 0 0.014322097418263095 -0.021337350218545707 0 0.011221512209134182 -0.021311507946771124 0 0.013226528875071503 -0.021707133488694887 0 0.010594336278915971 -0.020159518065772944 0 0.012382956331139781 -0.020837271660258512 0 0.010977742339725488 -0.020542065733922598 0 0.011481291768657198 -0.020824818601458277 0 0.012382956331139781 -0.020837271660258512 0 0.010977742339725488 -0.020542065733922598 0 0.011481291768657198 -0.020824818601458277 0 0.011520364607358502 -0.021066936056511526 0 0.012382956331139781 -0.020837271660258512 0 0.011481291768657198 -0.020824818601458277 0 0.010977742339725488 -0.020542065733922598 0 0.011086051187891808 -0.020841974763162033 0 0.011481291768657198 -0.020824818601458277 0 0.011520364607358502 -0.021066936056511526 0 0.011086051187891808 -0.020841974763162033 0 0.010134660608592283 -0.020460026158035539 0 0.010741706500192098 -0.020721861646886733 0 0.011640483608764489 -0.021670445336849972 0 0.0096640810029249551 -0.019533746821510684 0 0.0096904881807720403 -0.019939673107584051 0 0.011640483608764489 -0.021670445336849972 0 0.0099194670166038237 -0.020068697540385955 0 0.011531496437239035 -0.021553116115733604 0 0.010134660608592283 -0.020460026158035539 0 0.01037507058667661 -0.020438561297003818 0 0.010741706500192098 -0.020721861646886733 0 0.010198141578722279 -0.020372013626856107 0 0.010134660608592283 -0.020460026158035539 0 0.01037507058667661 -0.020438561297003818 0 0.010198141578722279 -0.020372013626856107 0 0.010351934940842196 -0.020376215053262821 0 0.01037507058667661 -0.020438561297003818 0 0.010351934940842196 -0.020376215053262821 0 0.01037507058667661 -0.020438561297003818 0 0.010545127155797196 -0.020449324890256006 0 0.010454945722137317 -0.020312559764045883 0 0.010351934940842196 -0.020376215053262821 0 0.010545127155797196 -0.020449324890256006 0 0.010604578858273027 -0.02032037370669685 0 0.01068581396165171 -0.020454646619905675 0 0.010977742339725488 -0.020542065733922598 0 0.010594336278915971 -0.020159518065772944 0 0.010604578858273027 -0.02032037370669685 0 0.010977742339725488 -0.020542065733922598 0 0.010454945722137317 -0.020312559764045883 0 0.010604578858273027 -0.02032037370669685 0 0.010545127155797196 -0.020449324890256006 0 0.010604578858273027 -0.02032037370669685 0 0.01068581396165171 -0.020454646619905675 0 0.010545127155797196 -0.020449324890256006 0 0.010977742339725488 -0.020542065733922598 0 0.010803360602765516 -0.020596881614846976 0 0.011086051187891808 -0.020841974763162033 0 0.01068581396165171 -0.020454646619905675 0 0.010977742339725488 -0.020542065733922598 0 0.010803360602765516 -0.020596881614846976 0 0.010545127155797196 -0.020449324890256006 0 0.010803360602765516 -0.020596881614846976 0 0.010741706500192098 -0.020721861646886733 0 0.01037507058667661 -0.020438561297003818 0 0.010545127155797196 -0.020449324890256006 0 0.010741706500192098 -0.020721861646886733 0 0.01068581396165171 -0.020454646619905675 0 0.010545127155797196 -0.020449324890256006 0 0.010803360602765516 -0.020596881614846976 0 0.010741706500192098 -0.020721861646886733 0 0.011086051187891808 -0.020841974763162033 0 0.011640483608764489 -0.021670445336849972 0 0.010803360602765516 -0.020596881614846976 0 0.010741706500192098 -0.020721861646886733 0 0.011086051187891808 -0.020841974763162033 0 0.0096904881807720403 -0.019939673107584051 0 0.010863171922770715 -0.021856206238163582 0 0.0090188568835517201 -0.020224908132680578 0 0.013233572382942611 -0.012440551226452875 0 0.011925457823841976 -0.01170982226788414 0 0.015332814313467544 -0.0029948489463536344 0 0.015280442234806183 -0.0030757689945347263 0 0.015230944754664624 -0.0031833940669460385 0 0.0096904881807720403 -0.019939673107584051 0 0.010863171922770715 -0.021856206238163582 0 0.011640483608764489 -0.021670445336849972 0 0.015332814313467544 -0.0029948489463536344 0 0.015280442234806183 -0.0030757689945347263 0 0.015324542606570448 -0.0030147010162419356 0 0.010863171922770715 -0.021856206238163582 0 0.011640483608764489 -0.021670445336849972 0 0.014212873657279176 -0.023525462789746921 0 0.013233572382942611 -0.012440551226452875 0 0.014914621873653609 -0.013131245123252342 0 0.012385439725779152 -0.021627320854013452 0 0.011640483608764489 -0.021670445336849972 0 0.013108957302096054 -0.022231396417868868 0 0.012382956331139781 -0.020837271660258512 0 0.012385439725779152 -0.021627320854013452 0 0.013108957302096054 -0.022231396417868868 0 0.011520364607358502 -0.021066936056511526 0 0.012382956331139781 -0.020837271660258512 0 0.011953421340206443 -0.021305552308795023 0 0.012382956331139781 -0.020837271660258512 0 0.012385439725779152 -0.021627320854013452 0 0.011953421340206443 -0.021305552308795023 0 0.012385439725779152 -0.021627320854013452 0 0.011953421340206443 -0.021305552308795023 0 0.011640483608764489 -0.021670445336849972 0 0.011520364607358502 -0.021066936056511526 0 0.011953421340206443 -0.021305552308795023 0 0.011640483608764489 -0.021670445336849972 0 0.011520364607358502 -0.021066936056511526 0 0.011086051187891808 -0.020841974763162033 0 0.011640483608764489 -0.021670445336849972 0 0.015332814313467544 -0.0029948489463536344 0 0.015396424295853204 -0.0029575325424101998 0 0.015605486824730851 -0.0027910462256719218 0 0.015396424295853204 -0.0029575325424101998 0 0.015459818073347342 -0.0029267746261512186 0 0.015605486824730851 -0.0027910462256719218 0 0.015396424295853204 -0.0029575325424101998 0 0.015395285919564907 -0.0029690193529424459 0 0.015343958025225724 -0.0030056238483672257 0 0.015396424295853204 -0.0029575325424101998 0 0.015395285919564907 -0.0029690193529424459 0 0.015459818073347342 -0.0029267746261512186 0 0.015395285919564907 -0.0029690193529424459 0 0.01538995748060447 -0.0029883470631701468 0 0.015459818073347342 -0.0029267746261512186 0 0.015395285919564907 -0.0029690193529424459 0 0.01538995748060447 -0.0029883470631701468 0 0.015343958025225724 -0.0030056238483672257 0 0.015459818073347342 -0.0029267746261512186 0 0.015559358835017197 -0.0028762602378062268 0 0.015475874588758197 -0.002951357761090798 0 0.01538995748060447 -0.0029883470631701468 0 0.015459818073347342 -0.0029267746261512186 0 0.015475874588758197 -0.002951357761090798 0 0.015280442234806183 -0.0030757689945347263 0 0.015298054543157731 -0.0030476696699151496 0 0.015324542606570448 -0.0030147010162419356 0 0.015298054543157731 -0.0030476696699151496 0 0.015324542606570448 -0.0030147010162419356 0 0.015343958025225724 -0.0030056238483672257 0 0.015332814313467544 -0.0029948489463536344 0 0.015396424295853204 -0.0029575325424101998 0 0.015324542606570448 -0.0030147010162419356 0 0.015396424295853204 -0.0029575325424101998 0 0.015324542606570448 -0.0030147010162419356 0 0.015343958025225724 -0.0030056238483672257 0 0.015298054543157731 -0.0030476696699151496 0 0.015343958025225724 -0.0030056238483672257 0 0.01531627471801774 -0.0030378780434774564 0 0.01538995748060447 -0.0029883470631701468 0 0.015343958025225724 -0.0030056238483672257 0 0.01531627471801774 -0.0030378780434774564 0 0.015298054543157731 -0.0030476696699151496 0 0.01531627471801774 -0.0030378780434774564 0 0.015278630725707171 -0.0030726256752798414 0 0.015278630725707171 -0.0030726256752798414 0 0.015264394625044612 -0.0030937301203220824 0 0.015251124187270093 -0.0031081163494999413 0 0.015298054543157731 -0.0030476696699151496 0 0.015278630725707171 -0.0030726256752798414 0 0.015264394625044612 -0.0030937301203220824 0 0.015264394625044612 -0.0030937301203220824 0 0.015253623580114317 -0.0031385656646680752 0 0.015251124187270093 -0.0031081163494999413 0 0.015264394625044612 -0.0030937301203220824 0 0.015248768209745937 -0.0031358125421183654 0 0.015253623580114317 -0.0031385656646680752 0 0.015280442234806183 -0.0030757689945347263 0 0.015298054543157731 -0.0030476696699151496 0 0.015264394625044612 -0.0030937301203220824 0 0.015280442234806183 -0.0030757689945347263 0 0.015264394625044612 -0.0030937301203220824 0 0.015248768209745937 -0.0031358125421183654 0 0.015280442234806183 -0.0030757689945347263 0 0.015248768209745937 -0.0031358125421183654 0 0.015230944754664624 -0.0031833940669460385 0 0.015230944754664624 -0.0031833940669460385 0 0.015263240074659261 -0.0032147085105042484 0 0.015290967348846841 -0.0033181471196773609 0 0.015248768209745937 -0.0031358125421183654 0 0.015230944754664624 -0.0031833940669460385 0 0.015263240074659261 -0.0032147085105042484 0 0.015248768209745937 -0.0031358125421183654 0 0.015263240074659261 -0.0032147085105042484 0 0.015253623580114317 -0.0031385656646680752 0 0.015263240074659261 -0.0032147085105042484 0 0.015253623580114317 -0.0031385656646680752 0 0.015270158530849445 -0.0031704171933378323 0 0.015253623580114317 -0.0031385656646680752 0 0.015270158530849445 -0.0031704171933378323 0 0.015251124187270093 -0.0031081163494999413 0 0.0087423587609137005 -0.014012139263063895 0 0.012024271087638816 -0.013407817434679175 0 0.011176141351577044 -0.0098542526773923861 0 0.0087423587609137005 -0.014012139263063895 0 0.012024271087638816 -0.013407817434679175 0 0.010624271119193691 -0.016528763391736728 0 0.012024271087638816 -0.013407817434679175 0 0.013291538751419852 -0.015748033327949322 0 0.010624271119193691 -0.016528763391736728 0 0.012024271087638816 -0.013407817434679175 0 0.014585238324741788 -0.013454002348836714 0 0.013775733752653419 -0.01078074698140777 0 0.012024271087638816 -0.013407817434679175 0 0.013291538751419852 -0.015748033327949322 0 0.014585238324741788 -0.013454002348836714 0 0.013291538751419852 -0.015748033327949322 0 0.012451458896050318 -0.017578039859858126 0 0.010624271119193691 -0.016528763391736728 0 0.013291538751419852 -0.015748033327949322 0 0.012451458896050318 -0.017578039859858126 0 0.014290312249209177 -0.017098864946077961 0 0.012451458896050318 -0.017578039859858126 0 0.010872370254046797 -0.018085215969772039 0 0.010624271119193691 -0.016528763391736728 0 0.015263240074659261 -0.0032147085105042484 0 0.015270158530849445 -0.0031704171933378323 0 0.015290967348846841 -0.0033181471196773609 0 0.011947429930550044 -0.0085485737048293306 0 0.014003838510347083 -0.010995739708792002 0 0.010872370254046797 -0.018085215969772039 0 0.010624271119193691 -0.016528763391736728 0 0.009784005319063243 -0.019108985227943798 0 0.0087423587609137005 -0.014012139263063895 0 0.010624271119193691 -0.016528763391736728 0 0.009784005319063243 -0.019108985227943798 0 0.0026971879086309502 -0.014489296282114162 0 0.0012217926031892826 -0.014544345968695428 0 0.0019999892444809448 -0.016091917851397075 0 0.0032846287652805303 -0.015674604887212413 0 0.0026971879086309502 -0.014489296282114162 0 0.0019999892444809448 -0.016091917851397075 0 0.0026971879086309502 -0.014489296282114162 0 0.0021477672441114421 -0.013110533177021674 0 0.0012217926031892826 -0.014544345968695428 0 0.0038661218786173123 -0.013326021474439523 0 0.0026971879086309502 -0.014489296282114162 0 0.0021477672441114421 -0.013110533177021674 0 0.017186534424810308 -0.014164997370080347 0 0.014585238324741788 -0.013454002348836714 0 0.015954563041143524 -0.010977394329054823 0 0.017186534424810308 -0.014164997370080347 0 0.014585238324741788 -0.013454002348836714 0 0.015440268642448202 -0.015422829773112341 0 0.013291538751419852 -0.015748033327949322 0 0.014585238324741788 -0.013454002348836714 0 0.015440268642448202 -0.015422829773112341 0 0.014290312249209177 -0.017098864946077961 0 0.015440268642448202 -0.015422829773112341 0 0.015693089464008703 -0.019245065377735494 0 0.012451458896050318 -0.017578039859858126 0 0.014290312249209177 -0.017098864946077961 0 0.015693089464008703 -0.019245065377735494 0 0.017186534424810308 -0.014164997370080347 0 0.015440268642448202 -0.015422829773112341 0 0.015693089464008703 -0.019245065377735494 0 0.013291538751419852 -0.015748033327949322 0 0.014290312249209177 -0.017098864946077961 0 0.015440268642448202 -0.015422829773112341 0 0.0012217926031892826 -0.014544345968695428 0 0.0019999892444809448 -0.016091917851397075 0 0.00035480695123832595 -0.0186573202887696 0 0.009793858815109505 -0.01436655841036105 0 0.0079880248262875903 -0.01825051381534051 0 0.0024731969779991166 -0.01707003517342787 0 0.0019999892444809448 -0.016091917851397075 0 0.00035480695123832595 -0.0186573202887696 0 0.0032846287652805303 -0.015674604887212413 0 0.0024731969779991166 -0.01707003517342787 0 0.0019999892444809448 -0.016091917851397075 0 0.0033450191046546503 -0.018638267150760768 0 0.0024731969779991166 -0.01707003517342787 0 0.00035480695123832595 -0.0186573202887696 0 0.0040248542321920664 -0.019243916873716547 0 0.0079880248262875903 -0.01825051381534051 0 0.0065417471928454485 -0.019711653190305829 0 0.0068561945982359533 -0.019555257563310287 0 0.0071614335359615599 -0.019712215708736942 0 0.0065417471928454485 -0.019711653190305829 0 0.0068561945982359533 -0.019555257563310287 0 0.0066924272173820784 -0.019289892505575643 0 0.0068561945982359533 -0.019555257563310287 0 0.0070298875303015027 -0.019508377079893453 0 0.0066924272173820784 -0.019289892505575643 0 0.0068561945982359533 -0.019555257563310287 0 0.0070298875303015027 -0.019508377079893453 0 0.0071614335359615599 -0.019712215708736942 0 0.0071910308781354621 -0.019494441438355686 0 0.0073209258316768904 -0.019577648300609821 0 0.0073480886283712179 -0.019400981632916894 0 0.0071783556940195918 -0.019649238538717657 0 0.0071645327886524371 -0.019712776251326506 0 0.0073209258316768904 -0.019577648300609821 0 0.0071910308781354621 -0.019494441438355686 0 0.0071783556940195918 -0.019649238538717657 0 0.0073209258316768904 -0.019577648300609821 0 0.0070298875303015027 -0.019508377079893453 0 0.0071910308781354621 -0.019494441438355686 0 0.0071783556940195918 -0.019649238538717657 0 0.0070298875303015027 -0.019508377079893453 0 0.0071783556940195918 -0.019649238538717657 0 0.0071614335359615599 -0.019712215708736942 0 0.0079009856262801676 -0.018515635845434569 0 0.0079880248262875903 -0.01825051381534051 0 0.0071645327886524371 -0.019712776251326506 0 0.0073209258316768904 -0.019577648300609821 0 0.0075329909791251627 -0.019541621535906033 0 0.0073209258316768904 -0.019577648300609821 0 0.0073480886283712179 -0.019400981632916894 0 0.0075329909791251627 -0.019541621535906033 0 0.0067578957501784158 -0.019764524212870106 0 0.0066136582196840458 -0.019681437449727987 0 0.0070994658605775278 -0.01930177342808918 0 0.0066924272173820784 -0.019289892505575643 0 0.0074573364304648549 -0.018858866016673359 0 0.0073480886283712179 -0.019400981632916894 0 0.0074419437967829507 -0.019197974535817675 0 0.0070994658605775278 -0.01930177342808918 0 0.0073480886283712179 -0.019400981632916894 0 0.0075329909791251627 -0.019541621535906033 0 0.007573320065992848 -0.019345362938251884 0 0.0073480886283712179 -0.019400981632916894 0 0.0074419437967829507 -0.019197974535817675 0 0.007573320065992848 -0.019345362938251884 0 0.0074419437967829507 -0.019197974535817675 0 0.0070994658605775278 -0.01930177342808918 0 0.0074573364304648549 -0.018858866016673359 0 0.0071910308781354621 -0.019494441438355686 0 0.0073480886283712179 -0.019400981632916894 0 0.0070994658605775278 -0.01930177342808918 0 0.0070298875303015027 -0.019508377079893453 0 0.0071910308781354621 -0.019494441438355686 0 0.0070994658605775278 -0.01930177342808918 0 0.0070298875303015027 -0.019508377079893453 0 0.0070994658605775278 -0.01930177342808918 0 0.0066924272173820784 -0.019289892505575643 0 0.008714947240463301 -0.019698674043223095 0 0.010203164569725181 -0.019535951183923005 0 0.0090647704146461366 -0.019695269435173284 0 0.009784005319063243 -0.019108985227943798 0 0.01092430339236351 -0.018989936646583255 0 0.0086698037933782869 -0.019759379762015913 0 0.0082903253039779464 -0.019477848493241186 0 0.0079238665696695059 -0.01971970170420732 0 0.0082903253039779464 -0.019477848493241186 0 0.0079238665696695059 -0.01971970170420732 0 0.0079522603247790813 -0.01934622327233957 0 0.010872370254046797 -0.018085215969772039 0 0.009784005319063243 -0.019108985227943798 0 0.01092430339236351 -0.018989936646583255 0 0.012451458896050318 -0.017578039859858126 0 0.015693089464008703 -0.019245065377735494 0 0.01092430339236351 -0.018989936646583255 0 0.012451458896050318 -0.017578039859858126 0 0.010872370254046797 -0.018085215969772039 0 0.01092430339236351 -0.018989936646583255 0 0.0079880248262875903 -0.01825051381534051 0 0.010203164569725181 -0.019535951183923005 0 0.0071645327886524371 -0.019712776251326506 0 0.0079238665696695059 -0.01971970170420732 0 0.0075329909791251627 -0.019541621535906033 0 0.0079238665696695059 -0.01971970170420732 0 0.0077455078992846906 -0.01948795788125389 0 0.0075329909791251627 -0.019541621535906033 0 0.0077455078992846906 -0.01948795788125389 0 0.0075329909791251627 -0.019541621535906033 0 0.007573320065992848 -0.019345362938251884 0 0.0079238665696695059 -0.01971970170420732 0 0.0077455078992846906 -0.01948795788125389 0 0.0079522603247790813 -0.01934622327233957 0 0.0077455078992846906 -0.01948795788125389 0 0.0079522603247790813 -0.01934622327233957 0 0.007573320065992848 -0.019345362938251884 0 0.0079522603247790813 -0.01934622327233957 0 0.007573320065992848 -0.019345362938251884 0 0.0077315827102418131 -0.01908320004487387 0 0.0074419437967829507 -0.019197974535817675 0 0.0077315827102418131 -0.01908320004487387 0 0.0074573364304648549 -0.018858866016673359 0 0.0074419437967829507 -0.019197974535817675 0 0.007573320065992848 -0.019345362938251884 0 0.0077315827102418131 -0.01908320004487387 0 0.0077315827102418131 -0.01908320004487387 0 0.008098389870928896 -0.019034191753582234 0 0.0079383394109953341 -0.018842508222730491 0 0.0079522603247790813 -0.01934622327233957 0 0.0077315827102418131 -0.01908320004487387 0 0.008098389870928896 -0.019034191753582234 0 0.0079522603247790813 -0.01934622327233957 0 0.008098389870928896 -0.019034191753582234 0 0.0082781767370380156 -0.019228348620787736 0 0.0082903253039779464 -0.019477848493241186 0 0.0079522603247790813 -0.01934622327233957 0 0.0082781767370380156 -0.019228348620787736 0 0.0086006936999279918 -0.019302069448378329 0 0.0082903253039779464 -0.019477848493241186 0 0.0082781767370380156 -0.019228348620787736 0 0.0084607356638304598 -0.01897914854006345 0 0.008098389870928896 -0.019034191753582234 0 0.0082781767370380156 -0.019228348620787736 0 0.0086006936999279918 -0.019302069448378329 0 0.0084607356638304598 -0.01897914854006345 0 0.0082781767370380156 -0.019228348620787736 0 0.0084607356638304598 -0.01897914854006345 0 0.008098389870928896 -0.019034191753582234 0 0.0081803412938674137 -0.018817221229869667 0 0.0084607356638304598 -0.01897914854006345 0 0.0081803412938674137 -0.018817221229869667 0 0.0082240148526199434 -0.018423756338458368 0 0.0081803412938674137 -0.018817221229869667 0 0.0079383394109953341 -0.018842508222730491 0 0.0082240148526199434 -0.018423756338458368 0 0.008098389870928896 -0.019034191753582234 0 0.0081803412938674137 -0.018817221229869667 0 0.0079383394109953341 -0.018842508222730491 0 0.0060927145995626304 -0.020890470514666692 0 0.005906949750700362 -0.020954907269840627 0 0.0061798883690297561 -0.020707425476065348 0 0.0077315827102418131 -0.01908320004487387 0 0.0079383394109953341 -0.018842508222730491 0 0.0074573364304648549 -0.018858866016673359 0 0.0082322994913019247 -0.020490940615154656 0 0.0066136582196840458 -0.019681437449727987 0 0.0079383394109953341 -0.018842508222730491 0 0.0082240148526199434 -0.018423756338458368 0 0.0074573364304648549 -0.018858866016673359 0 0.0079835728499778862 -0.021281275367920124 0 0.0083692720151434738 -0.021433056820247622 0 0.0073486256310219527 -0.021430376549995266 0 0.0073287359590167456 -0.021150617729602049 0 0.0068450584579766568 -0.021142437562969133 0 0.0060927145995626304 -0.020890470514666692 0 0.0060008997502223691 -0.020995722508919686 0 0.0063172311041595928 -0.020920100535308121 0 0.0060927145995626304 -0.020890470514666692 0 0.0060008997502223691 -0.020995722508919686 0 0.005906949750700362 -0.020954907269840627 0 0.0079835728499778862 -0.021281275367920124 0 0.0077308971046885838 -0.021206989454005294 0 0.0081728602200159973 -0.021018841312640615 0 0.0079835728499778862 -0.021281275367920124 0 0.008307202870689475 -0.021212668994759681 0 0.0081728602200159973 -0.021018841312640615 0 0.0079835728499778862 -0.021281275367920124 0 0.008307202870689475 -0.021212668994759681 0 0.0083692720151434738 -0.021433056820247622 0 0.008307202870689475 -0.021212668994759681 0 0.0083692720151434738 -0.021433056820247622 0 0.0086749539219195173 -0.021147487039754425 0 0.0083692720151434738 -0.021433056820247622 0 0.0084987165686309877 -0.021392422612799285 0 0.0086749539219195173 -0.021147487039754425 0 0.0086567940149521322 -0.021248061868186917 0 0.0088417796033414507 -0.021428135631744352 0 0.0092532397414468517 -0.020995947120751614 0 0.0077488524705400788 -0.020981279952755522 0 0.0094698867850302754 -0.021016859140075349 0 0.0084987165686309877 -0.021392422612799285 0 0.0086749539219195173 -0.021147487039754425 0 0.0092532397414468517 -0.020995947120751614 0 0.0073287359590167456 -0.021150617729602049 0 0.0077488524705400788 -0.020981279952755522 0 0.0060008997502223691 -0.020995722508919686 0 0.0059746117498607528 -0.021009482832540793 0 0.005906949750700362 -0.020954907269840627 0 0.0077488524705400788 -0.020981279952755522 0 0.0082322994913019247 -0.020490940615154656 0 0.007051238000978401 -0.020757604416476359 0 0.0068450584579766568 -0.021142437562969133 0 0.0069914311627510117 -0.020705578849569545 0 0.0073486256310219527 -0.021430376549995266 0 0.0070970520558778158 -0.021158910684759818 0 0.0069914311627510117 -0.020705578849569545 0 0.0067539601724908279 -0.020184443174134873 0 0.0063172311041595928 -0.020920100535308121 0 0.0060927145995626304 -0.020890470514666692 0 0.0063172311041595928 -0.020920100535308121 0 0.0061798883690297561 -0.020707425476065348 0 0.0067539601724908279 -0.020184443174134873 0 0.0063172311041595928 -0.020920100535308121 0 0.0061798883690297561 -0.020707425476065348 0 0.0079835728499778862 -0.021281275367920124 0 0.0073486256310219527 -0.021430376549995266 0 0.0077308971046885838 -0.021206989454005294 0 0.0073486256310219527 -0.021430376549995266 0 0.0077308971046885838 -0.021206989454005294 0 0.0073747522402387066 -0.021234246679429084 0 0.0073486256310219527 -0.021430376549995266 0 0.0073747522402387066 -0.021234246679429084 0 0.0070970520558778158 -0.021158910684759818 0 0.0073747522402387066 -0.021234246679429084 0 0.0070970520558778158 -0.021158910684759818 0 0.0071836034924332749 -0.02117794169237729 0 0.0070843558288019642 -0.021190130539014366 0 0.0070970520558778158 -0.021158910684759818 0 0.0071836034924332749 -0.02117794169237729 0 0.0069144188642050394 -0.021228315041120969 0 0.0071836034924332749 -0.02117794169237729 0 0.0071100055903420122 -0.020716327866474798 0 0.0071836034924332749 -0.02117794169237729 0 0.0076378911928723058 -0.020942965221188364 0 0.0071100055903420122 -0.020716327866474798 0 0.0070843558288019642 -0.021190130539014366 0 0.0069144188642050394 -0.021228315041120969 0 0.0071836034924332749 -0.02117794169237729 0 0.0073747522402387066 -0.021234246679429084 0 0.0071836034924332749 -0.02117794169237729 0 0.0076378911928723058 -0.020942965221188364 0 0.0077308971046885838 -0.021206989454005294 0 0.0076378911928723058 -0.020942965221188364 0 0.0081728602200159973 -0.021018841312640615 0 0.0077308971046885838 -0.021206989454005294 0 0.0073747522402387066 -0.021234246679429084 0 0.0076378911928723058 -0.020942965221188364 0 0.0075588907503232597 -0.020224113233932819 0 0.0076378911928723058 -0.020942965221188364 0 0.0071100055903420122 -0.020716327866474798 0 0.0075588907503232597 -0.020224113233932819 0 0.0076378911928723058 -0.020942965221188364 0 0.0081790346143106839 -0.02053994500499351 0 0.0068232472143191763 -0.019894642691650314 0 0.0075588907503232597 -0.020224113233932819 0 0.0071100055903420122 -0.020716327866474798 0 0.0088297645129548456 -0.020987770178949244 0 0.0086749539219195173 -0.021147487039754425 0 0.0092532397414468517 -0.020995947120751614 0 0.0087315104914378796 -0.020776122244099051 0 0.0091487154993452439 -0.020593380403433673 0 0.0091025595202368706 -0.020827416662328055 0 0.0087315104914378796 -0.020776122244099051 0 0.0088297645129548456 -0.020987770178949244 0 0.0091025595202368706 -0.020827416662328055 0 0.0088297645129548456 -0.020987770178949244 0 0.0086749539219195173 -0.021147487039754425 0 0.0085284642476608254 -0.021062195741579623 0 0.0087315104914378796 -0.020776122244099051 0 0.0085284642476608254 -0.021062195741579623 0 0.0081728602200159973 -0.021018841312640615 0 0.0087315104914378796 -0.020776122244099051 0 0.0088297645129548456 -0.020987770178949244 0 0.0085284642476608254 -0.021062195741579623 0 0.008307202870689475 -0.021212668994759681 0 0.0086749539219195173 -0.021147487039754425 0 0.0085284642476608254 -0.021062195741579623 0 0.0087315104914378796 -0.020776122244099051 0 0.0081728602200159973 -0.021018841312640615 0 0.0081790346143106839 -0.02053994500499351 0 0.008307202870689475 -0.021212668994759681 0 0.0085284642476608254 -0.021062195741579623 0 0.0081728602200159973 -0.021018841312640615 0 0.0076378911928723058 -0.020942965221188364 0 0.0081728602200159973 -0.021018841312640615 0 0.0081790346143106839 -0.02053994500499351 0 0.0087315104914378796 -0.020776122244099051 0 0.0081790346143106839 -0.02053994500499351 0 0.0089177400020312939 -0.020311626893863829 0 0.0087315104914378796 -0.020776122244099051 0 0.0089177400020312939 -0.020311626893863829 0 0.0091487154993452439 -0.020593380403433673 0 0.0089177400020312939 -0.020311626893863829 0 0.0094455610358687957 -0.020409209883980074 0 0.0091487154993452439 -0.020593380403433673 0 0.0094455610358687957 -0.020409209883980074 0 0.0091487154993452439 -0.020593380403433673 0 0.0094834109532455756 -0.020706224965211132 0 0.0098096148379413321 -0.020214417405489807 0 0.0094455610358687957 -0.020409209883980074 0 0.0099377392382115209 -0.020605494743260157 0 0.0094455610358687957 -0.020409209883980074 0 0.0094834109532455756 -0.020706224965211132 0 0.0099377392382115209 -0.020605494743260157 0 0.0096555233358209709 -0.021044032668863351 0 0.0098583064153496026 -0.020672225544790323 0 0.0094834109532455756 -0.020706224965211132 0 0.0094177571844203008 -0.021098782014071428 0 0.0099377392382115209 -0.020605494743260157 0 0.0095478549899266213 -0.020990968710810787 0 0.0097491966665443613 -0.020980024352966094 0 0.0099377392382115209 -0.020605494743260157 0 0.0097491966665443613 -0.020980024352966094 0 0.010000502486152243 -0.020975146971831893 0 0.0099377392382115209 -0.020605494743260157 0 0.0091487154993452439 -0.020593380403433673 0 0.0091025595202368706 -0.020827416662328055 0 0.0094834109532455756 -0.020706224965211132 0 0.0091025595202368706 -0.020827416662328055 0 0.0094834109532455756 -0.020706224965211132 0 0.0092532397414468517 -0.020995947120751614 0 0.0094834109532455756 -0.020706224965211132 0 0.0092532397414468517 -0.020995947120751614 0 0.0094177571844203008 -0.021098782014071428 0 0.0088297645129548456 -0.020987770178949244 0 0.0091025595202368706 -0.020827416662328055 0 0.0092532397414468517 -0.020995947120751614 0 0.0082322994913019247 -0.020490940615154656 0 0.0096555233358209709 -0.021044032668863351 0 0.0097572586994712062 -0.020959801757487687 0 0.0095803619157215098 -0.020955540729715935 0 0.0095478549899266213 -0.020990968710810787 0 0.0088417796033414507 -0.021428135631744352 0 0.0092532397414468517 -0.020995947120751614 0 0.0094177571844203008 -0.021098782014071428 0 0.0095803619157215098 -0.020955540729715935 0 0.0095478549899266213 -0.020990968710810787 0 0.0096238744645914982 -0.021051523485503147 0 0.0096238744645914982 -0.021051523485503147 0 0.0097491966665443613 -0.020980024352966094 0 0.0097157790045253149 -0.021239184470110875 0 0.0095478549899266213 -0.020990968710810787 0 0.0096238744645914982 -0.021051523485503147 0 0.0097491966665443613 -0.020980024352966094 0 0.0095803619157215098 -0.020955540729715935 0 0.0096238744645914982 -0.021051523485503147 0 0.0097157790045253149 -0.021239184470110875 0 0.0097491966665443613 -0.020980024352966094 0 0.0097157790045253149 -0.021239184470110875 0 0.010000502486152243 -0.020975146971831893 0 0.0095803619157215098 -0.020955540729715935 0 0.0097157790045253149 -0.021239184470110875 0 0.009642139095115819 -0.021882231163517021 0 0.0096540985905519683 -0.021023673185858672 0 0.0096749955853522047 -0.021181498296291665 0 0.0097157790045253149 -0.021239184470110875 0 0.009642139095115819 -0.021882231163517021 0 0.0099976037333064875 -0.021690230199053803 0 0.009374040649644028 -0.019587799929138026 0 0.0082322994913019247 -0.020490940615154656 0 0.0097269963204321304 -0.020462890106316394 0 0.0095803619157215098 -0.020955540729715935 0 0.0097911076138552326 -0.020405691051854895 0 0.0084607356638304598 -0.01897914854006345 0 0.0088416183575598661 -0.018955639330429163 0 0.0082240148526199434 -0.018423756338458368 0 0.0097269963204321304 -0.020462890106316394 0 0.0097572586994712062 -0.020959801757487687 0 0.0095803619157215098 -0.020955540729715935 0 0.010640006845753927 -0.021514539680798 0 0.011266157829956666 -0.022033009887040021 0 0.010672163789894551 -0.022029795746529881 0 0.010640006845753927 -0.021514539680798 0 0.011266157829956666 -0.022033009887040021 0 0.011117491691912866 -0.0212016466547033 0 0.010901184143427509 -0.022546958992663499 0 0.010672163789894551 -0.022029795746529881 0 0.010249426117867524 -0.022142531061264327 0 0.010901184143427509 -0.022546958992663499 0 0.011266157829956666 -0.022033009887040021 0 0.010672163789894551 -0.022029795746529881 0 0.010672163789894551 -0.022029795746529881 0 0.010249426117867524 -0.022142531061264327 0 0.010334272680332088 -0.021732935640043118 0 0.009642139095115819 -0.021882231163517021 0 0.010249426117867524 -0.022142531061264327 0 0.0099976037333064875 -0.021690230199053803 0 0.010249426117867524 -0.022142531061264327 0 0.0099976037333064875 -0.021690230199053803 0 0.010334272680332088 -0.021732935640043118 0 0.0099976037333064875 -0.021690230199053803 0 0.010334272680332088 -0.021732935640043118 0 0.010165474140589669 -0.021342150803358585 0 0.010640006845753927 -0.021514539680798 0 0.010672163789894551 -0.022029795746529881 0 0.010334272680332088 -0.021732935640043118 0 0.010640006845753927 -0.021514539680798 0 0.010334272680332088 -0.021732935640043118 0 0.010165474140589669 -0.021342150803358585 0 0.010640006845753927 -0.021514539680798 0 0.010165474140589669 -0.021342150803358585 0 0.010460138570497978 -0.020839579399547715 0 0.0097157790045253149 -0.021239184470110875 0 0.0099976037333064875 -0.021690230199053803 0 0.010165474140589669 -0.021342150803358585 0 0.0097157790045253149 -0.021239184470110875 0 0.010165474140589669 -0.021342150803358585 0 0.010000502486152243 -0.020975146971831893 0 0.010165474140589669 -0.021342150803358585 0 0.010000502486152243 -0.020975146971831893 0 0.010460138570497978 -0.020839579399547715 0 0.010460138570497978 -0.020839579399547715 0 0.011117491691912866 -0.0212016466547033 0 0.011375687865543313 -0.020428415599950546 0 0.010640006845753927 -0.021514539680798 0 0.010460138570497978 -0.020839579399547715 0 0.011117491691912866 -0.0212016466547033 0 0.010460138570497978 -0.020839579399547715 0 0.010594203605379658 -0.020444413501653051 0 0.011375687865543313 -0.020428415599950546 0 0.010594203605379658 -0.020444413501653051 0 0.01112626282314403 -0.02028136360707385 0 0.011375687865543313 -0.020428415599950546 0 0.010460138570497978 -0.020839579399547715 0 0.010594203605379658 -0.020444413501653051 0 0.0099377392382115209 -0.020605494743260157 0 0.010000502486152243 -0.020975146971831893 0 0.010460138570497978 -0.020839579399547715 0 0.0099377392382115209 -0.020605494743260157 0 0.0098096148379413321 -0.020214417405489807 0 0.0099377392382115209 -0.020605494743260157 0 0.010262737527233869 -0.020148235474578221 0 0.010594203605379658 -0.020444413501653051 0 0.0099377392382115209 -0.020605494743260157 0 0.010262737527233869 -0.020148235474578221 0 0.010594203605379658 -0.020444413501653051 0 0.010262737527233869 -0.020148235474578221 0 0.01112626282314403 -0.02028136360707385 0 0.010262737527233869 -0.020148235474578221 0 0.010924016733969597 -0.020037289792697501 0 0.01112626282314403 -0.02028136360707385 0 0.011031034593287734 -0.019766647669716666 0 0.010262737527233869 -0.020148235474578221 0 0.010924016733969597 -0.020037289792697501 0 0.011031034593287734 -0.019766647669716666 0 0.010924016733969597 -0.020037289792697501 0 0.011182558378477054 -0.020070435661958486 0 0.011182558378477054 -0.020070435661958486 0 0.011377522699533394 -0.020238425393692139 0 0.011420841059208557 -0.019934695461715422 0 0.011031034593287734 -0.019766647669716666 0 0.011182558378477054 -0.020070435661958486 0 0.011420841059208557 -0.019934695461715422 0 0.011182558378477054 -0.020070435661958486 0 0.01112626282314403 -0.02028136360707385 0 0.011377522699533394 -0.020238425393692139 0 0.010924016733969597 -0.020037289792697501 0 0.011182558378477054 -0.020070435661958486 0 0.01112626282314403 -0.02028136360707385 0 0.01112626282314403 -0.02028136360707385 0 0.011375687865543313 -0.020428415599950546 0 0.011377522699533394 -0.020238425393692139 0 0.011427837001091646 -0.020309077761271801 0 0.011888464802296148 -0.01943825045504502 0 0.011375687865543313 -0.020428415599950546 0 0.013292281994774939 -0.019415030373169672 0 0.012568042266115905 -0.018584216549785901 0 0.013292281994774939 -0.019415030373169672 0 0.014794860330261778 -0.019916372461940418 0 0.013117738742419083 -0.02060684426973728 0 0.011375687865543313 -0.020428415599950546 0 0.013292281994774939 -0.019415030373169672 0 0.013117738742419083 -0.02060684426973728 0 0.013732723010664265 -0.017108600445037796 0 0.012568042266115905 -0.018584216549785901 0 0.013608539842921522 -0.017506393018868378 0 0.011811022413170693 -0.019769416444425522 0 0.011377522699533394 -0.020238425393692139 0 0.011420841059208557 -0.019934695461715422 0 0.014090993033393591 -0.0190722072127145 0 0.011888464802296148 -0.01943825045504502 0 0.013292281994774939 -0.019415030373169672 0 0.013451146783655318 -0.018370544892598529 0 0.014282691666887216 -0.01867793114596835 0 0.013451146783655318 -0.018370544892598529 0 0.013608539842921522 -0.017506393018868378 0 0.014282691666887216 -0.01867793114596835 0 0.013292281994774939 -0.019415030373169672 0 0.013451146783655318 -0.018370544892598529 0 0.012568042266115905 -0.018584216549785901 0 0.013451146783655318 -0.018370544892598529 0 0.012568042266115905 -0.018584216549785901 0 0.013608539842921522 -0.017506393018868378 0 0.013800772379326509 -0.017324276180041048 0 0.013608539842921522 -0.017506393018868378 0 0.014282691666887216 -0.01867793114596835 0 0.014178259812794336 -0.017546654684174021 0 0.014530203294528227 -0.018686283680561942 0 0.015586395034474058 -0.017865650786395019 0 0.014351107879860318 -0.018183713569889657 0 0.014373324062556545 -0.018591403749507313 0 0.014530203294528227 -0.018686283680561942 0 0.015586395034474058 -0.017865650786395019 0 0.015546444844470186 -0.018979802549135498 0 0.017011344082887927 -0.017181821513087135 0 0.015586395034474058 -0.017865650786395019 0 0.016705689286506443 -0.018616043703443642 0 0.015586395034474058 -0.017865650786395019 0 0.015546444844470186 -0.018979802549135498 0 0.016705689286506443 -0.018616043703443642 0 0.015546444844470186 -0.018979802549135498 0 0.016105501861542932 -0.019908261227822584 0 0.016705689286506443 -0.018616043703443642 0 0.015546444844470186 -0.018979802549135498 0 0.016105501861542932 -0.019908261227822584 0 0.014794860330261778 -0.019916372461940418 0 0.013292281994774939 -0.019415030373169672 0 0.014282691666887216 -0.01867793114596835 0 0.014794860330261778 -0.019916372461940418 0 0.014373324062556545 -0.018591403749507313 0 0.014772396361915891 -0.019804892207128156 0 0.014530203294528227 -0.018686283680561942 0 0.015546444844470186 -0.018979802549135498 0 0.014794860330261778 -0.019916372461940418 0 0.014794860330261778 -0.019916372461940418 0 0.015450264859022985 -0.021077876575438421 0 0.014010648271359399 -0.021592183080431582 0 0.014794860330261778 -0.019916372461940418 0 0.014010648271359399 -0.021592183080431582 0 0.013117738742419083 -0.02060684426973728 0 0.016105501861542932 -0.019908261227822584 0 0.015450264859022985 -0.021077876575438421 0 0.016870800651639175 -0.021152381564695216 0 0.016105501861542932 -0.019908261227822584 0 0.014794860330261778 -0.019916372461940418 0 0.015450264859022985 -0.021077876575438421 0 0.015450264859022985 -0.021077876575438421 0 0.016870800651639175 -0.021152381564695216 0 0.015836002599428682 -0.0230748033961127 0 0.015450264859022985 -0.021077876575438421 0 0.014010648271359399 -0.021592183080431582 0 0.015836002599428682 -0.0230748033961127 0 0.014010648271359399 -0.021592183080431582 0 0.01362376763812468 -0.023256745757914726 0 0.015836002599428682 -0.0230748033961127 0 0.014010648271359399 -0.021592183080431582 0 0.012259300614187356 -0.021661293758577539 0 0.01362376763812468 -0.023256745757914726 0 0.011266157829956666 -0.022033009887040021 0 0.011117491691912866 -0.0212016466547033 0 0.012259300614187356 -0.021661293758577539 0 0.011266157829956666 -0.022033009887040021 0 0.012259300614187356 -0.021661293758577539 0 0.011720939584544975 -0.023165075945725221 0 0.011117491691912866 -0.0212016466547033 0 0.011375687865543313 -0.020428415599950546 0 0.012259300614187356 -0.021661293758577539 0 0.011375687865543313 -0.020428415599950546 0 0.012259300614187356 -0.021661293758577539 0 0.013117738742419083 -0.02060684426973728 0 0.014010648271359399 -0.021592183080431582 0 0.012259300614187356 -0.021661293758577539 0 0.013117738742419083 -0.02060684426973728 0 0.021611662699560313 -0.019957701662216394 0 0.022251971877557439 -0.020774723591226282 0 0.020489910771209988 -0.019638208779861905 0 0.022155272936431256 -0.020688380383773682 0 0.020583305488592309 -0.019555233630071955 0 0.021611662699560313 -0.019957701662216394 0 0.020489910771209988 -0.019638208779861905 0 0.021382052446396547 -0.01878029502138108 0 0.020434397970575113 -0.016986181211979021 0 0.021382052446396547 -0.01878029502138108 0 0.020033337946161901 -0.018216109501845625 0 0.02133164418310747 -0.018477539856261497 0 0.021848191119158342 -0.019456083025732547 0 0.022225940005309842 -0.019882544302048281 0 0.022374759483560623 -0.019983362024994032 0 0.022316974052753739 -0.020092217866074912 0 0.020489910771209988 -0.019638208779861905 0 0.021382052446396547 -0.01878029502138108 0 0.020033337946161901 -0.018216109501845625 0 0.020489910771209988 -0.019638208779861905 0 0.020033337946161901 -0.018216109501845625 0 0.01871913182264634 -0.018417557200386941 0 0.020647924296008729 -0.019428507053372377 0 0.018845044246527096 -0.018258419995946181 0 0.019901761826083487 -0.020310643550326836 0 0.020583305488592309 -0.019555233630071955 0 0.018762700502246318 -0.018326628973794213 0 0.018845044246527096 -0.018258419995946181 0 0.01852439342738494 -0.020680108587159809 0 0.019901761826083487 -0.020310643550326836 0 0.018845044246527096 -0.018258419995946181 0 0.017375878374276642 -0.019719305485298887 0 0.01852439342738494 -0.020680108587159809 0 0.017118042178729014 -0.017247132542374796 0 0.018762700502246318 -0.018326628973794213 0 0.017011344082887927 -0.017181821513087135 0 0.018845044246527096 -0.018258419995946181 0 0.016705689286506443 -0.018616043703443642 0 0.016105501861542932 -0.019908261227822584 0 0.016705689286506443 -0.018616043703443642 0 0.017375878374276642 -0.019719305485298887 0 0.018845044246527096 -0.018258419995946181 0 0.016705689286506443 -0.018616043703443642 0 0.017375878374276642 -0.019719305485298887 0 0.017375878374276642 -0.019719305485298887 0 0.016870800651639175 -0.021152381564695216 0 0.01852439342738494 -0.020680108587159809 0 0.016105501861542932 -0.019908261227822584 0 0.017375878374276642 -0.019719305485298887 0 0.016870800651639175 -0.021152381564695216 0 0.016870800651639175 -0.021152381564695216 0 0.01852439342738494 -0.020680108587159809 0 0.018028438174356946 -0.022652876776877964 0 0.016870800651639175 -0.021152381564695216 0 0.018028438174356946 -0.022652876776877964 0 0.015836002599428682 -0.0230748033961127 0 0.01852439342738494 -0.020680108587159809 0 0.020148106890641126 -0.021983989382405821 0 0.018028438174356946 -0.022652876776877964 0 0.01852439342738494 -0.020680108587159809 0 0.019901761826083487 -0.020310643550326836 0 0.020148106890641126 -0.021983989382405821 0 0.020647924296008729 -0.019428507053372377 0 0.019901761826083487 -0.020310643550326836 0 0.020666750438799033 -0.020372768628659936 0 0.019901761826083487 -0.020310643550326836 0 0.020803743811890357 -0.02104055896976691 0 0.020666750438799033 -0.020372768628659936 0 0.019901761826083487 -0.020310643550326836 0 0.020148106890641126 -0.021983989382405821 0 0.020803743811890357 -0.02104055896976691 0 0.021623348436516657 -0.021246863280425538 0 0.021770052056646734 -0.022092346208579843 0 0.021098383831563223 -0.021823465464788815 0 0.020148106890641126 -0.021983989382405821 0 0.021098383831563223 -0.021823465464788815 0 0.020803743811890357 -0.02104055896976691 0 0.021623348436516657 -0.021246863280425538 0 0.021098383831563223 -0.021823465464788815 0 0.020803743811890357 -0.02104055896976691 0 0.022251971877557439 -0.020774723591226282 0 0.020647924296008729 -0.019428507053372377 0 0.021312313962343888 -0.020637572146362578 0 0.021623348436516657 -0.021246863280425538 0 0.020803743811890357 -0.02104055896976691 0 0.021312313962343888 -0.020637572146362578 0 0.020803743811890357 -0.02104055896976691 0 0.020666750438799033 -0.020372768628659936 0 0.021312313962343888 -0.020637572146362578 0 0.020647924296008729 -0.019428507053372377 0 0.020666750438799033 -0.020372768628659936 0 0.021312313962343888 -0.020637572146362578 0 0.02162732746200962 -0.023240881660021598 0 0.021114736979799386 -0.022534005774817477 0 0.020897586701871335 -0.023193267754507505 0 0.021114736979799386 -0.022534005774817477 0 0.020072433898187046 -0.022576161514843065 0 0.020897586701871335 -0.023193267754507505 0 0.021770052056646734 -0.022092346208579843 0 0.021098383831563223 -0.021823465464788815 0 0.021114736979799386 -0.022534005774817477 0 0.020148106890641126 -0.021983989382405821 0 0.021098383831563223 -0.021823465464788815 0 0.021114736979799386 -0.022534005774817477 0 0.020148106890641126 -0.021983989382405821 0 0.021114736979799386 -0.022534005774817477 0 0.020072433898187046 -0.022576161514843065 0 0.020072433898187046 -0.022576161514843065 0 0.020353419071180406 -0.023336641239974726 0 0.020897586701871335 -0.023193267754507505 0 0.020072433898187046 -0.022576161514843065 0 0.019258734911772709 -0.022911457144338343 0 0.019741714782906455 -0.023326503190001041 0 0.020072433898187046 -0.022576161514843065 0 0.019258734911772709 -0.022911457144338343 0 0.018694425167451473 -0.022249915385020368 0 0.020148106890641126 -0.021983989382405821 0 0.020072433898187046 -0.022576161514843065 0 0.019038840094597293 -0.021546877520701686 0 0.020072433898187046 -0.022576161514843065 0 0.019038840094597293 -0.021546877520701686 0 0.018694425167451473 -0.022249915385020368 0 0.019994908917498229 -0.021990134182868545 0 0.018506143288027951 -0.022097769608763172 0 0.019038840094597293 -0.021546877520701686 0 0.018694425167451473 -0.022249915385020368 0 0.0175373916025819 -0.021280050060687755 0 0.018506143288027951 -0.022097769608763172 0 0.016662360644846698 -0.022178967087994769 0 0.019258734911772709 -0.022911457144338343 0 0.018694425167451473 -0.022249915385020368 0 0.018263772331963964 -0.022889312876023683 0 0.018263772331963964 -0.022889312876023683 0 0.018865968494651414 -0.023483605807513276 0 0.017481195729668324 -0.023420968425649502 0 0.019258734911772709 -0.022911457144338343 0 0.018263772331963964 -0.022889312876023683 0 0.018865968494651414 -0.023483605807513276 0 0.018865968494651414 -0.023483605807513276 0 0.019100465337925504 -0.024220702443063881 0 0.017981585635458788 -0.024549372431328563 0 0.018865968494651414 -0.023483605807513276 0 0.017481195729668324 -0.023420968425649502 0 0.017981585635458788 -0.024549372431328563 0 0.018865968494651414 -0.023483605807513276 0 0.019100465337925504 -0.024220702443063881 0 0.019574931992357287 -0.023883541656161706 0 0.019100465337925504 -0.024220702443063881 0 0.019616493019653184 -0.024346033695141624 0 0.019574931992357287 -0.023883541656161706 0 0.019616493019653184 -0.024346033695141624 0 0.019574931992357287 -0.023883541656161706 0 0.020138352130996337 -0.024155380152077785 0 0.019258734911772709 -0.022911457144338343 0 0.018865968494651414 -0.023483605807513276 0 0.019741714782906455 -0.023326503190001041 0 0.019574931992357287 -0.023883541656161706 0 0.019741714782906455 -0.023326503190001041 0 0.020181735101312794 -0.023761387140574089 0 0.018865968494651414 -0.023483605807513276 0 0.019574931992357287 -0.023883541656161706 0 0.019741714782906455 -0.023326503190001041 0 0.020072433898187046 -0.022576161514843065 0 0.019741714782906455 -0.023326503190001041 0 0.020353419071180406 -0.023336641239974726 0 0.020353419071180406 -0.023336641239974726 0 0.020181735101312794 -0.023761387140574089 0 0.020714745746981782 -0.023717895207992737 0 0.019741714782906455 -0.023326503190001041 0 0.020353419071180406 -0.023336641239974726 0 0.020181735101312794 -0.023761387140574089 0 0.019574931992357287 -0.023883541656161706 0 0.020181735101312794 -0.023761387140574089 0 0.020138352130996337 -0.024155380152077785 0 0.019616493019653184 -0.024346033695141624 0 0.020138352130996337 -0.024155380152077785 0 0.020028770984619707 -0.02450220872383917 0 0.020138352130996337 -0.024155380152077785 0 0.020567348216779583 -0.024112834098631391 0 0.020583273158609503 -0.024471417983488588 0 0.020181735101312794 -0.023761387140574089 0 0.020138352130996337 -0.024155380152077785 0 0.020567348216779583 -0.024112834098631391 0 0.020181735101312794 -0.023761387140574089 0 0.020567348216779583 -0.024112834098631391 0 0.020714745746981782 -0.023717895207992737 0 0.020567348216779583 -0.024112834098631391 0 0.020714745746981782 -0.023717895207992737 0 0.021011732079131495 -0.024189249778158263 0 0.020714745746981782 -0.023717895207992737 0 0.021011732079131495 -0.024189249778158263 0 0.021240725822042041 -0.023703785397539867 0 0.020567348216779583 -0.024112834098631391 0 0.021011732079131495 -0.024189249778158263 0 0.020583273158609503 -0.024471417983488588 0 0.021464934842142295 -0.024157576803366197 0 0.021011732079131495 -0.024189249778158263 0 0.021240725822042041 -0.023703785397539867 0 0.020353419071180406 -0.023336641239974726 0 0.020714745746981782 -0.023717895207992737 0 0.020897586701871335 -0.023193267754507505 0 0.020714745746981782 -0.023717895207992737 0 0.021240725822042041 -0.023703785397539867 0 0.020897586701871335 -0.023193267754507505 0 0.02162732746200962 -0.023240881660021598 0 0.021240725822042041 -0.023703785397539867 0 0.020897586701871335 -0.023193267754507505 0 0.015201650592828827 -0.022087575966876907 0 0.016023561005635286 -0.022262237591115921 0 0.015888442100977729 -0.021213504177053234 0 0.015201650592828827 -0.022087575966876907 0 0.014657025654456561 -0.022499275299149989 0 0.015304979393424073 -0.02268281648255286 0 0.015201650592828827 -0.022087575966876907 0 0.016023561005635286 -0.022262237591115921 0 0.015304979393424073 -0.02268281648255286 0 0.013922098768082038 -0.022487479362644953 0 0.014657025654456561 -0.022499275299149989 0 0.014322097418263095 -0.021337350218545707 0 0.015201650592828827 -0.022087575966876907 0 0.014657025654456561 -0.022499275299149989 0 0.014322097418263095 -0.021337350218545707 0 0.012259300614187356 -0.021661293758577539 0 0.011720939584544975 -0.023165075945725221 0 0.01362376763812468 -0.023256745757914726 0 0.015201650592828827 -0.022087575966876907 0 0.014322097418263095 -0.021337350218545707 0 0.015888442100977729 -0.021213504177053234 0 0.013114846065887444 -0.022341086277629509 0 0.014750698202455835 -0.022223567151812545 0 0.015888442100977729 -0.021213504177053234 0 0.0175373916025819 -0.021280050060687755 0 0.017128532859997835 -0.022342029961867245 0 0.014750698202455835 -0.022223567151812545 0 0.016662360644846698 -0.022178967087994769 0 0.018694425167451473 -0.022249915385020368 0 0.0175373916025819 -0.021280050060687755 0 0.017128532859997835 -0.022342029961867245 0 0.018694425167451473 -0.022249915385020368 0 0.018263772331963964 -0.022889312876023683 0 0.017128532859997835 -0.022342029961867245 0 0.016023561005635286 -0.022262237591115921 0 0.017128532859997835 -0.022342029961867245 0 0.016024909523862894 -0.023034068023454826 0 0.016023561005635286 -0.022262237591115921 0 0.015888442100977729 -0.021213504177053234 0 0.017128532859997835 -0.022342029961867245 0 0.017481195729668324 -0.023420968425649502 0 0.016377542716513514 -0.024176125898996873 0 0.016024909523862894 -0.023034068023454826 0 0.017128532859997835 -0.022342029961867245 0 0.017481195729668324 -0.023420968425649502 0 0.016024909523862894 -0.023034068023454826 0 0.018263772331963964 -0.022889312876023683 0 0.017128532859997835 -0.022342029961867245 0 0.017481195729668324 -0.023420968425649502 0 0.016226581252278452 -0.013378515081996247 0 0.017413561062019332 -0.01351476113492627 0 0.017481195729668324 -0.023420968425649502 0 0.016377542716513514 -0.024176125898996873 0 0.017981585635458788 -0.024549372431328563 0 0.016377542716513514 -0.024176125898996873 0 0.016024909523862894 -0.023034068023454826 0 0.014765876037377123 -0.023343819882493143 0 0.016226581252278452 -0.013378515081996247 0 0.014914621873653609 -0.013131245123252342 0 0.016377542716513514 -0.024176125898996873 0 0.014212873657279176 -0.023525462789746921 0 0.014765876037377123 -0.023343819882493143 0 0.016066793916207137 -0.0025846225669611117 0 0.015701498033247187 -0.0028123320946494869 0 0.015781784250467328 -0.0028555282186773574 0 0.016066793916207137 -0.0025846225669611117 0 0.015605486824730851 -0.0027910462256719218 0 0.015701498033247187 -0.0028123320946494869 0 0.015304979393424073 -0.02268281648255286 0 0.016024909523862894 -0.023034068023454826 0 0.014765876037377123 -0.023343819882493143 0 0.016023561005635286 -0.022262237591115921 0 0.015304979393424073 -0.02268281648255286 0 0.016024909523862894 -0.023034068023454826 0 0.011640483608764489 -0.021670445336849972 0 0.013108957302096054 -0.022231396417868868 0 0.014212873657279176 -0.023525462789746921 0 0.013226528875071503 -0.021707133488694887 0 0.014644688265011948 -0.023208344390538139 0 0.014657025654456561 -0.022499275299149989 0 0.015304979393424073 -0.02268281648255286 0 0.014765876037377123 -0.023343819882493143 0 0.013922098768082038 -0.022487479362644953 0 0.014657025654456561 -0.022499275299149989 0 0.014765876037377123 -0.023343819882493143 0 0.012382956331139781 -0.020837271660258512 0 0.013108957302096054 -0.022231396417868868 0 0.014765876037377123 -0.023343819882493143 0 0.013108957302096054 -0.022231396417868868 0 0.014212873657279176 -0.023525462789746921 0 0.014765876037377123 -0.023343819882493143 0 0.015459818073347342 -0.0029267746261512186 0 0.015605486824730851 -0.0027910462256719218 0 0.015559358835017197 -0.0028762602378062268 0 0.015605486824730851 -0.0027910462256719218 0 0.015701498033247187 -0.0028123320946494869 0 0.015559358835017197 -0.0028762602378062268 0 0.015701498033247187 -0.0028123320946494869 0 0.015559358835017197 -0.0028762602378062268 0 0.015589921064635867 -0.0029114335794114504 0 0.015589921064635867 -0.0029114335794114504 0 0.015475874588758197 -0.002951357761090798 0 0.015488005271245515 -0.0029954395420272294 0 0.015559358835017197 -0.0028762602378062268 0 0.015589921064635867 -0.0029114335794114504 0 0.015475874588758197 -0.002951357761090798 0 0.015701498033247187 -0.0028123320946494869 0 0.015589921064635867 -0.0029114335794114504 0 0.015781784250467328 -0.0028555282186773574 0 0.015589921064635867 -0.0029114335794114504 0 0.01562878462736526 -0.0029822027989909595 0 0.015781784250467328 -0.0028555282186773574 0 0.01562878462736526 -0.0029822027989909595 0 0.015521773669785932 -0.0030511842419230972 0 0.015488005271245515 -0.0029954395420272294 0 0.015589921064635867 -0.0029114335794114504 0 0.01562878462736526 -0.0029822027989909595 0 0.015488005271245515 -0.0029954395420272294 0 0.01562878462736526 -0.0029822027989909595 0 0.015521773669785932 -0.0030511842419230972 0 0.015618617022876889 -0.0030907694431214169 0 0.015618617022876889 -0.0030907694431214169 0 0.015910799065142145 -0.0032332391030887456 0 0.015488554340391727 -0.0031977270774768232 0 0.015521773669785932 -0.0030511842419230972 0 0.015618617022876889 -0.0030907694431214169 0 0.015474787121505474 -0.0031085750377124305 0 0.01562878462736526 -0.0029822027989909595 0 0.015618617022876889 -0.0030907694431214169 0 0.015775297967291109 -0.0029988610284495004 0 0.015618617022876889 -0.0030907694431214169 0 0.015488554340391727 -0.0031977270774768232 0 0.015474787121505474 -0.0031085750377124305 0 0.015775297967291109 -0.0029988610284495004 0 0.016000166160738769 -0.0028224446714022076 0 0.015910799065142145 -0.0032332391030887456 0 0.015618617022876889 -0.0030907694431214169 0 0.015775297967291109 -0.0029988610284495004 0 0.015910799065142145 -0.0032332391030887456 0 0.016066793916207137 -0.0025846225669611117 0 0.016000166160738769 -0.0028224446714022076 0 0.015781784250467328 -0.0028555282186773574 0 0.015775297967291109 -0.0029988610284495004 0 0.016000166160738769 -0.0028224446714022076 0 0.015781784250467328 -0.0028555282186773574 0 0.01562878462736526 -0.0029822027989909595 0 0.015775297967291109 -0.0029988610284495004 0 0.015781784250467328 -0.0028555282186773574 0 0.016066793916207137 -0.0025846225669611117 0 0.016746827600805283 -0.0024318234652067608 0 0.016328550455328768 -0.0028129945803142963 0 0.016066793916207137 -0.0025846225669611117 0 0.016000166160738769 -0.0028224446714022076 0 0.016328550455328768 -0.0028129945803142963 0 0.016746827600805283 -0.0024318234652067608 0 0.016328550455328768 -0.0028129945803142963 0 0.016862485897163142 -0.0026866251325525451 0 0.016328550455328768 -0.0028129945803142963 0 0.016572553182747893 -0.0031966504406539475 0 0.016862485897163142 -0.0026866251325525451 0 0.016000166160738769 -0.0028224446714022076 0 0.016328550455328768 -0.0028129945803142963 0 0.015910799065142145 -0.0032332391030887456 0 0.016328550455328768 -0.0028129945803142963 0 0.016572553182747893 -0.0031966504406539475 0 0.015910799065142145 -0.0032332391030887456 0 0.012387248458016654 0.0013256464384438979 0 0.013156261199483521 0.0011028468292691238 0 0.0086143416706875361 0.0055821132112484368 0 0.0095278021892222717 0.0061567851346921556 0 0.01039466761345199 0.0054308211285802538 0 0.0086143416706875361 0.0055821132112484368 0 0.0082422479980318319 0.0062235055765262511 0 0.0095278021892222717 0.0061567851346921556 0 0.0082422479980318319 0.0062235055765262511 0 0.0095278021892222717 0.0061567851346921556 0 0.0096266195588292323 0.0072876351150507031 0 0.0095278021892222717 0.0061567851346921556 0 0.010974022116601373 0.0067117651790281497 0 0.0096266195588292323 0.0072876351150507031 0 0.010974022116601373 0.0067117651790281497 0 0.011785183547316296 0.0068646348276427361 0 0.010826615292310646 0.0076829296965463577 0 0.011785183547316296 0.0068646348276427361 0 0.011740090821669203 0.0064515836467186529 0 0.011986730007731155 0.0067406174413009784 0 0.010974022116601373 0.0067117651790281497 0 0.011785183547316296 0.0068646348276427361 0 0.011740090821669203 0.0064515836467186529 0 0.013156261199483521 0.0011028468292691238 0 0.014070230413004274 0.0010803682491812867 0 0.011740090821669203 0.0064515836467186529 0 0.01039466761345199 0.0054308211285802538 0 0.012256566864519515 0.0054995268225482442 0 0.010974022116601373 0.0067117651790281497 0 0.011740090821669203 0.0064515836467186529 0 0.01039466761345199 0.0054308211285802538 0 0.0095278021892222717 0.0061567851346921556 0 0.010974022116601373 0.0067117651790281497 0 0.01039466761345199 0.0054308211285802538 0 0.018039698548708471 -0.002082032533652019 0 0.017770060988300664 -0.0021624040943846626 0 0.017782341673870859 -0.0021301904895797562 0 0.021537699863608335 -0.018653670552387144 0 0.019899797438037221 -0.014470602538303845 0 0.020944909829244317 -0.011268913027852687 0 0.021234144859315456 -0.010803194356421292 0 0.021988365763335717 -0.011626282727930889 0 0.018966846579538101 -0.0056305897464142213 0 0.019899797438037221 -0.014470602538303845 0 0.021560353170314888 -0.025115452386009273 0 0.020713583143173751 -0.024984255964334772 0 0.02110795378210098 -0.024614974534537683 0 0.021464934842142295 -0.024157576803366197 0 0.021011732079131495 -0.024189249778158263 0 0.02110795378210098 -0.024614974534537683 0 0.021011732079131495 -0.024189249778158263 0 0.02110795378210098 -0.024614974534537683 0 0.020583273158609503 -0.024471417983488588 0 0.02110795378210098 -0.024614974534537683 0 0.020759508160643127 -0.02470294301847599 0 0.020583273158609503 -0.024471417983488588 0 0.020759508160643127 -0.02470294301847599 0 0.020535416529866762 -0.024681694218800957 0 0.020583273158609503 -0.024471417983488588 0 0.020713583143173751 -0.024984255964334772 0 0.02110795378210098 -0.024614974534537683 0 0.020759508160643127 -0.02470294301847599 0 0.020713583143173751 -0.024984255964334772 0 0.020759508160643127 -0.02470294301847599 0 0.020557607776904057 -0.024878516310158621 0 0.019899797438037221 -0.014470602538303845 0 0.021928444513587886 -0.018132209981910986 0 0.020028770984619707 -0.02450220872383917 0 0.020236827630062078 -0.02467149772810466 0 0.019435734674857676 -0.024822957292208271 0 0.020716512569997399 -0.02498704222468465 0 0.020557607776904057 -0.024878516310158621 0 0.019435734674857676 -0.024822957292208271 0 0.019899797438037221 -0.014470602538303845 0 0.018300823262278228 -0.013447641624085006 0 0.020557607776904057 -0.024878516310158621 0 0.020236827630062078 -0.02467149772810466 0 0.019435734674857676 -0.024822957292208271 0 0.020557607776904057 -0.024878516310158621 0 0.020535416529866762 -0.024681694218800957 0 0.020236827630062078 -0.02467149772810466 0 0.020759508160643127 -0.02470294301847599 0 0.020557607776904057 -0.024878516310158621 0 0.020535416529866762 -0.024681694218800957 0 0.020583273158609503 -0.024471417983488588 0 0.020028770984619707 -0.02450220872383917 0 0.020236827630062078 -0.02467149772810466 0 0.020138352130996337 -0.024155380152077785 0 0.020583273158609503 -0.024471417983488588 0 0.020028770984619707 -0.02450220872383917 0 0.020535416529866762 -0.024681694218800957 0 0.020583273158609503 -0.024471417983488588 0 0.020236827630062078 -0.02467149772810466 0 0.017770060988300664 -0.0021624040943846626 0 0.017695036086396068 -0.0021859908592804871 0 0.017782341673870859 -0.0021301904895797562 0 0.017770060988300664 -0.0021624040943846626 0 0.017607717399418344 -0.002288280126811764 0 0.01750580133047492 -0.0023411765300095791 0 0.017770060988300664 -0.0021624040943846626 0 0.017607717399418344 -0.002288280126811764 0 0.017695036086396068 -0.0021859908592804871 0 0.017695036086396068 -0.0021859908592804871 0 0.017604652776051409 -0.0021923028758498117 0 0.017782341673870859 -0.0021301904895797562 0 0.017607717399418344 -0.002288280126811764 0 0.017604652776051409 -0.0021923028758498117 0 0.017526725728830114 -0.0023226305576941717 0 0.017607717399418344 -0.002288280126811764 0 0.017695036086396068 -0.0021859908592804871 0 0.017604652776051409 -0.0021923028758498117 0 0.017611807299064929 -0.0037123700002241414 0 0.014112627382825413 0.00036635072276725207 0 0.017526725728830114 -0.0023226305576941717 0 0.017377926765931587 -0.0025860879055274945 0 0.017595081997933307 -0.0021714686839288361 0 0.017526725728830114 -0.0023226305576941717 0 0.017377926765931587 -0.0025860879055274945 0 0.017509705630612465 -0.0024025930906984311 0 0.017377926765931587 -0.0025860879055274945 0 0.017509705630612465 -0.0024025930906984311 0 0.01750580133047492 -0.0023411765300095791 0 0.017607717399418344 -0.002288280126811764 0 0.017509705630612465 -0.0024025930906984311 0 0.01750580133047492 -0.0023411765300095791 0 0.017607717399418344 -0.002288280126811764 0 0.017526725728830114 -0.0023226305576941717 0 0.017509705630612465 -0.0024025930906984311 0 0.019616493019653184 -0.024346033695141624 0 0.020028770984619707 -0.02450220872383917 0 0.019435734674857676 -0.024822957292208271 0 0.019100465337925504 -0.024220702443063881 0 0.019616493019653184 -0.024346033695141624 0 0.019435734674857676 -0.024822957292208271 0 0.019100465337925504 -0.024220702443063881 0 0.017981585635458788 -0.024549372431328563 0 0.019435734674857676 -0.024822957292208271 0 0.016746827600805283 -0.0024318234652067608 0 0.01750580133047492 -0.0023411765300095791 0 0.016862485897163142 -0.0026866251325525451 0 0.017413561062019332 -0.01351476113492627 0 0.018300823262278228 -0.013447641624085006 0 0.016572553182747893 -0.0031966504406539475 0 0.017377926765931587 -0.0025860879055274945 0 0.016862485897163142 -0.0026866251325525451 0 0.017377926765931587 -0.0025860879055274945 0 0.01750580133047492 -0.0023411765300095791 0 0.016862485897163142 -0.0026866251325525451 0 0.012387248458016654 0.0013256464384438979 0 0.014112627382825413 0.00036635072276725207 0 0.0086143416706875361 0.0055821132112484368 0 0.0084914730820599173 0.00588055801607294 0 0.0085863104349986202 0.0057657521711315541 0 0.016572553182747893 -0.0031966504406539475 0 0.017377926765931587 -0.0025860879055274945 0 0.017514772829891358 -0.003101806696434626 0 0.0086143416706875361 0.0055821132112484368 0 0.0082422479980318319 0.0062235055765262511 0 0.0084914730820599173 0.00588055801607294 0 0.0082422479980318319 0.0062235055765262511 0 0.0084914730820599173 0.00588055801607294 0 0.0084705762728136298 0.0052793456763533834 0 0.0084914730820599173 0.00588055801607294 0 0.0089557306876358583 0.0055399166463083625 0 0.0085863104349986202 0.0057657521711315541 0 0.012950136428324177 0.0021483253525924765 0 0.014112627382825413 0.00036635072276725207 0 0.017376441121553544 -0.0022709117581413457 0 0.017402645375223166 -0.0020148031186870692 0 0.017515265779863239 -0.0020966673740998917 0 0.017526725728830114 -0.0023226305576941717 0 0.017595081997933307 -0.0021714686839288361 0 0.017515265779863239 -0.0020966673740998917 0 0.017604652776051409 -0.0021923028758498117 0 0.017526725728830114 -0.0023226305576941717 0 0.017515265779863239 -0.0020966673740998917 0 0.014112627382825413 0.00036635072276725207 0 0.017144258749073753 -0.00067227805291619476 0 0.017604652776051409 -0.0021923028758498117 0 0.017515265779863239 -0.0020966673740998917 0 0.01763040534249314 -0.0021415761459784143 0 0.017604652776051409 -0.0021923028758498117 0 0.01763040534249314 -0.0021415761459784143 0 0.017782341673870859 -0.0021301904895797562 0 0.01763040534249314 -0.0021415761459784143 0 0.017782341673870859 -0.0021301904895797562 0 0.017652087487047999 -0.0021851212448850688 0 0.017515265779863239 -0.0020966673740998917 0 0.01763040534249314 -0.0021415761459784143 0 0.017652087487047999 -0.0021851212448850688 0 0.017376441121553544 -0.0022709117581413457 0 0.017515265779863239 -0.0020966673740998917 0 0.017652087487047999 -0.0021851212448850688 0 0.017376441121553544 -0.0022709117581413457 0 0.017652087487047999 -0.0021851212448850688 0 0.017848118858408573 -0.0025741185401876691 0 0.018436078970510698 -0.0022484419895121817 0 0.018062872632174765 -0.0021421336025269381 0 0.017848118858408573 -0.0025741185401876691 0 0.017652087487047999 -0.0021851212448850688 0 0.018062872632174765 -0.0021421336025269381 0 0.017848118858408573 -0.0025741185401876691 0 0.017782341673870859 -0.0021301904895797562 0 0.017652087487047999 -0.0021851212448850688 0 0.018062872632174765 -0.0021421336025269381 0 0.018039698548708471 -0.002082032533652019 0 0.017782341673870859 -0.0021301904895797562 0 0.018062872632174765 -0.0021421336025269381 0 0.018603362252821502 -0.0034418805072541723 0 0.017975432443587253 -0.0033761517230781438 0 0.018468825015326117 -0.0039882660029487713 0 0.018375361924247484 -0.0033012605541662492 0 0.018678962583611462 -0.0020724121987460674 0 0.017975432443587253 -0.0033761517230781438 0 0.017849897988800306 -0.0030482396622417683 0 0.017801167831100587 -0.0033230676984741399 0 0.017975432443587253 -0.0033761517230781438 0 0.017801167831100587 -0.0033230676984741399 0 0.017915048107662673 -0.0034425064149909601 0 0.017975432443587253 -0.0033761517230781438 0 0.017849897988800306 -0.0030482396622417683 0 0.018427967762573019 -0.0029429331287163306 0 0.018603362252821502 -0.0034418805072541723 0 0.017975432443587253 -0.0033761517230781438 0 0.018427967762573019 -0.0029429331287163306 0 0.018436078970510698 -0.0022484419895121817 0 0.018427967762573019 -0.0029429331287163306 0 0.017848118858408573 -0.0025741185401876691 0 0.017849897988800306 -0.0030482396622417683 0 0.018427967762573019 -0.0029429331287163306 0 0.017848118858408573 -0.0025741185401876691 0 0.012950136428324177 0.0021483253525924765 0 0.01346763870318031 -0.0002451063384151339 0 0.017376441121553544 -0.0022709117581413457 0 0.017848118858408573 -0.0025741185401876691 0 0.017507079246946743 -0.0031672534189408482 0 0.017849897988800306 -0.0030482396622417683 0 0.017848118858408573 -0.0025741185401876691 0 0.017507079246946743 -0.0031672534189408482 0 0.017849897988800306 -0.0030482396622417683 0 0.017801167831100587 -0.0033230676984741399 0 0.017507079246946743 -0.0031672534189408482 0 0.017801167831100587 -0.0033230676984741399 0 0.017507079246946743 -0.0031672534189408482 0 0.017759545956964308 -0.0034570647915544935 0 0.009276673957372035 0.0047951278039194229 0 0.0089323640061498098 0.0046246914894673063 0 0.0092775792862453965 0.0044381615732729564 0 0.0062016969989280588 0.007878176393602547 0 0.0072347373158890256 0.0069092268654384736 0 0.003998459612332755 0.01104343273873686 0 0.0057786872774316291 0.0085612023925556568 0 0.005500795188147614 0.01071837095041369 0 0.0089323640061498098 0.0046246914894673063 0 0.0088787396540559657 0.0050759554940057114 0 0.0084705762728136298 0.0052793456763533834 0 0.009276673957372035 0.0047951278039194229 0 0.0089323640061498098 0.0046246914894673063 0 0.0088787396540559657 0.0050759554940057114 0 0.0089557306876358583 0.0055399166463083625 0 0.0088787396540559657 0.0050759554940057114 0 0.0084705762728136298 0.0052793456763533834 0 0.0089557306876358583 0.0055399166463083625 0 0.009276673957372035 0.0047951278039194229 0 0.0088787396540559657 0.0050759554940057114 0 0.0084914730820599173 0.00588055801607294 0 0.0089557306876358583 0.0055399166463083625 0 0.0084705762728136298 0.0052793456763533834 0 0.0080916310176727957 0.0062426048764346025 0 0.0072347373158890256 0.0069092268654384736 0 0.0082422479980318319 0.0062235055765262511 0 0.0057786872774316291 0.0085612023925556568 0 0.0076615764321158542 0.0091208480383154454 0 0.0057786872774316291 0.0085612023925556568 0 0.0067982753960174171 0.011204121054143878 0 0.0076615764321158542 0.0091208480383154454 0 0.0057786872774316291 0.0085612023925556568 0 0.005500795188147614 0.01071837095041369 0 0.0067982753960174171 0.011204121054143878 0 0.0056220365599689561 0.011877018103451206 0 0.0046859543251902194 0.012857886527823359 0 0.0068716824685132001 0.012808992450826555 0 0.0037996348875417763 0.01399889228108632 0 0.0067289339219949026 0.013504659902215237 0 0.0067982753960174171 0.011204121054143878 0 0.0056220365599689561 0.011877018103451206 0 0.0068716824685132001 0.012808992450826555 0 0.005500795188147614 0.01071837095041369 0 0.0067982753960174171 0.011204121054143878 0 0.0056220365599689561 0.011877018103451206 0 0.0056862903733814994 0.014930115645511451 0 0.0048590560823279817 0.014564174216426364 0 0.0047345650100077226 0.015235234662275587 0 0.0056862903733814994 0.014930115645511451 0 0.0022930252150948128 0.016784971740618982 0 0.0048616958115171019 0.016828506352891612 0 0.0036927645068038414 0.015676966401151998 0 0.0082991399572543961 0.014844140372427534 0 0.0056862903733814994 0.014930115645511451 0 0.0048590560823279817 0.014564174216426364 0 0.0059103876936374197 0.014211297869374258 0 0.0056862903733814994 0.014930115645511451 0 0.0063344934723975075 0.016428945678893365 0 0.0048616958115171019 0.016828506352891612 0 0.0037996348875417763 0.01399889228108632 0 0.0081147359255331255 0.0090102877263966239 0 0.0048590560823279817 0.014564174216426364 0 0.0042370193555695251 0.014578891156307429 0 0.0047345650100077226 0.015235234662275587 0 0.003998459612332755 0.01104343273873686 0 0.0056220365599689561 0.011877018103451206 0 0.0046859543251902194 0.012857886527823359 0 0.003998459612332755 0.01104343273873686 0 0.0046859543251902194 0.012857886527823359 0 0.0025364373259444172 0.012944802213921287 0 0.003998459612332755 0.01104343273873686 0 0.005500795188147614 0.01071837095041369 0 0.0056220365599689561 0.011877018103451206 0 0.01346763870318031 -0.0002451063384151339 0 0.014500881498077517 0.0050762356903060616 0 0.017507079246946743 -0.0031672534189408482 0 0.017759545956964308 -0.0034570647915544935 0 0.017779256237722762 -0.0036826827239311599 0 0.0062016969989280588 0.007878176393602547 0 0.0081147359255331255 0.0090102877263966239 0 0.0089323640061498098 0.0046246914894673063 0 0.0092775792862453965 0.0044381615732729564 0 0.0093975747320409597 0.0041712006537587285 0 0.009276673957372035 0.0047951278039194229 0 0.0092775792862453965 0.0044381615732729564 0 0.0094977255170217972 0.0041634188108368633 0 0.0092775792862453965 0.0044381615732729564 0 0.0093975747320409597 0.0041712006537587285 0 0.0094977255170217972 0.0041634188108368633 0 0.017759545956964308 -0.0034570647915544935 0 0.017779256237722762 -0.0036826827239311599 0 0.017915048107662673 -0.0034425064149909601 0 0.011717699317396304 0.0079437182150507608 0 0.0082991399572543961 0.014844140372427534 0 0.013800753186088408 0.010862279076427195 0 0.013345776546633031 0.011399541376976897 0 0.011338225016449082 0.0098143656966821202 0 0.0041860199099917964 0.014643538660149539 0 0.0042370193555695251 0.014578891156307429 0 0.0047345650100077226 0.015235234662275587 0 0.015502578246392817 0.0056698765685238581 0 0.014500881498077517 0.0050762356903060616 0 0.015502578246392817 0.0056698765685238581 0 0.011717699317396304 0.0079437182150507608 0 0.01511202238988993 0.0063299772112344619 0 0.014756673532676748 0.0067485750058750111 0 0.014927466685406518 0.0068995299320871182 0 0.011717699317396304 0.0079437182150507608 0 0.0081147359255331255 0.0090102877263966239 0 0.010984242668844757 0.007075714047288682 0 0.010823562379592184 0.0072654391366647163 0 0.011172451178268924 0.0072337420644401568 0 0.0081147359255331255 0.0090102877263966239 0 0.014500881498077517 0.0050762356903060616 0 0.011717699317396304 0.0079437182150507608 0 0.014500881498077517 0.0050762356903060616 0 0.019211008195169358 0.0045515389851480013 0 0.017808080578015889 0.0041422875117067192 0 0.017629752364530751 0.0046915378994210879 0 0.019732497943113065 0.0044059686749627087 0 0.014500881498077517 0.0050762356903060616 0 0.019467561643899491 0.0036260226744306784 0 0.019211008195169358 0.0045515389851480013 0 0.018543363350107273 0.0032852189093826524 0 0.019211008195169358 0.0045515389851480013 0 0.017808080578015889 0.0041422875117067192 0 0.018543363350107273 0.0032852189093826524 0 0.015502578246392817 0.0056698765685238581 0 0.018747574471658132 0.0028298364780591305 0 0.019058901498424995 0.0043564890335226697 0 0.017376407437581991 0.0044534052346224505 0 0.018969082476362583 0.0057018394133951178 0 0.017779256237722762 -0.0036826827239311599 0 0.017915048107662673 -0.0034425064149909601 0 0.018079007132595332 -0.0034230927473007343 0 0.014500881498077517 0.0050762356903060616 0 0.018678962583611462 -0.0020724121987460674 0 0.017801167831100587 -0.0033230676984741399 0 0.017759545956964308 -0.0034570647915544935 0 0.017915048107662673 -0.0034425064149909601 0 0.017975432443587253 -0.0033761517230781438 0 0.017915048107662673 -0.0034425064149909601 0 0.018079007132595332 -0.0034230927473007343 0 0.009106410530706625 0.010944171419800442 0 0.010055593157140214 0.010818339433581901 0 0.0093767874283455163 0.0096364647153537979 0 0.010055593157140214 0.010818339433581901 0 0.010839405420280406 0.010631487973694363 0 0.010634228536442768 0.011610557367069851 0 0.010055593157140214 0.010818339433581901 0 0.010839405420280406 0.010631487973694363 0 0.010471433379898613 0.0096972643400726338 0 0.010543126929835372 0.0085154235426870197 0 0.010471433379898613 0.0096972643400726338 0 0.0093767874283455163 0.0096364647153537979 0 0.011210576302677064 0.0076967595298664659 0 0.0101023455800467 0.0086714842915414266 0 0.010471433379898613 0.0096972643400726338 0 0.011056888727384813 0.0098052948996796493 0 0.011039940767243728 0.0090939420500456489 0 0.010839405420280406 0.010631487973694363 0 0.010471433379898613 0.0096972643400726338 0 0.011056888727384813 0.0098052948996796493 0 0.010543126929835372 0.0085154235426870197 0 0.010471433379898613 0.0096972643400726338 0 0.011039940767243728 0.0090939420500456489 0 0.010055593157140214 0.010818339433581901 0 0.010471433379898613 0.0096972643400726338 0 0.0093767874283455163 0.0096364647153537979 0 0.010974022116601373 0.0067117651790281497 0 0.010826615292310646 0.0076829296965463577 0 0.0096266195588292323 0.0072876351150507031 0 0.010826615292310646 0.0076829296965463577 0 0.0096266195588292323 0.0072876351150507031 0 0.0093815657088986999 0.0091725417467662801 0 0.0101023455800467 0.0086714842915414266 0 0.0087395495005978784 0.0098861475398400664 0 0.0082422479980318319 0.0062235055765262511 0 0.0096266195588292323 0.0072876351150507031 0 0.0076615764321158542 0.0091208480383154454 0 0.0096266195588292323 0.0072876351150507031 0 0.0076615764321158542 0.0091208480383154454 0 0.0093815657088986999 0.0091725417467662801 0 0.0067982753960174171 0.011204121054143878 0 0.0082768154506248203 0.010561830331359828 0 0.0081208240687767105 0.011597884116595729 0 0.0069148515087982462 0.011114744996656333 0 0.0087395495005978784 0.0098861475398400664 0 0.0067982753960174171 0.011204121054143878 0 0.0076615764321158542 0.0091208480383154454 0 0.0093815657088986999 0.0091725417467662801 0 0.009106410530706625 0.010944171419800442 0 0.0093767874283455163 0.0096364647153537979 0 0.0082768154506248203 0.010561830331359828 0 0.009106410530706625 0.010944171419800442 0 0.0082768154506248203 0.010561830331359828 0 0.0081208240687767105 0.011597884116595729 0 0.009106410530706625 0.010944171419800442 0 0.0081208240687767105 0.011597884116595729 0 0.0096615092552734261 0.01204868188580106 0 0.0081448476129805276 0.011714623229555873 0 0.010816429883736052 0.012758252017124366 0 0.0089227377381442558 0.013460144796370947 0 0.0081208240687767105 0.011597884116595729 0 0.011781776112472959 0.013862743971632853 0 0.0089227377381442558 0.013460144796370947 0 0.0081208240687767105 0.011597884116595729 0 0.0068716824685132001 0.012808992450826555 0 0.0086991581977957921 0.013440765660878175 0 0.0067289339219949026 0.013504659902215237 0 0.0067982753960174171 0.011204121054143878 0 0.0081208240687767105 0.011597884116595729 0 0.0068716824685132001 0.012808992450826555 0 0.0089227377381442558 0.013460144796370947 0 0.0059103876936374197 0.014211297869374258 0 0.0068528354228434033 0.014933400415619259 0 0.0056862903733814994 0.014930115645511451 0 0.0059103876936374197 0.014211297869374258 0 0.0068528354228434033 0.014933400415619259 0 0.0089227377381442558 0.013460144796370947 0 0.0068528354228434033 0.014933400415619259 0 0.0077338221664574325 0.015460456637592525 0 0.0056862903733814994 0.014930115645511451 0 0.0068528354228434033 0.014933400415619259 0 0.0063344934723975075 0.016428945678893365 0 0.0068528354228434033 0.014933400415619259 0 0.0077338221664574325 0.015460456637592525 0 0.0063344934723975075 0.016428945678893365 0 0.0089132172003097074 0.015163791331845306 0 0.010189440393251084 0.015930088440638913 0 0.0084494673176793936 0.017576965007421747 0 0.0077338221664574325 0.015460456637592525 0 0.0089132172003097074 0.015163791331845306 0 0.0084494673176793936 0.017576965007421747 0 0.0089227377381442558 0.013460144796370947 0 0.010189440393251084 0.015930088440638913 0 0.011781776112472959 0.013862743971632853 0 0.0089227377381442558 0.013460144796370947 0 0.0089132172003097074 0.015163791331845306 0 0.010189440393251084 0.015930088440638913 0 0.0089227377381442558 0.013460144796370947 0 0.0077338221664574325 0.015460456637592525 0 0.0089132172003097074 0.015163791331845306 0 0.010189440393251084 0.015930088440638913 0 0.011781776112472959 0.013862743971632853 0 0.011895652624129237 0.018085685683698439 0 0.011781776112472959 0.013862743971632853 0 0.01374916165635701 0.017268472269610025 0 0.011895652624129237 0.018085685683698439 0 0.009106410530706625 0.010944171419800442 0 0.010055593157140214 0.010818339433581901 0 0.0096615092552734261 0.01204868188580106 0 0.010055593157140214 0.010818339433581901 0 0.0096615092552734261 0.01204868188580106 0 0.010634228536442768 0.011610557367069851 0 0.0096615092552734261 0.01204868188580106 0 0.010634228536442768 0.011610557367069851 0 0.011401869764532654 0.012814991132193814 0 0.010839405420280406 0.010631487973694363 0 0.010634228536442768 0.011610557367069851 0 0.011461046674126372 0.011506102154106614 0 0.011781776112472959 0.013862743971632853 0 0.015440318806731792 0.015767110635979638 0 0.01374916165635701 0.017268472269610025 0 0.010816429883736052 0.012758252017124366 0 0.01259376039019155 0.015550408760422451 0 0.011407327222430397 0.012081663399947951 0 0.012164121127875105 0.011660092385638993 0 0.012285115960811695 0.012441823655584772 0 0.01259376039019155 0.015550408760422451 0 0.013116657808631955 0.017374533557309502 0 0.012164121127875105 0.011660092385638993 0 0.012653109022755465 0.011944103183128066 0 0.012285115960811695 0.012441823655584772 0 0.012164121127875105 0.011660092385638993 0 0.012582754317036992 0.011392600695884738 0 0.012156518523610197 0.010820845725163343 0 0.012164121127875105 0.011660092385638993 0 0.011432540879450389 0.011223165561977867 0 0.012156518523610197 0.010820845725163343 0 0.01259376039019155 0.015550408760422451 0 0.011426497334387347 0.010740123614066219 0 0.010634228536442768 0.011610557367069851 0 0.011401869764532654 0.012814991132193814 0 0.011461046674126372 0.011506102154106614 0 0.011407327222430397 0.012081663399947951 0 0.012164121127875105 0.011660092385638993 0 0.011432540879450389 0.011223165561977867 0 0.013258897276870641 0.01185491488347826 0 0.013312383857209995 0.012153155401897419 0 0.013589959350108264 0.011854110112314247 0 0.013258897276870641 0.01185491488347826 0 0.013312383857209995 0.012153155401897419 0 0.01300495988634531 0.01206501444171296 0 0.013312383857209995 0.012153155401897419 0 0.01300495988634531 0.01206501444171296 0 0.013116880694567394 0.012450074915421416 0 0.013312383857209995 0.012153155401897419 0 0.013398767597759081 0.012552898189638272 0 0.013116880694567394 0.012450074915421416 0 0.01300495988634531 0.01206501444171296 0 0.012840581166518572 0.012479495584418129 0 0.013116880694567394 0.012450074915421416 0 0.013258897276870641 0.01185491488347826 0 0.01300495988634531 0.01206501444171296 0 0.012955673250170432 0.011627823740862369 0 0.012653109022755465 0.011944103183128066 0 0.012840581166518572 0.012479495584418129 0 0.012285115960811695 0.012441823655584772 0 0.01300495988634531 0.01206501444171296 0 0.012653109022755465 0.011944103183128066 0 0.012955673250170432 0.011627823740862369 0 0.01300495988634531 0.01206501444171296 0 0.012653109022755465 0.011944103183128066 0 0.012840581166518572 0.012479495584418129 0 0.012582754317036992 0.011392600695884738 0 0.012771410186891869 0.010935645318723927 0 0.012156518523610197 0.010820845725163343 0 0.012582754317036992 0.011392600695884738 0 0.012955673250170432 0.011627823740862369 0 0.012771410186891869 0.010935645318723927 0 0.012164121127875105 0.011660092385638993 0 0.012653109022755465 0.011944103183128066 0 0.012582754317036992 0.011392600695884738 0 0.012653109022755465 0.011944103183128066 0 0.012582754317036992 0.011392600695884738 0 0.012955673250170432 0.011627823740862369 0 0.013527582133909593 0.010914537095792659 0 0.013046133367356676 0.010651788619215658 0 0.011429673938819709 0.0081500821691993502 0 0.013046133367356676 0.010651788619215658 0 0.0087263600225384493 0.0062502839301725619 0 0.010832171169905081 0.0070843655301602287 0 0.010128194184871868 0.0089144502484510123 0 0.012955673250170432 0.011627823740862369 0 0.012771410186891869 0.010935645318723927 0 0.013434786836417318 0.011592427340375699 0 0.01449178855924638 0.010512041600911968 0 0.013840181601586518 0.010620403689592623 0 0.014852123701813848 0.011190105811684328 0 0.013258897276870641 0.01185491488347826 0 0.012955673250170432 0.011627823740862369 0 0.013434786836417318 0.011592427340375699 0 0.011429673938819709 0.0081500821691993502 0 0.012510923214981248 0.0065845281712242137 0 0.0087263600225384493 0.0062502839301725619 0 0.0073699571369307201 0.0036510849680336022 0 0.0093700684104817238 0.0045944747625087153 0 0.0087263600225384493 0.0062502839301725619 0 0.0093700684104817238 0.0045944747625087153 0 0.011084019225071283 0.0054453238230712459 0 0.013840181601586518 0.010620403689592623 0 0.014088652186255757 0.0096223264251549603 0 0.013310411118590436 0.010068985903993331 0 0.01449178855924638 0.010512041600911968 0 0.013840181601586518 0.010620403689592623 0 0.014088652186255757 0.0096223264251549603 0 0.013520179930646919 0.0090801114006150811 0 0.014506074068675387 0.0093888026721049237 0 0.013744464929818364 0.0077839990713608163 0 0.013520179930646919 0.0090801114006150811 0 0.014506074068675387 0.0093888026721049237 0 0.013310411118590436 0.010068985903993331 0 0.012510923214981248 0.0065845281712242137 0 0.013326311281363907 0.0098583786940994872 0 0.012510923214981248 0.0065845281712242137 0 0.011459590074974596 0.0018591920207522811 0 0.0073699571369307201 0.0036510849680336022 0 0.010388622056114506 0.0016725874525344675 0 0.010320998951162074 0.0030429138636258271 0 0.0073699571369307201 0.0036510849680336022 0 0.0093700684104817238 0.0045944747625087153 0 0.010320998951162074 0.0030429138636258271 0 0.010839405420280406 0.010631487973694363 0 0.011461046674126372 0.011506102154106614 0 0.011502099748288839 0.010141232995620931 0 0.011426497334387347 0.010740123614066219 0 0.011490357476982179 0.010482269019214466 0 0.011432540879450389 0.011223165561977867 0 0.011865969750107588 0.01045817713313376 0 0.011502099748288839 0.010141232995620931 0 0.011865969750107588 0.01045817713313376 0 0.011502099748288839 0.010141232995620931 0 0.012052968356586655 0.0098158306075025233 0 0.010839405420280406 0.010631487973694363 0 0.011502099748288839 0.010141232995620931 0 0.011056888727384813 0.0098052948996796493 0 0.011432540879450389 0.011223165561977867 0 0.011865969750107588 0.01045817713313376 0 0.012156518523610197 0.010820845725163343 0 0.011865969750107588 0.01045817713313376 0 0.012156518523610197 0.010820845725163343 0 0.012052968356586655 0.0098158306075025233 0 0.013840181601586518 0.010620403689592623 0 0.013310411118590436 0.010068985903993331 0 0.012052968356586655 0.0098158306075025233 0 0.013527582133909593 0.010914537095792659 0 0.011960038797697562 0.0097835140531467649 0 0.012771410186891869 0.010935645318723927 0 0.012156518523610197 0.010820845725163343 0 0.012052968356586655 0.0098158306075025233 0 0.013310411118590436 0.010068985903993331 0 0.012849910702032369 0.0093506624712955209 0 0.012052968356586655 0.0098158306075025233 0 0.013520179930646919 0.0090801114006150811 0 0.013310411118590436 0.010068985903993331 0 0.012849910702032369 0.0093506624712955209 0 0.013520179930646919 0.0090801114006150811 0 0.012849910702032369 0.0093506624712955209 0 0.01294968382125875 0.0087110751204851934 0 0.012849910702032369 0.0093506624712955209 0 0.012241623019146473 0.0090306573273100672 0 0.012052968356586655 0.0098158306075025233 0 0.012849910702032369 0.0093506624712955209 0 0.01294968382125875 0.0087110751204851934 0 0.012241623019146473 0.0090306573273100672 0 0.012241623019146473 0.0090306573273100672 0 0.011503708830961367 0.0093823497578738885 0 0.011624310196889188 0.0085021235778174799 0 0.012241623019146473 0.0090306573273100672 0 0.012052968356586655 0.0098158306075025233 0 0.011503708830961367 0.0093823497578738885 0 0.011502099748288839 0.010141232995620931 0 0.012052968356586655 0.0098158306075025233 0 0.011503708830961367 0.0093823497578738885 0 0.011502099748288839 0.010141232995620931 0 0.011056888727384813 0.0098052948996796493 0 0.011503708830961367 0.0093823497578738885 0 0.011039940767243728 0.0090939420500456489 0 0.011503708830961367 0.0093823497578738885 0 0.011624310196889188 0.0085021235778174799 0 0.011056888727384813 0.0098052948996796493 0 0.011039940767243728 0.0090939420500456489 0 0.011503708830961367 0.0093823497578738885 0 0.010543126929835372 0.0085154235426870197 0 0.011624310196889188 0.0085021235778174799 0 0.012192407149623007 0.0070650784207724141 0 0.011785183547316296 0.0068646348276427361 0 0.011986730007731155 0.0067406174413009784 0 0.012192407149623007 0.0070650784207724141 0 0.010543126929835372 0.0085154235426870197 0 0.011039940767243728 0.0090939420500456489 0 0.011624310196889188 0.0085021235778174799 0 0.011210576302677064 0.0076967595298664659 0 0.012160982627530249 0.0070794966161200719 0 0.012241623019146473 0.0090306573273100672 0 0.011624310196889188 0.0085021235778174799 0 0.012496981744039031 0.0081677687749332397 0 0.011624310196889188 0.0085021235778174799 0 0.012192407149623007 0.0070650784207724141 0 0.012496981744039031 0.0081677687749332397 0 0.012933622755464143 0.0059703038408072335 0 0.012256566864519515 0.0054995268225482442 0 0.014147690258444312 0.0054318721105072482 0 0.011740090821669203 0.0064515836467186529 0 0.012933622755464143 0.0059703038408072335 0 0.012256566864519515 0.0054995268225482442 0 0.01183473407387429 0.0064763516105139259 0 0.012336781678649952 0.0063247611653730372 0 0.014070230413004274 0.0010803682491812867 0 0.013969533682716119 0.001533554123473474 0 0.012256566864519515 0.0054995268225482442 0 0.014417067209171594 0.0053115781027830477 0 0.014147690258444312 0.0054318721105072482 0 0.013272492640847738 0.0033855811263773564 0 0.013125178689096975 0.0051588965049358315 0 0.011986730007731155 0.0067406174413009784 0 0.012192407149623007 0.0070650784207724141 0 0.012902055558216982 0.0062399870310043473 0 0.012192407149623007 0.0070650784207724141 0 0.012902055558216982 0.0062399870310043473 0 0.013744464929818364 0.0077839990713608163 0 0.012336781678649952 0.0063247611653730372 0 0.013272492640847738 0.0033855811263773564 0 0.012088312459715722 0.0013085932827390429 0 0.011900668238347968 0.0013852719461034863 0 0.01242586490008794 0.0024058782266561172 0 0.013969533682716119 0.001533554123473474 0 0.013272492640847738 0.0033855811263773564 0 0.012192407149623007 0.0070650784207724141 0 0.012496981744039031 0.0081677687749332397 0 0.013744464929818364 0.0077839990713608163 0 0.01294968382125875 0.0087110751204851934 0 0.012241623019146473 0.0090306573273100672 0 0.012496981744039031 0.0081677687749332397 0 0.013520179930646919 0.0090801114006150811 0 0.01294968382125875 0.0087110751204851934 0 0.013744464929818364 0.0077839990713608163 0 0.01294968382125875 0.0087110751204851934 0 0.012496981744039031 0.0081677687749332397 0 0.013744464929818364 0.0077839990713608163 0 0.012961619966891498 0.0034487689464821046 0 0.01242586490008794 0.0024058782266561172 0 0.013184086836949412 0.0024001445672468071 0 0.012510923214981248 0.0065845281712242137 0 0.013125178689096975 0.0051588965049358315 0 0.01242586490008794 0.0024058782266561172 0 0.013184086836949412 0.0024001445672468071 0 0.012763628012478368 0.0018034953676731812 0 0.013184086836949412 0.0024001445672468071 0 0.013387444277649117 0.0016212200501292918 0 0.014052173744206559 0.0027151279175902229 0 0.012961619966891498 0.0034487689464821046 0 0.013184086836949412 0.0024001445672468071 0 0.014052173744206559 0.0027151279175902229 0 0.013387444277649117 0.0016212200501292918 0 0.014119757642154337 0.0010700637788046156 0 0.014052173744206559 0.0027151279175902229 0 0.013387444277649117 0.0016212200501292918 0 0.01257030591178792 0.0012806747085670337 0 0.013525657889457554 0.00070735369274349232 0 0.013184086836949412 0.0024001445672468071 0 0.013387444277649117 0.0016212200501292918 0 0.012763628012478368 0.0018034953676731812 0 0.012088312459715722 0.0013085932827390429 0 0.01242586490008794 0.0024058782266561172 0 0.012763628012478368 0.0018034953676731812 0 0.013387444277649117 0.0016212200501292918 0 0.012763628012478368 0.0018034953676731812 0 0.01257030591178792 0.0012806747085670337 0 0.012088312459715722 0.0013085932827390429 0 0.012763628012478368 0.0018034953676731812 0 0.01257030591178792 0.0012806747085670337 0 0.013969533682716119 0.001533554123473474 0 0.012388221495194512 0.0014332975851223367 0 0.015244357721744466 -0.0031107974763018849 0 0.015268405888441666 -0.0031130431802580891 0 0.01521250804310159 -0.0031155380740707831 0 0.015283059707559127 -0.0031456004089484811 0 0.015268405888441666 -0.0031130431802580891 0 0.01521250804310159 -0.0031155380740707831 0 0.013969533682716119 0.001533554123473474 0 0.014242866516727985 -0.0027595084131961972 0 0.012095451651003225 0.0013082395505735801 0 0.01257030591178792 0.0012806747085670337 0 0.013525657889457554 0.00070735369274349232 0 0.013387444277649117 0.0016212200501292918 0 0.013525657889457554 0.00070735369274349232 0 0.014119757642154337 0.0010700637788046156 0 0.014242866516727985 -0.0027595084131961972 0 0.011111749578604412 -0.0025169888628252331 0 0.012292875638756142 -0.0037159954160645089 0 0.011757828380512682 -0.0035215659673048091 0 0.011779879956393813 -0.0040254157002956974 0 0.015184926919435807 -0.0028396651006034682 0 0.014242866516727985 -0.0027595084131961972 0 0.015244357721744466 -0.0031107974763018849 0 0.015235095955844288 -0.0031269103225026081 0 0.015242074725268041 -0.003125362892328109 0 0.014242866516727985 -0.0027595084131961972 0 0.010846556529352574 -0.0060902283187502541 0 0.015235095955844288 -0.0031269103225026081 0 0.015242074725268041 -0.003125362892328109 0 0.015227212571793399 -0.003136124947958281 0 0.015270158530849445 -0.0031704171933378323 0 0.015242074725268041 -0.003125362892328109 0 0.015251124187270093 -0.0031081163494999413 0 0.015244357721744466 -0.0031107974763018849 0 0.015242074725268041 -0.003125362892328109 0 0.015251124187270093 -0.0031081163494999413 0 0.015244357721744466 -0.0031107974763018849 0 0.015251124187270093 -0.0031081163494999413 0 0.015270781150886611 -0.0030868554102725576 0 0.015244357721744466 -0.0031107974763018849 0 0.015268405888441666 -0.0031130431802580891 0 0.015270781150886611 -0.0030868554102725576 0 0.015268405888441666 -0.0031130431802580891 0 0.015270781150886611 -0.0030868554102725576 0 0.015302699400318174 -0.0030831630748047647 0 0.015278630725707171 -0.0030726256752798414 0 0.015251124187270093 -0.0031081163494999413 0 0.015270781150886611 -0.0030868554102725576 0 0.015278630725707171 -0.0030726256752798414 0 0.015270781150886611 -0.0030868554102725576 0 0.015299585230328434 -0.0030633281520702177 0 0.01531627471801774 -0.0030378780434774564 0 0.015278630725707171 -0.0030726256752798414 0 0.015299585230328434 -0.0030633281520702177 0 0.01531627471801774 -0.0030378780434774564 0 0.015299585230328434 -0.0030633281520702177 0 0.01534034660301329 -0.003042464219913272 0 0.015270781150886611 -0.0030868554102725576 0 0.015299585230328434 -0.0030633281520702177 0 0.015302699400318174 -0.0030831630748047647 0 0.015299585230328434 -0.0030633281520702177 0 0.015302699400318174 -0.0030831630748047647 0 0.01534034660301329 -0.003042464219913272 0 0.01535892115891602 -0.0030685534950352453 0 0.01534034660301329 -0.003042464219913272 0 0.015408910211874667 -0.0030149051003925198 0 0.015302699400318174 -0.0030831630748047647 0 0.01535892115891602 -0.0030685534950352453 0 0.01534034660301329 -0.003042464219913272 0 0.01538995748060447 -0.0029883470631701468 0 0.01531627471801774 -0.0030378780434774564 0 0.01534034660301329 -0.003042464219913272 0 0.01538995748060447 -0.0029883470631701468 0 0.01534034660301329 -0.003042464219913272 0 0.015408910211874667 -0.0030149051003925198 0 0.01538995748060447 -0.0029883470631701468 0 0.015408910211874667 -0.0030149051003925198 0 0.015475874588758197 -0.002951357761090798 0 0.015408910211874667 -0.0030149051003925198 0 0.015475874588758197 -0.002951357761090798 0 0.015488005271245515 -0.0029954395420272294 0 0.015408910211874667 -0.0030149051003925198 0 0.015488005271245515 -0.0029954395420272294 0 0.01543107165758993 -0.0030593358042386321 0 0.015521773669785932 -0.0030511842419230972 0 0.015488005271245515 -0.0029954395420272294 0 0.01543107165758993 -0.0030593358042386321 0 0.01535892115891602 -0.0030685534950352453 0 0.015408910211874667 -0.0030149051003925198 0 0.01543107165758993 -0.0030593358042386321 0 0.01543107165758993 -0.0030593358042386321 0 0.015474787121505474 -0.0031085750377124305 0 0.015385677192331474 -0.0031149582323694953 0 0.01535892115891602 -0.0030685534950352453 0 0.01543107165758993 -0.0030593358042386321 0 0.015385677192331474 -0.0031149582323694953 0 0.015488554340391727 -0.0031977270774768232 0 0.015283059707559127 -0.0031456004089484811 0 0.015385677192331474 -0.0031149582323694953 0 0.015521773669785932 -0.0030511842419230972 0 0.01543107165758993 -0.0030593358042386321 0 0.015474787121505474 -0.0031085750377124305 0 0.015488554340391727 -0.0031977270774768232 0 0.015474787121505474 -0.0031085750377124305 0 0.015385677192331474 -0.0031149582323694953 0 0.015283059707559127 -0.0031456004089484811 0 0.015385677192331474 -0.0031149582323694953 0 0.015314762317886477 -0.0031049094046053829 0 0.015283059707559127 -0.0031456004089484811 0 0.015268405888441666 -0.0031130431802580891 0 0.015314762317886477 -0.0031049094046053829 0 0.015268405888441666 -0.0031130431802580891 0 0.015302699400318174 -0.0030831630748047647 0 0.015314762317886477 -0.0031049094046053829 0 0.01535892115891602 -0.0030685534950352453 0 0.015385677192331474 -0.0031149582323694953 0 0.015314762317886477 -0.0031049094046053829 0 0.015302699400318174 -0.0030831630748047647 0 0.01535892115891602 -0.0030685534950352453 0 0.015314762317886477 -0.0031049094046053829 0 0.015331583894928455 -0.0078131235803680921 0 0.014559476364689097 -0.0041680980071074712 0 0.016896804109505583 -0.005054845837654043 0 0.015331583894928455 -0.0078131235803680921 0 0.012834164278618519 -0.0076598951907219997 0 0.014559476364689097 -0.0041680980071074712 0 0.015331583894928455 -0.0078131235803680921 0 0.013775733752653419 -0.01078074698140777 0 0.012834164278618519 -0.0076598951907219997 0 0.015331583894928455 -0.0078131235803680921 0 0.018925896725619673 -0.0083957997757590705 0 0.016896804109505583 -0.005054845837654043 0 0.0035262661801919153 -0.011801472611521702 0 0.0021477672441114421 -0.013110533177021674 0 0.0019996507226125869 -0.010213888905737165 0 0.017186534424810308 -0.014164997370080347 0 0.018925896725619673 -0.0083957997757590705 0 0.015954563041143524 -0.010977394329054823 0 0.0019740539702461039 -0.013099486395220556 0 0.0063233762029026499 -0.0094862879059469732 0 0.009793858815109505 -0.01436655841036105 0 0.0063233762029026499 -0.0094862879059469732 0 0.0021477672441114421 -0.013110533177021674 0 0.0012217926031892826 -0.014544345968695428 0 0.0021829680368150861 -0.01034982297300456 0 0.015331583894928455 -0.0078131235803680921 0 0.018925896725619673 -0.0083957997757590705 0 0.015954563041143524 -0.010977394329054823 0 0.015331583894928455 -0.0078131235803680921 0 0.015954563041143524 -0.010977394329054823 0 0.013775733752653419 -0.01078074698140777 0 0.014585238324741788 -0.013454002348836714 0 0.015954563041143524 -0.010977394329054823 0 0.013775733752653419 -0.01078074698140777 0 0.012024271087638816 -0.013407817434679175 0 0.013775733752653419 -0.01078074698140777 0 0.011176141351577044 -0.0098542526773923861 0 0.013461315853543003 -0.010652303087045598 0 0.010644603785937692 -0.0094469186023825452 0 0.013775733752653419 -0.01078074698140777 0 0.010456765655647805 -0.009443719517152678 0 0.012834164278618519 -0.0076598951907219997 0 0.015270158530849445 -0.0031704171933378323 0 0.015242074725268041 -0.003125362892328109 0 0.015227212571793399 -0.003136124947958281 0 0.011947429930550044 -0.0085485737048293306 0 0.010846556529352574 -0.0060902283187502541 0 0.0087423587609137005 -0.014012139263063895 0 0.011176141351577044 -0.0098542526773923861 0 0.008436028759011182 -0.0087724305276405939 0 0.008882230704617633 -0.0070203378465414183 0 0.0071758712561999236 -0.0057039622875412598 0 0.010681329927233797 -0.0058638427829893775 0 0.010456765655647805 -0.009443719517152678 0 0.0072777508042324831 -0.0081583090411097518 0 0.008882230704617633 -0.0070203378465414183 0 0.010644603785937692 -0.0094469186023825452 0 0.010846556529352574 -0.0060902283187502541 0 0.010846556529352574 -0.0060902283187502541 0 0.011111749578604412 -0.0025169888628252331 0 0.0072777508042324831 -0.0081583090411097518 0 0.008882230704617633 -0.0070203378465414183 0 0.0071758712561999236 -0.0057039622875412598 0 0.010681329927233797 -0.0058638427829893775 0 0.012834164278618519 -0.0076598951907219997 0 0.014559476364689097 -0.0041680980071074712 0 0.010456765655647805 -0.009443719517152678 0 0.010681329927233797 -0.0058638427829893775 0 0.012834164278618519 -0.0076598951907219997 0 0.010456765655647805 -0.009443719517152678 0 0.008882230704617633 -0.0070203378465414183 0 0.010681329927233797 -0.0058638427829893775 0 0.010681329927233797 -0.0058638427829893775 0 0.012119865946386603 -0.0026256384210514316 0 0.014559476364689097 -0.0041680980071074712 0 0.0071758712561999236 -0.0057039622875412598 0 0.010681329927233797 -0.0058638427829893775 0 0.012119865946386603 -0.0026256384210514316 0 0.011052482177176436 -0.0020957539051146288 0 0.013020621692494443 -0.00088396280830888864 0 0.010943808850363832 0.00046157269787953437 0 0.011111749578604412 -0.0025169888628252331 0 0.012589983998129668 -0.0019803897258550535 0 0.011111749578604412 -0.0025169888628252331 0 0.011459590074974596 0.0018591920207522811 0 0.014056910680775197 -0.00084313796077995905 0 0.012468812951751364 0.0018436209152192158 0 0.010368344999375782 0.0016028784261228643 0 0.012589983998129668 -0.0019803897258550535 0 0.011459590074974596 0.0018591920207522811 0 0.012468812951751364 0.0018436209152192158 0 0.010368344999375782 0.0016028784261228643 0 0.010320998951162074 0.0030429138636258271 0 0.014056910680775197 -0.00084313796077995905 0 0.012468812951751364 0.0018436209152192158 0 0.01430807831584105 0.0013025694226365819 0 0.014056910680775197 -0.00084313796077995905 0 0.01430807831584105 0.0013025694226365819 0 0.016188466964167491 0.00041153852807944408 0 0.012468812951751364 0.0018436209152192158 0 0.01430807831584105 0.0013025694226365819 0 0.013532479876442235 0.002591882501796948 0 0.01430807831584105 0.0013025694226365819 0 0.016188466964167491 0.00041153852807944408 0 0.015301107135767768 0.0025236245987288334 0 0.015822399146267402 1.9628797253952803e-05 0 0.017994602866847013 0.0012600682286397001 0 0.016188466964167491 0.00041153852807944408 0 0.017050785698714439 0.0028221782321387204 0 0.015301107135767768 0.0025236245987288334 0 0.016188466964167491 0.00041153852807944408 0 0.018371911338842556 0.0014208279393360377 0 0.017050785698714439 0.0028221782321387204 0 0.015164883759761967 -0.00048763625829659516 0 0.016654234400716013 -0.0025004733447381165 0 0.017421516715591258 -0.00076588682028186014 0 0.012589983998129668 -0.0019803897258550535 0 0.015822399146267402 1.9628797253952803e-05 0 0.012589983998129668 -0.0019803897258550535 0 0.014166515878813773 -0.0037441312321756025 0 0.011941890007378046 -0.0024852795030208623 0 0.015164883759761967 -0.00048763625829659516 0 0.014559476364689097 -0.0041680980071074712 0 0.015164883759761967 -0.00048763625829659516 0 0.016654234400716013 -0.0025004733447381165 0 0.014559476364689097 -0.0041680980071074712 0 0.016654234400716013 -0.0025004733447381165 0 0.014559476364689097 -0.0041680980071074712 0 0.016896804109505583 -0.005054845837654043 0 0.0029576059290695551 -0.0056740130719460536 0 0.0021692578218482986 -0.0096875496721627562 0 0.002013967928289001 -0.0057826291796720299 0 0.018925896725619673 -0.0083957997757590705 0 0.016896804109505583 -0.005054845837654043 0 0.01918133073527677 -0.0020998751679130539 0 0.0063233762029026499 -0.0094862879059469732 0 0.011100617246695177 -0.0038163192455705152 0 0.0017624041478477095 -0.0062334330548493907 0 0.0063233762029026499 -0.0094862879059469732 0 0.016654234400716013 -0.0025004733447381165 0 0.01918133073527677 -0.0020998751679130539 0 0.017421516715591258 -0.00076588682028186014 0 0.016654234400716013 -0.0025004733447381165 0 0.016896804109505583 -0.005054845837654043 0 0.01918133073527677 -0.0020998751679130539 0 0.0028849972230312565 -0.0029700286250330184 0 0.002013967928289001 -0.0057826291796720299 0 0.0018306357756593783 -0.0013547904829006702 0 0.0028849972230312565 -0.0029700286250330184 0 0.0034383527551235982 -0.0043962643709521089 0 0.002013967928289001 -0.0057826291796720299 0 0.01918133073527677 -0.0020998751679130539 0 0.018371911338842556 0.0014208279393360377 0 0.019171020751935216 0.0036626792982752073 0 0.01918133073527677 -0.0020998751679130539 0 0.017421516715591258 -0.00076588682028186014 0 0.018371911338842556 0.0014208279393360377 0 0.011100617246695177 -0.0038163192455705152 0 0.010436438601850961 0.0011168019870083487 0 0.015164883759761967 -0.00048763625829659516 0 0.017421516715591258 -0.00076588682028186014 0 0.018371911338842556 0.0014208279393360377 0 0.019171020751935216 0.0036626792982752073 0 0.017050785698714439 0.0028221782321387204 0 0.017525717354337188 0.0050705287187755542 0 0.018371911338842556 0.0014208279393360377 0 0.019171020751935216 0.0036626792982752073 0 0.017050785698714439 0.0028221782321387204 0 0.017050785698714439 0.0028221782321387204 0 0.015301107135767768 0.0025236245987288334 0 0.016144946434773797 0.004170300860593442 0 0.015301107135767768 0.0025236245987288334 0 0.016144946434773797 0.004170300860593442 0 0.014332732069179293 0.004193454171276428 0 0.017050785698714439 0.0028221782321387204 0 0.016144946434773797 0.004170300860593442 0 0.017525717354337188 0.0050705287187755542 0 0.016144946434773797 0.004170300860593442 0 0.015689243050798281 0.0062929931934221665 0 0.017525717354337188 0.0050705287187755542 0 0.016144946434773797 0.004170300860593442 0 0.015689243050798281 0.0062929931934221665 0 0.014332732069179293 0.004193454171276428 0 0.015689243050798281 0.0062929931934221665 0 0.017525717354337188 0.0050705287187755542 0 0.01903636784606396 0.0079410305032403677 0 0.019171020751935216 0.0036626792982752073 0 0.017525717354337188 0.0050705287187755542 0 0.01903636784606396 0.0079410305032403677 0 0.010436438601850961 0.0011168019870083487 0 0.010367290522865252 0.0056742893119544396 0 0.010320998951162074 0.0030429138636258271 0 0.012411538618072966 0.0038852225937602231 0 0.011084019225071283 0.0054453238230712459 0 0.0093700684104817238 0.0045944747625087153 0 0.010320998951162074 0.0030429138636258271 0 0.011084019225071283 0.0054453238230712459 0 0.011459590074974596 0.0018591920207522811 0 0.010854900771999514 0.0026126086004262428 0 0.012468812951751364 0.0018436209152192158 0 0.010320998951162074 0.0030429138636258271 0 0.012411538618072966 0.0038852225937602231 0 0.012411538618072966 0.0038852225937602231 0 0.013532479876442235 0.002591882501796948 0 0.014332732069179293 0.004193454171276428 0 0.012468812951751364 0.0018436209152192158 0 0.012411538618072966 0.0038852225937602231 0 0.013532479876442235 0.002591882501796948 0 0.01430807831584105 0.0013025694226365819 0 0.015301107135767768 0.0025236245987288334 0 0.013532479876442235 0.002591882501796948 0 0.015301107135767768 0.0025236245987288334 0 0.013532479876442235 0.002591882501796948 0 0.014332732069179293 0.004193454171276428 0 0.015689243050798281 0.0062929931934221665 0 0.014332732069179293 0.004193454171276428 0 0.013367795195329215 0.0058813821559228182 0 0.015689243050798281 0.0062929931934221665 0 0.013367795195329215 0.0058813821559228182 0 0.013780541488033843 0.0076411664515290741 0 0.013367795195329215 0.0058813821559228182 0 0.012245755910497709 0.0068569717201429695 0 0.013780541488033843 0.0076411664515290741 0 0.012411538618072966 0.0038852225937602231 0 0.014332732069179293 0.004193454171276428 0 0.013367795195329215 0.0058813821559228182 0 0.012411538618072966 0.0038852225937602231 0 0.013367795195329215 0.0058813821559228182 0 0.011084019225071283 0.0054453238230712459 0 0.013367795195329215 0.0058813821559228182 0 0.012245755910497709 0.0068569717201429695 0 0.011084019225071283 0.0054453238230712459 0 0.012245755910497709 0.0068569717201429695 0 0.010832171169905081 0.0070843655301602287 0 0.011084019225071283 0.0054453238230712459 0 0.0087263600225384493 0.0062502839301725619 0 0.010832171169905081 0.0070843655301602287 0 0.011084019225071283 0.0054453238230712459 0 0.010832171169905081 0.0070843655301602287 0 0.010128194184871868 0.0089144502484510123 0 0.012176870857836529 0.0082466517188409787 0 0.012245755910497709 0.0068569717201429695 0 0.010832171169905081 0.0070843655301602287 0 0.012176870857836529 0.0082466517188409787 0 0.010128194184871868 0.0089144502484510123 0 0.012176870857836529 0.0082466517188409787 0 0.012487372126882767 0.010437395310496015 0 0.015689243050798281 0.0062929931934221665 0 0.013780541488033843 0.0076411664515290741 0 0.015452097747242712 0.0088908801991521118 0 0.012176870857836529 0.0082466517188409787 0 0.013789761044875623 0.0094177523812881952 0 0.013780541488033843 0.0076411664515290741 0 0.012176870857836529 0.0082466517188409787 0 0.013789761044875623 0.0094177523812881952 0 0.012487372126882767 0.010437395310496015 0 0.012245755910497709 0.0068569717201429695 0 0.012176870857836529 0.0082466517188409787 0 0.013780541488033843 0.0076411664515290741 0 0.013789761044875623 0.0094177523812881952 0 0.013780541488033843 0.0076411664515290741 0 0.015452097747242712 0.0088908801991521118 0 0.013789761044875623 0.0094177523812881952 0 0.015067492832788408 0.011928001473770595 0 0.015452097747242712 0.0088908801991521118 0 0.013789761044875623 0.0094177523812881952 0 0.015067492832788408 0.011928001473770595 0 0.012487372126882767 0.010437395310496015 0 0.015067492832788408 0.011928001473770595 0 0.014067094200301368 0.011785691090680948 0 0.014364808434928926 0.012400753709251406 0 0.014915147516180786 0.011937925584426986 0 0.013144077492257562 0.010981723785782906 0 0.014067094200301368 0.011785691090680948 0 0.013886518233964534 0.012319526398864069 0 0.013589959350108264 0.011854110112314247 0 0.014067094200301368 0.011785691090680948 0 0.013886518233964534 0.012319526398864069 0 0.014364808434928926 0.012400753709251406 0 0.013886518233964534 0.012319526398864069 0 0.013551559352520918 0.012220084163899069 0 0.013398767597759081 0.012552898189638272 0 0.013312383857209995 0.012153155401897419 0 0.013551559352520918 0.012220084163899069 0 0.013398767597759081 0.012552898189638272 0 0.013886518233964534 0.012319526398864069 0 0.013551559352520918 0.012220084163899069 0 0.013589959350108264 0.011854110112314247 0 0.013312383857209995 0.012153155401897419 0 0.013551559352520918 0.012220084163899069 0 0.013589959350108264 0.011854110112314247 0 0.013258897276870641 0.01185491488347826 0 0.013434786836417318 0.011592427340375699 0 0.013589959350108264 0.011854110112314247 0 0.013046133367356676 0.010651788619215658 0 0.013144077492257562 0.010981723785782906 0 0.013046133367356676 0.010651788619215658 0 0.013621158527158856 0.011847552905930746 0 0.013342925552107535 0.011432915007284094 0 0.014067094200301368 0.011785691090680948 0 0.013589959350108264 0.011854110112314247 0 0.015689243050798281 0.0062929931934221665 0 0.01903636784606396 0.0079410305032403677 0 0.015452097747242712 0.0088908801991521118 0 0.01903636784606396 0.0079410305032403677 0 0.015452097747242712 0.0088908801991521118 0 0.01700508342390248 0.01066928249297242 0 0.015067492832788408 0.011928001473770595 0 0.015452097747242712 0.0088908801991521118 0 0.01700508342390248 0.01066928249297242 0 0.010367290522865252 0.0056742893119544396 0 0.010218035529351327 0.010211821110596146 0 0.01903636784606396 0.0079410305032403677 0 0.01700508342390248 0.01066928249297242 0 0.018796906397696503 0.01186449136078316 0 0.010218035529351327 0.010211821110596146 0 0.010184782352394017 0.014510437478650679 0 0.018796906397696503 0.01186449136078316 0 0.016748575962602 0.013478574995258464 0 0.018655160084498492 0.015142001531654261 0 0.01700508342390248 0.01066928249297242 0 0.018796906397696503 0.01186449136078316 0 0.016748575962602 0.013478574995258464 0 0.015067492832788408 0.011928001473770595 0 0.01700508342390248 0.01066928249297242 0 0.016748575962602 0.013478574995258464 0 0.015067492832788408 0.011928001473770595 0 0.016748575962602 0.013478574995258464 0 0.014926312542314576 0.013531298559150161 0 0.016748575962602 0.013478574995258464 0 0.015905717941641473 0.014407268198506205 0 0.014926312542314576 0.013531298559150161 0 0.016748575962602 0.013478574995258464 0 0.015905717941641473 0.014407268198506205 0 0.016889096615371173 0.015400015228763697 0 0.015905717941641473 0.014407268198506205 0 0.016889096615371173 0.015400015228763697 0 0.015876806368770847 0.015633618199880499 0 0.015905717941641473 0.014407268198506205 0 0.015054198703174135 0.015014774860806155 0 0.015876806368770847 0.015633618199880499 0 0.016748575962602 0.013478574995258464 0 0.016889096615371173 0.015400015228763697 0 0.018655160084498492 0.015142001531654261 0 0.013602516010510914 0.012942218595364109 0 0.013908984264493737 0.013502408186818186 0 0.013363571576263892 0.013495040622022425 0 0.013602516010510914 0.012942218595364109 0 0.013363571576263892 0.013495040622022425 0 0.013221772302636275 0.012848608493706937 0 0.013886518233964534 0.012319526398864069 0 0.013602516010510914 0.012942218595364109 0 0.013398767597759081 0.012552898189638272 0 0.013602516010510914 0.012942218595364109 0 0.013398767597759081 0.012552898189638272 0 0.013221772302636275 0.012848608493706937 0 0.013886518233964534 0.012319526398864069 0 0.014113582075549176 0.013008586693419531 0 0.014364808434928926 0.012400753709251406 0 0.013886518233964534 0.012319526398864069 0 0.013602516010510914 0.012942218595364109 0 0.014113582075549176 0.013008586693419531 0 0.013602516010510914 0.012942218595364109 0 0.013908984264493737 0.013502408186818186 0 0.014113582075549176 0.013008586693419531 0 0.014113582075549176 0.013008586693419531 0 0.014364808434928926 0.012400753709251406 0 0.014926312542314576 0.013531298559150161 0 0.014113582075549176 0.013008586693419531 0 0.014926312542314576 0.013531298559150161 0 0.014319594929968864 0.013704950499928974 0 0.013908984264493737 0.013502408186818186 0 0.014113582075549176 0.013008586693419531 0 0.014319594929968864 0.013704950499928974 0 0.015067492832788408 0.011928001473770595 0 0.014364808434928926 0.012400753709251406 0 0.014926312542314576 0.013531298559150161 0 0.015054198703174135 0.015014774860806155 0 0.014271836508727487 0.014547248766962074 0 0.0134109998031331 0.014793362146906196 0 0.014965143412275764 0.015015919114740275 0 0.012940719874320673 0.014941514038148885 0 0.014926312542314576 0.013531298559150161 0 0.015054198703174135 0.015014774860806155 0 0.014271836508727487 0.014547248766962074 0 0.015905717941641473 0.014407268198506205 0 0.014926312542314576 0.013531298559150161 0 0.015054198703174135 0.015014774860806155 0 0.014926312542314576 0.013531298559150161 0 0.014271836508727487 0.014547248766962074 0 0.014319594929968864 0.013704950499928974 0 0.013908984264493737 0.013502408186818186 0 0.014271836508727487 0.014547248766962074 0 0.014319594929968864 0.013704950499928974 0 0.013908984264493737 0.013502408186818186 0 0.014271836508727487 0.014547248766962074 0 0.013363571576263892 0.013495040622022425 0 0.014299084080938485 0.01445222449203558 0 0.012976442883537585 0.013777898179148037 0 0.014271836508727487 0.014547248766962074 0 0.0134109998031331 0.014793362146906196 0 0.01307679989368641 0.014121251922464224 0 0.0134109998031331 0.014793362146906196 0 0.01307679989368641 0.014121251922464224 0 0.0125000247072729 0.014300417128103265 0 0.012752408581942 0.01531001925212659 0 0.012374017776147259 0.017181090239775952 0 0.010509266931981879 0.015454584182239963 0 0.012752408581942 0.01531001925212659 0 0.012374017776147259 0.017181090239775952 0 0.013961090001831806 0.016701192688322701 0 0.012374017776147259 0.017181090239775952 0 0.013961090001831806 0.016701192688322701 0 0.013997285514020432 0.01857465821610536 0 0.015054198703174135 0.015014774860806155 0 0.012752408581942 0.01531001925212659 0 0.013961090001831806 0.016701192688322701 0 0.015054198703174135 0.015014774860806155 0 0.01529503075882179 0.016505331203321313 0 0.015876806368770847 0.015633618199880499 0 0.015054198703174135 0.015014774860806155 0 0.013961090001831806 0.016701192688322701 0 0.01529503075882179 0.016505331203321313 0 0.013961090001831806 0.016701192688322701 0 0.01529503075882179 0.016505331203321313 0 0.015021524519143119 0.017563978130610131 0 0.015021524519143119 0.017563978130610131 0 0.013997285514020432 0.01857465821610536 0 0.015560446237224893 0.018943722412241553 0 0.013997285514020432 0.01857465821610536 0 0.015560446237224893 0.018943722412241553 0 0.014857949002631118 0.019971045908483184 0 0.013961090001831806 0.016701192688322701 0 0.015021524519143119 0.017563978130610131 0 0.013997285514020432 0.01857465821610536 0 0.013997285514020432 0.01857465821610536 0 0.012362371758281383 0.018864517432441465 0 0.012851358715996212 0.020466714613193722 0 0.012374017776147259 0.017181090239775952 0 0.013997285514020432 0.01857465821610536 0 0.012362371758281383 0.018864517432441465 0 0.010184782352394017 0.014510437478650679 0 0.010312131566191563 0.018654655927427554 0 0.018655160084498492 0.015142001531654261 0 0.017565067758606601 0.016823979192094128 0 0.018617807416550048 0.018359940025549023 0 0.0016957692168088096 0.013958928081030575 0 0.0019638412223668225 0.018776415846461419 0 0.0026498508304393402 0.017106689695375779 0 0.016889096615371173 0.015400015228763697 0 0.018655160084498492 0.015142001531654261 0 0.017565067758606601 0.016823979192094128 0 0.016889096615371173 0.015400015228763697 0 0.017565067758606601 0.016823979192094128 0 0.016280342216811003 0.017067668003477424 0 0.01529503075882179 0.016505331203321313 0 0.015876806368770847 0.015633618199880499 0 0.016280342216811003 0.017067668003477424 0 0.016889096615371173 0.015400015228763697 0 0.015876806368770847 0.015633618199880499 0 0.016280342216811003 0.017067668003477424 0 0.01529503075882179 0.016505331203321313 0 0.015021524519143119 0.017563978130610131 0 0.016280342216811003 0.017067668003477424 0 0.017565067758606601 0.016823979192094128 0 0.016280342216811003 0.017067668003477424 0 0.01703958408401288 0.018388114212453101 0 0.015021524519143119 0.017563978130610131 0 0.016280342216811003 0.017067668003477424 0 0.015560446237224893 0.018943722412241553 0 0.016280342216811003 0.017067668003477424 0 0.01703958408401288 0.018388114212453101 0 0.015560446237224893 0.018943722412241553 0 0.01703958408401288 0.018388114212453101 0 0.017482954155356344 0.019277490853386769 0 0.016409382685566389 0.019842641630931496 0 0.01703958408401288 0.018388114212453101 0 0.015560446237224893 0.018943722412241553 0 0.016409382685566389 0.019842641630931496 0 0.017482954155356344 0.019277490853386769 0 0.018617807416550048 0.018359940025549023 0 0.017657487455967895 0.02040188872073578 0 0.01703958408401288 0.018388114212453101 0 0.017482954155356344 0.019277490853386769 0 0.018617807416550048 0.018359940025549023 0 0.017565067758606601 0.016823979192094128 0 0.01703958408401288 0.018388114212453101 0 0.018617807416550048 0.018359940025549023 0 0.010312131566191563 0.018654655927427554 0 0.010160443428865316 0.021266073411650193 0 0.018617807416550048 0.018359940025549023 0 0.017657487455967895 0.02040188872073578 0 0.018568207387687326 0.021503916101323763 0 0.0019638412223668225 0.018776415846461419 0 0.0021664626455709574 0.022109971852707661 0 0.0032092758600559095 0.020383892978484475 0 0.010258900185003013 0.022951184081109282 0 0.010226680429635713 0.022452159493679298 0 0.010751723632404082 0.022408364663115698 0 0.010160443428865316 0.021266073411650193 0 0.010209219580471357 0.022721153576995355 0 0.017657487455967895 0.02040188872073578 0 0.018568207387687326 0.021503916101323763 0 0.015463234311063084 0.021997979204220523 0 0.010160443428865316 0.021266073411650193 0 0.014400974324281677 0.022479401587506262 0 0.010258900185003013 0.022951184081109282 0 0.011426056652041801 0.022879707473898708 0 0.010751723632404082 0.022408364663115698 0 0.017657487455967895 0.02040188872073578 0 0.015463234311063084 0.021997979204220523 0 0.016409382685566389 0.019842641630931496 0 0.015463234311063084 0.021997979204220523 0 0.016409382685566389 0.019842641630931496 0 0.014857949002631118 0.019971045908483184 0 0.017482954155356344 0.019277490853386769 0 0.017657487455967895 0.02040188872073578 0 0.016409382685566389 0.019842641630931496 0 0.015560446237224893 0.018943722412241553 0 0.016409382685566389 0.019842641630931496 0 0.014857949002631118 0.019971045908483184 0 0.015463234311063084 0.021997979204220523 0 0.014857949002631118 0.019971045908483184 0 0.012851358715996212 0.020466714613193722 0 0.013997285514020432 0.01857465821610536 0 0.014857949002631118 0.019971045908483184 0 0.012851358715996212 0.020466714613193722 0 0.012362371758281383 0.018864517432441465 0 0.012851358715996212 0.020466714613193722 0 0.011006266700961446 0.021013949514339849 0 0.012851358715996212 0.020466714613193722 0 0.012298636167720877 0.022462734732298088 0 0.011006266700961446 0.021013949514339849 0 0.015463234311063084 0.021997979204220523 0 0.012851358715996212 0.020466714613193722 0 0.012298636167720877 0.022462734732298088 0 0.011426056652041801 0.022879707473898708 0 0.012298636167720877 0.022462734732298088 0 0.011996470131559259 0.022450766048407931 0 0.014400974324281677 0.022479401587506262 0 0.011933849869308583 0.022496825645952522 0 0.011426056652041801 0.022879707473898708 0 0.011755589042408763 0.022114613855135454 0 0.011996470131559259 0.022450766048407931 0 0.011362999840947718 0.022628125774997392 0 0.011890226250648511 0.022796845650582404 0 0.012094085378997579 0.022659808745916808 0 0.011996470131559259 0.022450766048407931 0 0.011974837809074441 0.022834025462731878 0 0.011755589042408763 0.022114613855135454 0 0.011996470131559259 0.022450766048407931 0 0.011974837809074441 0.022834025462731878 0 0.012298636167720877 0.022462734732298088 0 0.012094085378997579 0.022659808745916808 0 0.011996470131559259 0.022450766048407931 0 0.011037680714534258 0.023130828221564152 0 0.011665362428928665 0.022814256129727328 0 0.011974837809074441 0.022834025462731878 0 0.011037680714534258 0.023130828221564152 0 0.011665362428928665 0.022814256129727328 0 0.011222290477034306 0.022734924752840193 0 0.011037680714534258 0.023130828221564152 0 0.010691017903815216 0.022802294643847316 0 0.011222290477034306 0.022734924752840193 0 0.011037680714534258 0.023130828221564152 0 0.010425754723423558 0.022959870987180452 0 0.010691017903815216 0.022802294643847316 0 0.011362999840947718 0.022628125774997392 0 0.010513363779892419 0.02244974348278761 0 0.01030001235982961 0.022717244128527627 0 0.010425754723423558 0.022959870987180452 0 0.010691017903815216 0.022802294643847316 0 0.010521701332678993 0.02192553151182337 0 0.010382049580329008 0.022253511816724005 0 0.010133763843915232 0.022242128638533698 0 0.010521701332678993 0.02192553151182337 0 0.010382049580329008 0.022253511816724005 0 0.010751723632404082 0.022408364663115698 0 0.010226680429635713 0.022452159493679298 0 0.010382049580329008 0.022253511816724005 0 0.010133763843915232 0.022242128638533698 0 0.010226680429635713 0.022452159493679298 0 0.010382049580329008 0.022253511816724005 0 0.010751723632404082 0.022408364663115698 0 0.011426056652041801 0.022879707473898708 0 0.011755589042408763 0.022114613855135454 0 0.010751723632404082 0.022408364663115698 0 0.011755589042408763 0.022114613855135454 0 0.010521701332678993 0.02192553151182337 0 0.010751723632404082 0.022408364663115698 0 0.012468342106983584 0.022807470363721934 0 0.012439511144710516 0.022869614034949748 0 0.012658852572768709 0.022752174134792309 0 0.012468342106983584 0.022807470363721934 0 0.012438839313083316 0.022807543680839041 0 0.012658852572768709 0.022752174134792309 0 0.012468342106983584 0.022807470363721934 0 0.012373793856275055 0.02280918731973507 0 0.012339459692106517 0.022799236530766712 0 0.012439511144710516 0.022869614034949748 0 0.012658852572768709 0.022752174134792309 0 0.012583823124064312 0.023067293017205077 0 0.012439511144710516 0.022869614034949748 0 0.012512060127789068 0.022785579802397964 0 0.012358592975244234 0.022828457461305664 0 0.012439511144710516 0.022869614034949748 0 0.012341026885023762 0.022814736742817095 0 0.012358592975244234 0.022828457461305664 0 0.012468342106983584 0.022807470363721934 0 0.012439511144710516 0.022869614034949748 0 0.012373793856275055 0.02280918731973507 0 0.012439511144710516 0.022869614034949748 0 0.012341026885023762 0.022814736742817095 0 0.012373793856275055 0.02280918731973507 0 0.012341026885023762 0.022814736742817095 0 0.012373793856275055 0.02280918731973507 0 0.012298188138817834 0.022780712820253173 0 0.012373793856275055 0.02280918731973507 0 0.012298188138817834 0.022780712820253173 0 0.012271156222010388 0.022787409766324856 0 0.012341026885023762 0.022814736742817095 0 0.012298188138817834 0.022780712820253173 0 0.01229754795458771 0.022811586987870686 0 0.012298188138817834 0.022780712820253173 0 0.012271156222010388 0.022787409766324856 0 0.012164292136421876 0.02273930479430223 0 0.012094130660954005 0.022783643809898863 0 0.012271156222010388 0.022787409766324856 0 0.012164292136421876 0.02273930479430223 0 0.012094130660954005 0.022783643809898863 0 0.011913262498361398 0.022738782512312844 0 0.012164292136421876 0.02273930479430223 0 0.012094130660954005 0.022783643809898863 0 0.012271156222010388 0.022787409766324856 0 0.012131334468623609 0.02278520877728743 0 0.012373793856275055 0.02280918731973507 0 0.012271156222010388 0.022787409766324856 0 0.012339459692106517 0.022799236530766712 0 0.012271156222010388 0.022787409766324856 0 0.012339459692106517 0.022799236530766712 0 0.012131334468623609 0.02278520877728743 0 0.011665362428928665 0.022814256129727328 0 0.01197395682164127 0.022809093659196138 0 0.011913262498361398 0.022738782512312844 0 0.012094130660954005 0.022783643809898863 0 0.01197395682164127 0.022809093659196138 0 0.011913262498361398 0.022738782512312844 0 0.01197395682164127 0.022809093659196138 0 0.011974837809074441 0.022834025462731878 0 0.012131334468623609 0.02278520877728743 0 0.012094130660954005 0.022783643809898863 0 0.01197395682164127 0.022809093659196138 0 0.012131334468623609 0.02278520877728743 0 0.011665362428928665 0.022814256129727328 0 0.01197395682164127 0.022809093659196138 0 0.011974837809074441 0.022834025462731878 0 0.011974837809074441 0.022834025462731878 0 0.011974613403274041 0.022782097397950139 0 0.012131334468623609 0.02278520877728743 0 0.012298636167720877 0.022462734732298088 0 0.012094085378997579 0.022659808745916808 0 0.011974613403274041 0.022782097397950139 0 0.012094085378997579 0.022659808745916808 0 0.011974837809074441 0.022834025462731878 0 0.011974613403274041 0.022782097397950139 0 0.011974613403274041 0.022782097397950139 0 0.012131334468623609 0.02278520877728743 0 0.012438839313083316 0.022807543680839041 0 0.012339459692106517 0.022799236530766712 0 0.012131334468623609 0.02278520877728743 0 0.012438839313083316 0.022807543680839041 0 0.012468342106983584 0.022807470363721934 0 0.012339459692106517 0.022799236530766712 0 0.012438839313083316 0.022807543680839041 0 0.012438839313083316 0.022807543680839041 0 0.012636120557932985 0.022800773526356358 0 0.012775002017735687 0.022759076675773027 0 0.011937649020074945 0.022634754555694338 0 0.011845417390110868 0.021830475772194168 0 0.011974613403274041 0.022782097397950139 0 0.012438839313083316 0.022807543680839041 0 0.012636120557932985 0.022800773526356358 0 0.012298636167720877 0.022462734732298088 0 0.011974613403274041 0.022782097397950139 0 0.011006266700961446 0.021013949514339849 0 0.011845417390110868 0.021830475772194168 0 0.011755180375420846 0.020407276090137316 0 0.012775002017735687 0.022759076675773027 0 0.013158716849616572 0.022685819223137053 0 0.012922719781694908 0.022683419811593827 0 0.012636120557932985 0.022800773526356358 0 0.012775002017735687 0.022759076675773027 0 0.012922719781694908 0.022683419811593827 0 0.012775002017735687 0.022759076675773027 0 0.012658852572768709 0.022752174134792309 0 0.013114349560463649 0.022911500903645222 0 0.012775002017735687 0.022759076675773027 0 0.013114349560463649 0.022911500903645222 0 0.013158716849616572 0.022685819223137053 0 0.012438839313083316 0.022807543680839041 0 0.012775002017735687 0.022759076675773027 0 0.012658852572768709 0.022752174134792309 0 0.012696684073286533 0.022740071416594839 0 0.013024038316820327 0.022685342181272394 0 0.012658852572768709 0.022752174134792309 0 0.013114349560463649 0.022911500903645222 0 0.013390214868125219 0.02229056685607228 0 0.013433223770891191 0.022729536173075618 0 0.013158716849616572 0.022685819223137053 0 0.013476026040669156 0.022422932506196182 0 0.013114349560463649 0.022911500903645222 0 0.013433223770891191 0.022729536173075618 0 0.013158716849616572 0.022685819223137053 0 0.013158716849616572 0.022685819223137053 0 0.013476026040669156 0.022422932506196182 0 0.013114723876570927 0.022565153577806973 0 0.013476026040669156 0.022422932506196182 0 0.013230904270984115 0.022568298711711194 0 0.013621775820047987 0.022161413563544338 0 0.013476026040669156 0.022422932506196182 0 0.013114723876570927 0.022565153577806973 0 0.013230904270984115 0.022568298711711194 0 0.013847602044390839 0.021970941674678345 0 0.013476026040669156 0.022422932506196182 0 0.013621775820047987 0.022161413563544338 0 0.013433223770891191 0.022729536173075618 0 0.013847602044390839 0.021970941674678345 0 0.013476026040669156 0.022422932506196182 0 0.012636120557932985 0.022800773526356358 0 0.012991200662157332 0.022606345550902695 0 0.012922719781694908 0.022683419811593827 0 0.012362371758281383 0.018864517432441465 0 0.011006266700961446 0.021013949514339849 0 0.010643616906378769 0.018193835552642305 0 0.012374017776147259 0.017181090239775952 0 0.012362371758281383 0.018864517432441465 0 0.010643616906378769 0.018193835552642305 0 0.013158716849616572 0.022685819223137053 0 0.012922719781694908 0.022683419811593827 0 0.013114723876570927 0.022565153577806973 0 0.012991200662157332 0.022606345550902695 0 0.012922719781694908 0.022683419811593827 0 0.013114723876570927 0.022565153577806973 0 0.012991200662157332 0.022606345550902695 0 0.013114723876570927 0.022565153577806973 0 0.013069896829343085 0.022589878418363449 0 0.013114723876570927 0.022565153577806973 0 0.013069896829343085 0.022589878418363449 0 0.013230904270984115 0.022568298711711194 0 0.011755180375420846 0.020407276090137316 0 0.012481406569165415 0.018929645988715063 0 0.012374017776147259 0.017181090239775952 0 0.010643616906378769 0.018193835552642305 0 0.010509266931981879 0.015454584182239963 0 0.012481406569165415 0.018929645988715063 0 0.013461850068020984 0.016293055354833583 0 0.012119715246851247 0.014854536164450203 0 0.0125000247072729 0.014300417128103265 0 0.012089350232160272 0.01375122890450115 0 0.012940719874320673 0.014941514038148885 0 0.012481406569165415 0.018929645988715063 0 0.0134109998031331 0.014793362146906196 0 0.012119715246851247 0.014854536164450203 0 0.0125000247072729 0.014300417128103265 0 0.01307679989368641 0.014121251922464224 0 0.0125000247072729 0.014300417128103265 0 0.012089350232160272 0.01375122890450115 0 0.014048944155188861 0.02202414256396263 0 0.01390043562640577 0.021938313293850754 0 0.014047241577547744 0.021843524546320034 0 0.012481406569165415 0.018929645988715063 0 0.013723892683211272 0.022443097994532171 0 0.014048944155188861 0.02202414256396263 0 0.01390043562640577 0.021938313293850754 0 0.013847737414631772 0.022082404121616727 0 0.012840581166518572 0.012479495584418129 0 0.012937359875278189 0.012871859430183558 0 0.012285115960811695 0.012441823655584772 0 0.01390043562640577 0.021938313293850754 0 0.014047241577547744 0.021843524546320034 0 0.013815524032325012 0.021752767995990224 0 0.013461850068020984 0.016293055354833583 0 0.013116657808631955 0.017374533557309502 0 0.012840581166518572 0.012479495584418129 0 0.012937359875278189 0.012871859430183558 0 0.012932526600005411 0.012801045008183055 0 0.013461850068020984 0.016293055354833583 0 0.013427567550815735 0.015798589608147649 0 0.012906891011238803 0.012884442888043832 0 0.012983226473932801 0.012828324421057205 0 0.013078700853273265 0.01293335064784272 0 0.012906891011238803 0.012884442888043832 0 0.012983226473932801 0.012828324421057205 0 0.012932526600005411 0.012801045008183055 0 0.012983226473932801 0.012828324421057205 0 0.013019202825751293 0.012697296106728664 0 0.013078700853273265 0.01293335064784272 0 0.012983226473932801 0.012828324421057205 0 0.012932526600005411 0.012801045008183055 0 0.013019202825751293 0.012697296106728664 0 0.012840581166518572 0.012479495584418129 0 0.012932526600005411 0.012801045008183055 0 0.013019202825751293 0.012697296106728664 0 0.012840581166518572 0.012479495584418129 0 0.013019202825751293 0.012697296106728664 0 0.013116880694567394 0.012450074915421416 0 0.013398767597759081 0.012552898189638272 0 0.013116880694567394 0.012450074915421416 0 0.013221772302636275 0.012848608493706937 0 0.013019202825751293 0.012697296106728664 0 0.013116880694567394 0.012450074915421416 0 0.013221772302636275 0.012848608493706937 0 0.013363571576263892 0.013495040622022425 0 0.013221772302636275 0.012848608493706937 0 0.013078700853273265 0.01293335064784272 0 0.013363571576263892 0.013495040622022425 0 0.012906891011238803 0.012884442888043832 0 0.013078700853273265 0.01293335064784272 0 0.012976442883537585 0.013777898179148037 0 0.013461850068020984 0.016293055354833583 0 0.013019202825751293 0.012697296106728664 0 0.013221772302636275 0.012848608493706937 0 0.013078700853273265 0.01293335064784272 0 0.013847602044390839 0.021970941674678345 0 0.013621775820047987 0.022161413563544338 0 0.013528415375551306 0.021978990717201139 0 0.013847602044390839 0.021970941674678345 0 0.015085570389389813 0.018959479018375445 0 0.01330056836737597 0.020172285832615388 0 0.013960810035906875 0.021513328438404498 0 0.014351694009135389 0.02105985284038428 0 0.013621775820047987 0.022161413563544338 0 0.013724312407109964 0.02196889820891677 0 0.013528415375551306 0.021978990717201139 0 0.01390043562640577 0.021938313293850754 0 0.013847737414631772 0.022082404121616727 0 0.013724312407109964 0.02196889820891677 0 0.013723892683211272 0.022443097994532171 0 0.013508747359381445 0.022198715051460646 0 0.013847737414631772 0.022082404121616727 0 0.013621775820047987 0.022161413563544338 0 0.013724312407109964 0.02196889820891677 0 0.013515725025777482 0.021602654761318427 0 0.013724312407109964 0.02196889820891677 0 0.013815524032325012 0.021752767995990224 0 0.01390043562640577 0.021938313293850754 0 0.013724312407109964 0.02196889820891677 0 0.013815524032325012 0.021752767995990224 0 0.013515725025777482 0.021602654761318427 0 0.013724312407109964 0.02196889820891677 0 0.013528415375551306 0.021978990717201139 0 0.01259376039019155 0.015550408760422451 0 0.014351694009135389 0.02105985284038428 0 0.015440318806731792 0.015767110635979638 0 0.015085570389389813 0.018959479018375445 0 0.01374916165635701 0.017268472269610025 0 0.01374916165635701 0.017268472269610025 0 0.01330056836737597 0.020172285832615388 0 0.011895652624129237 0.018085685683698439 0 0.015085570389389813 0.018959479018375445 0 0.01374916165635701 0.017268472269610025 0 0.01330056836737597 0.020172285832615388 0 0.011895652624129237 0.018085685683698439 0 0.010260729788437041 0.019238915777571849 0 0.012055283510000766 0.021302605757205245 0 0.01330056836737597 0.020172285832615388 0 0.011895652624129237 0.018085685683698439 0 0.012055283510000766 0.021302605757205245 0 0.010189440393251084 0.015930088440638913 0 0.011895652624129237 0.018085685683698439 0 0.010260729788437041 0.019238915777571849 0 0.010189440393251084 0.015930088440638913 0 0.0084494673176793936 0.017576965007421747 0 0.010260729788437041 0.019238915777571849 0 0.0084494673176793936 0.017576965007421747 0 0.0063344934723975075 0.016428945678893365 0 0.0051008630484059049 0.019132804524147271 0 0.0077338221664574325 0.015460456637592525 0 0.0084494673176793936 0.017576965007421747 0 0.0063344934723975075 0.016428945678893365 0 0.0084494673176793936 0.017576965007421747 0 0.0078315257965858084 0.021504732748064206 0 0.0051008630484059049 0.019132804524147271 0 0.011694298460197873 0.020552540130503505 0 0.0086766340391714967 0.017608356438626481 0 0.0084494673176793936 0.017576965007421747 0 0.010260729788437041 0.019238915777571849 0 0.0078315257965858084 0.021504732748064206 0 0.010260729788437041 0.019238915777571849 0 0.0078315257965858084 0.021504732748064206 0 0.012055283510000766 0.021302605757205245 0 0.010370190351450979 0.021567306565455639 0 0.011487270332858748 0.022505308870594414 0 0.012055283510000766 0.021302605757205245 0 0.011694298460197873 0.020552540130503505 0 0.010805850464634618 0.021608124045817176 0 0.011694298460197873 0.020552540130503505 0 0.013542183161168252 0.023970393973423463 0 0.011694298460197873 0.020552540130503505 0 0.015640896880310333 0.020280009094864371 0 0.015791090281142107 0.025329209617096574 0 0.016465327320772737 0.024728109392164611 0 0.014735717422233556 0.024581048863579192 0 0.015791090281142107 0.025329209617096574 0 0.016465327320772737 0.024728109392164611 0 0.017091409697037169 0.025115361141895345 0 0.016465327320772737 0.024728109392164611 0 0.016440956528099997 0.02394972220346778 0 0.014735717422233556 0.024581048863579192 0 0.016440956528099997 0.02394972220346778 0 0.014735717422233556 0.024581048863579192 0 0.015095114888233912 0.02309846011558634 0 0.011487270332858748 0.022505308870594414 0 0.013334907297799651 0.023376921557569916 0 0.013002213426787451 0.022246451455640602 0 0.014735717422233556 0.024581048863579192 0 0.013334907297799651 0.023376921557569916 0 0.015095114888233912 0.02309846011558634 0 0.013542183161168252 0.023970393973423463 0 0.013084997559865813 0.023243554474690929 0 0.013114349560463649 0.022911500903645222 0 0.013433223770891191 0.022729536173075618 0 0.013334907297799651 0.023376921557569916 0 0.013433223770891191 0.022729536173075618 0 0.013334907297799651 0.023376921557569916 0 0.013002213426787451 0.022246451455640602 0 0.013847602044390839 0.021970941674678345 0 0.01330056836737597 0.020172285832615388 0 0.013002213426787451 0.022246451455640602 0 0.01330056836737597 0.020172285832615388 0 0.013002213426787451 0.022246451455640602 0 0.012055283510000766 0.021302605757205245 0 0.013433223770891191 0.022729536173075618 0 0.013847602044390839 0.021970941674678345 0 0.013002213426787451 0.022246451455640602 0 0.011487270332858748 0.022505308870594414 0 0.013002213426787451 0.022246451455640602 0 0.012055283510000766 0.021302605757205245 0 0.016923270419984194 0.0087074071535670518 0 0.019161353208422657 0.014063302914201927 0 0.015776126174134656 0.016183708186845395 0 0.015339808081968238 0.015418021662092444 0 0.016125414995038379 0.015132614845313558 0 0.015776126174134656 0.016183708186845395 0 0.014934305355344173 0.015962858564542364 0 0.015339808081968238 0.015418021662092444 0 0.015502578246392817 0.0056698765685238581 0 0.016923270419984194 0.0087074071535670518 0 0.018487122545780232 0.0020617485492107493 0 0.01924990887038493 0.0028634721518442856 0 0.019696063506141625 0.0022241794363633684 0 0.017777643544735839 0.0041745894256993198 0 0.018487122545780232 0.0020617485492107493 0 0.018543363350107273 0.0032852189093826524 0 0.018487122545780232 0.0020617485492107493 0 0.018543363350107273 0.0032852189093826524 0 0.01924990887038493 0.0028634721518442856 0 0.019467561643899491 0.0036260226744306784 0 0.018543363350107273 0.0032852189093826524 0 0.01924990887038493 0.0028634721518442856 0 0.013800753186088408 0.010862279076427195 0 0.014722123402902925 0.0080152930793738423 0 0.013029526609989028 0.0089066765245001435 0 0.013800753186088408 0.010862279076427195 0 0.013029526609989028 0.0089066765245001435 0 0.011338225016449082 0.0098143656966821202 0 0.016923270419984194 0.0087074071535670518 0 0.014134653344434339 0.012656809907775053 0 0.014134653344434339 0.012656809907775053 0 0.0082991399572543961 0.014844140372427534 0 0.014851657153901309 0.016667801128685274 0 0.014354661759483156 0.016324429986548723 0 0.013943824201812239 0.017115273315461095 0 0.014934305355344173 0.015962858564542364 0 0.014273976026735599 0.015729318269420912 0 0.014354661759483156 0.016324429986548723 0 0.014851657153901309 0.016667801128685274 0 0.014934305355344173 0.015962858564542364 0 0.014354661759483156 0.016324429986548723 0 0.015776126174134656 0.016183708186845395 0 0.014851657153901309 0.016667801128685274 0 0.014934305355344173 0.015962858564542364 0 0.014934305355344173 0.015962858564542364 0 0.014732931968648708 0.015490178221672047 0 0.015339808081968238 0.015418021662092444 0 0.014934305355344173 0.015962858564542364 0 0.014732931968648708 0.015490178221672047 0 0.014273976026735599 0.015729318269420912 0 0.014273976026735599 0.015729318269420912 0 0.013785475030461618 0.016138883599064451 0 0.013209758237085079 0.015325462287399168 0 0.014273976026735599 0.015729318269420912 0 0.013785475030461618 0.016138883599064451 0 0.014354661759483156 0.016324429986548723 0 0.013785475030461618 0.016138883599064451 0 0.014354661759483156 0.016324429986548723 0 0.013943824201812239 0.017115273315461095 0 0.013785475030461618 0.016138883599064451 0 0.013943824201812239 0.017115273315461095 0 0.012903174676451466 0.01626544233120689 0 0.0082991399572543961 0.014844140372427534 0 0.0086766340391714967 0.017608356438626481 0 0.0063344934723975075 0.016428945678893365 0 0.0048616958115171019 0.016828506352891612 0 0.0051008630484059049 0.019132804524147271 0 0.0022930252150948128 0.016784971740618982 0 0.0048616958115171019 0.016828506352891612 0 0.0051008630484059049 0.019132804524147271 0 0.013785475030461618 0.016138883599064451 0 0.012903174676451466 0.01626544233120689 0 0.013209758237085079 0.015325462287399168 0 0.011895971965970014 0.01549379061084573 0 0.012903174676451466 0.01626544233120689 0 0.013209758237085079 0.015325462287399168 0 0.016465327320772737 0.024728109392164611 0 0.017091409697037169 0.025115361141895345 0 0.01752249818214343 0.024387449628670562 0 0.016440956528099997 0.02394972220346778 0 0.017999834903868066 0.02428395081504884 0 0.017400876696320358 0.023444282961203312 0 0.016418308325273221 0.023853827818739869 0 0.017908310504676537 0.02470225029719509 0 0.016465327320772737 0.024728109392164611 0 0.016440956528099997 0.02394972220346778 0 0.01752249818214343 0.024387449628670562 0 0.017999834903868066 0.02428395081504884 0 0.018873559012358713 0.023759145663942556 0 0.018202849977795636 0.023256194821324398 0 0.017091409697037169 0.025115361141895345 0 0.01752249818214343 0.024387449628670562 0 0.01814812842592706 0.024950011969283203 0 0.013209758237085079 0.015325462287399168 0 0.014609203437162021 0.015141680219425861 0 0.014508417885876927 0.015200713407798886 0 0.014273976026735599 0.015729318269420912 0 0.013209758237085079 0.015325462287399168 0 0.014508417885876927 0.015200713407798886 0 0.015640896880310333 0.020280009094864371 0 0.01607912343662592 0.019116088320352588 0 0.017908310504676537 0.02470225029719509 0 0.018605512273349414 0.0217794936860101 0 0.01607912343662592 0.019116088320352588 0 0.017841238024787234 0.016689271812042099 0 0.016662330773815504 0.018789921685120205 0 0.017373028801310537 0.018395125966890972 0 0.018128259471887075 0.018660648589481542 0 0.01752249818214343 0.024387449628670562 0 0.01814812842592706 0.024950011969283203 0 0.018535515745387341 0.024724194724221691 0 0.014614188544537079 0.015136179637535135 0 0.015767161540693464 0.01500872661407132 0 0.015339808081968238 0.015418021662092444 0 0.014732931968648708 0.015490178221672047 0 0.014273976026735599 0.015729318269420912 0 0.014508417885876927 0.015200713407798886 0 0.01607912343662592 0.019116088320352588 0 0.016069862385119 0.018939832318440295 0 0.014732931968648708 0.015490178221672047 0 0.014614188544537079 0.015136179637535135 0 0.014508417885876927 0.015200713407798886 0 0.014732931968648708 0.015490178221672047 0 0.014614188544537079 0.015136179637535135 0 0.015339808081968238 0.015418021662092444 0 0.01607912343662592 0.019116088320352588 0 0.018605512273349414 0.0217794936860101 0 0.019316894923248781 0.024596099859190295 0 0.018873559012358713 0.023759145663942556 0 0.019632022213793579 0.02361114644190131 0 0.017999834903868066 0.02428395081504884 0 0.019316894923248781 0.024596099859190295 0 0.018873559012358713 0.023759145663942556 0 0.018873559012358713 0.023759145663942556 0 0.019632022213793579 0.02361114644190131 0 0.019242601748040291 0.023071695783464442 0 0.019316894923248781 0.024596099859190295 0 0.019632022213793579 0.02361114644190131 0 0.020540313446036029 0.023831913498333256 0 0.018605512273349414 0.0217794936860101 0 0.0202960188297234 0.019648097263939478 0 0.019632022213793579 0.02361114644190131 0 0.020238271635462012 0.02345437075242314 0 0.020540313446036029 0.023831913498333256 0 0.019632022213793579 0.02361114644190131 0 0.020238271635462012 0.02345437075242314 0 0.019905301535016559 0.023037773401871325 0 0.018843706071658951 0.019195968900559208 0 0.019275996297618687 0.01934439824504049 0 0.019778232539473681 0.018684541380349723 0 0.01957355201303343 0.019317822616758733 0 0.019275996297618687 0.01934439824504049 0 0.019778232539473681 0.018684541380349723 0 0.018605512273349414 0.0217794936860101 0 0.017841238024787234 0.016689271812042099 0 0.015767161540693464 0.01500872661407132 0 0.015339808081968238 0.015418021662092444 0 0.016125414995038379 0.015132614845313558 0 0.020035348132937413 0.015550807190891256 0 0.019161353208422657 0.014063302914201927 0 0.019802020261884382 0.015799722821107073 0 0.018226368266924534 0.015919513319626551 0 0.01960737884731642 0.016424067670411324 0 0.017841238024787234 0.016689271812042099 0 0.019161353208422657 0.014063302914201927 0 0.020035348132937413 0.015550807190891256 0 0.017841238024787234 0.016689271812042099 0 0.020241473038139432 0.021804196588156157 0 0.019637883486676201 0.022430054151128982 0 0.01935298234430418 0.0218738417851378 0 0.020241473038139432 0.021804196588156157 0 0.019637883486676201 0.022430054151128982 0 0.020278976226523641 0.022457081506732351 0 0.019637883486676201 0.022430054151128982 0 0.020278976226523641 0.022457081506732351 0 0.019905301535016559 0.023037773401871325 0 0.020278976226523641 0.022457081506732351 0 0.019905301535016559 0.023037773401871325 0 0.020524510480468602 0.022907845073264078 0 0.020238271635462012 0.02345437075242314 0 0.019905301535016559 0.023037773401871325 0 0.020524510480468602 0.022907845073264078 0 0.019632022213793579 0.02361114644190131 0 0.019905301535016559 0.023037773401871325 0 0.019242601748040291 0.023071695783464442 0 0.019637883486676201 0.022430054151128982 0 0.019905301535016559 0.023037773401871325 0 0.019242601748040291 0.023071695783464442 0 0.019242601748040291 0.023071695783464442 0 0.0188226215970933 0.022571774306849212 0 0.018202849977795636 0.023256194821324398 0 0.019637883486676201 0.022430054151128982 0 0.019242601748040291 0.023071695783464442 0 0.0188226215970933 0.022571774306849212 0 0.018873559012358713 0.023759145663942556 0 0.019242601748040291 0.023071695783464442 0 0.018202849977795636 0.023256194821324398 0 0.0188226215970933 0.022571774306849212 0 0.018383791243465068 0.022240828618615278 0 0.01935298234430418 0.0218738417851378 0 0.019637883486676201 0.022430054151128982 0 0.0188226215970933 0.022571774306849212 0 0.01935298234430418 0.0218738417851378 0 0.0188226215970933 0.022571774306849212 0 0.018383791243465068 0.022240828618615278 0 0.017724367544263278 0.022821258230003114 0 0.017999834903868066 0.02428395081504884 0 0.018202849977795636 0.023256194821324398 0 0.017400876696320358 0.023444282961203312 0 0.0188226215970933 0.022571774306849212 0 0.018202849977795636 0.023256194821324398 0 0.017724367544263278 0.022821258230003114 0 0.018202849977795636 0.023256194821324398 0 0.017400876696320358 0.023444282961203312 0 0.017724367544263278 0.022821258230003114 0 0.016440956528099997 0.02394972220346778 0 0.017400876696320358 0.023444282961203312 0 0.01660771121551002 0.022994643774627829 0 0.017400876696320358 0.023444282961203312 0 0.017724367544263278 0.022821258230003114 0 0.01660771121551002 0.022994643774627829 0 0.017175637143157053 0.022495180392913917 0 0.017724367544263278 0.022821258230003114 0 0.01660771121551002 0.022994643774627829 0 0.018383791243465068 0.022240828618615278 0 0.017175637143157053 0.022495180392913917 0 0.017724367544263278 0.022821258230003114 0 0.017175637143157053 0.022495180392913917 0 0.018393011220269505 0.021715386483915723 0 0.016470288148346786 0.022325567867892318 0 0.018383791243465068 0.022240828618615278 0 0.017175637143157053 0.022495180392913917 0 0.018393011220269505 0.021715386483915723 0 0.017412216652163182 0.021384588159638677 0 0.018393011220269505 0.021715386483915723 0 0.019203454783242917 0.020967799242529863 0 0.017412216652163182 0.021384588159638677 0 0.018393011220269505 0.021715386483915723 0 0.016470288148346786 0.022325567867892318 0 0.018393011220269505 0.021715386483915723 0 0.019206086436892911 0.021253955568308131 0 0.019203454783242917 0.020967799242529863 0 0.018393011220269505 0.021715386483915723 0 0.01884244723454908 0.021743541758208397 0 0.019206086436892911 0.021253955568308131 0 0.020886460764838324 0.022004252401419806 0 0.019216440484378032 0.020966437134517998 0 0.018383791243465068 0.022240828618615278 0 0.018393011220269505 0.021715386483915723 0 0.01884244723454908 0.021743541758208397 0 0.018383791243465068 0.022240828618615278 0 0.01884244723454908 0.021743541758208397 0 0.01935298234430418 0.0218738417851378 0 0.01935298234430418 0.0218738417851378 0 0.019206086436892911 0.021253955568308131 0 0.01993262349895808 0.021417096701031698 0 0.01884244723454908 0.021743541758208397 0 0.01935298234430418 0.0218738417851378 0 0.019206086436892911 0.021253955568308131 0 0.02538128918593769 0.014656749354698018 0 0.025242320739674515 0.014855968855229449 0 0.025096870289042499 0.014784202193763727 0 0.020886460764838324 0.022004252401419806 0 0.022215351216350564 0.019932046056875038 0 0.022215351216350564 0.019932046056875038 0 0.024912086057637724 0.017625500148704683 0 0.022334252251236673 0.022298948091134457 0 0.024679871487917601 0.023282632410404076 0 0.024114105996801447 0.020634596081858823 0 0.020004289324502121 0.02189784934008189 0 0.022215351216350564 0.019932046056875038 0 0.020241473038139432 0.021804196588156157 0 0.01935298234430418 0.0218738417851378 0 0.01993262349895808 0.021417096701031698 0 0.013903077378843812 0.022753043003472698 0 0.013390214868125219 0.02229056685607228 0 0.01482579167500637 0.02190745477452161 0 0.013903077378843812 0.022753043003472698 0 0.015095114888233912 0.02309846011558634 0 0.01482579167500637 0.02190745477452161 0 0.013114349560463649 0.022911500903645222 0 0.013903077378843812 0.022753043003472698 0 0.013390214868125219 0.02229056685607228 0 0.013114349560463649 0.022911500903645222 0 0.013334907297799651 0.023376921557569916 0 0.013903077378843812 0.022753043003472698 0 0.013334907297799651 0.023376921557569916 0 0.013903077378843812 0.022753043003472698 0 0.015095114888233912 0.02309846011558634 0 0.016440956528099997 0.02394972220346778 0 0.015095114888233912 0.02309846011558634 0 0.01660771121551002 0.022994643774627829 0 0.015095114888233912 0.02309846011558634 0 0.01660771121551002 0.022994643774627829 0 0.015830750667781699 0.022467372156412282 0 0.017175637143157053 0.022495180392913917 0 0.01660771121551002 0.022994643774627829 0 0.015830750667781699 0.022467372156412282 0 0.015095114888233912 0.02309846011558634 0 0.015830750667781699 0.022467372156412282 0 0.01482579167500637 0.02190745477452161 0 0.015830750667781699 0.022467372156412282 0 0.01482579167500637 0.02190745477452161 0 0.016470288148346786 0.022325567867892318 0 0.01338667305036027 0.0233149446799116 0 0.016470288148346786 0.022325567867892318 0 0.01470911243485421 0.022044893235063555 0 0.014154193700557908 0.022608765757905935 0 0.016262495330628655 0.02232971403544368 0 0.017175637143157053 0.022495180392913917 0 0.015830750667781699 0.022467372156412282 0 0.016470288148346786 0.022325567867892318 0 0.017412216652163182 0.021384588159638677 0 0.01470911243485421 0.022044893235063555 0 0.017395107118289073 0.019382211729365197 0 0.017412216652163182 0.021384588159638677 0 0.016470288148346786 0.022325567867892318 0 0.01470911243485421 0.022044893235063555 0 0.01470911243485421 0.022044893235063555 0 0.013335673297628577 0.022485292278566948 0 0.013292351465332895 0.022363929283575723 0 0.01338667305036027 0.0233149446799116 0 0.01470911243485421 0.022044893235063555 0 0.013335673297628577 0.022485292278566948 0 0.013335673297628577 0.022485292278566948 0 0.012715383158859254 0.022824059353925029 0 0.012849343984527688 0.022605596742269515 0 0.01338667305036027 0.0233149446799116 0 0.013335673297628577 0.022485292278566948 0 0.012715383158859254 0.022824059353925029 0 0.012583823124064312 0.023067293017205077 0 0.01338667305036027 0.0233149446799116 0 0.012715383158859254 0.022824059353925029 0 0.013024038316820327 0.022685342181272394 0 0.014154193700557908 0.022608765757905935 0 0.012439511144710516 0.022869614034949748 0 0.012583823124064312 0.023067293017205077 0 0.012715383158859254 0.022824059353925029 0 0.012439511144710516 0.022869614034949748 0 0.012715383158859254 0.022824059353925029 0 0.012512060127789068 0.022785579802397964 0 0.012715383158859254 0.022824059353925029 0 0.012512060127789068 0.022785579802397964 0 0.012849343984527688 0.022605596742269515 0 0.012564274149407112 0.022747058269153842 0 0.012735696149310213 0.022655386926577495 0 0.012849343984527688 0.022605596742269515 0 0.012512060127789068 0.022785579802397964 0 0.012564274149407112 0.022747058269153842 0 0.012849343984527688 0.022605596742269515 0 0.012512060127789068 0.022785579802397964 0 0.012564274149407112 0.022747058269153842 0 0.012292025722569346 0.022902731906872635 0 0.012438409285617163 0.022826258750603848 0 0.012735696149310213 0.022655386926577495 0 0.012417571406567476 0.022886627057350228 0 0.012438409285617163 0.022826258750603848 0 0.012417571406567476 0.022886627057350228 0 0.012204575829006699 0.022951989144166355 0 0.012564274149407112 0.022747058269153842 0 0.012438409285617163 0.022826258750603848 0 0.012292025722569346 0.022902731906872635 0 0.012564274149407112 0.022747058269153842 0 0.012438409285617163 0.022826258750603848 0 0.012735696149310213 0.022655386926577495 0 0.012828162388765307 0.022654223347358855 0 0.012735696149310213 0.022655386926577495 0 0.012417571406567476 0.022886627057350228 0 0.012828162388765307 0.022654223347358855 0 0.012735696149310213 0.022655386926577495 0 0.013292351465332895 0.022363929283575723 0 0.013335673297628577 0.022485292278566948 0 0.012849343984527688 0.022605596742269515 0 0.013292351465332895 0.022363929283575723 0 0.012735696149310213 0.022655386926577495 0 0.012849343984527688 0.022605596742269515 0 0.013292351465332895 0.022363929283575723 0 0.01470911243485421 0.022044893235063555 0 0.013292351465332895 0.022363929283575723 0 0.012953844777949509 0.022412595065342815 0 0.014679680897039245 0.022110872252200816 0 0.015154911624434593 0.021054897760363647 0 0.015154911624434593 0.021054897760363647 0 0.016283011259453611 0.01998239947472372 0 0.012953844777949509 0.022412595065342815 0 0.012744590556580396 0.022667308451204855 0 0.012399877488520708 0.022742352855058393 0 0.013292351465332895 0.022363929283575723 0 0.012953844777949509 0.022412595065342815 0 0.012744590556580396 0.022667308451204855 0 0.012828162388765307 0.022654223347358855 0 0.013292351465332895 0.022363929283575723 0 0.012744590556580396 0.022667308451204855 0 0.012546491807040924 0.02291189717521528 0 0.012399877488520708 0.022742352855058393 0 0.012277872616812001 0.023117615194360765 0 0.012744590556580396 0.022667308451204855 0 0.012546491807040924 0.02291189717521528 0 0.012622275192040198 0.022821684531703829 0 0.012828162388765307 0.022654223347358855 0 0.012744590556580396 0.022667308451204855 0 0.012622275192040198 0.022821684531703829 0 0.012744590556580396 0.022667308451204855 0 0.012546491807040924 0.02291189717521528 0 0.012399877488520708 0.022742352855058393 0 0.012546491807040924 0.02291189717521528 0 0.012385570642854636 0.022950188241169373 0 0.012622275192040198 0.022821684531703829 0 0.012385570642854636 0.022950188241169373 0 0.012417571406567476 0.022886627057350228 0 0.012622275192040198 0.022821684531703829 0 0.012385570642854636 0.022950188241169373 0 0.012417571406567476 0.022886627057350228 0 0.012013559191627415 0.023014860366322609 0 0.012385570642854636 0.022950188241169373 0 0.011635733324695434 0.023044319597242329 0 0.012013559191627415 0.023014860366322609 0 0.012417571406567476 0.022886627057350228 0 0.011971384471638997 0.023027659684141319 0 0.012013559191627415 0.023014860366322609 0 0.012828162388765307 0.022654223347358855 0 0.012417571406567476 0.022886627057350228 0 0.012622275192040198 0.022821684531703829 0 0.024914469345842065 0.015715300138239009 0 0.025242320739674515 0.014855968855229449 0 0.02475638440716885 0.015759011473901633 0 0.024247321120079404 0.016998070593888474 0 0.024912086057637724 0.017625500148704683 0 0.024945708746003874 0.014635434900452647 0 0.025281803468889381 0.013749987072476348 0 0.023619099518243401 0.018383418866438614 0 0.024114105996801447 0.020634596081858823 0 0.022944778122897958 0.019647374249997619 0 0.025242320739674515 0.014855968855229449 0 0.02475638440716885 0.015759011473901633 0 0.025096870289042499 0.014784202193763727 0 0.024114105996801447 0.020634596081858823 0 0.02283903831545318 0.020642966458433682 0 0.022944778122897958 0.019647374249997619 0 0.022334252251236673 0.022298948091134457 0 0.02283903831545318 0.020642966458433682 0 0.021731109238525712 0.02004537730480975 0 0.022334252251236673 0.022298948091134457 0 0.024114105996801447 0.020634596081858823 0 0.02283903831545318 0.020642966458433682 0 0.02283903831545318 0.020642966458433682 0 0.021731109238525712 0.02004537730480975 0 0.022944778122897958 0.019647374249997619 0 0.021731109238525712 0.02004537730480975 0 0.022944778122897958 0.019647374249997619 0 0.022340389010373076 0.018697446413721626 0 0.023619099518243401 0.018383418866438614 0 0.022944778122897958 0.019647374249997619 0 0.022340389010373076 0.018697446413721626 0 0.022340389010373076 0.018697446413721626 0 0.020079480920102116 0.019045861685640021 0 0.021697688431898645 0.017848747483081139 0 0.021731109238525712 0.02004537730480975 0 0.022340389010373076 0.018697446413721626 0 0.020079480920102116 0.019045861685640021 0 0.022334252251236673 0.022298948091134457 0 0.021731109238525712 0.02004537730480975 0 0.019203454783242917 0.020967799242529863 0 0.021731109238525712 0.02004537730480975 0 0.020079480920102116 0.019045861685640021 0 0.019203454783242917 0.020967799242529863 0 0.017395107118289073 0.019382211729365197 0 0.020079480920102116 0.019045861685640021 0 0.019203454783242917 0.020967799242529863 0 0.017412216652163182 0.021384588159638677 0 0.017395107118289073 0.019382211729365197 0 0.019203454783242917 0.020967799242529863 0 0.017395107118289073 0.019382211729365197 0 0.020079480920102116 0.019045861685640021 0 0.019999546321058166 0.017241786247868911 0 0.020079480920102116 0.019045861685640021 0 0.019999546321058166 0.017241786247868911 0 0.021697688431898645 0.017848747483081139 0 0.016283011259453611 0.01998239947472372 0 0.016650517000117993 0.020220196861015519 0 0.019999546321058166 0.017241786247868911 0 0.022650801998548457 0.016605144450800014 0 0.022506367956990719 0.016435119440068615 0 0.019999546321058166 0.017241786247868911 0 0.022650801998548457 0.016605144450800014 0 0.022578527008951636 0.01704842606962979 0 0.022650801998548457 0.016605144450800014 0 0.023252269019557622 0.016624783312098896 0 0.023300778720617477 0.016627651500829101 0 0.022650801998548457 0.016605144450800014 0 0.022578527008951636 0.01704842606962979 0 0.023252269019557622 0.016624783312098896 0 0.019999546321058166 0.017241786247868911 0 0.022578527008951636 0.01704842606962979 0 0.021697688431898645 0.017848747483081139 0 0.024247321120079404 0.016998070593888474 0 0.024050487737234071 0.016382030494922102 0 0.023619099518243401 0.018383418866438614 0 0.023190292582150027 0.017588508673723163 0 0.024048365531065173 0.01646038577750231 0 0.022340389010373076 0.018697446413721626 0 0.021697688431898645 0.017848747483081139 0 0.023190292582150027 0.017588508673723163 0 0.023619099518243401 0.018383418866438614 0 0.022340389010373076 0.018697446413721626 0 0.023190292582150027 0.017588508673723163 0 0.022578527008951636 0.01704842606962979 0 0.021697688431898645 0.017848747483081139 0 0.023190292582150027 0.017588508673723163 0 0.022578527008951636 0.01704842606962979 0 0.023190292582150027 0.017588508673723163 0 0.02327869983125409 0.016958282046567179 0 0.022578527008951636 0.01704842606962979 0 0.02327869983125409 0.016958282046567179 0 0.023347852683779834 0.016726289150468192 0 0.022578527008951636 0.01704842606962979 0 0.023347852683779834 0.016726289150468192 0 0.023252269019557622 0.016624783312098896 0 0.02327869983125409 0.016958282046567179 0 0.023347852683779834 0.016726289150468192 0 0.024048365531065173 0.01646038577750231 0 0.023252269019557622 0.016624783312098896 0 0.023718332819491095 0.016605842025210388 0 0.023300778720617477 0.016627651500829101 0 0.023347852683779834 0.016726289150468192 0 0.023252269019557622 0.016624783312098896 0 0.0237819084982538 0.016516266313846704 0 0.023252269019557622 0.016624783312098896 0 0.023718332819491095 0.016605842025210388 0 0.0237819084982538 0.016516266313846704 0 0.024023362478681008 0.016570228754876085 0 0.023718332819491095 0.016605842025210388 0 0.0237819084982538 0.016516266313846704 0 0.0237819084982538 0.016516266313846704 0 0.02410215554469753 0.016424719660540904 0 0.024048365531065173 0.01646038577750231 0 0.024023362478681008 0.016570228754876085 0 0.0237819084982538 0.016516266313846704 0 0.02410215554469753 0.016424719660540904 0 0.024023362478681008 0.016570228754876085 0 0.02410215554469753 0.016424719660540904 0 0.024208153374177904 0.016462825588335801 0 0.023190292582150027 0.017588508673723163 0 0.02327869983125409 0.016958282046567179 0 0.024048365531065173 0.01646038577750231 0 0.023347852683779834 0.016726289150468192 0 0.0237819084982538 0.016516266313846704 0 0.024048365531065173 0.01646038577750231 0 0.024367528757959573 0.015572149752612638 0 0.024659378376868126 0.014545942459619366 0 0.024637177931516204 0.01409492281475282 0 0.024503387937487214 0.015519642339291595 0 0.024408386631354306 0.015742992890156342 0 0.024367528757959573 0.015572149752612638 0 0.024204311702528757 0.016828484298768018 0 0.024063518349472603 0.017494716614150529 0 0.02410215554469753 0.016424719660540904 0 0.024367528757959573 0.015572149752612638 0 0.024208153374177904 0.016462825588335801 0 0.024367528757959573 0.015572149752612638 0 0.024208153374177904 0.016462825588335801 0 0.024204311702528757 0.016828484298768018 0 0.024208153374177904 0.016462825588335801 0 0.024204311702528757 0.016828484298768018 0 0.024112100911427545 0.016761521357090612 0 0.024023362478681008 0.016570228754876085 0 0.024208153374177904 0.016462825588335801 0 0.024112100911427545 0.016761521357090612 0 0.024367528757959573 0.015572149752612638 0 0.02467343947242491 0.014650915236303567 0 0.024659378376868126 0.014545942459619366 0 0.024914469345842065 0.015715300138239009 0 0.024048365531065173 0.01646038577750231 0 0.02475638440716885 0.015759011473901633 0 0.02410215554469753 0.016424719660540904 0 0.024048365531065173 0.01646038577750231 0 0.02475638440716885 0.015759011473901633 0 0.024321490137640678 0.016148886695881461 0 0.024945708746003874 0.014635434900452647 0 0.024367528757959573 0.015572149752612638 0 0.02490773016990951 0.014129024145610654 0 0.025392750930274405 0.013429033868371189 0 0.024367528757959573 0.015572149752612638 0 0.02467343947242491 0.014650915236303567 0 0.02490773016990951 0.014129024145610654 0 0.02410215554469753 0.016424719660540904 0 0.024367528757959573 0.015572149752612638 0 0.025392750930274405 0.013429033868371189 0 0.02490773016990951 0.014129024145610654 0 0.025392750930274405 0.013429033868371189 0 0.024992667595300493 0.013605340560299816 0 0.024047395919261839 0.017597756814866982 0 0.023445978321438091 0.016915007946771497 0 0.024798953860865204 0.018525075436709657 0 0.023632996591458299 0.017108748897339338 0 0.024047395919261839 0.017597756814866982 0 0.023445978321438091 0.016915007946771497 0 0.025647626178331051 0.020078799893961337 0 0.024784423716770698 0.018589204007489774 0 0.023632996591458299 0.017108748897339338 0 0.023599785990831009 0.017008362424184863 0 0.023445978321438091 0.016915007946771497 0 0.023632996591458299 0.017108748897339338 0 0.024047395919261839 0.017597756814866982 0 0.023670526614241561 0.016933073310907019 0 0.024047395919261839 0.017597756814866982 0 0.024168976849690011 0.017427370655543995 0 0.02431772058330257 0.017775218638947578 0 0.024047395919261839 0.017597756814866982 0 0.024168976849690011 0.017427370655543995 0 0.024052277065788819 0.017159025811590581 0 0.024204311702528757 0.016828484298768018 0 0.024168976849690011 0.017427370655543995 0 0.024052277065788819 0.017159025811590581 0 0.024204311702528757 0.016828484298768018 0 0.024168976849690011 0.017427370655543995 0 0.024063518349472603 0.017494716614150529 0 0.024204311702528757 0.016828484298768018 0 0.024112100911427545 0.016761521357090612 0 0.024052277065788819 0.017159025811590581 0 0.024112100911427545 0.016761521357090612 0 0.024052277065788819 0.017159025811590581 0 0.023923056408894021 0.016825723422844215 0 0.024047395919261839 0.017597756814866982 0 0.024052277065788819 0.017159025811590581 0 0.023670526614241561 0.016933073310907019 0 0.024052277065788819 0.017159025811590581 0 0.023670526614241561 0.016933073310907019 0 0.023923056408894021 0.016825723422844215 0 0.023670526614241561 0.016933073310907019 0 0.023923056408894021 0.016825723422844215 0 0.023575434177068744 0.016716765780480359 0 0.024023362478681008 0.016570228754876085 0 0.023718332819491095 0.016605842025210388 0 0.023923056408894021 0.016825723422844215 0 0.023718332819491095 0.016605842025210388 0 0.023923056408894021 0.016825723422844215 0 0.023575434177068744 0.016716765780480359 0 0.024023362478681008 0.016570228754876085 0 0.024112100911427545 0.016761521357090612 0 0.023923056408894021 0.016825723422844215 0 0.023718332819491095 0.016605842025210388 0 0.023300778720617477 0.016627651500829101 0 0.023575434177068744 0.016716765780480359 0 0.023300778720617477 0.016627651500829101 0 0.023575434177068744 0.016716765780480359 0 0.023354560955626012 0.016670682077002133 0 0.023670526614241561 0.016933073310907019 0 0.023575434177068744 0.016716765780480359 0 0.023354560955626012 0.016670682077002133 0 0.023670526614241561 0.016933073310907019 0 0.023589490169222488 0.016855931763874493 0 0.023354560955626012 0.016670682077002133 0 0.023670526614241561 0.016933073310907019 0 0.023599785990831009 0.017008362424184863 0 0.023589490169222488 0.016855931763874493 0 0.023632996591458299 0.017108748897339338 0 0.023670526614241561 0.016933073310907019 0 0.023599785990831009 0.017008362424184863 0 0.023599785990831009 0.017008362424184863 0 0.023589490169222488 0.016855931763874493 0 0.023807855796944725 0.017128216302699593 0 0.012399877488520708 0.022742352855058393 0 0.012081493208184824 0.022994980788708593 0 0.012277872616812001 0.023117615194360765 0 0.02378730241551217 0.016933725912470474 0 0.022506367956990719 0.016435119440068615 0 0.023948387009552402 0.017031496138424477 0 0.012081493208184824 0.022994980788708593 0 0.012021291284140057 0.023290263462099395 0 0.01178386418411014 0.023402680002755815 0 0.016650517000117993 0.020220196861015519 0 0.021492571430566067 0.018888997598484641 0 0.02378730241551217 0.016933725912470474 0 0.023354560955626012 0.016670682077002133 0 0.022506367956990719 0.016435119440068615 0 0.023589490169222488 0.016855931763874493 0 0.02378730241551217 0.016933725912470474 0 0.023807855796944725 0.017128216302699593 0 0.023589490169222488 0.016855931763874493 0 0.02378730241551217 0.016933725912470474 0 0.023354560955626012 0.016670682077002133 0 0.022650801998548457 0.016605144450800014 0 0.023300778720617477 0.016627651500829101 0 0.023354560955626012 0.016670682077002133 0 0.022650801998548457 0.016605144450800014 0 0.023354560955626012 0.016670682077002133 0 0.022506367956990719 0.016435119440068615 0 0.012081493208184824 0.022994980788708593 0 0.012021291284140057 0.023290263462099395 0 0.012277872616812001 0.023117615194360765 0 0.012021291284140057 0.023290263462099395 0 0.012094530377886086 0.023524923312508859 0 0.012277872616812001 0.023117615194360765 0 0.012094530377886086 0.023524923312508859 0 0.011961093865785239 0.023459789948836119 0 0.011928609990589138 0.023620131741242122 0 0.012021291284140057 0.023290263462099395 0 0.012094530377886086 0.023524923312508859 0 0.011961093865785239 0.023459789948836119 0 0.012094530377886086 0.023524923312508859 0 0.011928609990589138 0.023620131741242122 0 0.012006023932899748 0.023835563334352154 0 0.012006023932899748 0.023835563334352154 0 0.011949738323994798 0.024103274511721836 0 0.012058507904447019 0.024053220645255089 0 0.012006023932899748 0.023835563334352154 0 0.011949738323994798 0.024103274511721836 0 0.011793696543316539 0.023920689057458259 0 0.011928609990589138 0.023620131741242122 0 0.012006023932899748 0.023835563334352154 0 0.011793696543316539 0.023920689057458259 0 0.026485718863349727 0.022519689882695721 0 0.029798325991349576 0.026226588393189608 0 0.028986911005653926 0.020474749190823691 0 0.024598024821635884 0.018684501675158675 0 0.023556236493877128 0.019240347647104118 0 0.028986911005653926 0.020474749190823691 0 0.023556236493877128 0.019240347647104118 0 0.030008139348440096 0.026461228700908997 0 0.02896429037774742 0.025649962228162411 0 0.029367757177087395 0.026328010064118279 0 0.029143651311172122 0.026355714798324985 0 0.024908362645100938 0.016919250334315943 0 0.021492571430566067 0.018888997598484641 0 0.028986911005653926 0.020474749190823691 0 0.024598024821635884 0.018684501675158675 0 0.026486361472963366 0.01352335931540603 0 0.020183647839694775 0.02204299208142212 0 0.021492571430566067 0.018888997598484641 0 0.024598024821635884 0.018684501675158675 0 0.024251075878315737 0.017238675721390671 0 0.024125772960958337 0.0178516022519037 0 0.011928609990589138 0.023620131741242122 0 0.011793696543316539 0.023920689057458259 0 0.01178386418411014 0.023402680002755815 0 0.011961093865785239 0.023459789948836119 0 0.011928609990589138 0.023620131741242122 0 0.01178386418411014 0.023402680002755815 0 0.012021291284140057 0.023290263462099395 0 0.011961093865785239 0.023459789948836119 0 0.01178386418411014 0.023402680002755815 0 0.022027079884665544 0.017984169422488143 0 0.021492571430566067 0.018888997598484641 0 0.024251075878315737 0.017238675721390671 0 0.023807855796944725 0.017128216302699593 0 0.024125772960958337 0.0178516022519037 0 0.02378730241551217 0.016933725912470474 0 0.024251075878315737 0.017238675721390671 0 0.023807855796944725 0.017128216302699593 0 0.026485718863349727 0.022519689882695721 0 0.025647626178331051 0.020078799893961337 0 0.02896429037774742 0.025649962228162411 0 0.028102376790387646 0.025589784129767094 0 0.028075841389113915 0.023221149994336849 0 0.02371119976568388 0.017491302640138612 0 0.023556236493877128 0.019240347647104118 0 0.023445978321438091 0.016915007946771497 0 0.023599785990831009 0.017008362424184863 0 0.02371119976568388 0.017491302640138612 0 0.023807855796944725 0.017128216302699593 0 0.02371119976568388 0.017491302640138612 0 0.023807855796944725 0.017128216302699593 0 0.024125772960958337 0.0178516022519037 0 0.023599785990831009 0.017008362424184863 0 0.02371119976568388 0.017491302640138612 0 0.023445978321438091 0.016915007946771497 0 0.02371119976568388 0.017491302640138612 0 0.024125772960958337 0.0178516022519037 0 0.023556236493877128 0.019240347647104118 0 0.024598024821635884 0.018684501675158675 0 0.024125772960958337 0.0178516022519037 0 0.023556236493877128 0.019240347647104118 0 0.02896429037774742 0.025649962228162411 0 0.028763659968476078 0.0261999537186339 0 0.029143651311172122 0.026355714798324985 0 0.02896429037774742 0.025649962228162411 0 0.028763659968476078 0.0261999537186339 0 0.028551620669226847 0.025947310341459084 0 0.028763659968476078 0.0261999537186339 0 0.028551620669226847 0.025947310341459084 0 0.028282209216014292 0.026490363904855707 0 0.028551620669226847 0.025947310341459084 0 0.028102376790387646 0.025589784129767094 0 0.028282209216014292 0.026490363904855707 0 0.02896429037774742 0.025649962228162411 0 0.028551620669226847 0.025947310341459084 0 0.028102376790387646 0.025589784129767094 0 0.028102376790387646 0.025589784129767094 0 0.027009359776074601 0.025157877391306541 0 0.027219531092579755 0.026535687787480066 0 0.028102376790387646 0.025589784129767094 0 0.027219531092579755 0.026535687787480066 0 0.028282209216014292 0.026490363904855707 0 0.027009359776074601 0.025157877391306541 0 0.025911739248103277 0.025812036203437042 0 0.027219531092579755 0.026535687787480066 0 0.028102376790387646 0.025589784129767094 0 0.027009359776074601 0.025157877391306541 0 0.028075841389113915 0.023221149994336849 0 0.027009359776074601 0.025157877391306541 0 0.028075841389113915 0.023221149994336849 0 0.025794656135057121 0.024093072618301962 0 0.012385570642854636 0.022950188241169373 0 0.012544262116501202 0.023352710571866497 0 0.012793503712712781 0.023316317113474903 0 0.012544262116501202 0.023352710571866497 0 0.012793503712712781 0.023316317113474903 0 0.012737787313235382 0.023661537385782146 0 0.012385570642854636 0.022950188241169373 0 0.011608538604754541 0.023019337418077788 0 0.011635733324695434 0.023044319597242329 0 0.012368888432563925 0.0230290680532887 0 0.012202821755974777 0.023185759347265744 0 0.012385570642854636 0.022950188241169373 0 0.012544262116501202 0.023352710571866497 0 0.012446975480248404 0.023137376511671026 0 0.012546491807040924 0.02291189717521528 0 0.012385570642854636 0.022950188241169373 0 0.012446975480248404 0.023137376511671026 0 0.012546491807040924 0.02291189717521528 0 0.012446975480248404 0.023137376511671026 0 0.012277872616812001 0.023117615194360765 0 0.012094530377886086 0.023524923312508859 0 0.012277872616812001 0.023117615194360765 0 0.012315328566679802 0.023526251018538467 0 0.012544262116501202 0.023352710571866497 0 0.012446975480248404 0.023137376511671026 0 0.012315328566679802 0.023526251018538467 0 0.012446975480248404 0.023137376511671026 0 0.012277872616812001 0.023117615194360765 0 0.012315328566679802 0.023526251018538467 0 0.012315328566679802 0.023526251018538467 0 0.012302854985602345 0.023977801783795185 0 0.012526524266770863 0.023799264996694033 0 0.012315328566679802 0.023526251018538467 0 0.012156590381933082 0.023839865178373689 0 0.012302854985602345 0.023977801783795185 0 0.012094530377886086 0.023524923312508859 0 0.012315328566679802 0.023526251018538467 0 0.012156590381933082 0.023839865178373689 0 0.012094530377886086 0.023524923312508859 0 0.012006023932899748 0.023835563334352154 0 0.012156590381933082 0.023839865178373689 0 0.012006023932899748 0.023835563334352154 0 0.012156590381933082 0.023839865178373689 0 0.012058507904447019 0.024053220645255089 0 0.012156590381933082 0.023839865178373689 0 0.012058507904447019 0.024053220645255089 0 0.01215798681006941 0.024205724384343676 0 0.012302854985602345 0.023977801783795185 0 0.012453198505443859 0.024195618654827274 0 0.012236171435981836 0.024406387193597175 0 0.012156590381933082 0.023839865178373689 0 0.012302854985602345 0.023977801783795185 0 0.01215798681006941 0.024205724384343676 0 0.012302854985602345 0.023977801783795185 0 0.012453198505443859 0.024195618654827274 0 0.012526524266770863 0.023799264996694033 0 0.012453198505443859 0.024195618654827274 0 0.012526524266770863 0.023799264996694033 0 0.012770537155581567 0.024009054798692663 0 0.012544262116501202 0.023352710571866497 0 0.012526524266770863 0.023799264996694033 0 0.012737787313235382 0.023661537385782146 0 0.012544262116501202 0.023352710571866497 0 0.012315328566679802 0.023526251018538467 0 0.012526524266770863 0.023799264996694033 0 0.012202821755974777 0.023185759347265744 0 0.012330019769607596 0.023514644682518068 0 0.012793503712712781 0.023316317113474903 0 0.012737787313235382 0.023661537385782146 0 0.013082014328698323 0.023828887036040181 0 0.012526524266770863 0.023799264996694033 0 0.012737787313235382 0.023661537385782146 0 0.012770537155581567 0.024009054798692663 0 0.012737787313235382 0.023661537385782146 0 0.012770537155581567 0.024009054798692663 0 0.013082014328698323 0.023828887036040181 0 0.012453198505443859 0.024195618654827274 0 0.012770537155581567 0.024009054798692663 0 0.012737813125504399 0.024359111690448472 0 0.012770537155581567 0.024009054798692663 0 0.013087707889818256 0.024241913209034543 0 0.013082014328698323 0.023828887036040181 0 0.012770537155581567 0.024009054798692663 0 0.013087707889818256 0.024241913209034543 0 0.012737813125504399 0.024359111690448472 0 0.011100308960009533 0.023102208802162481 0 0.011211877019466665 0.023115338467121223 0 0.011093944113397073 0.022941798195239151 0 0.013087707889818256 0.024241913209034543 0 0.013082014328698323 0.023828887036040181 0 0.013413891559502943 0.024536337311279337 0 0.011112152992257148 0.022713153978900627 0 0.010967487499128459 0.023785342649892485 0 0.012330019769607596 0.023514644682518068 0 0.010967487499128459 0.023785342649892485 0 0.010857387588832056 0.022918907400056632 0 0.010885500762886757 0.023256254890646266 0 0.010468026518161772 0.023414683976284489 0 0.011100308960009533 0.023102208802162481 0 0.010857387588832056 0.022918907400056632 0 0.011068444240938146 0.022689006357476806 0 0.011100308960009533 0.023102208802162481 0 0.010857387588832056 0.022918907400056632 0 0.010885500762886757 0.023256254890646266 0 0.010885500762886757 0.023256254890646266 0 0.011229527355409096 0.023153430994348516 0 0.010850939829035029 0.023272712095508491 0 0.010885500762886757 0.023256254890646266 0 0.010850939829035029 0.023272712095508491 0 0.010468026518161772 0.023414683976284489 0 0.010885500762886757 0.023256254890646266 0 0.01116233092173595 0.023157514332071766 0 0.011229527355409096 0.023153430994348516 0 0.011100308960009533 0.023102208802162481 0 0.010885500762886757 0.023256254890646266 0 0.01116233092173595 0.023157514332071766 0 0.011608538604754541 0.023019337418077788 0 0.011211877019466665 0.023115338467121223 0 0.01116233092173595 0.023157514332071766 0 0.011100308960009533 0.023102208802162481 0 0.011211877019466665 0.023115338467121223 0 0.01116233092173595 0.023157514332071766 0 0.011608538604754541 0.023019337418077788 0 0.011229527355409096 0.023153430994348516 0 0.011635733324695434 0.023044319597242329 0 0.011608538604754541 0.023019337418077788 0 0.01116233092173595 0.023157514332071766 0 0.011229527355409096 0.023153430994348516 0 0.010850939829035029 0.023272712095508491 0 0.011230127350673171 0.023154601830650844 0 0.010963367627208653 0.023214423940318508 0 0.011229527355409096 0.023153430994348516 0 0.010850939829035029 0.023272712095508491 0 0.011230127350673171 0.023154601830650844 0 0.011230127350673171 0.023154601830650844 0 0.011635733324695434 0.023044319597242329 0 0.011494886942588363 0.023113119843496614 0 0.011230127350673171 0.023154601830650844 0 0.010963367627208653 0.023214423940318508 0 0.011494886942588363 0.023113119843496614 0 0.011229527355409096 0.023153430994348516 0 0.011230127350673171 0.023154601830650844 0 0.011635733324695434 0.023044319597242329 0 0.010730929028819211 0.023220608947750791 0 0.010963367627208653 0.023214423940318508 0 0.010383648263094861 0.023394691660757763 0 0.010850939829035029 0.023272712095508491 0 0.010963367627208653 0.023214423940318508 0 0.010383648263094861 0.023394691660757763 0 0.010730929028819211 0.023220608947750791 0 0.010383648263094861 0.023394691660757763 0 0.010407666005072145 0.023356988068868163 0 0.010383648263094861 0.023394691660757763 0 0.0095079629745663911 0.023793574307079634 0 0.010117388339139869 0.023607571301820583 0 0.010383648263094861 0.023394691660757763 0 0.010468026518161772 0.023414683976284489 0 0.0095079629745663911 0.023793574307079634 0 0.010850939829035029 0.023272712095508491 0 0.010383648263094861 0.023394691660757763 0 0.010468026518161772 0.023414683976284489 0 0.010468026518161772 0.023414683976284489 0 0.0095079629745663911 0.023793574307079634 0 0.010467313766817149 0.022792694165810919 0 0.0094378704411408523 0.023799934700498897 0 0.0089403334133886757 0.023894201874111901 0 0.010857387588832056 0.022918907400056632 0 0.010468026518161772 0.023414683976284489 0 0.010467313766817149 0.022792694165810919 0 0.0095079629745663911 0.023793574307079634 0 0.010136193689531017 0.024317616897530873 0 0.010117388339139869 0.023607571301820583 0 0.010136193689531017 0.024317616897530873 0 0.01100622007173103 0.024020341015574966 0 0.010312845597808516 0.025681397407371073 0 0.010136193689531017 0.024317616897530873 0 0.010480583442039197 0.023622650731941714 0 0.01100622007173103 0.024020341015574966 0 0.010136193689531017 0.024317616897530873 0 0.010480583442039197 0.023622650731941714 0 0.010117388339139869 0.023607571301820583 0 0.010480583442039197 0.023622650731941714 0 0.010117388339139869 0.023607571301820583 0 0.010407666005072145 0.023356988068868163 0 0.01100622007173103 0.024020341015574966 0 0.010867346215518185 0.023110412392388306 0 0.010766562072302557 0.023645253852340526 0 0.010982903568468516 0.023985635039193046 0 0.011517321896053831 0.024220017640386959 0 0.010480583442039197 0.023622650731941714 0 0.01100622007173103 0.024020341015574966 0 0.010683272608898344 0.023479970484068666 0 0.01100622007173103 0.024020341015574966 0 0.010683272608898344 0.023479970484068666 0 0.010766562072302557 0.023645253852340526 0 0.010683272608898344 0.023479970484068666 0 0.010497606410628123 0.02358155968173193 0 0.010766562072302557 0.023645253852340526 0 0.010480583442039197 0.023622650731941714 0 0.010683272608898344 0.023479970484068666 0 0.010521762938319211 0.023378357852755174 0 0.010683272608898344 0.023479970484068666 0 0.010521762938319211 0.023378357852755174 0 0.010519550011425996 0.023215079022949382 0 0.010683272608898344 0.023479970484068666 0 0.010536434017842719 0.023298949577509769 0 0.010519550011425996 0.023215079022949382 0 0.010683272608898344 0.023479970484068666 0 0.010536434017842719 0.023298949577509769 0 0.010497606410628123 0.02358155968173193 0 0.010383648263094861 0.023394691660757763 0 0.010117388339139869 0.023607571301820583 0 0.010407666005072145 0.023356988068868163 0 0.010480583442039197 0.023622650731941714 0 0.010407666005072145 0.023356988068868163 0 0.010521762938319211 0.023378357852755174 0 0.010521762938319211 0.023378357852755174 0 0.010539240024247155 0.023254228742152966 0 0.010519550011425996 0.023215079022949382 0 0.010407666005072145 0.023356988068868163 0 0.010521762938319211 0.023378357852755174 0 0.010539240024247155 0.023254228742152966 0 0.010730929028819211 0.023220608947750791 0 0.010407666005072145 0.023356988068868163 0 0.010539240024247155 0.023254228742152966 0 0.010730929028819211 0.023220608947750791 0 0.010539240024247155 0.023254228742152966 0 0.010658830924910465 0.023312622026538589 0 0.010539240024247155 0.023254228742152966 0 0.010658830924910465 0.023312622026538589 0 0.010519550011425996 0.023215079022949382 0 0.010510042178638207 0.023111354417867998 0 0.010522085432757509 0.023205457379580342 0 0.010316795463603302 0.022901935491419809 0 0.010519550011425996 0.023215079022949382 0 0.010594547965902418 0.022749482422086759 0 0.010316795463603302 0.022901935491419809 0 0.010594547965902418 0.022749482422086759 0 0.010324133946012923 0.022776012668934469 0 0.010536434017842719 0.023298949577509769 0 0.010519550011425996 0.023215079022949382 0 0.010522982216029222 0.023001100825539484 0 0.010519550011425996 0.023215079022949382 0 0.010594547965902418 0.022749482422086759 0 0.010522982216029222 0.023001100825539484 0 0.010536434017842719 0.023298949577509769 0 0.010522982216029222 0.023001100825539484 0 0.01040808767112804 0.023042176113373398 0 0.010522982216029222 0.023001100825539484 0 0.01045835428143892 0.022772754417621773 0 0.01040808767112804 0.023042176113373398 0 0.01045835428143892 0.022772754417621773 0 0.01030913782187649 0.022808031086496799 0 0.01040808767112804 0.023042176113373398 0 0.010594547965902418 0.022749482422086759 0 0.010522982216029222 0.023001100825539484 0 0.01045835428143892 0.022772754417621773 0 0.010594547965902418 0.022749482422086759 0 0.01045835428143892 0.022772754417621773 0 0.010802565514570714 0.022692027730426903 0 0.01045835428143892 0.022772754417621773 0 0.010691017903815216 0.022802294643847316 0 0.010802565514570714 0.022692027730426903 0 0.01030001235982961 0.022717244128527627 0 0.01045835428143892 0.022772754417621773 0 0.01030913782187649 0.022808031086496799 0 0.01030001235982961 0.022717244128527627 0 0.01045835428143892 0.022772754417621773 0 0.010691017903815216 0.022802294643847316 0 0.010594547965902418 0.022749482422086759 0 0.01139470435436891 0.022374748550145887 0 0.010802565514570714 0.022692027730426903 0 0.01139470435436891 0.022374748550145887 0 0.010802565514570714 0.022692027730426903 0 0.011222290477034306 0.022734924752840193 0 0.010649364733659822 0.02271728961082924 0 0.010881329548444868 0.022605046810837456 0 0.010691017903815216 0.022802294643847316 0 0.010802565514570714 0.022692027730426903 0 0.011222290477034306 0.022734924752840193 0 0.01139470435436891 0.022374748550145887 0 0.011222290477034306 0.022734924752840193 0 0.011618180679016956 0.02269248393634558 0 0.011665362428928665 0.022814256129727328 0 0.011222290477034306 0.022734924752840193 0 0.011618180679016956 0.02269248393634558 0 0.01139470435436891 0.022374748550145887 0 0.011618180679016956 0.02269248393634558 0 0.011807918560512115 0.022600671024457994 0 0.011665362428928665 0.022814256129727328 0 0.011618180679016956 0.02269248393634558 0 0.011913262498361398 0.022738782512312844 0 0.011618180679016956 0.02269248393634558 0 0.011913262498361398 0.022738782512312844 0 0.011807918560512115 0.022600671024457994 0 0.011913262498361398 0.022738782512312844 0 0.011807918560512115 0.022600671024457994 0 0.012033588444062862 0.022658460930587359 0 0.011807918560512115 0.022600671024457994 0 0.012120897406457869 0.022492738242706395 0 0.012033588444062862 0.022658460930587359 0 0.01139470435436891 0.022374748550145887 0 0.011807918560512115 0.022600671024457994 0 0.012120897406457869 0.022492738242706395 0 0.010324133946012923 0.022776012668934469 0 0.010319688924777677 0.022791051562958402 0 0.010343562595998147 0.022818889169503306 0 0.010881329548444868 0.022605046810837456 0 0.011196073744771677 0.022659665947472981 0 0.011196073744771677 0.022659665947472981 0 0.011440983543250712 0.022916924713707928 0 0.010680695916262273 0.023059021414767258 0 0.011440983543250712 0.022916924713707928 0 0.010319688924777677 0.022791051562958402 0 0.010343562595998147 0.022818889169503306 0 0.010424646166944124 0.022829545818109545 0 0.011166290318734126 0.023364286762861838 0 0.011585443555209749 0.023200900501251186 0 0.01191305836072528 0.023190585503444498 0 0.012120897406457869 0.022492738242706395 0 0.012258006603333186 0.022730170401727447 0 0.012266072249906404 0.022770640965791879 0 0.012120897406457869 0.022492738242706395 0 0.012145678419723142 0.022665436748832583 0 0.012258006603333186 0.022730170401727447 0 0.012120897406457869 0.022492738242706395 0 0.012145678419723142 0.022665436748832583 0 0.012033588444062862 0.022658460930587359 0 0.011913262498361398 0.022738782512312844 0 0.012033588444062862 0.022658460930587359 0 0.012164292136421876 0.02273930479430223 0 0.012145678419723142 0.022665436748832583 0 0.012033588444062862 0.022658460930587359 0 0.012164292136421876 0.02273930479430223 0 0.012298188138817834 0.022780712820253173 0 0.012164292136421876 0.02273930479430223 0 0.012258006603333186 0.022730170401727447 0 0.012145678419723142 0.022665436748832583 0 0.012164292136421876 0.02273930479430223 0 0.012258006603333186 0.022730170401727447 0 0.012258006603333186 0.022730170401727447 0 0.012243469016157213 0.02292438842617826 0 0.012266072249906404 0.022770640965791879 0 0.012298188138817834 0.022780712820253173 0 0.012258006603333186 0.022730170401727447 0 0.01229754795458771 0.022811586987870686 0 0.012258006603333186 0.022730170401727447 0 0.01229754795458771 0.022811586987870686 0 0.012243469016157213 0.02292438842617826 0 0.012341026885023762 0.022814736742817095 0 0.01229754795458771 0.022811586987870686 0 0.012358592975244234 0.022828457461305664 0 0.01229754795458771 0.022811586987870686 0 0.012243469016157213 0.02292438842617826 0 0.012358592975244234 0.022828457461305664 0 0.012126943890465335 0.023015897751536427 0 0.011440983543250712 0.022916924713707928 0 0.012243469016157213 0.02292438842617826 0 0.01191305836072528 0.023190585503444498 0 0.012072640173872445 0.023051191715196064 0 0.012512060127789068 0.022785579802397964 0 0.012358592975244234 0.022828457461305664 0 0.012292025722569346 0.022902731906872635 0 0.012243469016157213 0.02292438842617826 0 0.012358592975244234 0.022828457461305664 0 0.012292025722569346 0.022902731906872635 0 0.012243469016157213 0.02292438842617826 0 0.012292025722569346 0.022902731906872635 0 0.012072640173872445 0.023051191715196064 0 0.012438409285617163 0.022826258750603848 0 0.012292025722569346 0.022902731906872635 0 0.012204575829006699 0.022951989144166355 0 0.012292025722569346 0.022902731906872635 0 0.012026382692192018 0.023041769810045028 0 0.012072640173872445 0.023051191715196064 0 0.012292025722569346 0.022902731906872635 0 0.012026382692192018 0.023041769810045028 0 0.012204575829006699 0.022951989144166355 0 0.011585443555209749 0.023200900501251186 0 0.01191305836072528 0.023190585503444498 0 0.011837481653907102 0.023124799047217249 0 0.01191305836072528 0.023190585503444498 0 0.012072640173872445 0.023051191715196064 0 0.011837481653907102 0.023124799047217249 0 0.012026382692192018 0.023041769810045028 0 0.012072640173872445 0.023051191715196064 0 0.011837481653907102 0.023124799047217249 0 0.012026382692192018 0.023041769810045028 0 0.011837481653907102 0.023124799047217249 0 0.011674474127493173 0.023132259158157361 0 0.011585443555209749 0.023200900501251186 0 0.011837481653907102 0.023124799047217249 0 0.011674474127493173 0.023132259158157361 0 0.011674474127493173 0.023132259158157361 0 0.011494886942588363 0.023113119843496614 0 0.011321776434038838 0.023203313031145027 0 0.012026382692192018 0.023041769810045028 0 0.011674474127493173 0.023132259158157361 0 0.011971384471638997 0.023027659684141319 0 0.011674474127493173 0.023132259158157361 0 0.011971384471638997 0.023027659684141319 0 0.011494886942588363 0.023113119843496614 0 0.012417571406567476 0.022886627057350228 0 0.012204575829006699 0.022951989144166355 0 0.011971384471638997 0.023027659684141319 0 0.012026382692192018 0.023041769810045028 0 0.012204575829006699 0.022951989144166355 0 0.011971384471638997 0.023027659684141319 0 0.011635733324695434 0.023044319597242329 0 0.012013559191627415 0.023014860366322609 0 0.011494886942588363 0.023113119843496614 0 0.011971384471638997 0.023027659684141319 0 0.012013559191627415 0.023014860366322609 0 0.011494886942588363 0.023113119843496614 0 0.010963367627208653 0.023214423940318508 0 0.011494886942588363 0.023113119843496614 0 0.011077128443178354 0.02319538045373587 0 0.010730929028819211 0.023220608947750791 0 0.010963367627208653 0.023214423940318508 0 0.011077128443178354 0.02319538045373587 0 0.011494886942588363 0.023113119843496614 0 0.011077128443178354 0.02319538045373587 0 0.011321776434038838 0.023203313031145027 0 0.010730929028819211 0.023220608947750791 0 0.011077128443178354 0.02319538045373587 0 0.010981627996572416 0.023249639104923812 0 0.010730929028819211 0.023220608947750791 0 0.010658830924910465 0.023312622026538589 0 0.010981627996572416 0.023249639104923812 0 0.010316795463603302 0.022901935491419809 0 0.010324133946012923 0.022776012668934469 0 0.010319688924777677 0.022791051562958402 0 0.010658830924910465 0.023312622026538589 0 0.011166290318734126 0.023364286762861838 0 0.010981627996572416 0.023249639104923812 0 0.010510042178638207 0.023111354417867998 0 0.010680695916262273 0.023059021414767258 0 0.011166290318734126 0.023364286762861838 0 0.011585443555209749 0.023200900501251186 0 0.011321776434038838 0.023203313031145027 0 0.011166290318734126 0.023364286762861838 0 0.010981627996572416 0.023249639104923812 0 0.011321776434038838 0.023203313031145027 0 0.011585443555209749 0.023200900501251186 0 0.011674474127493173 0.023132259158157361 0 0.011321776434038838 0.023203313031145027 0 0.011077128443178354 0.02319538045373587 0 0.010981627996572416 0.023249639104923812 0 0.011321776434038838 0.023203313031145027 0 0.03604775781760456 0.0079158861325840206 0 0.034999753990764985 0.007619149619239078 0 0.034999996894159148 0.0064933513663713912 0 0.035980786716343041 0.0077588489240886975 0 0.035014973435260742 0.0066608393465227766 0 0.03604775781760456 0.0079158861325840206 0 0.034999753990764985 0.007619149619239078 0 0.03555366603517307 0.0088031209722986836 0 0.034999753990764985 0.007619149619239078 0 0.03555366603517307 0.0088031209722986836 0 0.034999648477806164 0.0095396043885842847 0 0.03604775781760456 0.0079158861325840206 0 0.03555366603517307 0.0088031209722986836 0 0.036062141019682761 0.0093240838194394941 0 0.03604775781760456 0.0079158861325840206 0 0.036423486809519248 0.0089307044135733833 0 0.036062141019682761 0.0093240838194394941 0 0.036418234807839157 0.0087851850592160149 0 0.036484464124970771 0.0093542385774610867 0 0.036423486809519248 0.0089307044135733833 0 0.036438600486999845 0.0094572649103929086 0 0.036308140789991013 0.0097211429098728892 0 0.036409993828802896 0.0086325025121452639 0 0.036688642227081993 0.0079087228827123233 0 0.036555972519055492 0.0089098570767279627 0 0.035980786716343041 0.0077588489240886975 0 0.036418234807839157 0.0087851850592160149 0 0.035976762802984306 0.00767650675728859 0 0.036409993828802896 0.0086325025121452639 0 0.036688642227081993 0.0079087228827123233 0 0.036688642227081993 0.0079087228827123233 0 0.036876696647141716 0.0070642635157515416 0 0.036318255467211215 0.006647183964099761 0 0.035976762802984306 0.00767650675728859 0 0.036688642227081993 0.0079087228827123233 0 0.036318255467211215 0.006647183964099761 0 0.036688642227081993 0.0079087228827123233 0 0.036876696647141716 0.0070642635157515416 0 0.036727584316175364 0.0082069375618470611 0 0.036876696647141716 0.0070642635157515416 0 0.036318255467211215 0.006647183964099761 0 0.03685557957529239 0.0051913662040371138 0 0.036318255467211215 0.006647183964099761 0 0.035591254167913075 0.0064107883871326243 0 0.035617913191518254 0.005326872597330088 0 0.036318255467211215 0.006647183964099761 0 0.035617913191518254 0.005326872597330088 0 0.03685557957529239 0.0051913662040371138 0 0.035976762802984306 0.00767650675728859 0 0.036318255467211215 0.006647183964099761 0 0.035591254167913075 0.0064107883871326243 0 0.035976762802984306 0.00767650675728859 0 0.034999890182354804 0.0064928573923550689 0 0.035591254167913075 0.0064107883871326243 0 0.035591254167913075 0.0064107883871326243 0 0.034999786376288304 0.005698977275349246 0 0.035617913191518254 0.005326872597330088 0 0.034999890182354804 0.0064928573923550689 0 0.035591254167913075 0.0064107883871326243 0 0.034999786376288304 0.005698977275349246 0 0.034999786376288304 0.005698977275349246 0 0.035617913191518254 0.005326872597330088 0 0.034999524651324831 0.0037786406355243981 0 0.035617913191518254 0.005326872597330088 0 0.034999524651324831 0.0037786406355243981 0 0.035906394508012529 0.0032399981568232072 0 0.035617913191518254 0.005326872597330088 0 0.035906394508012529 0.0032399981568232072 0 0.03685557957529239 0.0051913662040371138 0 0.034999524651324831 0.0037786406355243981 0 0.035906394508012529 0.0032399981568232072 0 0.034999652056731521 0.0018577454739161637 0 0.035906394508012529 0.0032399981568232072 0 0.034999652056731521 0.0018577454739161637 0 0.03593386470098104 0.00076372932282859295 0 0.035906394508012529 0.0032399981568232072 0 0.03593386470098104 0.00076372932282859295 0 0.036917452942337677 0.0017277922828889982 0 0.03593386470098104 0.00076372932282859295 0 0.036984979262286638 0.00041735378815029983 0 0.036917452942337677 0.0017277922828889982 0 0.034999984533445092 -6.3187699738804012e-05 0 0.034999652056731521 0.0018577454739161637 0 0.03593386470098104 0.00076372932282859295 0 0.03874338921700507 0.00018453258369973099 0 0.037963891054501986 0.00034832512074345318 0 0.038799484580421012 0.0013612355939152468 0 0.037963891054501986 0.00034832512074345318 0 0.037753519785519801 0.0013715245174401492 0 0.038799484580421012 0.0013612355939152468 0 0.036984979262286638 0.00041735378815029983 0 0.037753519785519801 0.0013715245174401492 0 0.036917452942337677 0.0017277922828889982 0 0.037963891054501986 0.00034832512074345318 0 0.036984979262286638 0.00041735378815029983 0 0.037753519785519801 0.0013715245174401492 0 0.035906394508012529 0.0032399981568232072 0 0.036917452942337677 0.0017277922828889982 0 0.037902473982559824 0.0027785671931870887 0 0.037753519785519801 0.0013715245174401492 0 0.036917452942337677 0.0017277922828889982 0 0.037902473982559824 0.0027785671931870887 0 0.037753519785519801 0.0013715245174401492 0 0.037902473982559824 0.0027785671931870887 0 0.038799484580421012 0.0013612355939152468 0 0.037902473982559824 0.0027785671931870887 0 0.03685557957529239 0.0051913662040371138 0 0.038929769757995329 0.004305316463297384 0 0.035906394508012529 0.0032399981568232072 0 0.037902473982559824 0.0027785671931870887 0 0.03685557957529239 0.0051913662040371138 0 0.036876696647141716 0.0070642635157515416 0 0.03685557957529239 0.0051913662040371138 0 0.03686648545793559 0.0076805515923238869 0 0.036748727395598292 0.0053676460741237594 0 0.037783561110368 0.0059459071792433565 0 0.03686648545793559 0.0076805515923238869 0 0.036527188855645751 0.009002292424427405 0 0.036727584316175364 0.0082069375618470611 0 0.037783561110368 0.0059459071792433565 0 0.038229958320145446 0.0063797508636500491 0 0.04033221091659895 0.0037820727906864773 0 0.039700007911687499 0.0027582016715204981 0 0.040850275365004886 0.0029995239891835797 0 0.037902473982559824 0.0027785671931870887 0 0.038929769757995329 0.004305316463297384 0 0.039700007911687499 0.0027582016715204981 0 0.038929769757995329 0.004305316463297384 0 0.04033221091659895 0.0037820727906864773 0 0.039700007911687499 0.0027582016715204981 0 0.037902473982559824 0.0027785671931870887 0 0.039700007911687499 0.0027582016715204981 0 0.038799484580421012 0.0013612355939152468 0 0.039700007911687499 0.0027582016715204981 0 0.039835020125116818 0.0015730789603395218 0 0.038799484580421012 0.0013612355939152468 0 0.039700007911687499 0.0027582016715204981 0 0.040647236783519107 0.0020725331717621367 0 0.040850275365004886 0.0029995239891835797 0 0.039700007911687499 0.0027582016715204981 0 0.039835020125116818 0.0015730789603395218 0 0.040647236783519107 0.0020725331717621367 0 0.039835020125116818 0.0015730789603395218 0 0.039469926970334052 0.00069460052840016268 0 0.040661396409828882 0.00068306531290696863 0 0.039835020125116818 0.0015730789603395218 0 0.040661396409828882 0.00068306531290696863 0 0.040647236783519107 0.0020725331717621367 0 0.039835020125116818 0.0015730789603395218 0 0.038799484580421012 0.0013612355939152468 0 0.039469926970334052 0.00069460052840016268 0 0.03874338921700507 0.00018453258369973099 0 0.038799484580421012 0.0013612355939152468 0 0.039469926970334052 0.00069460052840016268 0 0.041066086486305373 0.00066032371215426003 0 0.041325809500051713 0.0015942801630325113 0 0.04180903179250281 0.0010810674439989637 0 0.040460731289423423 0.00077959057308187474 0 0.040634902020973612 0.0019719485507434559 0 0.041325809500051713 0.0015942801630325113 0 0.040300859648442558 0.0010313961106814533 0 0.040647236783519107 0.0020725331717621367 0 0.041066086486305373 0.00066032371215426003 0 0.041325809500051713 0.0015942801630325113 0 0.040300859648442558 0.0010313961106814533 0 0.040647236783519107 0.0020725331717621367 0 0.041500276471329339 0.0025202462828295257 0 0.040850275365004886 0.0029995239891835797 0 0.041325809500051713 0.0015942801630325113 0 0.040647236783519107 0.0020725331717621367 0 0.041500276471329339 0.0025202462828295257 0 0.041325809500051713 0.0015942801630325113 0 0.041500276471329339 0.0025202462828295257 0 0.042523462179876383 0.0020752926105084683 0 0.041500276471329339 0.0025202462828295257 0 0.041512786964131625 0.0035061412826866379 0 0.042091300270362016 0.0028610016300942755 0 0.041500276471329339 0.0025202462828295257 0 0.040850275365004886 0.0029995239891835797 0 0.041512786964131625 0.0035061412826866379 0 0.04033221091659895 0.0037820727906864773 0 0.040850275365004886 0.0029995239891835797 0 0.041512786964131625 0.0035061412826866379 0 0.036527188855645751 0.009002292424427405 0 0.036317672335877349 0.0098122393938439387 0 0.03638841323866486 0.009337701166987419 0 0.038229958320145446 0.0063797508636500491 0 0.039541801867045735 0.0067977860733068789 0 0.036317672335877349 0.0098122393938439387 0 0.036283540029518536 0.0099911640139853635 0 0.036210755818784454 0.010113684864498547 0 0.036317672335877349 0.0098122393938439387 0 0.03638841323866486 0.009337701166987419 0 0.036283540029518536 0.0099911640139853635 0 0.036176966506658859 0.010341227792549604 0 0.03638841323866486 0.009337701166987419 0 0.036283540029518536 0.0099911640139853635 0 0.036176966506658859 0.010341227792549604 0 0.03637873284720898 0.0095758831466617629 0 0.03638841323866486 0.009337701166987419 0 0.036527188855645751 0.009002292424427405 0 0.03638841323866486 0.009337701166987419 0 0.036727584316175364 0.0082069375618470611 0 0.03638841323866486 0.009337701166987419 0 0.036727584316175364 0.0082069375618470611 0 0.036594752704474043 0.0088116516268346816 0 0.036876696647141716 0.0070642635157515416 0 0.03686648545793559 0.0076805515923238869 0 0.036727584316175364 0.0082069375618470611 0 0.036688642227081993 0.0079087228827123233 0 0.036594752704474043 0.0088116516268346816 0 0.036555972519055492 0.0089098570767279627 0 0.036688642227081993 0.0079087228827123233 0 0.036727584316175364 0.0082069375618470611 0 0.036594752704474043 0.0088116516268346816 0 0.03637873284720898 0.0095758831466617629 0 0.03638841323866486 0.009337701166987419 0 0.036594752704474043 0.0088116516268346816 0 0.03637873284720898 0.0095758831466617629 0 0.036594752704474043 0.0088116516268346816 0 0.036369317269803247 0.0097648288342492215 0 0.036594752704474043 0.0088116516268346816 0 0.036555972519055492 0.0089098570767279627 0 0.036369317269803247 0.0097648288342492215 0 0.036409993828802896 0.0086325025121452639 0 0.036555972519055492 0.0089098570767279627 0 0.036438600486999845 0.0094572649103929086 0 0.036555972519055492 0.0089098570767279627 0 0.036438600486999845 0.0094572649103929086 0 0.036369317269803247 0.0097648288342492215 0 0.036438600486999845 0.0094572649103929086 0 0.036369317269803247 0.0097648288342492215 0 0.036144668114713743 0.0098646301573204545 0 0.036369317269803247 0.0097648288342492215 0 0.035748814323923184 0.010606022452270915 0 0.035893174824183305 0.010079385786357763 0 0.036176966506658859 0.010341227792549604 0 0.036369317269803247 0.0097648288342492215 0 0.035748814323923184 0.010606022452270915 0 0.036176966506658859 0.010341227792549604 0 0.03637873284720898 0.0095758831466617629 0 0.036369317269803247 0.0097648288342492215 0 0.034462708869498926 0.010978112163984085 0 0.033313046149106677 0.012353185335459567 0 0.034641259997307348 0.012605688010739073 0 0.035748814323923184 0.010606022452270915 0 0.034462708869498926 0.010978112163984085 0 0.034641259997307348 0.012605688010739073 0 0.036176966506658859 0.010341227792549604 0 0.035748814323923184 0.010606022452270915 0 0.034641259997307348 0.012605688010739073 0 0.035748814323923184 0.010606022452270915 0 0.034462708869498926 0.010978112163984085 0 0.035301271854671849 0.010298295214487784 0 0.034462708869498926 0.010978112163984085 0 0.033313046149106677 0.012353185335459567 0 0.033113724396388051 0.011005457541105768 0 0.031561101432482162 0.012422539342703509 0 0.033313046149106677 0.012353185335459567 0 0.033113724396388051 0.011005457541105768 0 0.031561101432482162 0.012422539342703509 0 0.029744428884996295 0.012390890810107587 0 0.030785149393141305 0.011199022291737939 0 0.031561101432482162 0.012422539342703509 0 0.032231566839920907 0.014185616757110279 0 0.030207039867130043 0.013607464778567582 0 0.031561101432482162 0.012422539342703509 0 0.033313046149106677 0.012353185335459567 0 0.032231566839920907 0.014185616757110279 0 0.033313046149106677 0.012353185335459567 0 0.032231566839920907 0.014185616757110279 0 0.034641259997307348 0.012605688010739073 0 0.03350820715296067 0.01218300339339008 0 0.035280720227101915 0.011280368043962419 0 0.035094912976351249 0.01009410882019553 0 0.034475135737748484 0.010811802306878185 0 0.03396068833809103 0.010588262621789983 0 0.032231566839920907 0.014185616757110279 0 0.029630270521074389 0.015032559638549953 0 0.030207039867130043 0.013607464778567582 0 0.03350820715296067 0.01218300339339008 0 0.032311731629236451 0.012436235738920385 0 0.035094912976351249 0.01009410882019553 0 0.034475135737748484 0.010811802306878185 0 0.035155151275187528 0.010790773467028151 0 0.034475135737748484 0.010811802306878185 0 0.035155151275187528 0.010790773467028151 0 0.034264379150300631 0.011340816086144205 0 0.035094912976351249 0.01009410882019553 0 0.035155151275187528 0.010790773467028151 0 0.035832083014941445 0.010320799049947505 0 0.035155151275187528 0.010790773467028151 0 0.035832083014941445 0.010320799049947505 0 0.036054301928948644 0.010530963351101829 0 0.035832083014941445 0.010320799049947505 0 0.036283540029518536 0.0099911640139853635 0 0.036054301928948644 0.010530963351101829 0 0.035094912976351249 0.01009410882019553 0 0.035832083014941445 0.010320799049947505 0 0.036083890724321437 0.010029792890207105 0 0.036015823757155702 0.010518378099179552 0 0.035280720227101915 0.011280368043962419 0 0.035832083014941445 0.010320799049947505 0 0.036083890724321437 0.010029792890207105 0 0.036283540029518536 0.0099911640139853635 0 0.036176966506658859 0.010341227792549604 0 0.036083890724321437 0.010029792890207105 0 0.036283540029518536 0.0099911640139853635 0 0.036283540029518536 0.0099911640139853635 0 0.036210755818784454 0.010113684864498547 0 0.036054301928948644 0.010530963351101829 0 0.036317672335877349 0.0098122393938439387 0 0.036210755818784454 0.010113684864498547 0 0.036151230093813311 0.01026561611258371 0 0.039541801867045735 0.0067977860733068789 0 0.036372556843255723 0.0054387536005087046 0 0.036210755818784454 0.010113684864498547 0 0.036054301928948644 0.010530963351101829 0 0.036151230093813311 0.01026561611258371 0 0.036054301928948644 0.010530963351101829 0 0.036201702726817914 0.011282828518627299 0 0.034951766229717234 0.011683179742909026 0 0.036469303074623233 0.011871394050764145 0 0.036372556843255723 0.0054387536005087046 0 0.031851040918084682 0.0016285335035849955 0 0.031999502006160974 0.0026801494592706733 0 0.031420169423452299 0.0022718461944011758 0 0.031851040918084682 0.0016285335035849955 0 0.031420169423452299 0.0022718461944011758 0 0.030710794060442657 0.0016792481037399862 0 0.036372556843255723 0.0054387536005087046 0 0.037592417715832875 0.0023244874442161995 0 0.041512786964131625 0.0035061412826866379 0 0.042677635410259165 0.0033987012752189389 0 0.042091300270362016 0.0028610016300942755 0 0.042677635410259165 0.0033987012752189389 0 0.042091300270362016 0.0028610016300942755 0 0.042523462179876383 0.0020752926105084683 0 0.041500276471329339 0.0025202462828295257 0 0.042091300270362016 0.0028610016300942755 0 0.042523462179876383 0.0020752926105084683 0 0.031999502006160974 0.0026801494592706733 0 0.031420169423452299 0.0022718461944011758 0 0.031320428623819077 0.0034382361713930902 0 0.032176490843214181 0.0037008308919693369 0 0.031999502006160974 0.0026801494592706733 0 0.031320428623819077 0.0034382361713930902 0 0.041325809500051713 0.0015942801630325113 0 0.04180903179250281 0.0010810674439989637 0 0.042523462179876383 0.0020752926105084683 0 0.042305488010168597 0.00061882720384038366 0 0.04180903179250281 0.0010810674439989637 0 0.042523462179876383 0.0020752926105084683 0 0.035506588344808306 -0.00036346187894086679 0 0.037592417715832875 0.0023244874442161995 0 0.024625966577853112 -0.0062438393648053129 0 0.025347411174941083 -0.0077142047303121837 0 0.023128155533858514 -0.0084365667049143868 0 0.030428384375660884 0.0031708729659725818 0 0.029903155015187446 0.0026170963894135021 0 0.029540672398952895 0.0028842400841025697 0 0.027884421989819087 -0.0025040144687440411 0 0.026568308318052316 0.00035186090287167012 0 0.028666699214744889 -0.0019704353314876728 0 0.027884421989819087 -0.0025040144687440411 0 0.031320428623819077 0.0034382361713930902 0 0.030428384375660884 0.0031708729659725818 0 0.030694924410433661 0.0025198692721892812 0 0.031420169423452299 0.0022718461944011758 0 0.031320428623819077 0.0034382361713930902 0 0.030694924410433661 0.0025198692721892812 0 0.030428384375660884 0.0031708729659725818 0 0.030694924410433661 0.0025198692721892812 0 0.029903155015187446 0.0026170963894135021 0 0.030694924410433661 0.0025198692721892812 0 0.030119481770374979 0.0021467640019636682 0 0.029903155015187446 0.0026170963894135021 0 0.032258083393367887 0.0068289213054596514 0 0.031936699952827122 0.006778170834336978 0 0.030694924410433661 0.0025198692721892812 0 0.030119481770374979 0.0021467640019636682 0 0.030710794060442657 0.0016792481037399862 0 0.030119481770374979 0.0021467640019636682 0 0.030710794060442657 0.0016792481037399862 0 0.029499652185862021 0.0017431106018275808 0 0.031420169423452299 0.0022718461944011758 0 0.030694924410433661 0.0025198692721892812 0 0.030710794060442657 0.0016792481037399862 0 0.036372556843255723 0.0054387536005087046 0 0.032258083393367887 0.0068289213054596514 0 0.035155151275187528 0.010790773467028151 0 0.036054301928948644 0.010530963351101829 0 0.034951766229717234 0.011683179742909026 0 0.034951766229717234 0.011683179742909026 0 0.034264379150300631 0.011340816086144205 0 0.033909083653175638 0.011958390618939722 0 0.035155151275187528 0.010790773467028151 0 0.034951766229717234 0.011683179742909026 0 0.034264379150300631 0.011340816086144205 0 0.034264379150300631 0.011340816086144205 0 0.033555327766479723 0.011609365365928473 0 0.033909083653175638 0.011958390618939722 0 0.033555327766479723 0.011609365365928473 0 0.033360153665913619 0.01199277457518212 0 0.033178888806568871 0.012002243916229975 0 0.033555327766479723 0.011609365365928473 0 0.033360153665913619 0.01199277457518212 0 0.033909083653175638 0.011958390618939722 0 0.03040677199636228 0.0080763663160952591 0 0.031936699952827122 0.006778170834336978 0 0.028578929975201672 0.0018181775563974047 0 0.028927699495532734 0.0021085688461415933 0 0.029499652185862021 0.0017431106018275808 0 0.028927699495532734 0.0021085688461415933 0 0.02950875562384709 0.0022699485427231264 0 0.028943384675672212 0.0024266449938135722 0 0.028927699495532734 0.0021085688461415933 0 0.028570785671100662 0.0022833849235587103 0 0.028943384675672212 0.0024266449938135722 0 0.028578929975201672 0.0018181775563974047 0 0.028927699495532734 0.0021085688461415933 0 0.02856972209774946 0.0020760656202341854 0 0.028927699495532734 0.0021085688461415933 0 0.028570785671100662 0.0022833849235587103 0 0.02856972209774946 0.0020760656202341854 0 0.028927699495532734 0.0021085688461415933 0 0.029499652185862021 0.0017431106018275808 0 0.02950875562384709 0.0022699485427231264 0 0.030119481770374979 0.0021467640019636682 0 0.029499652185862021 0.0017431106018275808 0 0.02950875562384709 0.0022699485427231264 0 0.030119481770374979 0.0021467640019636682 0 0.029903155015187446 0.0026170963894135021 0 0.02950875562384709 0.0022699485427231264 0 0.029903155015187446 0.0026170963894135021 0 0.029492297577157343 0.0029643408409823734 0 0.02950875562384709 0.0022699485427231264 0 0.02906602688138089 0.0016406757536108537 0 0.026568308318052316 0.00035186090287167012 0 0.029492297577157343 0.0029643408409823734 0 0.02950875562384709 0.0022699485427231264 0 0.028943384675672212 0.0024266449938135722 0 0.029492297577157343 0.0029643408409823734 0 0.028943384675672212 0.0024266449938135722 0 0.028193795188204893 0.0025529805200070477 0 0.023722806608897595 0.0021529009890090705 0 0.021294482188562679 0.0025794495573090524 0 0.021306689421062227 0.0013017725088180926 0 0.026568308318052316 0.00035186090287167012 0 0.023707459193443092 0.0031863754811416361 0 0.028570785671100662 0.0022833849235587103 0 0.028943384675672212 0.0024266449938135722 0 0.028193795188204893 0.0025529805200070477 0 0.026568308318052316 0.00035186090287167012 0 0.021454724358634387 -0.0020838535714565566 0 0.023722806608897595 0.0021529009890090705 0 0.022106019259627033 0.0034317253764739367 0 0.021294482188562679 0.0025794495573090524 0 0.022912467704533271 -0.005971280652001823 0 0.024625966577853112 -0.0062438393648053129 0 0.023128155533858514 -0.0084365667049143868 0 0.022912467704533271 -0.005971280652001823 0 0.023128155533858514 -0.0084365667049143868 0 0.021280393686581262 -0.0068910934929605318 0 0.020003242444738254 0.0031880267356925174 0 0.02056958161142847 0.0022965644977754321 0 0.019696063506141625 0.0022241794363633684 0 0.01924990887038493 0.0028634721518442856 0 0.020003242444738254 0.0031880267356925174 0 0.019696063506141625 0.0022241794363633684 0 0.019467561643899491 0.0036260226744306784 0 0.01924990887038493 0.0028634721518442856 0 0.020003242444738254 0.0031880267356925174 0 0.020176491841224206 0.0038466745720195151 0 0.020003242444738254 0.0031880267356925174 0 0.020809299224954076 0.0032363514027659284 0 0.020003242444738254 0.0031880267356925174 0 0.020809299224954076 0.0032363514027659284 0 0.02056958161142847 0.0022965644977754321 0 0.020947420587166837 0.0037151211094616382 0 0.022106019259627033 0.0034317253764739367 0 0.020809299224954076 0.0032363514027659284 0 0.022106019259627033 0.0034317253764739367 0 0.020809299224954076 0.0032363514027659284 0 0.021294482188562679 0.0025794495573090524 0 0.020809299224954076 0.0032363514027659284 0 0.021294482188562679 0.0025794495573090524 0 0.02056958161142847 0.0022965644977754321 0 0.021294482188562679 0.0025794495573090524 0 0.02056958161142847 0.0022965644977754321 0 0.021277686459287203 0.0014703816069187112 0 0.021586876033183038 0.0019050551310270624 0 0.023707459193443092 0.0031863754811416361 0 0.024479940455123143 0.0062847870073546195 0 0.023750540611648975 0.0060275388833423817 0 0.024483488800453621 0.0056436016622162712 0 0.023707459193443092 0.0031863754811416361 0 0.022038002082879388 0.0070186403617807109 0 0.02056958161142847 0.0022965644977754321 0 0.021277686459287203 0.0014703816069187112 0 0.020312165264959717 0.0011240388259041217 0 0.018487122545780232 0.0020617485492107493 0 0.020312165264959717 0.0011240388259041217 0 0.019696063506141625 0.0022241794363633684 0 0.018641149354946998 0.010396674552685505 0 0.019065793441533647 0.0090833175073184828 0 0.020307801310760074 0.0095196014067983406 0 0.016923270419984194 0.0087074071535670518 0 0.022038002082879388 0.0070186403617807109 0 0.02056958161142847 0.0022965644977754321 0 0.020312165264959717 0.0011240388259041217 0 0.019696063506141625 0.0022241794363633684 0 0.022308069701386567 0.016724955743576232 0 0.02515130020789649 0.016497782403054943 0 0.022776375551023867 0.015256921627785178 0 0.020035348132937413 0.015550807190891256 0 0.027473702120268371 0.011776202911195913 0 0.019161353208422657 0.014063302914201927 0 0.022038002082879388 0.0070186403617807109 0 0.020124267702142037 0.010788001030463953 0 0.019941102022778726 0.011374221831122102 0 0.023597826443711931 0.012688481405171649 0 0.020124267702142037 0.010788001030463953 0 0.023597826443711931 0.012688481405171649 0 0.02626376511074513 0.010298155936145909 0 0.020035348132937413 0.015550807190891256 0 0.0202960188297234 0.019648097263939478 0 0.023707459193443092 0.0031863754811416361 0 0.026585287966144497 0.0072540519883903263 0 0.028570785671100662 0.0022833849235587103 0 0.028193795188204893 0.0025529805200070477 0 0.028199342884606113 0.0020573172228978884 0 0.028578929975201672 0.0018181775563974047 0 0.02856972209774946 0.0020760656202341854 0 0.028199342884606113 0.0020573172228978884 0 0.028570785671100662 0.0022833849235587103 0 0.02856972209774946 0.0020760656202341854 0 0.028199342884606113 0.0020573172228978884 0 0.026585287966144497 0.0072540519883903263 0 0.027473702120268371 0.011776202911195913 0 0.022038002082879388 0.0070186403617807109 0 0.026585287966144497 0.0072540519883903263 0 0.023597826443711931 0.012688481405171649 0 0.026267176141713963 0.011267630726071936 0 0.02626376511074513 0.010298155936145909 0 0.03040677199636228 0.0080763663160952591 0 0.027473702120268371 0.011776202911195913 0 0.029366932462834047 0.0082366523357305706 0 0.026658825623892084 0.0099603391003404897 0 0.026654028334837317 0.0084368745887899877 0 0.03040677199636228 0.0080763663160952591 0 0.026585287966144497 0.0072540519883903263 0 0.02515130020789649 0.016497782403054943 0 0.022776375551023867 0.015256921627785178 0 0.025144927895197688 0.013980170891593056 0 0.033555327766479723 0.011609365365928473 0 0.033178888806568871 0.012002243916229975 0 0.03324214978535097 0.011540156989539595 0 0.027473702120268371 0.011776202911195913 0 0.027482942300718228 0.015928298519961359 0 0.0202960188297234 0.019648097263939478 0 0.027482942300718228 0.015928298519961359 0 0.020540313446036029 0.023831913498333256 0 0.020592079807888207 0.023217508878127392 0 0.021066079663763063 0.022760122101649048 0 0.020238271635462012 0.02345437075242314 0 0.020540313446036029 0.023831913498333256 0 0.020592079807888207 0.023217508878127392 0 0.020540313446036029 0.023831913498333256 0 0.021066079663763063 0.022760122101649048 0 0.022020219782786045 0.02254437493746236 0 0.020238271635462012 0.02345437075242314 0 0.020592079807888207 0.023217508878127392 0 0.020524510480468602 0.022907845073264078 0 0.020524510480468602 0.022907845073264078 0 0.021066079663763063 0.022760122101649048 0 0.020894416594959744 0.022446786243971333 0 0.020592079807888207 0.023217508878127392 0 0.020524510480468602 0.022907845073264078 0 0.021066079663763063 0.022760122101649048 0 0.021066079663763063 0.022760122101649048 0 0.020894416594959744 0.022446786243971333 0 0.021280151406972928 0.022196116685754299 0 0.021066079663763063 0.022760122101649048 0 0.021280151406972928 0.022196116685754299 0 0.021659028530436268 0.022092853312919034 0 0.020894416594959744 0.022446786243971333 0 0.021280151406972928 0.022196116685754299 0 0.021170910286315982 0.021933809035316512 0 0.020278976226523641 0.022457081506732351 0 0.020524510480468602 0.022907845073264078 0 0.020894416594959744 0.022446786243971333 0 0.020278976226523641 0.022457081506732351 0 0.020894416594959744 0.022446786243971333 0 0.020692463906186471 0.022057773104457466 0 0.020241473038139432 0.021804196588156157 0 0.020278976226523641 0.022457081506732351 0 0.020692463906186471 0.022057773104457466 0 0.020894416594959744 0.022446786243971333 0 0.020692463906186471 0.022057773104457466 0 0.021170910286315982 0.021933809035316512 0 0.021170910286315982 0.021933809035316512 0 0.020996246785534182 0.021626931134271155 0 0.021475430597914975 0.021535180446249316 0 0.020692463906186471 0.022057773104457466 0 0.021170910286315982 0.021933809035316512 0 0.020996246785534182 0.021626931134271155 0 0.020996246785534182 0.021626931134271155 0 0.021387266781633291 0.021228084625627617 0 0.02076764789449595 0.021137166593927201 0 0.020996246785534182 0.021626931134271155 0 0.021387266781633291 0.021228084625627617 0 0.021475430597914975 0.021535180446249316 0 0.020241473038139432 0.021804196588156157 0 0.020996246785534182 0.021626931134271155 0 0.02076764789449595 0.021137166593927201 0 0.020241473038139432 0.021804196588156157 0 0.020692463906186471 0.022057773104457466 0 0.020996246785534182 0.021626931134271155 0 0.021809316651961581 0.021337786115965655 0 0.021897021884266073 0.021437094935084281 0 0.021948423409457837 0.021086112841997871 0 0.027904935178751443 0.016019770842240499 0 0.026711853187010231 0.016178704867510111 0 0.027764452896329901 0.015342330752888768 0 0.026711853187010231 0.016178704867510111 0 0.027322227184493477 0.015275372586344369 0 0.028179932277589255 0.014902179818461024 0 0.027316380688991202 0.014535827692629542 0 0.026859312147068461 0.016314537908319819 0 0.027904935178751443 0.016019770842240499 0 0.021809316651961581 0.021337786115965655 0 0.021825616370649323 0.021414933498716288 0 0.021897021884266073 0.021437094935084281 0 0.021679194588898474 0.021289476376910168 0 0.021387266781633291 0.021228084625627617 0 0.021948423409457837 0.021086112841997871 0 0.021809316651961581 0.021337786115965655 0 0.021679194588898474 0.021289476376910168 0 0.021948423409457837 0.021086112841997871 0 0.021679194588898474 0.021289476376910168 0 0.021387266781633291 0.021228084625627617 0 0.021475430597914975 0.021535180446249316 0 0.021679194588898474 0.021289476376910168 0 0.021475430597914975 0.021535180446249316 0 0.021696831516808224 0.021428444483530491 0 0.021809316651961581 0.021337786115965655 0 0.021679194588898474 0.021289476376910168 0 0.021696831516808224 0.021428444483530491 0 0.021475430597914975 0.021535180446249316 0 0.021696831516808224 0.021428444483530491 0 0.021653881992035037 0.021530992612925855 0 0.021825616370649323 0.021414933498716288 0 0.021696831516808224 0.021428444483530491 0 0.021653881992035037 0.021530992612925855 0 0.021809316651961581 0.021337786115965655 0 0.021825616370649323 0.021414933498716288 0 0.021696831516808224 0.021428444483530491 0 0.021825616370649323 0.021414933498716288 0 0.02195002660353635 0.021307491326094118 0 0.021611000470481957 0.021753743204296055 0 0.02195002660353635 0.021307491326094118 0 0.021611000470481957 0.021753743204296055 0 0.021659028530436268 0.022092853312919034 0 0.021825616370649323 0.021414933498716288 0 0.021653881992035037 0.021530992612925855 0 0.021611000470481957 0.021753743204296055 0 0.021475430597914975 0.021535180446249316 0 0.021653881992035037 0.021530992612925855 0 0.021611000470481957 0.021753743204296055 0 0.021170910286315982 0.021933809035316512 0 0.021475430597914975 0.021535180446249316 0 0.021611000470481957 0.021753743204296055 0 0.021280151406972928 0.022196116685754299 0 0.021170910286315982 0.021933809035316512 0 0.021611000470481957 0.021753743204296055 0 0.032776902884298277 0.01127367484804708 0 0.032680540664720502 0.012479639402770894 0 0.033413980374041925 0.01153130559960688 0 0.02195002660353635 0.021307491326094118 0 0.021659028530436268 0.022092853312919034 0 0.022020219782786045 0.02254437493746236 0 0.027904935178751443 0.016019770842240499 0 0.027482942300718228 0.015928298519961359 0 0.021280151406972928 0.022196116685754299 0 0.021611000470481957 0.021753743204296055 0 0.021659028530436268 0.022092853312919034 0 0.021066079663763063 0.022760122101649048 0 0.021659028530436268 0.022092853312919034 0 0.022020219782786045 0.02254437493746236 0 0.027482942300718228 0.015928298519961359 0 0.034864546634563301 0.010987074026727146 0 0.033555327766479723 0.011609365365928473 0 0.03324214978535097 0.011540156989539595 0 0.033413980374041925 0.01153130559960688 0 0.033555327766479723 0.011609365365928473 0 0.033413980374041925 0.01153130559960688 0 0.033901333841790476 0.011205238745926585 0 0.034264379150300631 0.011340816086144205 0 0.033555327766479723 0.011609365365928473 0 0.033901333841790476 0.011205238745926585 0 0.033413980374041925 0.01153130559960688 0 0.033901333841790476 0.011205238745926585 0 0.03396068833809103 0.010588262621789983 0 0.034475135737748484 0.010811802306878185 0 0.034264379150300631 0.011340816086144205 0 0.033901333841790476 0.011205238745926585 0 0.034475135737748484 0.010811802306878185 0 0.033901333841790476 0.011205238745926585 0 0.03396068833809103 0.010588262621789983 0 0.027322227184493477 0.015275372586344369 0 0.029630270521074389 0.015032559638549953 0 0.028179932277589255 0.014902179818461024 0 0.029630270521074389 0.015032559638549953 0 0.028179932277589255 0.014902179818461024 0 0.028954208476192674 0.014367123638652991 0 0.027904935178751443 0.016019770842240499 0 0.032311731629236451 0.012436235738920385 0 0.032776902884298277 0.01127367484804708 0 0.033413980374041925 0.01153130559960688 0 0.03396068833809103 0.010588262621789983 0 0.028179932277589255 0.014902179818461024 0 0.028139304594534616 0.014050118830254933 0 0.027503461487029392 0.014602649638587831 0 0.028179932277589255 0.014902179818461024 0 0.028954208476192674 0.014367123638652991 0 0.028139304594534616 0.014050118830254933 0 0.028954208476192674 0.014367123638652991 0 0.029062632983741604 0.013549318662286662 0 0.028139304594534616 0.014050118830254933 0 0.029630270521074389 0.015032559638549953 0 0.028954208476192674 0.014367123638652991 0 0.030207039867130043 0.013607464778567582 0 0.028954208476192674 0.014367123638652991 0 0.029062632983741604 0.013549318662286662 0 0.030207039867130043 0.013607464778567582 0 0.029062632983741604 0.013549318662286662 0 0.030207039867130043 0.013607464778567582 0 0.029744428884996295 0.012390890810107587 0 0.031561101432482162 0.012422539342703509 0 0.030207039867130043 0.013607464778567582 0 0.029744428884996295 0.012390890810107587 0 0.029062632983741604 0.013549318662286662 0 0.029744428884996295 0.012390890810107587 0 0.028422622705032319 0.01305010328552712 0 0.028139304594534616 0.014050118830254933 0 0.028422622705032319 0.01305010328552712 0 0.027153602646091783 0.013530762301202728 0 0.029062632983741604 0.013549318662286662 0 0.028139304594534616 0.014050118830254933 0 0.028422622705032319 0.01305010328552712 0 0.029744428884996295 0.012390890810107587 0 0.028422622705032319 0.01305010328552712 0 0.028637896445022317 0.012217965295295586 0 0.028422622705032319 0.01305010328552712 0 0.027153602646091783 0.013530762301202728 0 0.027678354961433286 0.012671228974182051 0 0.027153602646091783 0.013530762301202728 0 0.025978317371395686 0.014489288351799166 0 0.026483594038431299 0.012743270304713349 0 0.027153602646091783 0.013530762301202728 0 0.026483594038431299 0.012743270304713349 0 0.027678354961433286 0.012671228974182051 0 0.02538128918593769 0.014656749354698018 0 0.025517102488586199 0.014642856773785046 0 0.025096870289042499 0.014784202193763727 0 0.025517102488586199 0.014642856773785046 0 0.025978317371395686 0.014489288351799166 0 0.025096870289042499 0.014784202193763727 0 0.025978317371395686 0.014489288351799166 0 0.025370055934807755 0.01253078267902471 0 0.026483594038431299 0.012743270304713349 0 0.025920019909959534 0.014497307585661888 0 0.025281803468889381 0.013749987072476348 0 0.020241473038139432 0.021804196588156157 0 0.019887364114880696 0.020095738176297298 0 0.02076764789449595 0.021137166593927201 0 0.025517102488586199 0.014642856773785046 0 0.025978317371395686 0.014489288351799166 0 0.025628550868526292 0.014950027703049497 0 0.02538128918593769 0.014656749354698018 0 0.025517102488586199 0.014642856773785046 0 0.025628550868526292 0.014950027703049497 0 0.022215351216350564 0.019932046056875038 0 0.023138374937092105 0.01771148593383445 0 0.019887364114880696 0.020095738176297298 0 0.02076764789449595 0.021137166593927201 0 0.021088042544196876 0.020697554726319622 0 0.021387266781633291 0.021228084625627617 0 0.02076764789449595 0.021137166593927201 0 0.021088042544196876 0.020697554726319622 0 0.025978317371395686 0.014489288351799166 0 0.025628550868526292 0.014950027703049497 0 0.026993072117857748 0.015752918699687445 0 0.021387266781633291 0.021228084625627617 0 0.021088042544196876 0.020697554726319622 0 0.021948423409457837 0.021086112841997871 0 0.028139304594534616 0.014050118830254933 0 0.027153602646091783 0.013530762301202728 0 0.027503461487029392 0.014602649638587831 0 0.027153602646091783 0.013530762301202728 0 0.025978317371395686 0.014489288351799166 0 0.026993072117857748 0.015752918699687445 0 0.027245952295923141 0.013224435178251163 0 0.026711853187010231 0.016178704867510111 0 0.023138374937092105 0.01771148593383445 0 0.026711853187010231 0.016178704867510111 0 0.02528103026966224 0.012511150362397531 0 0.027657744101990466 0.011950665922272095 0 0.028136823194680992 0.010445540432030389 0 0.02528103026966224 0.012511150362397531 0 0.024308203696095255 0.01370463367481088 0 0.024650237733000038 0.013898603413744062 0 0.025420177916152847 0.012430381624047972 0 0.026268908650251215 0.012116548677253198 0 0.025392750930274405 0.013429033868371189 0 0.02528103026966224 0.012511150362397531 0 0.024992667595300493 0.013605340560299816 0 0.025392750930274405 0.013429033868371189 0 0.02528103026966224 0.012511150362397531 0 0.025370055934807755 0.01253078267902471 0 0.02528103026966224 0.012511150362397531 0 0.025370055934807755 0.01253078267902471 0 0.026483594038431299 0.012743270304713349 0 0.02528103026966224 0.012511150362397531 0 0.026483594038431299 0.012743270304713349 0 0.027657744101990466 0.011950665922272095 0 0.026483594038431299 0.012743270304713349 0 0.027678354961433286 0.012671228974182051 0 0.027657744101990466 0.011950665922272095 0 0.027678354961433286 0.012671228974182051 0 0.028637896445022317 0.012217965295295586 0 0.027657744101990466 0.011950665922272095 0 0.028637896445022317 0.012217965295295586 0 0.027657744101990466 0.011950665922272095 0 0.029722907087133359 0.011117796338288754 0 0.028422622705032319 0.01305010328552712 0 0.027678354961433286 0.012671228974182051 0 0.028637896445022317 0.012217965295295586 0 0.029744428884996295 0.012390890810107587 0 0.028637896445022317 0.012217965295295586 0 0.029722907087133359 0.011117796338288754 0 0.029744428884996295 0.012390890810107587 0 0.029722907087133359 0.011117796338288754 0 0.030785149393141305 0.011199022291737939 0 0.029722907087133359 0.011117796338288754 0 0.028136823194680992 0.010445540432030389 0 0.030191198512534431 0.01031333509243864 0 0.027657744101990466 0.011950665922272095 0 0.029722907087133359 0.011117796338288754 0 0.028136823194680992 0.010445540432030389 0 0.024308203696095255 0.01370463367481088 0 0.024492893416798042 0.013915236994844348 0 0.024548877948452799 0.014028858072364632 0 0.024308203696095255 0.01370463367481088 0 0.02461100503247916 0.014026766361543293 0 0.024492893416798042 0.013915236994844348 0 0.026268908650251215 0.012116548677253198 0 0.027361221260046167 0.012186434186502617 0 0.02461100503247916 0.014026766361543293 0 0.024492893416798042 0.013915236994844348 0 0.024711243570078617 0.013759366099175279 0 0.024492893416798042 0.013915236994844348 0 0.024711243570078617 0.013759366099175279 0 0.024603044013066046 0.013794062037010625 0 0.024492893416798042 0.013915236994844348 0 0.024552655658704028 0.013921329746863133 0 0.024603044013066046 0.013794062037010625 0 0.024492893416798042 0.013915236994844348 0 0.024548877948452799 0.014028858072364632 0 0.024552655658704028 0.013921329746863133 0 0.024548877948452799 0.014028858072364632 0 0.024594427102428897 0.014034144181768576 0 0.024552655658704028 0.013921329746863133 0 0.024548877948452799 0.014028858072364632 0 0.02466867471379993 0.014220920460917072 0 0.024594427102428897 0.014034144181768576 0 0.024548877948452799 0.014028858072364632 0 0.024650237733000038 0.013898603413744062 0 0.02466867471379993 0.014220920460917072 0 0.024308203696095255 0.01370463367481088 0 0.024548877948452799 0.014028858072364632 0 0.024650237733000038 0.013898603413744062 0 0.02528103026966224 0.012511150362397531 0 0.024650237733000038 0.013898603413744062 0 0.024992667595300493 0.013605340560299816 0 0.024650237733000038 0.013898603413744062 0 0.024741993088312327 0.014252140861681932 0 0.02466867471379993 0.014220920460917072 0 0.024650237733000038 0.013898603413744062 0 0.024992667595300493 0.013605340560299816 0 0.024741993088312327 0.014252140861681932 0 0.02490773016990951 0.014129024145610654 0 0.024992667595300493 0.013605340560299816 0 0.024741993088312327 0.014252140861681932 0 0.02467343947242491 0.014650915236303567 0 0.02490773016990951 0.014129024145610654 0 0.024741993088312327 0.014252140861681932 0 0.02467343947242491 0.014650915236303567 0 0.024741993088312327 0.014252140861681932 0 0.024659378376868126 0.014545942459619366 0 0.024741993088312327 0.014252140861681932 0 0.024659378376868126 0.014545942459619366 0 0.02466867471379993 0.014220920460917072 0 0.02466867471379993 0.014220920460917072 0 0.024637177931516204 0.01409492281475282 0 0.024594427102428897 0.014034144181768576 0 0.024659378376868126 0.014545942459619366 0 0.02466867471379993 0.014220920460917072 0 0.024637177931516204 0.01409492281475282 0 0.024168976849690011 0.017427370655543995 0 0.024063518349472603 0.017494716614150529 0 0.02431772058330257 0.017775218638947578 0 0.024063518349472603 0.017494716614150529 0 0.02416751916768756 0.017809957653072448 0 0.024115860617036376 0.017995031590555894 0 0.024408386631354306 0.015742992890156342 0 0.024344392432769858 0.015879086567604526 0 0.024063518349472603 0.017494716614150529 0 0.02431772058330257 0.017775218638947578 0 0.024429092950545135 0.017931453286053063 0 0.024063518349472603 0.017494716614150529 0 0.02416751916768756 0.017809957653072448 0 0.024429092950545135 0.017931453286053063 0 0.02416751916768756 0.017809957653072448 0 0.024429092950545135 0.017931453286053063 0 0.024798953860865204 0.018525075436709657 0 0.024047395919261839 0.017597756814866982 0 0.02431772058330257 0.017775218638947578 0 0.024798953860865204 0.018525075436709657 0 0.02431772058330257 0.017775218638947578 0 0.024429092950545135 0.017931453286053063 0 0.024798953860865204 0.018525075436709657 0 0.024637177931516204 0.01409492281475282 0 0.024594427102428897 0.014034144181768576 0 0.024528191088696735 0.01388896924755441 0 0.024594427102428897 0.014034144181768576 0 0.024528191088696735 0.01388896924755441 0 0.024552655658704028 0.013921329746863133 0 0.02416751916768756 0.017809957653072448 0 0.024115860617036376 0.017995031590555894 0 0.024110040581035334 0.018200480342158817 0 0.024282225250186525 0.01803256894839915 0 0.023632155096187608 0.019810792492090567 0 0.02416751916768756 0.017809957653072448 0 0.022987272746605496 0.021612997109895598 0 0.024173372546357496 0.020473470272802104 0 0.022987272746605496 0.021612997109895598 0 0.024173372546357496 0.020473470272802104 0 0.024301501041457417 0.022932964103019659 0 0.028075841389113915 0.023221149994336849 0 0.024798953860865204 0.018525075436709657 0 0.025128049584874478 0.022130360612224825 0 0.02416751916768756 0.017809957653072448 0 0.024173372546357496 0.020473470272802104 0 0.024798953860865204 0.018525075436709657 0 0.024173372546357496 0.020473470272802104 0 0.024798953860865204 0.018525075436709657 0 0.025128049584874478 0.022130360612224825 0 0.024173372546357496 0.020473470272802104 0 0.025128049584874478 0.022130360612224825 0 0.024301501041457417 0.022932964103019659 0 0.028075841389113915 0.023221149994336849 0 0.025128049584874478 0.022130360612224825 0 0.025794656135057121 0.024093072618301962 0 0.025794656135057121 0.024093072618301962 0 0.024301501041457417 0.022932964103019659 0 0.024585348307810177 0.024753831239026185 0 0.025128049584874478 0.022130360612224825 0 0.025794656135057121 0.024093072618301962 0 0.024301501041457417 0.022932964103019659 0 0.022987272746605496 0.021612997109895598 0 0.02355442140229665 0.023773690473375922 0 0.022760717023409035 0.024634823132019687 0 0.022987272746605496 0.021612997109895598 0 0.024301501041457417 0.022932964103019659 0 0.02355442140229665 0.023773690473375922 0 0.02355442140229665 0.023773690473375922 0 0.024585348307810177 0.024753831239026185 0 0.023657629334034366 0.025316235069818321 0 0.024301501041457417 0.022932964103019659 0 0.02355442140229665 0.023773690473375922 0 0.024585348307810177 0.024753831239026185 0 0.024585348307810177 0.024753831239026185 0 0.023657629334034366 0.025316235069818321 0 0.024772892737566821 0.026246043799656966 0 0.023657629334034366 0.025316235069818321 0 0.024772892737566821 0.026246043799656966 0 0.023928700925430757 0.026545677260583683 0 0.024772892737566821 0.026246043799656966 0 0.023928700925430757 0.026545677260583683 0 0.024724450528938593 0.027430503877327383 0 0.025911739248103277 0.025812036203437042 0 0.025862672399337681 0.027250068075366469 0 0.027219531092579755 0.026535687787480066 0 0.024772892737566821 0.026246043799656966 0 0.025911739248103277 0.025812036203437042 0 0.025862672399337681 0.027250068075366469 0 0.027009359776074601 0.025157877391306541 0 0.025794656135057121 0.024093072618301962 0 0.025911739248103277 0.025812036203437042 0 0.024585348307810177 0.024753831239026185 0 0.024772892737566821 0.026246043799656966 0 0.025911739248103277 0.025812036203437042 0 0.025794656135057121 0.024093072618301962 0 0.024585348307810177 0.024753831239026185 0 0.025911739248103277 0.025812036203437042 0 0.023497551787291321 0.019062549716392454 0 0.023845236272663113 0.018596341310788661 0 0.023558426083778602 0.018717206772235113 0 0.024331882195178737 0.024937416882926344 0 0.023536884020706937 0.013847906860162925 0 0.027690334115987095 0.024279428873368033 0 0.025141634222869743 0.019923613033429721 0 0.023839543572681636 0.024250046847661976 0 0.023497551787291321 0.019062549716392454 0 0.023558426083778602 0.018717206772235113 0 0.02325022029446594 0.018616630153050436 0 0.027690334115987095 0.024279428873368033 0 0.023839543572681636 0.024250046847661976 0 0.02422136799304625 0.028009425042128378 0 0.022391769378545336 0.02679898463877288 0 0.023328122991073952 0.026458682087704744 0 0.023395159845890644 0.027926199028846525 0 0.024331882195178737 0.024937416882926344 0 0.024251707379088654 0.027320286282247603 0 0.022391769378545336 0.02679898463877288 0 0.023328122991073952 0.026458682087704744 0 0.022760717023409035 0.024634823132019687 0 0.023328122991073952 0.026458682087704744 0 0.023804382058755385 0.027527557505852202 0 0.023395159845890644 0.027926199028846525 0 0.024331882195178737 0.024937416882926344 0 0.023312537238043041 0.021333881368643205 0 0.023328122991073952 0.026458682087704744 0 0.023928700925430757 0.026545677260583683 0 0.023804382058755385 0.027527557505852202 0 0.023657629334034366 0.025316235069818321 0 0.023328122991073952 0.026458682087704744 0 0.023928700925430757 0.026545677260583683 0 0.023657629334034366 0.025316235069818321 0 0.023328122991073952 0.026458682087704744 0 0.022760717023409035 0.024634823132019687 0 0.023845236272663113 0.018596341310788661 0 0.023558426083778602 0.018717206772235113 0 0.023754421499467906 0.018267718488914189 0 0.024110040581035334 0.018200480342158817 0 0.023845236272663113 0.018596341310788661 0 0.023754421499467906 0.018267718488914189 0 0.023632155096187608 0.019810792492090567 0 0.023312537238043041 0.021333881368643205 0 0.02355442140229665 0.023773690473375922 0 0.023657629334034366 0.025316235069818321 0 0.022760717023409035 0.024634823132019687 0 0.023558426083778602 0.018717206772235113 0 0.02325022029446594 0.018616630153050436 0 0.023754421499467906 0.018267718488914189 0 0.023536884020706937 0.013847906860162925 0 0.02412765319009285 0.016188967635937863 0 0.024700037019665704 0.013610207050446615 0 0.02458533600575348 0.013589450628046422 0 0.024581301465433029 0.013762327770806894 0 0.024734115042551699 0.013408792040014401 0 0.024700037019665704 0.013610207050446615 0 0.02458533600575348 0.013589450628046422 0 0.024344392432769858 0.015879086567604526 0 0.02412765319009285 0.016188967635937863 0 0.024115860617036376 0.017995031590555894 0 0.024110040581035334 0.018200480342158817 0 0.023754421499467906 0.018267718488914189 0 0.024528191088696735 0.01388896924755441 0 0.02458533600575348 0.013589450628046422 0 0.024581301465433029 0.013762327770806894 0 0.024528191088696735 0.01388896924755441 0 0.024581301465433029 0.013762327770806894 0 0.024552655658704028 0.013921329746863133 0 0.024581301465433029 0.013762327770806894 0 0.024552655658704028 0.013921329746863133 0 0.024603044013066046 0.013794062037010625 0 0.024700037019665704 0.013610207050446615 0 0.024581301465433029 0.013762327770806894 0 0.024603044013066046 0.013794062037010625 0 0.024700037019665704 0.013610207050446615 0 0.024711243570078617 0.013759366099175279 0 0.024603044013066046 0.013794062037010625 0 0.024711243570078617 0.013759366099175279 0 0.024895497345035746 0.013475209167836727 0 0.024899606678945838 0.013759473232358137 0 0.024700037019665704 0.013610207050446615 0 0.024711243570078617 0.013759366099175279 0 0.024895497345035746 0.013475209167836727 0 0.023811926785493896 0.011228255567073809 0 0.025533498389921479 0.01367215931911654 0 0.02583178229014357 0.01023900215357861 0 0.023234069304885453 0.010409208753706146 0 0.025517997449248667 0.01341738303678976 0 0.024895497345035746 0.013475209167836727 0 0.025517997449248667 0.01341738303678976 0 0.024899606678945838 0.013759473232358137 0 0.02583178229014357 0.01023900215357861 0 0.023234069304885453 0.010409208753706146 0 0.023997573082575861 0.0078098833021950434 0 0.024734115042551699 0.013408792040014401 0 0.024700037019665704 0.013610207050446615 0 0.024895497345035746 0.013475209167836727 0 0.020846498503334341 0.007623297643287473 0 0.023234069304885453 0.010409208753706146 0 0.023997573082575861 0.0078098833021950434 0 0.023536884020706937 0.013847906860162925 0 0.023811926785493896 0.011228255567073809 0 0.02583178229014357 0.01023900215357861 0 0.023997573082575861 0.0078098833021950434 0 0.0266123676287605 0.0083850310963477209 0 0.023997573082575861 0.0078098833021950434 0 0.024278263856789935 0.005071527428598282 0 0.027351864228525525 0.00608074275929285 0 0.020846498503334341 0.007623297643287473 0 0.023997573082575861 0.0078098833021950434 0 0.024278263856789935 0.005071527428598282 0 0.025141634222869743 0.019923613033429721 0 0.018743847630944263 0.024861353174205358 0 0.023839543572681636 0.024250046847661976 0 0.018743847630944263 0.024861353174205358 0 0.023839543572681636 0.024250046847661976 0 0.02422136799304625 0.028009425042128378 0 0.023536884020706937 0.013847906860162925 0 0.025038494430961032 0.021406299448167611 0 0.03294529895955451 0.023088865834425622 0 0.032316153899452589 0.023337633070307826 0 0.03303331055767731 0.023616904986848281 0 0.03294529895955451 0.023088865834425622 0 0.032316153899452589 0.023337633070307826 0 0.032513412095623251 0.022476546262166087 0 0.025038494430961032 0.021406299448167611 0 0.029952562962689264 0.014213930947996547 0 0.027351864228525525 0.00608074275929285 0 0.0266123676287605 0.0083850310963477209 0 0.030274082537257843 0.0071690963585029546 0 0.023997573082575861 0.0078098833021950434 0 0.027351864228525525 0.00608074275929285 0 0.0266123676287605 0.0083850310963477209 0 0.029952562962689264 0.014213930947996547 0 0.03161416048328132 0.015552068568742321 0 0.0266123676287605 0.0083850310963477209 0 0.030274082537257843 0.0071690963585029546 0 0.02830693364810612 0.0097749851100788158 0 0.030274082537257843 0.0071690963585029546 0 0.02830693364810612 0.0097749851100788158 0 0.03062700271549287 0.0092677859918205482 0 0.02830693364810612 0.0097749851100788158 0 0.029654185767539764 0.011032396607673505 0 0.03062700271549287 0.0092677859918205482 0 0.02583178229014357 0.01023900215357861 0 0.02830693364810612 0.0097749851100788158 0 0.027352144961752391 0.011667173432837271 0 0.02583178229014357 0.01023900215357861 0 0.0266123676287605 0.0083850310963477209 0 0.02830693364810612 0.0097749851100788158 0 0.02583178229014357 0.01023900215357861 0 0.027352144961752391 0.011667173432837271 0 0.025517997449248667 0.01341738303678976 0 0.027352144961752391 0.011667173432837271 0 0.027975235736094121 0.013728417555963438 0 0.025517997449248667 0.01341738303678976 0 0.027352144961752391 0.011667173432837271 0 0.029654185767539764 0.011032396607673505 0 0.027975235736094121 0.013728417555963438 0 0.029654185767539764 0.011032396607673505 0 0.027975235736094121 0.013728417555963438 0 0.031980849781688678 0.011603069790299871 0 0.02830693364810612 0.0097749851100788158 0 0.027352144961752391 0.011667173432837271 0 0.029654185767539764 0.011032396607673505 0 0.031255686518365342 0.011386871305343179 0 0.031238105497300842 0.011454850197025288 0 0.031895670012872711 0.012154072375456891 0 0.029619800752732028 0.012517854148034888 0 0.031789110957303503 0.011709817597636262 0 0.033172143606505937 0.010359099600091853 0 0.033884812034448805 0.010923204255741205 0 0.035095667678955916 0.0092581371396670432 0 0.035438084460928207 0.0098042237627897939 0 0.035638448429925647 0.0096436669773555563 0 0.031255686518365342 0.011386871305343179 0 0.03117202537368326 0.011180355492385287 0 0.031114711573276197 0.011042937403546194 0 0.033172143606505937 0.010359099600091853 0 0.032206435556058441 0.010296545778293422 0 0.031255686518365342 0.011386871305343179 0 0.031114711573276197 0.011042937403546194 0 0.031078186856578035 0.010997256266436243 0 0.029619800752732028 0.012517854148034888 0 0.028103406386408642 0.012547482786189199 0 0.03117202537368326 0.011180355492385287 0 0.031238105497300842 0.011454850197025288 0 0.031061618813483495 0.010866600994107141 0 0.031255686518365342 0.011386871305343179 0 0.03117202537368326 0.011180355492385287 0 0.031238105497300842 0.011454850197025288 0 0.027975235736094121 0.013728417555963438 0 0.025517997449248667 0.01341738303678976 0 0.025131892438313201 0.014222474357027568 0 0.025517997449248667 0.01341738303678976 0 0.025131892438313201 0.014222474357027568 0 0.024899606678945838 0.013759473232358137 0 0.02461100503247916 0.014026766361543293 0 0.024711243570078617 0.013759366099175279 0 0.024899606678945838 0.013759473232358137 0 0.02461100503247916 0.014026766361543293 0 0.025131892438313201 0.014222474357027568 0 0.024899606678945838 0.013759473232358137 0 0.030191198512534431 0.01031333509243864 0 0.031061618813483495 0.010866600994107141 0 0.030830924568845831 0.010822789301433123 0 0.027361221260046167 0.012186434186502617 0 0.028103406386408642 0.012547482786189199 0 0.031061618813483495 0.010866600994107141 0 0.031114711573276197 0.011042937403546194 0 0.030830924568845831 0.010822789301433123 0 0.03117202537368326 0.011180355492385287 0 0.031061618813483495 0.010866600994107141 0 0.031114711573276197 0.011042937403546194 0 0.032206435556058441 0.010296545778293422 0 0.030869558089253311 0.01112819876643761 0 0.031114711573276197 0.011042937403546194 0 0.031078186856578035 0.010997256266436243 0 0.030830924568845831 0.010822789301433123 0 0.029722907087133359 0.011117796338288754 0 0.030830924568845831 0.010822789301433123 0 0.030785149393141305 0.011199022291737939 0 0.029722907087133359 0.011117796338288754 0 0.030191198512534431 0.01031333509243864 0 0.030830924568845831 0.010822789301433123 0 0.031078186856578035 0.010997256266436243 0 0.030830924568845831 0.010822789301433123 0 0.030785149393141305 0.011199022291737939 0 0.031561101432482162 0.012422539342703509 0 0.030785149393141305 0.011199022291737939 0 0.033113724396388051 0.011005457541105768 0 0.033371787601790229 0.0094470924505924807 0 0.030785149393141305 0.011199022291737939 0 0.033113724396388051 0.011005457541105768 0 0.033371787601790229 0.0094470924505924807 0 0.033113724396388051 0.011005457541105768 0 0.034596983730630942 0.010037941192185791 0 0.034462708869498926 0.010978112163984085 0 0.033113724396388051 0.011005457541105768 0 0.034596983730630942 0.010037941192185791 0 0.034462708869498926 0.010978112163984085 0 0.035301271854671849 0.010298295214487784 0 0.034596983730630942 0.010037941192185791 0 0.035301271854671849 0.010298295214487784 0 0.035438084460928207 0.0098042237627897939 0 0.034596983730630942 0.010037941192185791 0 0.035095667678955916 0.0092581371396670432 0 0.035438084460928207 0.0098042237627897939 0 0.034596983730630942 0.010037941192185791 0 0.035095667678955916 0.0092581371396670432 0 0.033371787601790229 0.0094470924505924807 0 0.034596983730630942 0.010037941192185791 0 0.036144668114713743 0.0098646301573204545 0 0.035993877913988948 0.0099534038103906864 0 0.035866276921446401 0.0098729293821472972 0 0.036144668114713743 0.0098646301573204545 0 0.035823494033275567 0.0097977579876450116 0 0.035893174824183305 0.010079385786357763 0 0.036144668114713743 0.0098646301573204545 0 0.035823494033275567 0.0097977579876450116 0 0.035866276921446401 0.0098729293821472972 0 0.035438084460928207 0.0098042237627897939 0 0.035823494033275567 0.0097977579876450116 0 0.035893174824183305 0.010079385786357763 0 0.035438084460928207 0.0098042237627897939 0 0.035823494033275567 0.0097977579876450116 0 0.035638448429925647 0.0096436669773555563 0 0.035748814323923184 0.010606022452270915 0 0.035301271854671849 0.010298295214487784 0 0.035893174824183305 0.010079385786357763 0 0.035301271854671849 0.010298295214487784 0 0.035438084460928207 0.0098042237627897939 0 0.035893174824183305 0.010079385786357763 0 0.036369317269803247 0.0097648288342492215 0 0.036144668114713743 0.0098646301573204545 0 0.035893174824183305 0.010079385786357763 0 0.036438600486999845 0.0094572649103929086 0 0.036144668114713743 0.0098646301573204545 0 0.036184864669483452 0.0098923327722346861 0 0.036438600486999845 0.0094572649103929086 0 0.036308140789991013 0.0097211429098728892 0 0.036184864669483452 0.0098923327722346861 0 0.036308140789991013 0.0097211429098728892 0 0.036184864669483452 0.0098923327722346861 0 0.036147935390211633 0.010097773120581343 0 0.036144668114713743 0.0098646301573204545 0 0.036184864669483452 0.0098923327722346861 0 0.035993877913988948 0.0099534038103906864 0 0.035993877913988948 0.0099534038103906864 0 0.035778106459235001 0.010126820074577896 0 0.035866276921446401 0.0098729293821472972 0 0.036184864669483452 0.0098923327722346861 0 0.035993877913988948 0.0099534038103906864 0 0.035994533725254282 0.01011395529705637 0 0.035993877913988948 0.0099534038103906864 0 0.035994533725254282 0.01011395529705637 0 0.035778106459235001 0.010126820074577896 0 0.036184864669483452 0.0098923327722346861 0 0.035994533725254282 0.01011395529705637 0 0.036147935390211633 0.010097773120581343 0 0.035994533725254282 0.01011395529705637 0 0.036002143413644237 0.010264843728646866 0 0.036147935390211633 0.010097773120581343 0 0.035994533725254282 0.01011395529705637 0 0.036002143413644237 0.010264843728646866 0 0.035815294010865362 0.010307333603226403 0 0.036002143413644237 0.010264843728646866 0 0.035993421738529291 0.010324530244959215 0 0.036056198618932833 0.010355747209135719 0 0.036002143413644237 0.010264843728646866 0 0.035815294010865362 0.010307333603226403 0 0.035993421738529291 0.010324530244959215 0 0.035815294010865362 0.010307333603226403 0 0.035993421738529291 0.010324530244959215 0 0.035898915068747393 0.010207011867834853 0 0.035778106459235001 0.010126820074577896 0 0.03555516099040569 0.010070083384144198 0 0.035547340678516268 0.010405919225082487 0 0.035994533725254282 0.01011395529705637 0 0.035815294010865362 0.010307333603226403 0 0.035778106459235001 0.010126820074577896 0 0.035815294010865362 0.010307333603226403 0 0.035778106459235001 0.010126820074577896 0 0.035547340678516268 0.010405919225082487 0 0.03555516099040569 0.010070083384144198 0 0.035835240188062896 0.0098408786733078027 0 0.035058623474592869 0.010591225071716821 0 0.03555516099040569 0.010070083384144198 0 0.035760722945781552 0.0098034993153573325 0 0.035835240188062896 0.0098408786733078027 0 0.03555516099040569 0.010070083384144198 0 0.035760722945781552 0.0098034993153573325 0 0.035866276921446401 0.0098729293821472972 0 0.035823494033275567 0.0097977579876450116 0 0.035760722945781552 0.0098034993153573325 0 0.035866276921446401 0.0098729293821472972 0 0.035778106459235001 0.010126820074577896 0 0.03555516099040569 0.010070083384144198 0 0.035866276921446401 0.0098729293821472972 0 0.035760722945781552 0.0098034993153573325 0 0.035638448429925647 0.0096436669773555563 0 0.035835240188062896 0.0098408786733078027 0 0.035095667678955916 0.0092581371396670432 0 0.035638448429925647 0.0096436669773555563 0 0.035835240188062896 0.0098408786733078027 0 0.035823494033275567 0.0097977579876450116 0 0.035760722945781552 0.0098034993153573325 0 0.035638448429925647 0.0096436669773555563 0 0.031238105497300842 0.011454850197025288 0 0.031895670012872711 0.012154072375456891 0 0.031980849781688678 0.011603069790299871 0 0.029654185767539764 0.011032396607673505 0 0.031980849781688678 0.011603069790299871 0 0.032073526787274625 0.010344402290076623 0 0.031895670012872711 0.012154072375456891 0 0.031980849781688678 0.011603069790299871 0 0.033091054129292488 0.010928173465740263 0 0.031980849781688678 0.011603069790299871 0 0.032073526787274625 0.010344402290076623 0 0.033091054129292488 0.010928173465740263 0 0.031895670012872711 0.012154072375456891 0 0.035058623474592869 0.010591225071716821 0 0.033091054129292488 0.010928173465740263 0 0.033884812034448805 0.010923204255741205 0 0.034979671241079667 0.010588657539567838 0 0.032073526787274625 0.010344402290076623 0 0.033091054129292488 0.010928173465740263 0 0.034099917931740532 0.0099060205482544295 0 0.035058623474592869 0.010591225071716821 0 0.033091054129292488 0.010928173465740263 0 0.034099917931740532 0.0099060205482544295 0 0.034099917931740532 0.0099060205482544295 0 0.03343147430777052 0.0081906561101401966 0 0.035853287620905352 0.0098366936371136332 0 0.032073526787274625 0.010344402290076623 0 0.034099917931740532 0.0099060205482544295 0 0.03343147430777052 0.0081906561101401966 0 0.034006310489135418 0.014453879374117944 0 0.036224542682620826 0.013107340493177591 0 0.03269351676016552 0.008293439491953894 0 0.034006310489135418 0.014453879374117944 0 0.032073526787274625 0.010344402290076623 0 0.03062700271549287 0.0092677859918205482 0 0.032807365201082031 0.0083330535386954702 0 0.029654185767539764 0.011032396607673505 0 0.032073526787274625 0.010344402290076623 0 0.03062700271549287 0.0092677859918205482 0 0.03303331055767731 0.023616904986848281 0 0.033688767395144772 0.0238726164976302 0 0.033434646536728119 0.023277427695664304 0 0.03161416048328132 0.015552068568742321 0 0.034006310489135418 0.014453879374117944 0 0.030274082537257843 0.0071690963585029546 0 0.03062700271549287 0.0092677859918205482 0 0.032807365201082031 0.0083330535386954702 0 0.033688767395144772 0.0238726164976302 0 0.033991676654472447 0.023342089308404444 0 0.033434646536728119 0.023277427695664304 0 0.03763196860081585 0.017287409857370758 0 0.037325523730219592 0.018308461064183441 0 0.036361211284907644 0.017701679534609115 0 0.034006310489135418 0.014453879374117944 0 0.035460063756266043 0.021816590874588641 0 0.035460063756266043 0.021816590874588641 0 0.035568774806819289 0.021107121550502383 0 0.033991676654472447 0.023342089308404444 0 0.033434646536728119 0.023277427695664304 0 0.033492396634054275 0.022730711473887756 0 0.03294529895955451 0.023088865834425622 0 0.033434646536728119 0.023277427695664304 0 0.033492396634054275 0.022730711473887756 0 0.03294529895955451 0.023088865834425622 0 0.03303331055767731 0.023616904986848281 0 0.033434646536728119 0.023277427695664304 0 0.035548076408270915 0.018603400773601286 0 0.036409264571666225 0.018628019778439742 0 0.036361211284907644 0.017701679534609115 0 0.037325523730219592 0.018308461064183441 0 0.036409264571666225 0.018628019778439742 0 0.036361211284907644 0.017701679534609115 0 0.037325523730219592 0.018308461064183441 0 0.036409264571666225 0.018628019778439742 0 0.036711011989324784 0.019893258167507363 0 0.035548076408270915 0.018603400773601286 0 0.036361211284907644 0.017701679534609115 0 0.035609520736754482 0.017246753839546262 0 0.036361211284907644 0.017701679534609115 0 0.036356597556016987 0.016767536678506896 0 0.035609520736754482 0.017246753839546262 0 0.036356597556016987 0.016767536678506896 0 0.035701855143450846 0.016390950700758154 0 0.035609520736754482 0.017246753839546262 0 0.03763196860081585 0.017287409857370758 0 0.036361211284907644 0.017701679534609115 0 0.036356597556016987 0.016767536678506896 0 0.03555516099040569 0.010070083384144198 0 0.035058623474592869 0.010591225071716821 0 0.035547340678516268 0.010405919225082487 0 0.035058623474592869 0.010591225071716821 0 0.035853287620905352 0.0098366936371136332 0 0.035547340678516268 0.010405919225082487 0 0.035853287620905352 0.0098366936371136332 0 0.035547340678516268 0.010405919225082487 0 0.035898915068747393 0.010207011867834853 0 0.035058623474592869 0.010591225071716821 0 0.034099917931740532 0.0099060205482544295 0 0.035853287620905352 0.0098366936371136332 0 0.036224542682620826 0.013107340493177591 0 0.036481851441714723 0.012941891560950278 0 0.035853287620905352 0.0098366936371136332 0 0.035898915068747393 0.010207011867834853 0 0.036102363372397001 0.01035366351123379 0 0.035815294010865362 0.010307333603226403 0 0.035547340678516268 0.010405919225082487 0 0.035898915068747393 0.010207011867834853 0 0.035993421738529291 0.010324530244959215 0 0.035898915068747393 0.010207011867834853 0 0.036047176629208463 0.010346842264622668 0 0.035898915068747393 0.010207011867834853 0 0.036047176629208463 0.010346842264622668 0 0.036102363372397001 0.01035366351123379 0 0.036597804102521662 0.012410697768452194 0 0.036481851441714723 0.012941891560950278 0 0.036047176629208463 0.010346842264622668 0 0.036055609350339628 0.010380288801914687 0 0.036020038191533099 0.010483756310306073 0 0.036481851441714723 0.012941891560950278 0 0.03614302268371785 0.015577619791285661 0 0.038548377915861416 0.013538132491549306 0 0.036810856059535497 0.014300657000903981 0 0.036812227444574033 0.012647754497086178 0 0.035701855143450846 0.016390950700758154 0 0.035609520736754482 0.017246753839546262 0 0.035439105430580826 0.016322871540216981 0 0.035609520736754482 0.017246753839546262 0 0.035592516480415753 0.016862448405603223 0 0.035439105430580826 0.016322871540216981 0 0.035609520736754482 0.017246753839546262 0 0.035592516480415753 0.016862448405603223 0 0.035699116870717744 0.017731288289225409 0 0.035548076408270915 0.018603400773601286 0 0.035609520736754482 0.017246753839546262 0 0.035699116870717744 0.017731288289225409 0 0.035621089670783479 0.018611965235391371 0 0.035222635954349629 0.018848917419578826 0 0.034999625306429527 0.016886287405890564 0 0.035592516480415753 0.016862448405603223 0 0.03568240170643909 0.017787866175888716 0 0.035592516480415753 0.016862448405603223 0 0.03568240170643909 0.017787866175888716 0 0.035699116870717744 0.017731288289225409 0 0.034999625306429527 0.016886287405890564 0 0.035592516480415753 0.016862448405603223 0 0.034999854087582119 0.015128913044727852 0 0.034999973341335144 0.015125246297479016 0 0.036810856059535497 0.014300657000903981 0 0.034999982631339341 0.013404330336236971 0 0.034999999228557885 0.015125385913893038 0 0.03614302268371785 0.015577619791285661 0 0.035592516480415753 0.016862448405603223 0 0.034999854087582119 0.015128913044727852 0 0.035439105430580826 0.016322871540216981 0 0.036810856059535497 0.014300657000903981 0 0.034999982631339341 0.013404330336236971 0 0.036812227444574033 0.012647754497086178 0 0.034999982631339341 0.013404330336236971 0 0.034999979727281534 0.0116833989848727 0 0.036812227444574033 0.012647754497086178 0 0.034999931596782656 0.011683208563593126 0 0.036421722503146882 0.011612966206353376 0 0.03499993631989954 0.011457691169597221 0 0.035960737215955337 0.010637705530597924 0 0.035700252265012007 0.010160941719558508 0 0.035000025349347021 0.01146200100794747 0 0.035000081277188483 0.011680550352899617 0 0.035866537055517227 0.010808103734204067 0 0.035000179666931835 0.011459395870677461 0 0.03588883388347068 0.010751923740094095 0 0.035000081277188483 0.011680550352899617 0 0.035866537055517227 0.010808103734204067 0 0.035875391961095453 0.010853630716647801 0 0.03588883388347068 0.010751923740094095 0 0.036062553040742788 0.010409867899991656 0 0.035866537055517227 0.010808103734204067 0 0.035875391961095453 0.010853630716647801 0 0.036020038191533099 0.010483756310306073 0 0.036481851441714723 0.012941891560950278 0 0.036421722503146882 0.011612966206353376 0 0.035866537055517227 0.010808103734204067 0 0.036020038191533099 0.010483756310306073 0 0.036056198618932833 0.010355747209135719 0 0.036055609350339628 0.010380288801914687 0 0.035875391961095453 0.010853630716647801 0 0.036020038191533099 0.010483756310306073 0 0.035993421738529291 0.010324530244959215 0 0.036020038191533099 0.010483756310306073 0 0.036056198618932833 0.010355747209135719 0 0.035993421738529291 0.010324530244959215 0 0.036047176629208463 0.010346842264622668 0 0.036020038191533099 0.010483756310306073 0 0.036056198618932833 0.010355747209135719 0 0.036147935390211633 0.010097773120581343 0 0.036095130610755886 0.010239010626480782 0 0.036002143413644237 0.010264843728646866 0 0.036056198618932833 0.010355747209135719 0 0.036147935390211633 0.010097773120581343 0 0.035960737215955337 0.010637705530597924 0 0.036095130610755886 0.010239010626480782 0 0.036026889879301659 0.010077635110342481 0 0.035960737215955337 0.010637705530597924 0 0.036056198618932833 0.010355747209135719 0 0.036095130610755886 0.010239010626480782 0 0.036026889879301659 0.010077635110342481 0 0.036217288376418286 0.0097803313126847615 0 0.036062141019682761 0.0093240838194394941 0 0.036095130610755886 0.010239010626480782 0 0.036026889879301659 0.010077635110342481 0 0.036217288376418286 0.0097803313126847615 0 0.036308140789991013 0.0097211429098728892 0 0.036147935390211633 0.010097773120581343 0 0.036217288376418286 0.0097803313126847615 0 0.036147935390211633 0.010097773120581343 0 0.036095130610755886 0.010239010626480782 0 0.036217288376418286 0.0097803313126847615 0 0.036423486809519248 0.0089307044135733833 0 0.036308140789991013 0.0097211429098728892 0 0.036217288376418286 0.0097803313126847615 0 0.036423486809519248 0.0089307044135733833 0 0.036217288376418286 0.0097803313126847615 0 0.036062141019682761 0.0093240838194394941 0 0.03555366603517307 0.0088031209722986836 0 0.036062141019682761 0.0093240838194394941 0 0.035700252265012007 0.010160941719558508 0 0.03555366603517307 0.0088031209722986836 0 0.034999648477806164 0.0095396043885842847 0 0.035700252265012007 0.010160941719558508 0 0.03499993631989954 0.011457691169597221 0 0.034999648477806164 0.0095396043885842847 0 0.035700252265012007 0.010160941719558508 0 0.036026889879301659 0.010077635110342481 0 0.036062141019682761 0.0093240838194394941 0 0.035700252265012007 0.010160941719558508 0 0.035960737215955337 0.010637705530597924 0 0.036026889879301659 0.010077635110342481 0 0.035700252265012007 0.010160941719558508 0 0.035701749293584314 0.023887151351833048 0 0.035000053248592553 0.025846658523612648 0 0.034999342190078449 0.024015463401588263 0 0.030758234186948667 0.028147680172475958 0 0.032993262493812431 0.026495617508309244 0 0.031479509529663455 0.02579753912337639 0 0.033136897181805201 0.026053725374610221 0 0.034101677383679772 0.026197080847733412 0 0.034101677383679772 0.026197080847733412 0 0.033718261940709704 0.02607125355349867 0 0.030758234186948667 0.028147680172475958 0 0.030123818458491807 0.026646893509001589 0 0.031479509529663455 0.02579753912337639 0 0.02650346331540741 0.029696701666088121 0 0.032557378284576374 0.028404946695078089 0 0.030123818458491807 0.026646893509001589 0 0.028802027927473259 0.02685917737413171 0 0.029985620184673996 0.025116903780957163 0 0.030123818458491807 0.026646893509001589 0 0.028802027927473259 0.02685917737413171 0 0.029176974263254586 0.027954116849406262 0 0.025380006748409234 0.031931596558741865 0 0.025699261772105665 0.031831839890692444 0 0.025647631127769462 0.03208988873543913 0 0.02650346331540741 0.029696701666088121 0 0.026684983437118687 0.029897509789716982 0 0.025380006748409234 0.031931596558741865 0 0.0253959470666731 0.031422163457229646 0 0.025699261772105665 0.031831839890692444 0 0.028802027927473259 0.02685917737413171 0 0.027687037150256357 0.028565886841287774 0 0.029176974263254586 0.027954116849406262 0 0.027687037150256357 0.028565886841287774 0 0.029176974263254586 0.027954116849406262 0 0.028488268625801973 0.02961840134161144 0 0.030758234186948667 0.028147680172475958 0 0.030123818458491807 0.026646893509001589 0 0.029176974263254586 0.027954116849406262 0 0.030758234186948667 0.028147680172475958 0 0.029176974263254586 0.027954116849406262 0 0.028488268625801973 0.02961840134161144 0 0.033136897181805201 0.026053725374610221 0 0.031878951857354912 0.026079405173568822 0 0.027687037150256357 0.028565886841287774 0 0.028488268625801973 0.02961840134161144 0 0.026733971011779364 0.030053163175557604 0 0.03531725604076414 0.022493120074177229 0 0.035001571810261506 0.02219455678946131 0 0.034073665074328921 0.022421545199791459 0 0.028488268625801973 0.02961840134161144 0 0.026936039428911391 0.030065213262302291 0 0.026733971011779364 0.030053163175557604 0 0.031878951857354912 0.026079405173568822 0 0.030550679501804606 0.026250324884406262 0 0.03531725604076414 0.022493120074177229 0 0.035001571810261506 0.02219455678946131 0 0.035368374865470759 0.02214606470564744 0 0.03531725604076414 0.022493120074177229 0 0.035368374865470759 0.02214606470564744 0 0.035444568590161436 0.022957031675501432 0 0.035368374865470759 0.02214606470564744 0 0.035444568590161436 0.022957031675501432 0 0.034999586076851476 0.022226955523582389 0 0.035701749293584314 0.023887151351833048 0 0.03531725604076414 0.022493120074177229 0 0.035444568590161436 0.022957031675501432 0 0.035444568590161436 0.022957031675501432 0 0.034999342190078449 0.024015463401588263 0 0.034999586076851476 0.022226955523582389 0 0.035701749293584314 0.023887151351833048 0 0.035444568590161436 0.022957031675501432 0 0.034999342190078449 0.024015463401588263 0 0.034999586076851476 0.022226955523582389 0 0.035221540652925439 0.021241628797373496 0 0.034999219895203514 0.020437211769480275 0 0.035368374865470759 0.02214606470564744 0 0.034999586076851476 0.022226955523582389 0 0.035221540652925439 0.021241628797373496 0 0.035368374865470759 0.02214606470564744 0 0.035221540652925439 0.021241628797373496 0 0.035065683452808208 0.021383313006838101 0 0.035221540652925439 0.021241628797373496 0 0.035142205661952836 0.020309007166605077 0 0.035065683452808208 0.021383313006838101 0 0.035221540652925439 0.021241628797373496 0 0.034999219895203514 0.020437211769480275 0 0.035142205661952836 0.020309007166605077 0 0.034999219895203514 0.020437211769480275 0 0.034999555402407005 0.01865174521049219 0 0.035142205661952836 0.020309007166605077 0 0.034999555402407005 0.01865174521049219 0 0.035142205661952836 0.020309007166605077 0 0.034938730197223572 0.020050422118271089 0 0.035142205661952836 0.020309007166605077 0 0.034938730197223572 0.020050422118271089 0 0.034853316734684385 0.020547167825928251 0 0.034999625306429527 0.016886287405890564 0 0.034999644627662405 0.018646983573077508 0 0.03568240170643909 0.017787866175888716 0 0.034999760303675152 0.018648168834091303 0 0.035201562888441271 0.018905723367453366 0 0.03456150901891708 0.020032749552125122 0 0.03483144955684149 0.021079825182416006 0 0.035176099088170321 0.020489782411580552 0 0.035548076408270915 0.018603400773601286 0 0.03456150901891708 0.020032749552125122 0 0.035176099088170321 0.020489782411580552 0 0.035201562888441271 0.018905723367453366 0 0.035222635954349629 0.018848917419578826 0 0.034938730197223572 0.020050422118271089 0 0.03456150901891708 0.020032749552125122 0 0.034853316734684385 0.020547167825928251 0 0.034853316734684385 0.020547167825928251 0 0.03483144955684149 0.021079825182416006 0 0.035065683452808208 0.021383313006838101 0 0.03456150901891708 0.020032749552125122 0 0.034853316734684385 0.020547167825928251 0 0.03483144955684149 0.021079825182416006 0 0.03483144955684149 0.021079825182416006 0 0.035065683452808208 0.021383313006838101 0 0.034646792709749803 0.021970969139516506 0 0.035142205661952836 0.020309007166605077 0 0.034853316734684385 0.020547167825928251 0 0.035065683452808208 0.021383313006838101 0 0.035001571810261506 0.02219455678946131 0 0.035368374865470759 0.02214606470564744 0 0.035065683452808208 0.021383313006838101 0 0.035001571810261506 0.02219455678946131 0 0.035065683452808208 0.021383313006838101 0 0.034646792709749803 0.021970969139516506 0 0.034646792709749803 0.021970969139516506 0 0.033810570785981493 0.022234048187970635 0 0.034073665074328921 0.022421545199791459 0 0.035001571810261506 0.02219455678946131 0 0.034646792709749803 0.021970969139516506 0 0.034073665074328921 0.022421545199791459 0 0.030489906322176234 0.025987398151827733 0 0.030550679501804606 0.026250324884406262 0 0.034646792709749803 0.021970969139516506 0 0.035033904448507021 0.021758418007285091 0 0.033810570785981493 0.022234048187970635 0 0.035033904448507021 0.021758418007285091 0 0.03397774175280386 0.022141300349256297 0 0.033810570785981493 0.022234048187970635 0 0.03483144955684149 0.021079825182416006 0 0.034646792709749803 0.021970969139516506 0 0.035033904448507021 0.021758418007285091 0 0.03483144955684149 0.021079825182416006 0 0.035033904448507021 0.021758418007285091 0 0.035176099088170321 0.020489782411580552 0 0.03513342591236996 0.021746381805958819 0 0.035568774806819289 0.021107121550502383 0 0.035033904448507021 0.021758418007285091 0 0.034378579447344924 0.02277637457977499 0 0.03397774175280386 0.022141300349256297 0 0.035033904448507021 0.021758418007285091 0 0.036711011989324784 0.019893258167507363 0 0.035176099088170321 0.020489782411580552 0 0.036409264571666225 0.018628019778439742 0 0.036711011989324784 0.019893258167507363 0 0.035176099088170321 0.020489782411580552 0 0.035548076408270915 0.018603400773601286 0 0.036409264571666225 0.018628019778439742 0 0.035176099088170321 0.020489782411580552 0 0.034378579447344924 0.02277637457977499 0 0.033492396634054275 0.022730711473887756 0 0.03397774175280386 0.022141300349256297 0 0.033991676654472447 0.023342089308404444 0 0.034378579447344924 0.02277637457977499 0 0.033492396634054275 0.022730711473887756 0 0.033492396634054275 0.022730711473887756 0 0.03397774175280386 0.022141300349256297 0 0.033396919501553435 0.022071314568445102 0 0.033492396634054275 0.022730711473887756 0 0.033396919501553435 0.022071314568445102 0 0.032513412095623251 0.022476546262166087 0 0.02645461734517169 0.029980802128666925 0 0.026394720759298607 0.030025145141255719 0 0.026081136842730262 0.029841293876785344 0 0.02645461734517169 0.029980802128666925 0 0.027222242823920492 0.029686851974484361 0 0.026394720759298607 0.030025145141255719 0 0.03397774175280386 0.022141300349256297 0 0.033396919501553435 0.022071314568445102 0 0.033810570785981493 0.022234048187970635 0 0.029875491077683728 0.025916426197220292 0 0.030489906322176234 0.025987398151827733 0 0.027222242823920492 0.029686851974484361 0 0.026394720759298607 0.030025145141255719 0 0.02640728377691871 0.030432266790827892 0 0.026394720759298607 0.030025145141255719 0 0.02640728377691871 0.030432266790827892 0 0.02616003251954957 0.030571886518332619 0 0.026117688225450915 0.031235140511381994 0 0.02640728377691871 0.030432266790827892 0 0.02616003251954957 0.030571886518332619 0 0.026117688225450915 0.031235140511381994 0 0.025925800381519745 0.031658829980588887 0 0.02616003251954957 0.030571886518332619 0 0.026117688225450915 0.031235140511381994 0 0.026263700512282915 0.031080285164989289 0 0.02640728377691871 0.030432266790827892 0 0.026117688225450915 0.031235140511381994 0 0.025979624567100807 0.031992513148441641 0 0.026103877522260073 0.031728265905451358 0 0.026117688225450915 0.031235140511381994 0 0.025979624567100807 0.031992513148441641 0 0.025925800381519745 0.031658829980588887 0 0.026263700512282915 0.031080285164989289 0 0.026338147359718983 0.031015070711263689 0 0.026103877522260073 0.031728265905451358 0 0.026117688225450915 0.031235140511381994 0 0.026263700512282915 0.031080285164989289 0 0.026103877522260073 0.031728265905451358 0 0.026263700512282915 0.031080285164989289 0 0.026625553537797251 0.030401921514468966 0 0.026338147359718983 0.031015070711263689 0 0.027222242823920492 0.029686851974484361 0 0.02640728377691871 0.030432266790827892 0 0.026625553537797251 0.030401921514468966 0 0.026263700512282915 0.031080285164989289 0 0.02640728377691871 0.030432266790827892 0 0.026625553537797251 0.030401921514468966 0 0.027222242823920492 0.029686851974484361 0 0.026625553537797251 0.030401921514468966 0 0.026936039428911391 0.030065213262302291 0 0.026625553537797251 0.030401921514468966 0 0.026936039428911391 0.030065213262302291 0 0.026488869167166397 0.030541321896106789 0 0.026936039428911391 0.030065213262302291 0 0.026733971011779364 0.030053163175557604 0 0.026488869167166397 0.030541321896106789 0 0.026684983437118687 0.029897509789716982 0 0.026636775408272646 0.030101377298869123 0 0.0253959470666731 0.031422163457229646 0 0.026733971011779364 0.030053163175557604 0 0.026165906339670145 0.031069569757487672 0 0.026733971011779364 0.030053163175557604 0 0.026165906339670145 0.031069569757487672 0 0.026488869167166397 0.030541321896106789 0 0.026165906339670145 0.031069569757487672 0 0.026488869167166397 0.030541321896106789 0 0.026121963592308745 0.03141549203953866 0 0.026625553537797251 0.030401921514468966 0 0.026488869167166397 0.030541321896106789 0 0.026338147359718983 0.031015070711263689 0 0.026488869167166397 0.030541321896106789 0 0.026338147359718983 0.031015070711263689 0 0.026121963592308745 0.03141549203953866 0 0.026338147359718983 0.031015070711263689 0 0.026121963592308745 0.03141549203953866 0 0.026083654995653512 0.031927970908073727 0 0.026121963592308745 0.03141549203953866 0 0.02576288690538317 0.032183733498946571 0 0.026083654995653512 0.031927970908073727 0 0.026121963592308745 0.03141549203953866 0 0.025699261772105665 0.031831839890692444 0 0.02576288690538317 0.032183733498946571 0 0.0253959470666731 0.031422163457229646 0 0.026165906339670145 0.031069569757487672 0 0.025699261772105665 0.031831839890692444 0 0.026165906339670145 0.031069569757487672 0 0.026121963592308745 0.03141549203953866 0 0.025699261772105665 0.031831839890692444 0 0.025699261772105665 0.031831839890692444 0 0.02576288690538317 0.032183733498946571 0 0.025647631127769462 0.03208988873543913 0 0.025997827807446555 0.031992238397365355 0 0.024534591380645888 0.033039411742419228 0 0.02576288690538317 0.032183733498946571 0 0.025631048988304622 0.03317881154227581 0 0.024865507804118964 0.033058110172481753 0 0.02576288690538317 0.032183733498946571 0 0.026017852302256783 0.032775813251605022 0 0.026083654995653512 0.031927970908073727 0 0.02576288690538317 0.032183733498946571 0 0.026017852302256783 0.032775813251605022 0 0.025631048988304622 0.03317881154227581 0 0.026017852302256783 0.032775813251605022 0 0.025988532131999535 0.032665867201754933 0 0.026083654995653512 0.031927970908073727 0 0.026017852302256783 0.032775813251605022 0 0.025988532131999535 0.032665867201754933 0 0.026056122907676494 0.033430129321238594 0 0.025988532131999535 0.032665867201754933 0 0.025703562946740866 0.033205324574923312 0 0.025843534182017725 0.033605878371801366 0 0.025988532131999535 0.032665867201754933 0 0.025843534182017725 0.033605878371801366 0 0.026056122907676494 0.033430129321238594 0 0.025988532131999535 0.032665867201754933 0 0.025840432907673266 0.032525137268136738 0 0.025703562946740866 0.033205324574923312 0 0.025988532131999535 0.032665867201754933 0 0.025979624567100807 0.031992513148441641 0 0.025840432907673266 0.032525137268136738 0 0.025988532131999535 0.032665867201754933 0 0.025979624567100807 0.031992513148441641 0 0.026103877522260073 0.031728265905451358 0 0.025988532131999535 0.032665867201754933 0 0.026083654995653512 0.031927970908073727 0 0.026103877522260073 0.031728265905451358 0 0.026338147359718983 0.031015070711263689 0 0.026083654995653512 0.031927970908073727 0 0.026103877522260073 0.031728265905451358 0 0.024941780527433722 0.032621376845009237 0 0.02573775680126783 0.032457763500907545 0 0.025179809442684633 0.033612079719868189 0 0.02573775680126783 0.032457763500907545 0 0.025840432907673266 0.032525137268136738 0 0.025703562946740866 0.033205324574923312 0 0.02573775680126783 0.032457763500907545 0 0.025703562946740866 0.033205324574923312 0 0.025179809442684633 0.033612079719868189 0 0.025979624567100807 0.031992513148441641 0 0.025840432907673266 0.032525137268136738 0 0.025925800381519745 0.031658829980588887 0 0.02573775680126783 0.032457763500907545 0 0.025840432907673266 0.032525137268136738 0 0.025925800381519745 0.031658829980588887 0 0.025703562946740866 0.033205324574923312 0 0.025367241623598543 0.03407852738526633 0 0.025843534182017725 0.033605878371801366 0 0.025703562946740866 0.033205324574923312 0 0.025179809442684633 0.033612079719868189 0 0.025367241623598543 0.03407852738526633 0 0.025179809442684633 0.033612079719868189 0 0.024868592580904292 0.03465316334902209 0 0.025367241623598543 0.03407852738526633 0 0.025179809442684633 0.033612079719868189 0 0.024914636695611517 0.03451264321046759 0 0.024868592580904292 0.03465316334902209 0 0.024914636695611517 0.03451264321046759 0 0.023758164682265638 0.035712196031792903 0 0.024114580100644843 0.035342626101254923 0 0.024444032350239852 0.033497682512013807 0 0.023846176632310721 0.034488112374859534 0 0.024914636695611517 0.03451264321046759 0 0.024114580100644843 0.035342626101254923 0 0.024868592580904292 0.03465316334902209 0 0.024058789466245723 0.032548109532485346 0 0.024146440155985705 0.032409406745193436 0 0.024126159346073796 0.032670130035277259 0 0.024941780527433722 0.032621376845009237 0 0.024058789466245723 0.032548109532485346 0 0.024146440155985705 0.032409406745193436 0 0.024807022815796512 0.032738663459309689 0 0.024444032350239852 0.033497682512013807 0 0.024941780527433722 0.032621376845009237 0 0.025179809442684633 0.033612079719868189 0 0.024914636695611517 0.03451264321046759 0 0.024941780527433722 0.032621376845009237 0 0.024146440155985705 0.032409406745193436 0 0.024266108279520294 0.032403812153453851 0 0.024146440155985705 0.032409406745193436 0 0.024067682535641146 0.031760541622547406 0 0.024310801330637153 0.031967544061326299 0 0.02538218564089215 0.031436802384124801 0 0.024753925878753788 0.030376772657329233 0 0.024067682535641146 0.031760541622547406 0 0.024266108279520294 0.032403812153453851 0 0.023725435361079437 0.031085117480320369 0 0.024146440155985705 0.032409406745193436 0 0.024067682535641146 0.031760541622547406 0 0.024266108279520294 0.032403812153453851 0 0.026500440704737782 0.030507729453221919 0 0.026101536305959318 0.030895253001681298 0 0.026081136842730262 0.029841293876785344 0 0.025659865281021689 0.032305502722153961 0 0.02538218564089215 0.031436802384124801 0 0.02573775680126783 0.032457763500907545 0 0.026500440704737782 0.030507729453221919 0 0.026101536305959318 0.030895253001681298 0 0.024941780527433722 0.032621376845009237 0 0.02573775680126783 0.032457763500907545 0 0.024266108279520294 0.032403812153453851 0 0.02573775680126783 0.032457763500907545 0 0.025925800381519745 0.031658829980588887 0 0.026101536305959318 0.030895253001681298 0 0.025925800381519745 0.031658829980588887 0 0.026101536305959318 0.030895253001681298 0 0.02616003251954957 0.030571886518332619 0 0.026101536305959318 0.030895253001681298 0 0.02616003251954957 0.030571886518332619 0 0.026081136842730262 0.029841293876785344 0 0.02645461734517169 0.029980802128666925 0 0.026081136842730262 0.029841293876785344 0 0.025880536116302921 0.029868716284466853 0 0.026394720759298607 0.030025145141255719 0 0.02616003251954957 0.030571886518332619 0 0.026081136842730262 0.029841293876785344 0 0.026081136842730262 0.029841293876785344 0 0.025880536116302921 0.029868716284466853 0 0.025489546291689195 0.029627396351923775 0 0.026500440704737782 0.030507729453221919 0 0.026081136842730262 0.029841293876785344 0 0.025770532159840157 0.029623738659463401 0 0.026081136842730262 0.029841293876785344 0 0.025489546291689195 0.029627396351923775 0 0.025770532159840157 0.029623738659463401 0 0.029875491077683728 0.025916426197220292 0 0.029633797860865133 0.026901101988177818 0 0.031560309959513894 0.023011350239532952 0 0.032316153899452589 0.023337633070307826 0 0.032513412095623251 0.022476546262166087 0 0.025038494430961032 0.021406299448167611 0 0.029633797860865133 0.026901101988177818 0 0.03294529895955451 0.023088865834425622 0 0.033492396634054275 0.022730711473887756 0 0.032513412095623251 0.022476546262166087 0 0.02502484175804957 0.029973407383216574 0 0.02483691923812912 0.029524708876645305 0 0.024421251243894111 0.028867634599631379 0 0.018743847630944263 0.024861353174205358 0 0.02422136799304625 0.028009425042128378 0 0.024421251243894111 0.028867634599631379 0 0.025038494430961032 0.021406299448167611 0 0.023626243050433031 0.030260891866390312 0 0.02483691923812912 0.029524708876645305 0 0.02431335011000544 0.029110488279154609 0 0.024421251243894111 0.028867634599631379 0 0.02502484175804957 0.029973407383216574 0 0.025880536116302921 0.029868716284466853 0 0.02483691923812912 0.029524708876645305 0 0.025880536116302921 0.029868716284466853 0 0.02483691923812912 0.029524708876645305 0 0.025489546291689195 0.029627396351923775 0 0.02483691923812912 0.029524708876645305 0 0.024388385899828498 0.029469807873332615 0 0.025489546291689195 0.029627396351923775 0 0.02483691923812912 0.029524708876645305 0 0.02431335011000544 0.029110488279154609 0 0.024388385899828498 0.029469807873332615 0 0.02431335011000544 0.029110488279154609 0 0.024388385899828498 0.029469807873332615 0 0.024325992552288365 0.029628611294397131 0 0.024456570885960427 0.029615316315637654 0 0.024753925878753788 0.030376772657329233 0 0.024388385899828498 0.029469807873332615 0 0.023725435361079437 0.031085117480320369 0 0.024330207518566363 0.030757138962728293 0 0.024388385899828498 0.029469807873332615 0 0.025489546291689195 0.029627396351923775 0 0.025770532159840157 0.029623738659463401 0 0.024067682535641146 0.031760541622547406 0 0.023725435361079437 0.031085117480320369 0 0.024330207518566363 0.030757138962728293 0 0.024330207518566363 0.030757138962728293 0 0.024881808903491742 0.03030997683107383 0 0.024783863806958861 0.03150917721271939 0 0.024881808903491742 0.03030997683107383 0 0.024436537512113672 0.029320880148601323 0 0.024766415304212419 0.029205836472589734 0 0.024881808903491742 0.03030997683107383 0 0.024325992552288365 0.029628611294397131 0 0.024436537512113672 0.029320880148601323 0 0.024388385899828498 0.029469807873332615 0 0.024330207518566363 0.030757138962728293 0 0.024325992552288365 0.029628611294397131 0 0.024330207518566363 0.030757138962728293 0 0.024881808903491742 0.03030997683107383 0 0.024325992552288365 0.029628611294397131 0 0.02431335011000544 0.029110488279154609 0 0.024325992552288365 0.029628611294397131 0 0.024152704988552244 0.028879654170894831 0 0.02431335011000544 0.029110488279154609 0 0.024152704988552244 0.028879654170894831 0 0.024101948795736149 0.028602951697435215 0 0.024325992552288365 0.029628611294397131 0 0.024152704988552244 0.028879654170894831 0 0.024436537512113672 0.029320880148601323 0 0.024436537512113672 0.029320880148601323 0 0.024246190785045346 0.028772255273851459 0 0.024766415304212419 0.029205836472589734 0 0.024246190785045346 0.028772255273851459 0 0.024386115478437251 0.028343461978459467 0 0.024766415304212419 0.029205836472589734 0 0.024152704988552244 0.028879654170894831 0 0.024246190785045346 0.028772255273851459 0 0.02384414291836745 0.0283009579036653 0 0.024152704988552244 0.028879654170894831 0 0.024436537512113672 0.029320880148601323 0 0.024246190785045346 0.028772255273851459 0 0.024246190785045346 0.028772255273851459 0 0.02384414291836745 0.0283009579036653 0 0.024386115478437251 0.028343461978459467 0 0.02384414291836745 0.0283009579036653 0 0.024386115478437251 0.028343461978459467 0 0.023804382058755385 0.027527557505852202 0 0.024386115478437251 0.028343461978459467 0 0.023804382058755385 0.027527557505852202 0 0.024724450528938593 0.027430503877327383 0 0.023928700925430757 0.026545677260583683 0 0.023804382058755385 0.027527557505852202 0 0.024724450528938593 0.027430503877327383 0 0.02384414291836745 0.0283009579036653 0 0.023804382058755385 0.027527557505852202 0 0.023395159845890644 0.027926199028846525 0 0.02389689168292056 0.028576694287894212 0 0.023395159845890644 0.027926199028846525 0 0.023842145870475145 0.028112347863765146 0 0.02389689168292056 0.028576694287894212 0 0.023842145870475145 0.028112347863765146 0 0.024124344550320184 0.028210517696758055 0 0.02384414291836745 0.0283009579036653 0 0.023395159845890644 0.027926199028846525 0 0.023842145870475145 0.028112347863765146 0 0.02389689168292056 0.028576694287894212 0 0.02422136799304625 0.028009425042128378 0 0.024124344550320184 0.028210517696758055 0 0.024331882195178737 0.024937416882926344 0 0.024306814468120469 0.027737720343298803 0 0.02422136799304625 0.028009425042128378 0 0.024124344550320184 0.028210517696758055 0 0.024421251243894111 0.028867634599631379 0 0.023842145870475145 0.028112347863765146 0 0.024124344550320184 0.028210517696758055 0 0.024101948795736149 0.028602951697435215 0 0.024124344550320184 0.028210517696758055 0 0.024421251243894111 0.028867634599631379 0 0.024101948795736149 0.028602951697435215 0 0.02431335011000544 0.029110488279154609 0 0.024421251243894111 0.028867634599631379 0 0.024101948795736149 0.028602951697435215 0 0.024152704988552244 0.028879654170894831 0 0.02384414291836745 0.0283009579036653 0 0.024101948795736149 0.028602951697435215 0 0.02384414291836745 0.0283009579036653 0 0.023842145870475145 0.028112347863765146 0 0.024101948795736149 0.028602951697435215 0 0.025862672399337681 0.027250068075366469 0 0.024724450528938593 0.027430503877327383 0 0.025507501282148789 0.029185564080777045 0 0.024772892737566821 0.026246043799656966 0 0.025862672399337681 0.027250068075366469 0 0.024724450528938593 0.027430503877327383 0 0.024386115478437251 0.028343461978459467 0 0.024724450528938593 0.027430503877327383 0 0.025507501282148789 0.029185564080777045 0 0.024386115478437251 0.028343461978459467 0 0.024766415304212419 0.029205836472589734 0 0.025507501282148789 0.029185564080777045 0 0.025507501282148789 0.029185564080777045 0 0.026748342881013906 0.02820107965044967 0 0.026365779832783015 0.029871578056817085 0 0.025862672399337681 0.027250068075366469 0 0.025507501282148789 0.029185564080777045 0 0.026748342881013906 0.02820107965044967 0 0.025507501282148789 0.029185564080777045 0 0.025998178967229991 0.03024124659858711 0 0.026365779832783015 0.029871578056817085 0 0.024881808903491742 0.03030997683107383 0 0.025507501282148789 0.029185564080777045 0 0.025998178967229991 0.03024124659858711 0 0.024881808903491742 0.03030997683107383 0 0.024766415304212419 0.029205836472589734 0 0.025507501282148789 0.029185564080777045 0 0.024908657783240976 0.030284284597546202 0 0.025626448643920552 0.030942187652768866 0 0.024881808903491742 0.03030997683107383 0 0.025579326727818201 0.031492831647708074 0 0.024783863806958861 0.03150917721271939 0 0.025579326727818201 0.031492831647708074 0 0.025607622793581978 0.03217418324801035 0 0.025185319942408458 0.032121561348667678 0 0.025607622793581978 0.03217418324801035 0 0.025185319942408458 0.032121561348667678 0 0.025443409374644066 0.032618145339761075 0 0.025185319942408458 0.032121561348667678 0 0.025443409374644066 0.032618145339761075 0 0.024923613191741092 0.032693199354645049 0 0.025185319942408458 0.032121561348667678 0 0.024599487791302277 0.032312863273967068 0 0.024923613191741092 0.032693199354645049 0 0.025185319942408458 0.032121561348667678 0 0.024783863806958861 0.03150917721271939 0 0.024599487791302277 0.032312863273967068 0 0.025579326727818201 0.031492831647708074 0 0.025185319942408458 0.032121561348667678 0 0.024783863806958861 0.03150917721271939 0 0.024330207518566363 0.030757138962728293 0 0.024783863806958861 0.03150917721271939 0 0.024310801330637153 0.031967544061326299 0 0.024067682535641146 0.031760541622547406 0 0.024330207518566363 0.030757138962728293 0 0.024310801330637153 0.031967544061326299 0 0.024146440155985705 0.032409406745193436 0 0.024310801330637153 0.031967544061326299 0 0.024126159346073796 0.032670130035277259 0 0.024310801330637153 0.031967544061326299 0 0.024599487791302277 0.032312863273967068 0 0.024126159346073796 0.032670130035277259 0 0.024783863806958861 0.03150917721271939 0 0.024310801330637153 0.031967544061326299 0 0.024599487791302277 0.032312863273967068 0 0.024427922835277078 0.032969481807946392 0 0.024126159346073796 0.032670130035277259 0 0.024136627109103394 0.033106637519529185 0 0.024599487791302277 0.032312863273967068 0 0.024427922835277078 0.032969481807946392 0 0.024126159346073796 0.032670130035277259 0 0.024058789466245723 0.032548109532485346 0 0.024126159346073796 0.032670130035277259 0 0.023965493788474106 0.033340097311577138 0 0.024126159346073796 0.032670130035277259 0 0.023965493788474106 0.033340097311577138 0 0.024136627109103394 0.033106637519529185 0 0.023965493788474106 0.033340097311577138 0 0.024149391860259446 0.033418585689468081 0 0.024090134580240719 0.033983036753084464 0 0.024427922835277078 0.032969481807946392 0 0.024149391860259446 0.033418585689468081 0 0.024443960353503116 0.033615303389268991 0 0.024427922835277078 0.032969481807946392 0 0.024136627109103394 0.033106637519529185 0 0.024149391860259446 0.033418585689468081 0 0.023965493788474106 0.033340097311577138 0 0.024136627109103394 0.033106637519529185 0 0.024149391860259446 0.033418585689468081 0 0.024149391860259446 0.033418585689468081 0 0.024443960353503116 0.033615303389268991 0 0.024090134580240719 0.033983036753084464 0 0.024427922835277078 0.032969481807946392 0 0.024443960353503116 0.033615303389268991 0 0.024804393418813651 0.033158317423306181 0 0.024443960353503116 0.033615303389268991 0 0.025156901984227233 0.03356075614708294 0 0.024867261994978223 0.034074920284230197 0 0.024443960353503116 0.033615303389268991 0 0.024804393418813651 0.033158317423306181 0 0.025156901984227233 0.03356075614708294 0 0.025156901984227233 0.03356075614708294 0 0.025558876303425623 0.033230721031633527 0 0.02568964526931334 0.033775820100548304 0 0.025156901984227233 0.03356075614708294 0 0.025179158326434536 0.033068916547635982 0 0.025558876303425623 0.033230721031633527 0 0.024804393418813651 0.033158317423306181 0 0.025156901984227233 0.03356075614708294 0 0.025179158326434536 0.033068916547635982 0 0.025179158326434536 0.033068916547635982 0 0.025443409374644066 0.032618145339761075 0 0.024923613191741092 0.032693199354645049 0 0.025179158326434536 0.033068916547635982 0 0.025443409374644066 0.032618145339761075 0 0.025558876303425623 0.033230721031633527 0 0.024599487791302277 0.032312863273967068 0 0.024427922835277078 0.032969481807946392 0 0.024923613191741092 0.032693199354645049 0 0.024427922835277078 0.032969481807946392 0 0.024804393418813651 0.033158317423306181 0 0.024923613191741092 0.032693199354645049 0 0.024804393418813651 0.033158317423306181 0 0.025179158326434536 0.033068916547635982 0 0.024923613191741092 0.032693199354645049 0 0.021172752443106048 0.035428956194583951 0 0.022961778025930368 0.035229868544650378 0 0.021877711523765071 0.035350328489662804 0 0.020832480325923459 0.035529539604765036 0 0.022033230276874507 0.035911704252256829 0 0.020832480325923459 0.035529539604765036 0 0.020938036719757178 0.035775189837882047 0 0.02397917351303579 0.034423279728587004 0 0.022984534228055086 0.036226118709291849 0 0.025253260791540704 0.034274968850073063 0 0.025348577748799239 0.034485969434443708 0 0.025345568482815183 0.0340597976608248 0 0.024867261994978223 0.034074920284230197 0 0.026045676710403632 0.035451313960761767 0 0.024867261994978223 0.034074920284230197 0 0.023894842052329082 0.034542747603609772 0 0.022984534228055086 0.036226118709291849 0 0.023786730831427277 0.034580637621766247 0 0.025348577748799239 0.034485969434443708 0 0.025345568482815183 0.0340597976608248 0 0.02556214671833296 0.034160843139369089 0 0.025156901984227233 0.03356075614708294 0 0.025345568482815183 0.0340597976608248 0 0.02568964526931334 0.033775820100548304 0 0.025156901984227233 0.03356075614708294 0 0.025345568482815183 0.0340597976608248 0 0.024867261994978223 0.034074920284230197 0 0.020938036719757178 0.035775189837882047 0 0.023894842052329082 0.034542747603609772 0 0.02397917351303579 0.034423279728587004 0 0.024443960353503116 0.033615303389268991 0 0.024867261994978223 0.034074920284230197 0 0.023894842052329082 0.034542747603609772 0 0.023894842052329082 0.034542747603609772 0 0.02397917351303579 0.034423279728587004 0 0.024090134580240719 0.033983036753084464 0 0.024443960353503116 0.033615303389268991 0 0.023894842052329082 0.034542747603609772 0 0.024090134580240719 0.033983036753084464 0 0.023846176632310721 0.034488112374859534 0 0.022961778025930368 0.035229868544650378 0 0.023758164682265638 0.035712196031792903 0 0.022033230276874507 0.035911704252256829 0 0.023341246205279633 0.035670290787730347 0 0.023965493788474106 0.033340097311577138 0 0.02397917351303579 0.034423279728587004 0 0.024090134580240719 0.033983036753084464 0 0.023341246205279633 0.035670290787730347 0 0.02364835940915877 0.035572351642634344 0 0.024114580100644843 0.035342626101254923 0 0.023758164682265638 0.035712196031792903 0 0.023341246205279633 0.035670290787730347 0 0.024114580100644843 0.035342626101254923 0 0.023341246205279633 0.035670290787730347 0 0.02364835940915877 0.035572351642634344 0 0.022940672909699446 0.035909909085669052 0 0.02364835940915877 0.035572351642634344 0 0.022940672909699446 0.035909909085669052 0 0.023157599989006003 0.035794704112972607 0 0.02364835940915877 0.035572351642634344 0 0.023157599989006003 0.035794704112972607 0 0.023816357555634854 0.035521294047184147 0 0.02201966044871843 0.035812078138650984 0 0.023146837332428331 0.035762581490766485 0 0.0221438840104588 0.036335774099228162 0 0.023341246205279633 0.035670290787730347 0 0.022940672909699446 0.035909909085669052 0 0.021877711523765071 0.035350328489662804 0 0.022033230276874507 0.035911704252256829 0 0.023341246205279633 0.035670290787730347 0 0.0221438840104588 0.036335774099228162 0 0.022940672909699446 0.035909909085669052 0 0.022374146410238421 0.036060291328101991 0 0.0221438840104588 0.036335774099228162 0 0.022374146410238421 0.036060291328101991 0 0.021505592038500269 0.036184782897282448 0 0.023157599989006003 0.035794704112972607 0 0.022647851335777656 0.0358866896519364 0 0.023515871688250894 0.035691667492153446 0 0.022940672909699446 0.035909909085669052 0 0.022374146410238421 0.036060291328101991 0 0.023157599989006003 0.035794704112972607 0 0.022374146410238421 0.036060291328101991 0 0.023157599989006003 0.035794704112972607 0 0.022647851335777656 0.0358866896519364 0 0.022329781112148898 0.035850826096290055 0 0.022781932581139221 0.035776603698644022 0 0.023515871688250894 0.035691667492153446 0 0.022647851335777656 0.0358866896519364 0 0.022329781112148898 0.035850826096290055 0 0.023515871688250894 0.035691667492153446 0 0.022374146410238421 0.036060291328101991 0 0.021845059560595636 0.0359659930893408 0 0.021505592038500269 0.036184782897282448 0 0.022374146410238421 0.036060291328101991 0 0.022647851335777656 0.0358866896519364 0 0.021845059560595636 0.0359659930893408 0 0.022647851335777656 0.0358866896519364 0 0.021845059560595636 0.0359659930893408 0 0.022329781112148898 0.035850826096290055 0 0.021505592038500269 0.036184782897282448 0 0.020570365084092861 0.036408763580573905 0 0.020516062665671429 0.035879619456898638 0 0.021845059560595636 0.0359659930893408 0 0.021505592038500269 0.036184782897282448 0 0.020516062665671429 0.035879619456898638 0 0.021877711523765071 0.035350328489662804 0 0.020832480325923459 0.035529539604765036 0 0.020617671454159981 0.035340332239696723 0 0.02201966044871843 0.035812078138650984 0 0.020577876731065054 0.035885115550319709 0 0.0221438840104588 0.036335774099228162 0 0.021505592038500269 0.036184782897282448 0 0.020570365084092861 0.036408763580573905 0 0.020832480325923459 0.035529539604765036 0 0.020617671454159981 0.035340332239696723 0 0.019890331406698585 0.035642400196603342 0 0.020577876731065054 0.035885115550319709 0 0.019383055818862859 0.035780552253734305 0 0.020617671454159981 0.035340332239696723 0 0.019890331406698585 0.035642400196603342 0 0.019174089233101807 0.035832031925550206 0 0.020570365084092861 0.036408763580573905 0 0.020516062665671429 0.035879619456898638 0 0.019174089233101807 0.035832031925550206 0 0.020516062665671429 0.035879619456898638 0 0.019005110520629056 0.035563083904091089 0 0.019174089233101807 0.035832031925550206 0 0.020516062665671429 0.035879619456898638 0 0.020243675062162788 0.03565425494672126 0 0.021409441664720811 0.035749482568491774 0 0.020243675062162788 0.03565425494672126 0 0.020178738829313678 0.035428694710754369 0 0.021409441664720811 0.035749482568491774 0 0.020516062665671429 0.035879619456898638 0 0.020243675062162788 0.03565425494672126 0 0.019005110520629056 0.035563083904091089 0 0.019005110520629056 0.035563083904091089 0 0.01881396476684407 0.034999329537709865 0 0.017815163516721452 0.035353622412296816 0 0.019005110520629056 0.035563083904091089 0 0.020178738829313678 0.035428694710754369 0 0.01881396476684407 0.034999329537709865 0 0.020243675062162788 0.03565425494672126 0 0.019005110520629056 0.035563083904091089 0 0.020178738829313678 0.035428694710754369 0 0.01881396476684407 0.034999329537709865 0 0.017815163516721452 0.035353622412296816 0 0.016778424007935899 0.034999520701899357 0 0.020850625827731395 0.034999322393058974 0 0.022190552605091587 0.035549664821605265 0 0.022886825800580445 0.034999396270013514 0 0.020178738829313678 0.035428694710754369 0 0.01881396476684407 0.034999329537709865 0 0.020850625827731395 0.034999322393058974 0 0.020178738829313678 0.035428694710754369 0 0.020850625827731395 0.034999322393058974 0 0.022190552605091587 0.035549664821605265 0 0.022190552605091587 0.035549664821605265 0 0.021409441664720811 0.035749482568491774 0 0.022781932581139221 0.035776603698644022 0 0.020178738829313678 0.035428694710754369 0 0.022190552605091587 0.035549664821605265 0 0.021409441664720811 0.035749482568491774 0 0.021845059560595636 0.0359659930893408 0 0.020516062665671429 0.035879619456898638 0 0.021409441664720811 0.035749482568491774 0 0.021845059560595636 0.0359659930893408 0 0.021409441664720811 0.035749482568491774 0 0.022329781112148898 0.035850826096290055 0 0.021409441664720811 0.035749482568491774 0 0.022329781112148898 0.035850826096290055 0 0.022781932581139221 0.035776603698644022 0 0.023541490331857685 0.035727222874688179 0 0.022781932581139221 0.035776603698644022 0 0.023631380648813746 0.035769353647339103 0 0.023541490331857685 0.035727222874688179 0 0.022781932581139221 0.035776603698644022 0 0.023515871688250894 0.035691667492153446 0 0.023541490331857685 0.035727222874688179 0 0.023631380648813746 0.035769353647339103 0 0.02421407649273424 0.035643797510289559 0 0.023631380648813746 0.035769353647339103 0 0.024379680560563461 0.035830804615617842 0 0.02421407649273424 0.035643797510289559 0 0.022190552605091587 0.035549664821605265 0 0.022781932581139221 0.035776603698644022 0 0.023631380648813746 0.035769353647339103 0 0.022190552605091587 0.035549664821605265 0 0.023631380648813746 0.035769353647339103 0 0.023590879186890325 0.035498611708900986 0 0.023631380648813746 0.035769353647339103 0 0.023590879186890325 0.035498611708900986 0 0.02451274064401408 0.035761688399496443 0 0.023590879186890325 0.035498611708900986 0 0.022886825800580445 0.034999396270013514 0 0.024923081268666457 0.034999668117110222 0 0.022190552605091587 0.035549664821605265 0 0.023590879186890325 0.035498611708900986 0 0.022886825800580445 0.034999396270013514 0 0.024923081268666457 0.034999668117110222 0 0.025725635451511596 0.035749289156202811 0 0.026958304147479833 0.03499955037817741 0 0.023590879186890325 0.035498611708900986 0 0.024923081268666457 0.034999668117110222 0 0.02451274064401408 0.035761688399496443 0 0.024923081268666457 0.034999668117110222 0 0.02451274064401408 0.035761688399496443 0 0.025725635451511596 0.035749289156202811 0 0.02451274064401408 0.035761688399496443 0 0.024821738102468082 0.035936859157605562 0 0.025725635451511596 0.035749289156202811 0 0.02451274064401408 0.035761688399496443 0 0.024821738102468082 0.035936859157605562 0 0.024379680560563461 0.035830804615617842 0 0.023631380648813746 0.035769353647339103 0 0.02451274064401408 0.035761688399496443 0 0.024379680560563461 0.035830804615617842 0 0.024379680560563461 0.035830804615617842 0 0.024489939368535989 0.035641892512734093 0 0.02421407649273424 0.035643797510289559 0 0.025946128607006267 0.035439312830826603 0 0.025480464669338513 0.035159200435679501 0 0.024821738102468082 0.035936859157605562 0 0.024379680560563461 0.035830804615617842 0 0.024489939368535989 0.035641892512734093 0 0.027063805705033424 0.034975119783427482 0 0.02647252130373566 0.034566382658576228 0 0.026913420723076228 0.034828152286007365 0 0.025480464669338513 0.035159200435679501 0 0.025236080570134968 0.034954852263898682 0 0.02647252130373566 0.034566382658576228 0 0.026273985323320734 0.034605630800862409 0 0.02666903919341302 0.034673363709322794 0 0.025195392053909089 0.034825238567371075 0 0.02584459307074673 0.034556181328861374 0 0.026273985323320734 0.034605630800862409 0 0.02647252130373566 0.034566382658576228 0 0.025195392053909089 0.034825238567371075 0 0.026273985323320734 0.034605630800862409 0 0.025195392053909089 0.034825238567371075 0 0.024398321139683828 0.035297507537095089 0 0.025068293693851027 0.034741508726853332 0 0.025195392053909089 0.034825238567371075 0 0.024639396946857718 0.035308230383184869 0 0.024398321139683828 0.035297507537095089 0 0.024489939368535989 0.035641892512734093 0 0.024639396946857718 0.035308230383184869 0 0.02421407649273424 0.035643797510289559 0 0.024489939368535989 0.035641892512734093 0 0.025195392053909089 0.034825238567371075 0 0.024639396946857718 0.035308230383184869 0 0.023541490331857685 0.035727222874688179 0 0.02421407649273424 0.035643797510289559 0 0.023515871688250894 0.035691667492153446 0 0.02421407649273424 0.035643797510289559 0 0.023515871688250894 0.035691667492153446 0 0.024398321139683828 0.035297507537095089 0 0.024639396946857718 0.035308230383184869 0 0.02421407649273424 0.035643797510289559 0 0.024398321139683828 0.035297507537095089 0 0.023157599989006003 0.035794704112972607 0 0.023515871688250894 0.035691667492153446 0 0.023816357555634854 0.035521294047184147 0 0.023515871688250894 0.035691667492153446 0 0.023816357555634854 0.035521294047184147 0 0.024398321139683828 0.035297507537095089 0 0.024398321139683828 0.035297507537095089 0 0.024350224419815325 0.035199252665957664 0 0.025068293693851027 0.034741508726853332 0 0.023816357555634854 0.035521294047184147 0 0.024398321139683828 0.035297507537095089 0 0.024350224419815325 0.035199252665957664 0 0.02364835940915877 0.035572351642634344 0 0.024350224419815325 0.035199252665957664 0 0.024114580100644843 0.035342626101254923 0 0.02364835940915877 0.035572351642634344 0 0.023816357555634854 0.035521294047184147 0 0.024350224419815325 0.035199252665957664 0 0.024350224419815325 0.035199252665957664 0 0.024114580100644843 0.035342626101254923 0 0.024868592580904292 0.03465316334902209 0 0.024350224419815325 0.035199252665957664 0 0.024868592580904292 0.03465316334902209 0 0.025068293693851027 0.034741508726853332 0 0.024868592580904292 0.03465316334902209 0 0.025367241623598543 0.03407852738526633 0 0.025068293693851027 0.034741508726853332 0 0.025367241623598543 0.03407852738526633 0 0.025649297950243666 0.034231160080372337 0 0.025068293693851027 0.034741508726853332 0 0.025367241623598543 0.03407852738526633 0 0.025649297950243666 0.034231160080372337 0 0.025843534182017725 0.033605878371801366 0 0.025649297950243666 0.034231160080372337 0 0.025986167674438249 0.034034041973206683 0 0.025843534182017725 0.033605878371801366 0 0.025195392053909089 0.034825238567371075 0 0.02584459307074673 0.034556181328861374 0 0.025068293693851027 0.034741508726853332 0 0.025649297950243666 0.034231160080372337 0 0.02584459307074673 0.034556181328861374 0 0.025068293693851027 0.034741508726853332 0 0.025649297950243666 0.034231160080372337 0 0.02584459307074673 0.034556181328861374 0 0.025986167674438249 0.034034041973206683 0 0.026152328536596534 0.033954603779937857 0 0.026295318734273425 0.034180892512608196 0 0.026222034854256226 0.034283512958994337 0 0.026152328536596534 0.033954603779937857 0 0.026295318734273425 0.034180892512608196 0 0.026054620874469182 0.033749098158691974 0 0.026295318734273425 0.034180892512608196 0 0.026054620874469182 0.033749098158691974 0 0.026219814272713669 0.034251348254468683 0 0.026295318734273425 0.034180892512608196 0 0.026219814272713669 0.034251348254468683 0 0.02648918333878612 0.034438443155720609 0 0.026295318734273425 0.034180892512608196 0 0.026423408233260989 0.034404982423468934 0 0.02648918333878612 0.034438443155720609 0 0.026295318734273425 0.034180892512608196 0 0.026222034854256226 0.034283512958994337 0 0.026423408233260989 0.034404982423468934 0 0.02584459307074673 0.034556181328861374 0 0.026222034854256226 0.034283512958994337 0 0.026360509432405227 0.034500795437891835 0 0.02584459307074673 0.034556181328861374 0 0.026222034854256226 0.034283512958994337 0 0.025986167674438249 0.034034041973206683 0 0.026152328536596534 0.033954603779937857 0 0.026222034854256226 0.034283512958994337 0 0.025986167674438249 0.034034041973206683 0 0.026152328536596534 0.033954603779937857 0 0.025986167674438249 0.034034041973206683 0 0.026056122907676494 0.033430129321238594 0 0.025986167674438249 0.034034041973206683 0 0.025843534182017725 0.033605878371801366 0 0.026056122907676494 0.033430129321238594 0 0.026017852302256783 0.032775813251605022 0 0.026056122907676494 0.033430129321238594 0 0.026054620874469182 0.033749098158691974 0 0.026152328536596534 0.033954603779937857 0 0.026056122907676494 0.033430129321238594 0 0.026054620874469182 0.033749098158691974 0 0.026017852302256783 0.032775813251605022 0 0.026054620874469182 0.033749098158691974 0 0.025631048988304622 0.03317881154227581 0 0.026054620874469182 0.033749098158691974 0 0.025631048988304622 0.03317881154227581 0 0.025556716151173182 0.03379768771751656 0 0.025631048988304622 0.03317881154227581 0 0.024865507804118964 0.033058110172481753 0 0.025042967949151583 0.033534437836875826 0 0.025631048988304622 0.03317881154227581 0 0.025042967949151583 0.033534437836875826 0 0.025556716151173182 0.03379768771751656 0 0.025042967949151583 0.033534437836875826 0 0.024970048582256515 0.033972448530323926 0 0.025556716151173182 0.03379768771751656 0 0.028057599691427779 0.033331246545838952 0 0.025292751375146694 0.034046754226584923 0 0.025440085288916663 0.034138746258453583 0 0.025879516590595234 0.033961513096138402 0 0.025846033068886259 0.034359259799512772 0 0.028057599691427779 0.033331246545838952 0 0.027377182767587716 0.034640273086886476 0 0.026166574962888146 0.033709053971649534 0 0.025292751375146694 0.034046754226584923 0 0.026054620874469182 0.033749098158691974 0 0.025879516590595234 0.033961513096138402 0 0.026219814272713669 0.034251348254468683 0 0.025879516590595234 0.033961513096138402 0 0.026219814272713669 0.034251348254468683 0 0.025846033068886259 0.034359259799512772 0 0.027377182767587716 0.034640273086886476 0 0.026688427737304732 0.034509172032551653 0 0.026219814272713669 0.034251348254468683 0 0.025846033068886259 0.034359259799512772 0 0.026660032290658678 0.034586596482240606 0 0.028749665690076302 0.03497074974623357 0 0.02668087076040157 0.034346166451044213 0 0.026660032290658678 0.034586596482240606 0 0.028749665690076302 0.03497074974623357 0 0.030192493857788542 0.031824854849758423 0 0.02668087076040157 0.034346166451044213 0 0.03078718418579612 0.035504545047925294 0 0.028749665690076302 0.03497074974623357 0 0.031229969491622683 0.033667529219640474 0 0.031229969491622683 0.033667529219640474 0 0.030192493857788542 0.031824854849758423 0 0.032403642033172808 0.032246038509208964 0 0.028749665690076302 0.03497074974623357 0 0.031229969491622683 0.033667529219640474 0 0.030192493857788542 0.031824854849758423 0 0.02780672454478663 0.035393592383975429 0 0.026995699951336116 0.034731622672098623 0 0.027245446204584464 0.034945505307139385 0 0.02780672454478663 0.035393592383975429 0 0.027245446204584464 0.034945505307139385 0 0.027618615834620667 0.034979380835082306 0 0.02903249855487618 0.033601632980259429 0 0.026940383939027368 0.034287080556299941 0 0.02780672454478663 0.035393592383975429 0 0.026995699951336116 0.034731622672098623 0 0.02668087076040157 0.034346166451044213 0 0.026995699951336116 0.034731622672098623 0 0.027245446204584464 0.034945505307139385 0 0.026992173584507863 0.0347822193149913 0 0.027146423319500002 0.034889622725902347 0 0.026864468214072113 0.034724440470622356 0 0.026992173584507863 0.0347822193149913 0 0.027245446204584464 0.034945505307139385 0 0.027146423319500002 0.034889622725902347 0 0.026992173584507863 0.0347822193149913 0 0.027146423319500002 0.034889622725902347 0 0.026864468214072113 0.034724440470622356 0 0.026938864294223819 0.034803360715661757 0 0.026864468214072113 0.034724440470622356 0 0.026616655634520977 0.034623290844844189 0 0.026938864294223819 0.034803360715661757 0 0.026864468214072113 0.034724440470622356 0 0.026688449961655241 0.034601920492989172 0 0.026616655634520977 0.034623290844844189 0 0.026864468214072113 0.034724440470622356 0 0.026799626223797363 0.034616201234557269 0 0.026688449961655241 0.034601920492989172 0 0.026995699951336116 0.034731622672098623 0 0.026992173584507863 0.0347822193149913 0 0.026799626223797363 0.034616201234557269 0 0.026864468214072113 0.034724440470622356 0 0.026992173584507863 0.0347822193149913 0 0.026799626223797363 0.034616201234557269 0 0.026995699951336116 0.034731622672098623 0 0.026730615581768133 0.034500169606216165 0 0.026799626223797363 0.034616201234557269 0 0.026995699951336116 0.034731622672098623 0 0.02668087076040157 0.034346166451044213 0 0.026730615581768133 0.034500169606216165 0 0.02668087076040157 0.034346166451044213 0 0.026730615581768133 0.034500169606216165 0 0.02661906018209053 0.034497655151233667 0 0.02668087076040157 0.034346166451044213 0 0.02661906018209053 0.034497655151233667 0 0.026660032290658678 0.034586596482240606 0 0.026730615581768133 0.034500169606216165 0 0.02661906018209053 0.034497655151233667 0 0.026597758253308065 0.034508428863426824 0 0.026730615581768133 0.034500169606216165 0 0.026597758253308065 0.034508428863426824 0 0.026799626223797363 0.034616201234557269 0 0.026597758253308065 0.034508428863426824 0 0.026799626223797363 0.034616201234557269 0 0.026688449961655241 0.034601920492989172 0 0.026688449961655241 0.034601920492989172 0 0.026544282396979417 0.034528211813519685 0 0.026616655634520977 0.034623290844844189 0 0.026597758253308065 0.034508428863426824 0 0.026688449961655241 0.034601920492989172 0 0.026544282396979417 0.034528211813519685 0 0.026544282396979417 0.034528211813519685 0 0.026423408233260989 0.034404982423468934 0 0.026360509432405227 0.034500795437891835 0 0.026597758253308065 0.034508428863426824 0 0.026544282396979417 0.034528211813519685 0 0.026423408233260989 0.034404982423468934 0 0.026219814272713669 0.034251348254468683 0 0.02648918333878612 0.034438443155720609 0 0.026660032290658678 0.034586596482240606 0 0.02661906018209053 0.034497655151233667 0 0.02648918333878612 0.034438443155720609 0 0.026660032290658678 0.034586596482240606 0 0.02661906018209053 0.034497655151233667 0 0.026597758253308065 0.034508428863426824 0 0.02648918333878612 0.034438443155720609 0 0.026597758253308065 0.034508428863426824 0 0.026423408233260989 0.034404982423468934 0 0.02648918333878612 0.034438443155720609 0 0.02584459307074673 0.034556181328861374 0 0.026360509432405227 0.034500795437891835 0 0.026273985323320734 0.034605630800862409 0 0.026222034854256226 0.034283512958994337 0 0.026423408233260989 0.034404982423468934 0 0.026360509432405227 0.034500795437891835 0 0.026544282396979417 0.034528211813519685 0 0.026360509432405227 0.034500795437891835 0 0.026616655634520977 0.034623290844844189 0 0.026360509432405227 0.034500795437891835 0 0.026273985323320734 0.034605630800862409 0 0.026616655634520977 0.034623290844844189 0 0.026273985323320734 0.034605630800862409 0 0.026616655634520977 0.034623290844844189 0 0.02666903919341302 0.034673363709322794 0 0.026616655634520977 0.034623290844844189 0 0.026938864294223819 0.034803360715661757 0 0.02666903919341302 0.034673363709322794 0 0.026938864294223819 0.034803360715661757 0 0.02666903919341302 0.034673363709322794 0 0.026913420723076228 0.034828152286007365 0 0.02647252130373566 0.034566382658576228 0 0.02666903919341302 0.034673363709322794 0 0.026913420723076228 0.034828152286007365 0 0.027063805705033424 0.034975119783427482 0 0.026913420723076228 0.034828152286007365 0 0.027335264374538724 0.035093262764235418 0 0.026960589313068613 0.034998771571983181 0 0.029529780131039962 0.035279831549563406 0 0.031548054813710577 0.034998065210539588 0 0.026938864294223819 0.034803360715661757 0 0.026913420723076228 0.034828152286007365 0 0.027335264374538724 0.035093262764235418 0 0.027146423319500002 0.034889622725902347 0 0.026938864294223819 0.034803360715661757 0 0.027335264374538724 0.035093262764235418 0 0.027146423319500002 0.034889622725902347 0 0.027335264374538724 0.035093262764235418 0 0.027618615834620667 0.034979380835082306 0 0.027335264374538724 0.035093262764235418 0 0.027806282779851688 0.035311644797886912 0 0.028279101966996085 0.035367596546156337 0 0.027063805705033424 0.034975119783427482 0 0.027335264374538724 0.035093262764235418 0 0.027240060958824842 0.035193368304430282 0 0.025946128607006267 0.035439312830826603 0 0.026485254992062654 0.035385398628612397 0 0.027806282779851688 0.035311644797886912 0 0.026960589313068613 0.034998771571983181 0 0.029529780131039962 0.035279831549563406 0 0.027335264374538724 0.035093262764235418 0 0.027240060958824842 0.035193368304430282 0 0.027806282779851688 0.035311644797886912 0 0.027240060958824842 0.035193368304430282 0 0.027806282779851688 0.035311644797886912 0 0.026960589313068613 0.034998771571983181 0 0.026485254992062654 0.035385398628612397 0 0.026959886906720958 0.034999875455629784 0 0.027806282779851688 0.035311644797886912 0 0.029529780131039962 0.035279831549563406 0 0.028279101966996085 0.035367596546156337 0 0.029529780131039962 0.035279831549563406 0 0.028279101966996085 0.035367596546156337 0 0.031055829690088906 0.036261516269756218 0 0.028279101966996085 0.035367596546156337 0 0.027618615834620667 0.034979380835082306 0 0.028256974625463241 0.034841562533498155 0 0.028467744248257286 0.035332936992773123 0 0.030002215579163875 0.035059745483470864 0 0.028279101966996085 0.035367596546156337 0 0.028256974625463241 0.034841562533498155 0 0.028764797687768306 0.033938534383861664 0 0.027335264374538724 0.035093262764235418 0 0.028279101966996085 0.035367596546156337 0 0.027618615834620667 0.034979380835082306 0 0.027245446204584464 0.034945505307139385 0 0.027146423319500002 0.034889622725902347 0 0.027618615834620667 0.034979380835082306 0 0.02780672454478663 0.035393592383975429 0 0.027618615834620667 0.034979380835082306 0 0.028256974625463241 0.034841562533498155 0 0.02780672454478663 0.035393592383975429 0 0.028256974625463241 0.034841562533498155 0 0.029347553748375159 0.035474234591527945 0 0.028256974625463241 0.034841562533498155 0 0.029347553748375159 0.035474234591527945 0 0.029975880297616369 0.034347117382172727 0 0.033400602141650186 0.030612336059791124 0 0.03535225036620538 0.030742453342868244 0 0.034497419088538962 0.031356298753467182 0 0.029347553748375159 0.035474234591527945 0 0.029975880297616369 0.034347117382172727 0 0.031870978518381159 0.034653390576445571 0 0.031385465136292347 0.033055593457606558 0 0.033496427155721993 0.032711528405417932 0 0.029975880297616369 0.034347117382172727 0 0.028764797687768306 0.033938534383861664 0 0.031472227586298612 0.032843939432608084 0 0.030002215579163875 0.035059745483470864 0 0.032408148267395437 0.034153300795797509 0 0.028256974625463241 0.034841562533498155 0 0.029975880297616369 0.034347117382172727 0 0.028764797687768306 0.033938534383861664 0 0.029529780131039962 0.035279831549563406 0 0.031055829690088906 0.036261516269756218 0 0.032756789014497474 0.035045430975427845 0 0.029529780131039962 0.035279831549563406 0 0.031548054813710577 0.034998065210539588 0 0.032756789014497474 0.035045430975427845 0 0.031055829690088906 0.036261516269756218 0 0.032756789014497474 0.035045430975427845 0 0.033537439401916544 0.035574667640591674 0 0.032756789014497474 0.035045430975427845 0 0.034999899591570689 0.03499745489281636 0 0.034285618412484474 0.034459001710760107 0 0.031548054813710577 0.034998065210539588 0 0.032756789014497474 0.035045430975427845 0 0.034999899591570689 0.03499745489281636 0 0.034999899591570689 0.03499745489281636 0 0.034285618412484474 0.034459001710760107 0 0.034997706883655798 0.032598123369291951 0 0.032756789014497474 0.035045430975427845 0 0.034285618412484474 0.034459001710760107 0 0.033537439401916544 0.035574667640591674 0 0.034285618412484474 0.034459001710760107 0 0.034997706883655798 0.032598123369291951 0 0.033537439401916544 0.035574667640591674 0 0.034999249614566706 0.032582396541726476 0 0.03500032130622914 0.03231862331737817 0 0.031472227586298612 0.032843939432608084 0 0.034999417642991575 0.032309718334458358 0 0.033496427155721993 0.032711528405417932 0 0.03499901756186212 0.032591497787378396 0 0.032408148267395437 0.034153300795797509 0 0.03500032130622914 0.03231862331737817 0 0.031472227586298612 0.032843939432608084 0 0.031870978518381159 0.034653390576445571 0 0.029975880297616369 0.034347117382172727 0 0.031472227586298612 0.032843939432608084 0 0.031870978518381159 0.034653390576445571 0 0.03535225036620538 0.030742453342868244 0 0.035335401426386512 0.030812995857743664 0 0.034497419088538962 0.031356298753467182 0 0.03535225036620538 0.030742453342868244 0 0.034999654122461844 0.031043682694833406 0 0.035335401426386512 0.030812995857743664 0 0.034999883496668625 0.032308475293311205 0 0.03535225036620538 0.030742453342868244 0 0.034999654122461844 0.031043682694833406 0 0.035335401426386512 0.030812995857743664 0 0.035000460730250246 0.029781932711343544 0 0.03526576243624488 0.031762300198917383 0 0.034999654122461844 0.031043682694833406 0 0.035335401426386512 0.030812995857743664 0 0.035000460730250246 0.029781932711343544 0 0.035000231789263772 0.029778381833381447 0 0.035982633593425919 0.028588922312476964 0 0.034999738003550711 0.027813356326222349 0 0.035000231789263772 0.029778381833381447 0 0.036044124324742695 0.028965448576420513 0 0.036052145260164696 0.028977976174763428 0 0.035000055442664331 0.029779213279962947 0 0.035348011785733602 0.030449381700396769 0 0.035000231789263772 0.029778381833381447 0 0.035982633593425919 0.028588922312476964 0 0.036052145260164696 0.028977976174763428 0 0.035982633593425919 0.028588922312476964 0 0.036052145260164696 0.028977976174763428 0 0.036068298983377857 0.028606111671007559 0 0.036044124324742695 0.028965448576420513 0 0.036052145260164696 0.028977976174763428 0 0.03457104603880861 0.030482416630425516 0 0.035716739490679453 0.02924357352695018 0 0.035996835170195904 0.029043671774736827 0 0.035335401426386512 0.030812995857743664 0 0.03526576243624488 0.031762300198917383 0 0.034497419088538962 0.031356298753467182 0 0.033400602141650186 0.030612336059791124 0 0.034497419088538962 0.031356298753467182 0 0.032403642033172808 0.032246038509208964 0 0.030192493857788542 0.031824854849758423 0 0.033400602141650186 0.030612336059791124 0 0.032403642033172808 0.032246038509208964 0 0.02903249855487618 0.033601632980259429 0 0.031385465136292347 0.033055593457606558 0 0.031229969491622683 0.033667529219640474 0 0.032403642033172808 0.032246038509208964 0 0.033584656342636812 0.033697771351796746 0 0.03078718418579612 0.035504545047925294 0 0.031229969491622683 0.033667529219640474 0 0.033584656342636812 0.033697771351796746 0 0.03526576243624488 0.031762300198917383 0 0.034497419088538962 0.031356298753467182 0 0.033584656342636812 0.033697771351796746 0 0.034497419088538962 0.031356298753467182 0 0.032403642033172808 0.032246038509208964 0 0.033584656342636812 0.033697771351796746 0 0.035348011785733602 0.030449381700396769 0 0.033857372720564501 0.031690395873294606 0 0.036044124324742695 0.028965448576420513 0 0.03329344927154966 0.029886119670493497 0 0.03457104603880861 0.030482416630425516 0 0.036068298983377857 0.028606111671007559 0 0.03594477517114808 0.028639079881265603 0 0.036026982222852874 0.028622735147712661 0 0.03329344927154966 0.029886119670493497 0 0.03457104603880861 0.030482416630425516 0 0.032672151852140001 0.03218873022505029 0 0.035996835170195904 0.029043671774736827 0 0.029209746970652373 0.031535078951710364 0 0.028057599691427779 0.033331246545838952 0 0.033857372720564501 0.031690395873294606 0 0.028057599691427779 0.033331246545838952 0 0.029209746970652373 0.031535078951710364 0 0.025042967949151583 0.033534437836875826 0 0.024970048582256515 0.033972448530323926 0 0.024307554610952475 0.033629149968451288 0 0.030158482052364016 0.031043348542113096 0 0.03329344927154966 0.029886119670493497 0 0.032672151852140001 0.03218873022505029 0 0.024534591380645888 0.033039411742419228 0 0.029209746970652373 0.031535078951710364 0 0.025380006748409234 0.031931596558741865 0 0.025647631127769462 0.03208988873543913 0 0.025497765314005799 0.032172170694131232 0 0.024865507804118964 0.033058110172481753 0 0.025042967949151583 0.033534437836875826 0 0.024307554610952475 0.033629149968451288 0 0.029209746970652373 0.031535078951710364 0 0.032557378284576374 0.028404946695078089 0 0.025380006748409234 0.031931596558741865 0 0.025497765314005799 0.032172170694131232 0 0.025390669327248257 0.032074855551571746 0 0.037094662978895 0.026945662239031932 0 0.036010093978491246 0.026420531610806527 0 0.036004952255113527 0.027442331894779379 0 0.032557378284576374 0.028404946695078089 0 0.033718261940709704 0.02607125355349867 0 0.030123818458491807 0.026646893509001589 0 0.029985620184673996 0.025116903780957163 0 0.031479509529663455 0.02579753912337639 0 0.036010093978491246 0.026420531610806527 0 0.034999738003550711 0.027813356326222349 0 0.036004952255113527 0.027442331894779379 0 0.035000013062412641 0.025847335100500517 0 0.036010093978491246 0.026420531610806527 0 0.034999738003550711 0.027813356326222349 0 0.035982633593425919 0.028588922312476964 0 0.034999738003550711 0.027813356326222349 0 0.036004952255113527 0.027442331894779379 0 0.037294073161982542 0.027998890187963886 0 0.032557378284576374 0.028404946695078089 0 0.035982633593425919 0.028588922312476964 0 0.037094662978895 0.026945662239031932 0 0.036004952255113527 0.027442331894779379 0 0.035982633593425919 0.028588922312476964 0 0.036068298983377857 0.028606111671007559 0 0.036026982222852874 0.028622735147712661 0 0.0075865606743269164 0.029832115439826331 0 0.0078130102815921598 0.029987861512826043 0 0.0074961987471050167 0.029799307212169997 0 0.0048419811126919794 0.031868378998221418 0 0.0074873329233315503 0.031742102240938389 0 0.0024508288031552202 0.033824376196702796 0 0.0046290948429933221 0.033483432803740824 0 0.0034115711538334841 0.033271073661498778 0 0.0075865606743269164 0.029832115439826331 0 0.0078130102815921598 0.029987861512826043 0 0.0077212010547725715 0.029839627588784449 0 0.0075865606743269164 0.029832115439826331 0 0.0077212010547725715 0.029839627588784449 0 0.0074804668513178598 0.029683231173691888 0 0.0048419811126919794 0.031868378998221418 0 0.0044312665418197788 0.031801186353836268 0 0.0078130102815921598 0.029987861512826043 0 0.0079931623534986295 0.029986005566204794 0 0.0079783236305396906 0.029684240878338135 0 0.0024508288031552202 0.033824376196702796 0 0.0015550114130171561 0.033340010667691961 0 0.00066698168997920851 0.033710303173934218 0 0.0078130102815921598 0.029987861512826043 0 0.0079931623534986295 0.029986005566204794 0 0.0077212010547725715 0.029839627588784449 0 0.0079931623534986295 0.029986005566204794 0 0.0077237909301627493 0.029592091624672311 0 0.0077212010547725715 0.029839627588784449 0 0.0079931623534986295 0.029986005566204794 0 0.0080479664602632981 0.02975187150210536 0 0.0080348549589875154 0.030340082394720819 0 0.0079931623534986295 0.029986005566204794 0 0.0080479664602632981 0.02975187150210536 0 0.0077237909301627493 0.029592091624672311 0 0.0077237909301627493 0.029592091624672311 0 0.0077212010547725715 0.029839627588784449 0 0.0074804668513178598 0.029683231173691888 0 0.0077237909301627493 0.029592091624672311 0 0.0074804668513178598 0.029683231173691888 0 0.0072501045797433179 0.02922208501691324 0 0.0072513030189069686 0.029626896864523897 0 0.0067513604962501752 0.029376744209771453 0 0.0072501045797433179 0.02922208501691324 0 0.0074804668513178598 0.029683231173691888 0 0.0072513030189069686 0.029626896864523897 0 0.0072501045797433179 0.02922208501691324 0 0.0074804668513178598 0.029683231173691888 0 0.0072513030189069686 0.029626896864523897 0 0.0074481761015845393 0.029766426706930929 0 0.0072513030189069686 0.029626896864523897 0 0.0067513604962501752 0.029376744209771453 0 0.0077741899946109248 0.029745431888023609 0 0.0090451648274788715 0.028370965421948852 0 0.008162927893508436 0.029064295898629921 0 0.0078254814596231126 0.028544805821148309 0 0.0090451648274788715 0.028370965421948852 0 0.008162927893508436 0.029064295898629921 0 0.0077741899946109248 0.029745431888023609 0 0.0078655674761488516 0.028712997096272726 0 0.0078085549999483521 0.029562152129340425 0 0.008162927893508436 0.029064295898629921 0 0.0080009477897538626 0.029627567332938403 0 0.0077859486617073911 0.029310272999098094 0 0.0080009477897538626 0.029627567332938403 0 0.0083345131603860794 0.03039815426634036 0 0.0097862563476994978 0.030634237997995525 0 0.0083368732132400383 0.029414481261694905 0 0.0074873329233315503 0.031742102240938389 0 0.0080009477897538626 0.029627567332938403 0 0.0077741899946109248 0.029745431888023609 0 0.0074961987471050167 0.029799307212169997 0 0.008162927893508436 0.029064295898629921 0 0.0080009477897538626 0.029627567332938403 0 0.0077741899946109248 0.029745431888023609 0 0.0080009477897538626 0.029627567332938403 0 0.0083345131603860794 0.03039815426634036 0 0.0075628580598328171 0.030523838630449919 0 0.0075865606743269164 0.029832115439826331 0 0.0074804668513178598 0.029683231173691888 0 0.0074481761015845393 0.029766426706930929 0 0.0072513030189069686 0.029626896864523897 0 0.0077741899946109248 0.029745431888023609 0 0.0074481761015845393 0.029766426706930929 0 0.0077741899946109248 0.029745431888023609 0 0.0074481761015845393 0.029766426706930929 0 0.0074961987471050167 0.029799307212169997 0 0.0075865606743269164 0.029832115439826331 0 0.0074481761015845393 0.029766426706930929 0 0.0074961987471050167 0.029799307212169997 0 0.0089872440475552099 0.031090243718459667 0 0.0087937200198405421 0.030962354710479909 0 0.0081178788059370916 0.031143884679947966 0 0.0040908111109738783 0.033180496637860296 0 0.0046290948429933221 0.033483432803740824 0 0.0034115711538334841 0.033271073661498778 0 0.0075973395627448722 0.044169453886201707 0 0.0086541270334238307 0.043554420985587261 0 0.0098762127138395366 0.043949526984270362 0 0.0068542836318519745 0.034948356856903971 0 0.0088638418827898992 0.037682124542094735 0 0.0068542836318519745 0.034948356856903971 0 0.0074873329233315503 0.031742102240938389 0 0.0086541270334238307 0.043554420985587261 0 0.0078718438952556907 0.043470940535331688 0 0.0082027098213734231 0.042952727400411263 0 0.0075973395627448722 0.044169453886201707 0 0.0078718438952556907 0.043470940535331688 0 0.0072703002198986908 0.043456501707958527 0 0.0075973395627448722 0.044169453886201707 0 0.0086541270334238307 0.043554420985587261 0 0.0078718438952556907 0.043470940535331688 0 0.0078718438952556907 0.043470940535331688 0 0.0075866207910623767 0.043051405147511913 0 0.0072703002198986908 0.043456501707958527 0 0.0074873329233315503 0.031742102240938389 0 0.0088986859065163047 0.030749453083364547 0 0.0083345131603860794 0.03039815426634036 0 0.0097862563476994978 0.030634237997995525 0 0.0080886975190636069 0.030973869647391766 0 0.0087937200198405421 0.030962354710479909 0 0.0080886975190636069 0.030973869647391766 0 0.0081178788059370916 0.031143884679947966 0 0.0083345131603860794 0.03039815426634036 0 0.0080886975190636069 0.030973869647391766 0 0.0075628580598328171 0.030523838630449919 0 0.0086541270334238307 0.043554420985587261 0 0.0098762127138395366 0.043949526984270362 0 0.009379465853414681 0.043420782120220332 0 0.0086541270334238307 0.043554420985587261 0 0.009379465853414681 0.043420782120220332 0 0.0089687578247048521 0.042922945982613182 0 0.009379465853414681 0.043420782120220332 0 0.0099479079674346729 0.043308101436428464 0 0.0094658587202543342 0.043104626154162148 0 0.0098762127138395366 0.043949526984270362 0 0.009379465853414681 0.043420782120220332 0 0.0099479079674346729 0.043308101436428464 0 0.0099479079674346729 0.043308101436428464 0 0.0095746360351694152 0.042769113583767789 0 0.010198230972572778 0.042702678986347893 0 0.0099479079674346729 0.043308101436428464 0 0.0094658587202543342 0.043104626154162148 0 0.0095746360351694152 0.042769113583767789 0 0.0095746360351694152 0.042769113583767789 0 0.0089687578247048521 0.042922945982613182 0 0.0091522285679961329 0.042224294414557918 0 0.0094658587202543342 0.043104626154162148 0 0.0095746360351694152 0.042769113583767789 0 0.0089687578247048521 0.042922945982613182 0 0.009379465853414681 0.043420782120220332 0 0.0094658587202543342 0.043104626154162148 0 0.0089687578247048521 0.042922945982613182 0 0.0089687578247048521 0.042922945982613182 0 0.0091522285679961329 0.042224294414557918 0 0.008377542608744383 0.042211878727140217 0 0.0091522285679961329 0.042224294414557918 0 0.008377542608744383 0.042211878727140217 0 0.0088138894099221606 0.041704558215306886 0 0.0095746360351694152 0.042769113583767789 0 0.0091522285679961329 0.042224294414557918 0 0.0098240571868933764 0.042113561126861765 0 0.0091522285679961329 0.042224294414557918 0 0.0098240571868933764 0.042113561126861765 0 0.0094131583803260532 0.041610057073651403 0 0.0095746360351694152 0.042769113583767789 0 0.0098240571868933764 0.042113561126861765 0 0.010198230972572778 0.042702678986347893 0 0.0075866207910623767 0.043051405147511913 0 0.0082027098213734231 0.042952727400411263 0 0.0077960216150538943 0.04248526040230563 0 0.0078718438952556907 0.043470940535331688 0 0.0075866207910623767 0.043051405147511913 0 0.0082027098213734231 0.042952727400411263 0 0.0082027098213734231 0.042952727400411263 0 0.008377542608744383 0.042211878727140217 0 0.0077960216150538943 0.04248526040230563 0 0.0086541270334238307 0.043554420985587261 0 0.0089687578247048521 0.042922945982613182 0 0.0082027098213734231 0.042952727400411263 0 0.0089687578247048521 0.042922945982613182 0 0.0082027098213734231 0.042952727400411263 0 0.008377542608744383 0.042211878727140217 0 0.008377542608744383 0.042211878727140217 0 0.0077960216150538943 0.04248526040230563 0 0.0074459151699199314 0.041826413513279287 0 0.0068133853668323361 0.042718688342792369 0 0.0062523347319444695 0.041790689774548299 0 0.0074459151699199314 0.041826413513279287 0 0.0068133853668323361 0.042718688342792369 0 0.0053308695169332629 0.042936486908943375 0 0.0062523347319444695 0.041790689774548299 0 0.0077960216150538943 0.04248526040230563 0 0.0068133853668323361 0.042718688342792369 0 0.0074459151699199314 0.041826413513279287 0 0.0068133853668323361 0.042718688342792369 0 0.0064660147116280126 0.043557359828140914 0 0.0053308695169332629 0.042936486908943375 0 0.0075866207910623767 0.043051405147511913 0 0.0077960216150538943 0.04248526040230563 0 0.0068133853668323361 0.042718688342792369 0 0.0075866207910623767 0.043051405147511913 0 0.0068133853668323361 0.042718688342792369 0 0.0072703002198986908 0.043456501707958527 0 0.0075973395627448722 0.044169453886201707 0 0.0072703002198986908 0.043456501707958527 0 0.0064660147116280126 0.043557359828140914 0 0.0068133853668323361 0.042718688342792369 0 0.0072703002198986908 0.043456501707958527 0 0.0064660147116280126 0.043557359828140914 0 0.0024508288031552202 0.033824376196702796 0 0.0027498965454809893 0.033188552445338942 0 0.0034115711538334841 0.033271073661498778 0 0.0028742079942396777 0.032613552526941182 0 0.0027498965454809893 0.033188552445338942 0 0.0034115711538334841 0.033271073661498778 0 0.0028742079942396777 0.032613552526941182 0 0.0027498965454809893 0.033188552445338942 0 0.0022717210954471484 0.033058359653774995 0 0.0068542836318519745 0.034948356856903971 0 0.0048990045937272048 0.038095789646581585 0 0.0040642942469538449 0.033168155117943111 0 0.0028742079942396777 0.032613552526941182 0 0.0034115711538334841 0.033271073661498778 0 0.0068542836318519745 0.034948356856903971 0 0.0040799643087697356 0.034454781048516153 0 0.0015550114130171561 0.033340010667691961 0 0.0022717210954471484 0.033058359653774995 0 0.0018116907851438518 0.032162349590596918 0 0.0024508288031552202 0.033824376196702796 0 0.0015550114130171561 0.033340010667691961 0 0.0022717210954471484 0.033058359653774995 0 0.0024508288031552202 0.033824376196702796 0 0.0027498965454809893 0.033188552445338942 0 0.0022717210954471484 0.033058359653774995 0 0.0048990045937272048 0.038095789646581585 0 0.0025691974755622745 0.038489943569512831 0 0.0028742079942396777 0.032613552526941182 0 0.0022717210954471484 0.033058359653774995 0 0.0018116907851438518 0.032162349590596918 0 0.0040157505272685129 0.040991223415956339 0 0.0041138889222397937 0.040354660019643787 0 0.0045913727074262936 0.040264673575439607 0 0.0025691974755622745 0.038489943569512831 0 0.0053284610130215721 0.041209213348966697 0 0.0040157505272685129 0.040991223415956339 0 0.0041138889222397937 0.040354660019643787 0 0.0037206359230969573 0.040349341193378588 0 0.0040157505272685129 0.040991223415956339 0 0.0037206359230969573 0.040349341193378588 0 0.0032300578121369551 0.040592576965290061 0 0.0037206359230969573 0.040349341193378588 0 0.0032300578121369551 0.040592576965290061 0 0.0030824613664568851 0.040072159992941281 0 -0.0022908604215901396 0.037372431478534286 0 0.00055332791882565504 0.037395776344081012 0 0.00023752261047488429 0.038836764421987399 0 0.0025691974755622745 0.038489943569512831 0 0.0015732741866427971 0.039567403803238851 0 0.00055332791882565504 0.037395776344081012 0 0.00023752261047488429 0.038836764421987399 0 0.0017746832708734133 0.038460475171565367 0 0.0017746832708734133 0.038460475171565367 0 0.00072426765858664183 0.035431989849838884 0 0.0028298946485783285 0.038770095379176896 0 0.0015732741866427971 0.039567403803238851 0 0.0023238023174132925 0.039870617607997254 0 0.00023752261047488429 0.038836764421987399 0 0.0017746832708734133 0.038460475171565367 0 0.0023442259948341184 0.039799252802005615 0 0.0017746832708734133 0.038460475171565367 0 0.0028298946485783285 0.038770095379176896 0 0.0023442259948341184 0.039799252802005615 0 0.001618800993132784 0.034419872844214459 0 0.0022795271847292739 0.034753055136860958 0 0.002257653230903536 0.034238120170821291 0 0.0006999585724037354 0.035468048947810103 0 0.0023345780947457129 0.036673306991410658 0 0.001618800993132784 0.034419872844214459 0 0.00072426765858664183 0.035431989849838884 0 0.0022795271847292739 0.034753055136860958 0 0.0025691974755622745 0.038489943569512831 0 7.1728179184830224e-05 0.032608685893118904 0 0.0015550114130171561 0.033340010667691961 0 0.0018116907851438518 0.032162349590596918 0 0.00071835357507661797 0.033690320873477411 0 -0.0022908604215901396 0.037372431478534286 0 0.00072426765858664183 0.035431989849838884 0 0.00071835357507661797 0.033690320873477411 0 -0.0022908604215901396 0.037372431478534286 0 0.00055332791882565504 0.037395776344081012 0 0.00072426765858664183 0.035431989849838884 0 0.001618800993132784 0.034419872844214459 0 0.00072426765858664183 0.035431989849838884 0 0.00071835357507661797 0.033690320873477411 0 0.00055332791882565504 0.037395776344081012 0 0.0017746832708734133 0.038460475171565367 0 0.00072426765858664183 0.035431989849838884 0 0.0023124666147237823 0.034462885125583924 0 0.0020349673025214124 0.034497284538165494 0 0.0020673122837782552 0.034460693676782263 0 0.0020349673025214124 0.034497284538165494 0 0.0020673122837782552 0.034460693676782263 0 0.0016788406961015323 0.034602219625844817 0 0.0028298946485783285 0.038770095379176896 0 0.0023646443450215243 0.039602008016786552 0 0.0023442259948341184 0.039799252802005615 0 0.0022795271847292739 0.034753055136860958 0 0.0023124666147237823 0.034462885125583924 0 0.0020673122837782552 0.034460693676782263 0 0.0028298946485783285 0.038770095379176896 0 0.0019064882062880845 0.039803929944052595 0 0.0023646443450215243 0.039602008016786552 0 0.0023345780947457129 0.036673306991410658 0 0.0019758634522446237 0.037100429416010203 0 0.0022795271847292739 0.034753055136860958 0 0.002257653230903536 0.034238120170821291 0 0.0023124666147237823 0.034462885125583924 0 0.002257653230903536 0.034238120170821291 0 0.0023124666147237823 0.034462885125583924 0 0.0025174456166668739 0.033888605385145168 0 0.0022784448649516204 0.034235015875344568 0 0.0020349673025214124 0.034497284538165494 0 0.00190787423964121 0.034478963503735763 0 0.0023124666147237823 0.034462885125583924 0 0.0022784448649516204 0.034235015875344568 0 0.0020349673025214124 0.034497284538165494 0 0.0023124666147237823 0.034462885125583924 0 0.0022784448649516204 0.034235015875344568 0 0.0025174456166668739 0.033888605385145168 0 0.0022784448649516204 0.034235015875344568 0 0.0024645130170303804 0.033583517353910249 0 0.0021497565583820182 0.034184735187239731 0 0.0022784448649516204 0.034235015875344568 0 0.0024645130170303804 0.033583517353910249 0 0.0025174456166668739 0.033888605385145168 0 0.0024645130170303804 0.033583517353910249 0 0.0025174456166668739 0.033888605385145168 0 0.0030149873844623819 0.032625276933393052 0 0.002257653230903536 0.034238120170821291 0 0.0025174456166668739 0.033888605385145168 0 0.0024951315327183159 0.033588114516551172 0 0.0025174456166668739 0.033888605385145168 0 0.0024951315327183159 0.033588114516551172 0 0.0030149873844623819 0.032625276933393052 0 0.0024645130170303804 0.033583517353910249 0 0.00307527677346005 0.033651209330024592 0 0.0022226216719307594 0.033997115642497501 0 0.010677117852940957 0.029704632837541798 0 0.011722730915385135 0.028933861562931165 0 0.01133287004900085 0.028577819757679968 0 0.0068355809689517643 0.031553605630563003 0 0.0068404542065546876 0.031484804256633005 0 0.0024645130170303804 0.033583517353910249 0 0.0030149873844623819 0.032625276933393052 0 0.00307527677346005 0.033651209330024592 0 0.0024645130170303804 0.033583517353910249 0 0.0022226216719307594 0.033997115642497501 0 0.0021497565583820182 0.034184735187239731 0 0.0079783236305396906 0.029684240878338135 0 0.0061392796805400645 0.031307750256604781 0 0.0076713568740485018 0.030627313972030838 0 0.00066698168997920851 0.033710303173934218 0 0.0011669300997357878 0.033716979157040645 0 0.0018075516310926065 0.033488827649634262 0 0.0015550114130171561 0.033340010667691961 0 0.00066698168997920851 0.033710303173934218 0 0.00071835357507661797 0.033690320873477411 0 0.001618800993132784 0.034419872844214459 0 0.00071835357507661797 0.033690320873477411 0 0.0011669300997357878 0.033716979157040645 0 0.00066698168997920851 0.033710303173934218 0 0.00071835357507661797 0.033690320873477411 0 0.0011669300997357878 0.033716979157040645 0 0.0030149873844623819 0.032625276933393052 0 0.0079783236305396906 0.029684240878338135 0 0.0061392796805400645 0.031307750256604781 0 0.0030149873844623819 0.032625276933393052 0 0.00066698168997920851 0.033710303173934218 0 0.0018075516310926065 0.033488827649634262 0 0.001618800993132784 0.034419872844214459 0 0.0011669300997357878 0.033716979157040645 0 0.0018075516310926065 0.033488827649634262 0 0.0032013034077326323 0.032432732409717217 0 0.0044312665418197788 0.031801186353836268 0 0.001618800993132784 0.034419872844214459 0 0.002257653230903536 0.034238120170821291 0 0.0018075516310926065 0.033488827649634262 0 0.002257653230903536 0.034238120170821291 0 0.0024951315327183159 0.033588114516551172 0 0.0018075516310926065 0.033488827649634262 0 0.0024951315327183159 0.033588114516551172 0 0.0030149873844623819 0.032625276933393052 0 0.0018075516310926065 0.033488827649634262 0 0.0068355809689517643 0.031553605630563003 0 0.0077754343147420522 0.031052613693996506 0 0.0061392796805400645 0.031307750256604781 0 0.0050768502400006322 0.032119685254629576 0 0.0081099861510891373 0.030844373837050111 0 0.00307527677346005 0.033651209330024592 0 0.0050768502400006322 0.032119685254629576 0 0.0081099861510891373 0.030844373837050111 0 0.010677117852940957 0.029704632837541798 0 0.0081099861510891373 0.030844373837050111 0 0.0096041358428080939 0.029321302965048 0 0.0030149873844623819 0.032625276933393052 0 0.0061392796805400645 0.031307750256604781 0 0.0050768502400006322 0.032119685254629576 0 0.0030149873844623819 0.032625276933393052 0 0.00307527677346005 0.033651209330024592 0 0.0050768502400006322 0.032119685254629576 0 0.0079931623534986295 0.029986005566204794 0 0.0079783236305396906 0.029684240878338135 0 0.0080348549589875154 0.030340082394720819 0 0.0061392796805400645 0.031307750256604781 0 0.0081099861510891373 0.030844373837050111 0 0.0076713568740485018 0.030627313972030838 0 0.0079783236305396906 0.029684240878338135 0 0.0076713568740485018 0.030627313972030838 0 0.0080348549589875154 0.030340082394720819 0 0.0081099861510891373 0.030844373837050111 0 0.0076713568740485018 0.030627313972030838 0 0.0080348549589875154 0.030340082394720819 0 0.0080479664602632981 0.02975187150210536 0 0.0081099861510891373 0.030844373837050111 0 0.0080348549589875154 0.030340082394720819 0 0.0080479664602632981 0.02975187150210536 0 0.0081099861510891373 0.030844373837050111 0 0.0087161185993686312 0.029216605546837474 0 0.0080479664602632981 0.02975187150210536 0 0.0084148313845287467 0.02867660555245688 0 0.0087161185993686312 0.029216605546837474 0 0.0084148313845287467 0.02867660555245688 0 0.0087161185993686312 0.029216605546837474 0 0.0091396329330055634 0.027943741905532983 0 0.0087161185993686312 0.029216605546837474 0 0.0096986400081694318 0.028488054853211365 0 0.0091396329330055634 0.027943741905532983 0 0.0081099861510891373 0.030844373837050111 0 0.0087161185993686312 0.029216605546837474 0 0.0096041358428080939 0.029321302965048 0 0.0087161185993686312 0.029216605546837474 0 0.0096041358428080939 0.029321302965048 0 0.0096986400081694318 0.028488054853211365 0 0.0096041358428080939 0.029321302965048 0 0.0096986400081694318 0.028488054853211365 0 0.010533568981417269 0.028583685014904846 0 0.010677117852940957 0.029704632837541798 0 0.0096041358428080939 0.029321302965048 0 0.010533568981417269 0.028583685014904846 0 0.010463514913002552 0.027287599813553706 0 0.0091396329330055634 0.027943741905532983 0 0.0097149770326132139 0.026761500306556607 0 0.0096986400081694318 0.028488054853211365 0 0.010463514913002552 0.027287599813553706 0 0.0091396329330055634 0.027943741905532983 0 0.0096986400081694318 0.028488054853211365 0 0.010463514913002552 0.027287599813553706 0 0.010533568981417269 0.028583685014904846 0 0.0084148313845287467 0.02867660555245688 0 0.0088511651921559052 0.027320408409500251 0 0.0091396329330055634 0.027943741905532983 0 0.0088511651921559052 0.027320408409500251 0 0.0091396329330055634 0.027943741905532983 0 0.0097149770326132139 0.026761500306556607 0 0.01133287004900085 0.028577819757679968 0 0.011922202194117038 0.027690596328752492 0 0.012103468905844638 0.028302763810028601 0 0.01133287004900085 0.028577819757679968 0 0.011163297472600404 0.02778526146608316 0 0.011922202194117038 0.027690596328752492 0 0.011722730915385135 0.028933861562931165 0 0.01133287004900085 0.028577819757679968 0 0.012103468905844638 0.028302763810028601 0 0.01133287004900085 0.028577819757679968 0 0.010533568981417269 0.028583685014904846 0 0.011163297472600404 0.02778526146608316 0 0.010677117852940957 0.029704632837541798 0 0.01133287004900085 0.028577819757679968 0 0.010533568981417269 0.028583685014904846 0 0.010463514913002552 0.027287599813553706 0 0.010533568981417269 0.028583685014904846 0 0.011163297472600404 0.02778526146608316 0 0.010463514913002552 0.027287599813553706 0 0.011163297472600404 0.02778526146608316 0 0.011439957117861211 0.027017027285115156 0 0.011163297472600404 0.02778526146608316 0 0.011922202194117038 0.027690596328752492 0 0.011439957117861211 0.027017027285115156 0 0.011922202194117038 0.027690596328752492 0 0.011439957117861211 0.027017027285115156 0 0.012101364612145456 0.026740712247196485 0 0.011439957117861211 0.027017027285115156 0 0.01112637677411187 0.026025281587801048 0 0.012101364612145456 0.026740712247196485 0 0.010463514913002552 0.027287599813553706 0 0.01112637677411187 0.026025281587801048 0 0.010312845597808516 0.025681397407371073 0 0.010463514913002552 0.027287599813553706 0 0.011439957117861211 0.027017027285115156 0 0.01112637677411187 0.026025281587801048 0 0.01100622007173103 0.024020341015574966 0 0.01112637677411187 0.026025281587801048 0 0.010312845597808516 0.025681397407371073 0 0.01112637677411187 0.026025281587801048 0 0.012283461995087206 0.025341569232634573 0 0.012101364612145456 0.026740712247196485 0 0.01100622007173103 0.024020341015574966 0 0.01112637677411187 0.026025281587801048 0 0.012283461995087206 0.025341569232634573 0 0.0097149770326132139 0.026761500306556607 0 0.010312845597808516 0.025681397407371073 0 0.0093239455036029824 0.025781789651446865 0 0.0088511651921559052 0.027320408409500251 0 0.0097149770326132139 0.026761500306556607 0 0.0093239455036029824 0.025781789651446865 0 0.010463514913002552 0.027287599813553706 0 0.0097149770326132139 0.026761500306556607 0 0.010312845597808516 0.025681397407371073 0 0.010136193689531017 0.024317616897530873 0 0.010312845597808516 0.025681397407371073 0 0.0093239455036029824 0.025781789651446865 0 0.0095079629745663911 0.023793574307079634 0 0.010136193689531017 0.024317616897530873 0 0.0093239455036029824 0.025781789651446865 0 0.0095079629745663911 0.023793574307079634 0 0.0093239455036029824 0.025781789651446865 0 0.0083536251117277589 0.025825498158944058 0 0.0095079629745663911 0.023793574307079634 0 0.0083536251117277589 0.025825498158944058 0 0.0072972405076495188 0.025177834865406 0 0.0083536251117277589 0.025825498158944058 0 0.0072972405076495188 0.025177834865406 0 0.0072185911497418195 0.026546369014905907 0 0.0083536251117277589 0.025825498158944058 0 0.0072185911497418195 0.026546369014905907 0 0.0080434554405209926 0.027035959278224921 0 0.0072185911497418195 0.026546369014905907 0 0.0080434554405209926 0.027035959278224921 0 0.0071856675428730683 0.027514426181761635 0 0.0093239455036029824 0.025781789651446865 0 0.0083536251117277589 0.025825498158944058 0 0.0080434554405209926 0.027035959278224921 0 0.0088511651921559052 0.027320408409500251 0 0.0093239455036029824 0.025781789651446865 0 0.0080434554405209926 0.027035959278224921 0 0.0084148313845287467 0.02867660555245688 0 0.0088511651921559052 0.027320408409500251 0 0.0081258931258658511 0.028062407807104013 0 0.0088511651921559052 0.027320408409500251 0 0.0080434554405209926 0.027035959278224921 0 0.0081258931258658511 0.028062407807104013 0 0.0080434554405209926 0.027035959278224921 0 0.0081258931258658511 0.028062407807104013 0 0.0076062166491332826 0.028074827578306705 0 0.0080434554405209926 0.027035959278224921 0 0.0071856675428730683 0.027514426181761635 0 0.0076062166491332826 0.028074827578306705 0 0.0076062166491332826 0.028074827578306705 0 0.007689708974468819 0.028854513760789794 0 0.0071585498613411912 0.028354816702775461 0 0.0071856675428730683 0.027514426181761635 0 0.0076062166491332826 0.028074827578306705 0 0.0071585498613411912 0.028354816702775461 0 0.0081258931258658511 0.028062407807104013 0 0.0076062166491332826 0.028074827578306705 0 0.007689708974468819 0.028854513760789794 0 0.007689708974468819 0.028854513760789794 0 0.0072501045797433179 0.02922208501691324 0 0.0071585498613411912 0.028354816702775461 0 0.0077237909301627493 0.029592091624672311 0 0.007689708974468819 0.028854513760789794 0 0.0072501045797433179 0.02922208501691324 0 0.0084148313845287467 0.02867660555245688 0 0.0081258931258658511 0.028062407807104013 0 0.007689708974468819 0.028854513760789794 0 0.0080479664602632981 0.02975187150210536 0 0.0077237909301627493 0.029592091624672311 0 0.007689708974468819 0.028854513760789794 0 0.0080479664602632981 0.02975187150210536 0 0.0084148313845287467 0.02867660555245688 0 0.007689708974468819 0.028854513760789794 0 0.0087402948397535592 0.027556494872900024 0 0.0092049780136238338 0.0266607921606191 0 0.0078416526469406184 0.027862987963765563 0 0.0090451648274788715 0.028370965421948852 0 0.0087402948397535592 0.027556494872900024 0 0.0078254814596231126 0.028544805821148309 0 0.0067513604962501752 0.029376744209771453 0 0.0067831121187872448 0.028630888965148555 0 0.0061345646079933062 0.028109469695658789 0 0.0090451648274788715 0.028370965421948852 0 0.0087402948397535592 0.027556494872900024 0 0.0092025845884994295 0.026807372017063475 0 0.0078655674761488516 0.028712997096272726 0 0.0075146629141396686 0.02773545337155691 0 0.0067513604962501752 0.029376744209771453 0 0.0072501045797433179 0.02922208501691324 0 0.0067831121187872448 0.028630888965148555 0 0.0072501045797433179 0.02922208501691324 0 0.0067831121187872448 0.028630888965148555 0 0.0071585498613411912 0.028354816702775461 0 0.0067831121187872448 0.028630888965148555 0 0.0067442355108925049 0.02798968535413968 0 0.0061345646079933062 0.028109469695658789 0 0.0071856675428730683 0.027514426181761635 0 0.0067442355108925049 0.02798968535413968 0 0.0071585498613411912 0.028354816702775461 0 0.0067831121187872448 0.028630888965148555 0 0.0067442355108925049 0.02798968535413968 0 0.0071585498613411912 0.028354816702775461 0 0.0071856675428730683 0.027514426181761635 0 0.0067442355108925049 0.02798968535413968 0 0.006457821238282359 0.02726663793091795 0 0.0067442355108925049 0.02798968535413968 0 0.0061345646079933062 0.028109469695658789 0 0.006457821238282359 0.02726663793091795 0 0.0092025845884994295 0.026807372017063475 0 0.0092373065477720367 0.027113619948513232 0 0.008897517371658524 0.027636850998545334 0 0.0087402948397535592 0.027556494872900024 0 0.0092025845884994295 0.026807372017063475 0 0.0092049780136238338 0.0266607921606191 0 0.0092025845884994295 0.026807372017063475 0 0.0092049780136238338 0.0266607921606191 0 0.0092373065477720367 0.027113619948513232 0 0.0092049780136238338 0.0266607921606191 0 0.0092373065477720367 0.027113619948513232 0 0.0097636120233448795 0.027420128057111855 0 0.0096975308156043091 0.026003305094225559 0 0.011528450045204978 0.026273391447048339 0 0.0075146629141396686 0.02773545337155691 0 0.0096975308156043091 0.026003305094225559 0 0.0092373065477720367 0.027113619948513232 0 0.008897517371658524 0.027636850998545334 0 0.0097636120233448795 0.027420128057111855 0 0.013443404943991717 0.024911210984651683 0 0.012924681626768636 0.024916931185482761 0 0.012863256634457799 0.025406021339908914 0 0.010022677711307383 0.025766390030986148 0 0.010531893018336728 0.025430501039997951 0 0.01005938461353993 0.024183498688630602 0 0.0096975308156043091 0.026003305094225559 0 0.008786462073281336 0.025446566076365001 0 0.013443404943991717 0.024911210984651683 0 0.013189524412273836 0.024712030849152338 0 0.012924681626768636 0.024916931185482761 0 0.013189524412273836 0.024712030849152338 0 0.01296712588948536 0.024679314520843345 0 0.012924681626768636 0.024916931185482761 0 0.0061345646079933062 0.028109469695658789 0 0.0059851074895547708 0.026683472609573107 0 0.006457821238282359 0.02726663793091795 0 0.0072185911497418195 0.026546369014905907 0 0.006457821238282359 0.02726663793091795 0 0.0060149954224477256 0.026354975249868882 0 0.0072185911497418195 0.026546369014905907 0 0.0071856675428730683 0.027514426181761635 0 0.006457821238282359 0.02726663793091795 0 0.0070274094604833217 0.02684083161979306 0 0.008786462073281336 0.025446566076365001 0 0.0059851074895547708 0.026683472609573107 0 0.006457821238282359 0.02726663793091795 0 0.0061959298525589698 0.026544627019319984 0 0.010857387588832056 0.022918907400056632 0 0.010467313766817149 0.022792694165810919 0 0.010992407662849119 0.022494665729871553 0 0.0072972405076495188 0.025177834865406 0 0.0072185911497418195 0.026546369014905907 0 0.0060149954224477256 0.026354975249868882 0 0.0089403334133886757 0.023894201874111901 0 0.008786462073281336 0.025446566076365001 0 0.010857387588832056 0.022918907400056632 0 0.010992407662849119 0.022494665729871553 0 0.011068444240938146 0.022689006357476806 0 0.013119680214712489 0.024522255537928635 0 0.012931942041266785 0.024466372182314733 0 0.01296712588948536 0.024679314520843345 0 0.013119680214712489 0.024522255537928635 0 0.013189524412273836 0.024712030849152338 0 0.01296712588948536 0.024679314520843345 0 0.013119680214712489 0.024522255537928635 0 0.013189524412273836 0.024712030849152338 0 0.013413891559502943 0.024536337311279337 0 0.008786462073281336 0.025446566076365001 0 0.010967487499128459 0.023785342649892485 0 0.013443404943991717 0.024911210984651683 0 0.013189524412273836 0.024712030849152338 0 0.013413891559502943 0.024536337311279337 0 0.0096975308156043091 0.026003305094225559 0 0.010967487499128459 0.023785342649892485 0 0.013087707889818256 0.024241913209034543 0 0.013119680214712489 0.024522255537928635 0 0.012931942041266785 0.024466372182314733 0 0.013087707889818256 0.024241913209034543 0 0.013119680214712489 0.024522255537928635 0 0.013413891559502943 0.024536337311279337 0 0.013087707889818256 0.024241913209034543 0 0.012931942041266785 0.024466372182314733 0 0.012737813125504399 0.024359111690448472 0 0.012737813125504399 0.024359111690448472 0 0.012633905945061108 0.024704314590279417 0 0.012318792656045482 0.024634522742323479 0 0.012931942041266785 0.024466372182314733 0 0.012633905945061108 0.024704314590279417 0 0.01296712588948536 0.024679314520843345 0 0.012931942041266785 0.024466372182314733 0 0.012737813125504399 0.024359111690448472 0 0.012633905945061108 0.024704314590279417 0 0.012633905945061108 0.024704314590279417 0 0.01296712588948536 0.024679314520843345 0 0.012924681626768636 0.024916931185482761 0 0.012633905945061108 0.024704314590279417 0 0.012924681626768636 0.024916931185482761 0 0.012256452635804719 0.025132938113438419 0 0.012924681626768636 0.024916931185482761 0 0.012256452635804719 0.025132938113438419 0 0.012863256634457799 0.025406021339908914 0 0.013001056854982677 0.025144345647150988 0 0.010344004445171197 0.025100128122183506 0 0.012256452635804719 0.025132938113438419 0 0.012318792656045482 0.024634522742323479 0 0.012179070469888597 0.024673043712024365 0 0.012633905945061108 0.024704314590279417 0 0.012256452635804719 0.025132938113438419 0 0.012318792656045482 0.024634522742323479 0 0.012453198505443859 0.024195618654827274 0 0.012737813125504399 0.024359111690448472 0 0.012318792656045482 0.024634522742323479 0 0.012453198505443859 0.024195618654827274 0 0.012318792656045482 0.024634522742323479 0 0.012236171435981836 0.024406387193597175 0 0.012302854985602345 0.023977801783795185 0 0.012236171435981836 0.024406387193597175 0 0.01215798681006941 0.024205724384343676 0 0.012236171435981836 0.024406387193597175 0 0.01215798681006941 0.024205724384343676 0 0.012103513597187639 0.024465284177764963 0 0.012058507904447019 0.024053220645255089 0 0.01203661254989042 0.024285325415495169 0 0.01215798681006941 0.024205724384343676 0 0.01203661254989042 0.024285325415495169 0 0.012103513597187639 0.024465284177764963 0 0.012010537200705933 0.024452266742643423 0 0.01203661254989042 0.024285325415495169 0 0.01215798681006941 0.024205724384343676 0 0.012103513597187639 0.024465284177764963 0 0.010344004445171197 0.025100128122183506 0 0.019773363453081033 0.027506887635594446 0 0.012103513597187639 0.024465284177764963 0 0.012179070469888597 0.024673043712024365 0 0.012012419047003963 0.024650615134199354 0 0.012103513597187639 0.024465284177764963 0 0.012010537200705933 0.024452266742643423 0 0.012012419047003963 0.024650615134199354 0 0.012236171435981836 0.024406387193597175 0 0.012103513597187639 0.024465284177764963 0 0.012179070469888597 0.024673043712024365 0 0.012318792656045482 0.024634522742323479 0 0.012236171435981836 0.024406387193597175 0 0.012179070469888597 0.024673043712024365 0 0.011788432218780434 0.025859827878055231 0 0.012106163450163571 0.025738574903237815 0 0.011871286972712019 0.025674524736995195 0 0.011788432218780434 0.025859827878055231 0 0.011871286972712019 0.025674524736995195 0 0.011722350382375445 0.026040610432300382 0 0.017732280288998866 0.026690002066861982 0 0.019773363453081033 0.027506887635594446 0 0.011788432218780434 0.025859827878055231 0 0.012106163450163571 0.025738574903237815 0 0.012477616363101632 0.025957352713776641 0 0.012106163450163571 0.025738574903237815 0 0.012310447379320945 0.025428669590083375 0 0.012477616363101632 0.025957352713776641 0 0.012106163450163571 0.025738574903237815 0 0.012310447379320945 0.025428669590083375 0 0.011871286972712019 0.025674524736995195 0 0.011871286972712019 0.025674524736995195 0 0.011612660574082844 0.025344238063838644 0 0.011924016327552656 0.0251979065481263 0 0.012310447379320945 0.025428669590083375 0 0.011871286972712019 0.025674524736995195 0 0.011924016327552656 0.0251979065481263 0 0.011871286972712019 0.025674524736995195 0 0.011612660574082844 0.025344238063838644 0 0.011428840637361888 0.02555672468309449 0 0.011871286972712019 0.025674524736995195 0 0.011428840637361888 0.02555672468309449 0 0.011722350382375445 0.026040610432300382 0 0.011428840637361888 0.02555672468309449 0 0.01062511276324111 0.025977879844238605 0 0.011722350382375445 0.026040610432300382 0 0.011612660574082844 0.025344238063838644 0 0.011428840637361888 0.02555672468309449 0 0.011221721491658884 0.025148914405383353 0 0.011428840637361888 0.02555672468309449 0 0.01047954252302625 0.025209201311472449 0 0.011221721491658884 0.025148914405383353 0 0.0092049780136238338 0.0266607921606191 0 0.01047954252302625 0.025209201311472449 0 0.01062511276324111 0.025977879844238605 0 0.0090637940541810694 0.026933866390421939 0 0.0093959032176669111 0.026058787768048475 0 0.0087402948397535592 0.027556494872900024 0 0.0078416526469406184 0.027862987963765563 0 0.0078254814596231126 0.028544805821148309 0 0.011428840637361888 0.02555672468309449 0 0.01047954252302625 0.025209201311472449 0 0.01062511276324111 0.025977879844238605 0 0.012256452635804719 0.025132938113438419 0 0.012863256634457799 0.025406021339908914 0 0.011722350382375445 0.026040610432300382 0 0.011528450045204978 0.026273391447048339 0 0.011618043735311768 0.026138009115854052 0 0.0097636120233448795 0.027420128057111855 0 0.01062511276324111 0.025977879844238605 0 0.011722350382375445 0.026040610432300382 0 0.0092049780136238338 0.0266607921606191 0 0.0097636120233448795 0.027420128057111855 0 0.01062511276324111 0.025977879844238605 0 0.012256452635804719 0.025132938113438419 0 0.011788432218780434 0.025859827878055231 0 0.011722350382375445 0.026040610432300382 0 0.026748342881013906 0.02820107965044967 0 0.028337453698356441 0.027611645622781452 0 0.026365779832783015 0.029871578056817085 0 0.026748342881013906 0.02820107965044967 0 0.027219531092579755 0.026535687787480066 0 0.027588850078717652 0.02726717762095884 0 0.025862672399337681 0.027250068075366469 0 0.026748342881013906 0.02820107965044967 0 0.027219531092579755 0.026535687787480066 0 0.026748342881013906 0.02820107965044967 0 0.027588850078717652 0.02726717762095884 0 0.028337453698356441 0.027611645622781452 0 0.027219531092579755 0.026535687787480066 0 0.027588850078717652 0.02726717762095884 0 0.028282209216014292 0.026490363904855707 0 0.027588850078717652 0.02726717762095884 0 0.028282209216014292 0.026490363904855707 0 0.028337453698356441 0.027611645622781452 0 0.028282209216014292 0.026490363904855707 0 0.028780795319875294 0.0267448488413045 0 0.028337453698356441 0.027611645622781452 0 0.028763659968476078 0.0261999537186339 0 0.028780795319875294 0.0267448488413045 0 0.029143651311172122 0.026355714798324985 0 0.028763659968476078 0.0261999537186339 0 0.028282209216014292 0.026490363904855707 0 0.028780795319875294 0.0267448488413045 0 0.028780795319875294 0.0267448488413045 0 0.028337453698356441 0.027611645622781452 0 0.029356545900071099 0.026972378460720956 0 0.028337453698356441 0.027611645622781452 0 0.029019092903253347 0.029534341279130617 0 0.026365779832783015 0.029871578056817085 0 0.028337453698356441 0.027611645622781452 0 0.029855245652373318 0.028007575236947673 0 0.029019092903253347 0.029534341279130617 0 0.029855245652373318 0.028007575236947673 0 0.031414139992341522 0.029273558974827477 0 0.029019092903253347 0.029534341279130617 0 0.02896429037774742 0.025649962228162411 0 0.029367757177087395 0.026328010064118279 0 0.030008139348440096 0.026461228700908997 0 0.028337453698356441 0.027611645622781452 0 0.029855245652373318 0.028007575236947673 0 0.029356545900071099 0.026972378460720956 0 0.028780795319875294 0.0267448488413045 0 0.029356545900071099 0.026972378460720956 0 0.029143651311172122 0.026355714798324985 0 0.029356545900071099 0.026972378460720956 0 0.029367757177087395 0.026328010064118279 0 0.029143651311172122 0.026355714798324985 0 0.029356545900071099 0.026972378460720956 0 0.029367757177087395 0.026328010064118279 0 0.030008139348440096 0.026461228700908997 0 0.029855245652373318 0.028007575236947673 0 0.029356545900071099 0.026972378460720956 0 0.030008139348440096 0.026461228700908997 0 0.028986911005653926 0.020474749190823691 0 0.030008139348440096 0.026461228700908997 0 0.03105669925439089 0.027420300409829273 0 0.029855245652373318 0.028007575236947673 0 0.030008139348440096 0.026461228700908997 0 0.03105669925439089 0.027420300409829273 0 0.011949738323994798 0.024103274511721836 0 0.011793696543316539 0.023920689057458259 0 0.011888265484030951 0.024373490012282287 0 0.020183647839694775 0.02204299208142212 0 0.021572511820864206 0.02578793080428753 0 0.011949738323994798 0.024103274511721836 0 0.01203661254989042 0.024285325415495169 0 0.011888265484030951 0.024373490012282287 0 0.011949738323994798 0.024103274511721836 0 0.012058507904447019 0.024053220645255089 0 0.01203661254989042 0.024285325415495169 0 0.01203661254989042 0.024285325415495169 0 0.011888265484030951 0.024373490012282287 0 0.012010537200705933 0.024452266742643423 0 0.021572511820864206 0.02578793080428753 0 0.019773363453081033 0.027506887635594446 0 0.029855245652373318 0.028007575236947673 0 0.03105669925439089 0.027420300409829273 0 0.031414139992341522 0.029273558974827477 0 0.011888265484030951 0.024373490012282287 0 0.012010537200705933 0.024452266742643423 0 0.012012419047003963 0.024650615134199354 0 0.023471808972899418 0.029866517086266271 0 0.023939650051585822 0.030902625609939838 0 0.024439230008745174 0.030227261538904936 0 0.023471808972899418 0.029866517086266271 0 0.024439230008745174 0.030227261538904936 0 0.024536777770456097 0.029593741811094917 0 0.024439230008745174 0.030227261538904936 0 0.025660848312717498 0.029886548458958943 0 0.024536777770456097 0.029593741811094917 0 0.019773363453081033 0.027506887635594446 0 0.028832978619945725 0.030256248282700005 0 0.023939650051585822 0.030902625609939838 0 0.024439230008745174 0.030227261538904936 0 0.02518439896592254 0.030655607681960042 0 0.024439230008745174 0.030227261538904936 0 0.02518439896592254 0.030655607681960042 0 0.025660848312717498 0.029886548458958943 0 0.02518439896592254 0.030655607681960042 0 0.025660848312717498 0.029886548458958943 0 0.026365779832783015 0.029871578056817085 0 0.028832978619945725 0.030256248282700005 0 0.025648499318302483 0.029933651428571489 0 0.025998178967229991 0.03024124659858711 0 0.025660848312717498 0.029886548458958943 0 0.026365779832783015 0.029871578056817085 0 0.025607622793581978 0.03217418324801035 0 0.025783721505911027 0.032441018782611547 0 0.025939346198480775 0.032307903165132573 0 0.025607622793581978 0.03217418324801035 0 0.025443409374644066 0.032618145339761075 0 0.025783721505911027 0.032441018782611547 0 0.025998178967229991 0.03024124659858711 0 0.025660848312717498 0.029886548458958943 0 0.025607912965181227 0.029319504324835644 0 0.025626448643920552 0.030942187652768866 0 0.026301011675642048 0.029939748414070395 0 0.025579326727818201 0.031492831647708074 0 0.025607622793581978 0.03217418324801035 0 0.025939346198480775 0.032307903165132573 0 0.025660848312717498 0.029886548458958943 0 0.025607912965181227 0.029319504324835644 0 0.02498860312090297 0.029408659717814836 0 0.025939346198480775 0.032307903165132573 0 0.025855994149081681 0.032458063597692245 0 0.025558779546804408 0.032588011206114098 0 0.025783721505911027 0.032441018782611547 0 0.025939346198480775 0.032307903165132573 0 0.025855994149081681 0.032458063597692245 0 0.024282586282623454 0.02857171899383008 0 0.02498860312090297 0.029408659717814836 0 0.024250408829051471 0.029161961420978173 0 0.025607912965181227 0.029319504324835644 0 0.024282586282623454 0.02857171899383008 0 0.02498860312090297 0.029408659717814836 0 0.026301011675642048 0.029939748414070395 0 0.021142413328492985 0.036630789319032776 0 0.025660848312717498 0.029886548458958943 0 0.02498860312090297 0.029408659717814836 0 0.024536777770456097 0.029593741811094917 0 0.02498860312090297 0.029408659717814836 0 0.024536777770456097 0.029593741811094917 0 0.024250408829051471 0.029161961420978173 0 0.024536777770456097 0.029593741811094917 0 0.024250408829051471 0.029161961420978173 0 0.023655248184353991 0.029271115726737261 0 0.023471808972899418 0.029866517086266271 0 0.024536777770456097 0.029593741811094917 0 0.023655248184353991 0.029271115726737261 0 0.024282586282623454 0.02857171899383008 0 0.024250408829051471 0.029161961420978173 0 0.023551158879325618 0.028774540034162955 0 0.024250408829051471 0.029161961420978173 0 0.023655248184353991 0.029271115726737261 0 0.023551158879325618 0.028774540034162955 0 0.021142413328492985 0.036630789319032776 0 0.020658444529470084 0.035390805422031046 0 0.021142413328492985 0.036630789319032776 0 0.015839646748404122 0.043436155107313114 0 0.017795156983915424 0.042100308420897035 0 0.016928119778248457 0.042389326672199558 0 0.016404649699174621 0.042208263984301352 0 0.017573401028682527 0.043099771278019158 0 0.016881775568484417 0.042316253980397137 0 0.016404649699174621 0.042208263984301352 0 0.017573401028682527 0.043099771278019158 0 0.017368829270679738 0.042268480546742253 0 0.016881775568484417 0.042316253980397137 0 0.016350631461483221 0.041679821891373509 0 0.016904240470914027 0.041900810010578202 0 0.016269408208412321 0.042287647132999005 0 0.016881775568484417 0.042316253980397137 0 0.016904240470914027 0.041900810010578202 0 0.016269408208412321 0.042287647132999005 0 0.016350631461483221 0.041679821891373509 0 0.016904240470914027 0.041900810010578202 0 0.016960887787918506 0.04123402874768007 0 0.016904240470914027 0.041900810010578202 0 0.017628223971813659 0.041709024093624904 0 0.016960887787918506 0.04123402874768007 0 0.017368829270679738 0.042268480546742253 0 0.016904240470914027 0.041900810010578202 0 0.017628223971813659 0.041709024093624904 0 0.017368829270679738 0.042268480546742253 0 0.016881775568484417 0.042316253980397137 0 0.016904240470914027 0.041900810010578202 0 0.017368829270679738 0.042268480546742253 0 0.017628223971813659 0.041709024093624904 0 0.018027805539231966 0.042358716253998403 0 0.017628223971813659 0.041709024093624904 0 0.017571960537627856 0.040802991666419937 0 0.016960887787918506 0.04123402874768007 0 0.017628223971813659 0.041709024093624904 0 0.01852495431256275 0.04150733844761624 0 0.017571960537627856 0.040802991666419937 0 0.017628223971813659 0.041709024093624904 0 0.018027805539231966 0.042358716253998403 0 0.01852495431256275 0.04150733844761624 0 0.017573401028682527 0.043099771278019158 0 0.018027805539231966 0.042358716253998403 0 0.018891532882360115 0.042751890007105622 0 0.021142413328492985 0.036630789319032776 0 0.023595422183425044 0.036329047845055328 0 0.025855994149081681 0.032458063597692245 0 0.025558779546804408 0.032588011206114098 0 0.0257968859987995 0.03241773376343652 0 0.017573401028682527 0.043099771278019158 0 0.017368829270679738 0.042268480546742253 0 0.018027805539231966 0.042358716253998403 0 0.025855994149081681 0.032458063597692245 0 0.025891889007716582 0.03258421119380233 0 0.025780384308102488 0.032827101236410743 0 0.023595422183425044 0.036329047845055328 0 0.026911651657597263 0.032450481842930909 0 0.018027805539231966 0.042358716253998403 0 0.018891532882360115 0.042751890007105622 0 0.01852495431256275 0.04150733844761624 0 0.023595422183425044 0.036329047845055328 0 0.02250847774411284 0.037799128305477478 0 0.02642392283112727 0.03272462439845332 0 0.026078243472023307 0.033292969847615511 0 0.025780384308102488 0.032827101236410743 0 0.024007063213218566 0.033610305135255543 0 0.023595422183425044 0.036329047845055328 0 0.02642392283112727 0.03272462439845332 0 0.026573249774979314 0.033593797083484103 0 0.026078243472023307 0.033292969847615511 0 0.026573249774979314 0.033593797083484103 0 0.026078243472023307 0.033292969847615511 0 0.026123510146361148 0.033831356312150396 0 0.026078243472023307 0.033292969847615511 0 0.025558876303425623 0.033230721031633527 0 0.025780384308102488 0.032827101236410743 0 0.026078243472023307 0.033292969847615511 0 0.02568964526931334 0.033775820100548304 0 0.026123510146361148 0.033831356312150396 0 0.026078243472023307 0.033292969847615511 0 0.025558876303425623 0.033230721031633527 0 0.02568964526931334 0.033775820100548304 0 0.025783721505911027 0.032441018782611547 0 0.025855994149081681 0.032458063597692245 0 0.025780384308102488 0.032827101236410743 0 0.025443409374644066 0.032618145339761075 0 0.025558876303425623 0.033230721031633527 0 0.025780384308102488 0.032827101236410743 0 0.025443409374644066 0.032618145339761075 0 0.025783721505911027 0.032441018782611547 0 0.025780384308102488 0.032827101236410743 0 0.016479566218787024 0.041909947443111446 0 0.016590824564797255 0.042006993815037898 0 0.016646364120430229 0.041745483171906898 0 0.016479566218787024 0.041909947443111446 0 0.016503978394640979 0.042066714503902251 0 0.016590824564797255 0.042006993815037898 0 0.0066963293237757423 0.030330502719780581 0 0.0074721401419547105 0.029633616913321736 0 0.0071960915115454769 0.029132148529250838 0 0.0066963293237757423 0.030330502719780581 0 0.0075628580598328171 0.030523838630449919 0 0.0074721401419547105 0.029633616913321736 0 0.011596309167499586 0.036288515258305565 0 0.012256032083308501 0.032182950457101275 0 0.0080009477897538626 0.029627567332938403 0 0.0074721401419547105 0.029633616913321736 0 0.0077859486617073911 0.029310272999098094 0 0.0080009477897538626 0.029627567332938403 0 0.0075628580598328171 0.030523838630449919 0 0.0074721401419547105 0.029633616913321736 0 0.0074721401419547105 0.029633616913321736 0 0.0071960915115454769 0.029132148529250838 0 0.0074093760203036169 0.029081392640669973 0 0.0078416526469406184 0.027862987963765563 0 0.0071675255661419685 0.029153432172435708 0 0.0078254814596231126 0.028544805821148309 0 0.0093959032176669111 0.026058787768048475 0 0.012256032083308501 0.032182950457101275 0 0.01047954252302625 0.025209201311472449 0 0.011052975071473653 0.02482611961853293 0 0.011221721491658884 0.025148914405383353 0 0.012256032083308501 0.032182950457101275 0 0.011044845944730078 0.032137800720153646 0 0.0071675255661419685 0.029153432172435708 0 0.0074093760203036169 0.029081392640669973 0 0.0078254814596231126 0.028544805821148309 0 0.0074721401419547105 0.029633616913321736 0 0.0074093760203036169 0.029081392640669973 0 0.0077859486617073911 0.029310272999098094 0 0.0074093760203036169 0.029081392640669973 0 0.0077859486617073911 0.029310272999098094 0 0.0078053503631739414 0.029003788099129849 0 0.008162927893508436 0.029064295898629921 0 0.0077859486617073911 0.029310272999098094 0 0.0078053503631739414 0.029003788099129849 0 0.008162927893508436 0.029064295898629921 0 0.0078053503631739414 0.029003788099129849 0 0.0078254814596231126 0.028544805821148309 0 0.0074093760203036169 0.029081392640669973 0 0.0078053503631739414 0.029003788099129849 0 0.0078254814596231126 0.028544805821148309 0 0.011052975071473653 0.02482611961853293 0 0.011221721491658884 0.025148914405383353 0 0.011516640920090519 0.025073509807148928 0 0.013931715860051692 0.033488674082530326 0 0.012256032083308501 0.032182950457101275 0 0.011612660574082844 0.025344238063838644 0 0.011221721491658884 0.025148914405383353 0 0.011516640920090519 0.025073509807148928 0 0.011687348732208787 0.024855704643092256 0 0.011052975071473653 0.02482611961853293 0 0.011516640920090519 0.025073509807148928 0 0.011687348732208787 0.024855704643092256 0 0.011516640920090519 0.025073509807148928 0 0.011924016327552656 0.0251979065481263 0 0.011612660574082844 0.025344238063838644 0 0.011516640920090519 0.025073509807148928 0 0.011924016327552656 0.0251979065481263 0 0.011687348732208787 0.024855704643092256 0 0.011924016327552656 0.0251979065481263 0 0.012177563999910723 0.024834873977672037 0 0.023471808972899418 0.029866517086266271 0 0.023655248184353991 0.029271115726737261 0 0.022964496301088742 0.028944431731169409 0 0.012310447379320945 0.025428669590083375 0 0.011924016327552656 0.0251979065481263 0 0.012177563999910723 0.024834873977672037 0 0.017732280288998866 0.026690002066861982 0 0.016233940584289293 0.032381084139705307 0 0.023655248184353991 0.029271115726737261 0 0.023551158879325618 0.028774540034162955 0 0.022964496301088742 0.028944431731169409 0 0.016928119778248457 0.042389326672199558 0 0.016434683305954528 0.042323117352152377 0 0.016550988584555074 0.042240156777842354 0 0.020658444529470084 0.035390805422031046 0 0.016233940584289293 0.032381084139705307 0 0.016233940584289293 0.032381084139705307 0 0.017547451610298651 0.038493637075072612 0 0.016434683305954528 0.042323117352152377 0 0.016550988584555074 0.042240156777842354 0 0.016404008335552018 0.042169549409616001 0 0.016550988584555074 0.042240156777842354 0 0.016404008335552018 0.042169549409616001 0 0.016455347568299007 0.04218188009780096 0 0.016928119778248457 0.042389326672199558 0 0.016550988584555074 0.042240156777842354 0 0.016495100118275367 0.042208008670840187 0 0.016479566218787024 0.041909947443111446 0 0.016378087884173689 0.042065245902914938 0 0.016448724336753897 0.042072203738035795 0 0.013931715860051692 0.033488674082530326 0 0.016233940584289293 0.032381084139705307 0 0.016404008335552018 0.042169549409616001 0 0.016448724336753897 0.042072203738035795 0 0.016435092727726221 0.042155739772350091 0 0.016378087884173689 0.042065245902914938 0 0.016404008335552018 0.042169549409616001 0 0.016448724336753897 0.042072203738035795 0 0.016404008335552018 0.042169549409616001 0 0.016435092727726221 0.042155739772350091 0 0.016455347568299007 0.04218188009780096 0 0.016503978394640979 0.042066714503902251 0 0.016448724336753897 0.042072203738035795 0 0.016468843004993683 0.04213469154498347 0 0.016479566218787024 0.041909947443111446 0 0.016503978394640979 0.042066714503902251 0 0.016448724336753897 0.042072203738035795 0 0.016448724336753897 0.042072203738035795 0 0.016468843004993683 0.04213469154498347 0 0.016435092727726221 0.042155739772350091 0 0.016468843004993683 0.04213469154498347 0 0.016470479892435982 0.04219740030796508 0 0.016509156895679479 0.042160241248307855 0 0.015929297656248214 0.042478549571770566 0 0.011371241877464314 0.039366477344929908 0 0.016468843004993683 0.04213469154498347 0 0.016435092727726221 0.042155739772350091 0 0.016470479892435982 0.04219740030796508 0 0.016435092727726221 0.042155739772350091 0 0.016470479892435982 0.04219740030796508 0 0.016435978989195524 0.0421745309829369 0 0.016470479892435982 0.04219740030796508 0 0.016405219192633727 0.042192749327849256 0 0.016269408208412321 0.042287647132999005 0 0.016928119778248457 0.042389326672199558 0 0.016495100118275367 0.042208008670840187 0 0.016404649699174621 0.042208263984301352 0 0.016495100118275367 0.042208008670840187 0 0.016435978989195524 0.0421745309829369 0 0.016405219192633727 0.042192749327849256 0 0.016495100118275367 0.042208008670840187 0 0.016455347568299007 0.04218188009780096 0 0.016435978989195524 0.0421745309829369 0 0.016550988584555074 0.042240156777842354 0 0.016495100118275367 0.042208008670840187 0 0.016455347568299007 0.04218188009780096 0 0.016435092727726221 0.042155739772350091 0 0.016455347568299007 0.04218188009780096 0 0.016435978989195524 0.0421745309829369 0 0.016470479892435982 0.04219740030796508 0 0.016435978989195524 0.0421745309829369 0 0.016405219192633727 0.042192749327849256 0 0.016881775568484417 0.042316253980397137 0 0.016404649699174621 0.042208263984301352 0 0.016269408208412321 0.042287647132999005 0 0.016495100118275367 0.042208008670840187 0 0.016405219192633727 0.042192749327849256 0 0.016404649699174621 0.042208263984301352 0 0.016405219192633727 0.042192749327849256 0 0.016404649699174621 0.042208263984301352 0 0.016269408208412321 0.042287647132999005 0 0.014372483589583694 0.04293440358327201 0 0.016269408208412321 0.042287647132999005 0 0.015160121072169077 0.042089727929341868 0 0.015929297656248214 0.042478549571770566 0 0.015972991292325933 0.0423816319655764 0 0.016350631461483221 0.041679821891373509 0 0.016269408208412321 0.042287647132999005 0 0.015877810929353742 0.041870935279888416 0 0.016269408208412321 0.042287647132999005 0 0.015160121072169077 0.042089727929341868 0 0.015877810929353742 0.041870935279888416 0 0.015160121072169077 0.042089727929341868 0 0.015656281669654309 0.0414278939082771 0 0.014579036921983812 0.041418172269210358 0 0.015160121072169077 0.042089727929341868 0 0.015877810929353742 0.041870935279888416 0 0.015656281669654309 0.0414278939082771 0 0.016350631461483221 0.041679821891373509 0 0.015877810929353742 0.041870935279888416 0 0.015656281669654309 0.0414278939082771 0 0.014372483589583694 0.04293440358327201 0 0.015160121072169077 0.042089727929341868 0 0.014579036921983812 0.041418172269210358 0 0.014372483589583694 0.04293440358327201 0 0.013485079685533918 0.041548705320753623 0 0.014579036921983812 0.041418172269210358 0 0.014372483589583694 0.04293440358327201 0 0.012942453386608691 0.043147248381622989 0 0.013485079685533918 0.041548705320753623 0 0.011781013137172195 0.042217292305963994 0 0.012435328233528489 0.043733743367257875 0 0.013485079685533918 0.041548705320753623 0 0.011371241877464314 0.039366477344929908 0 0.013367623847014199 0.043046107442963347 0 0.011781013137172195 0.042217292305963994 0 0.012435328233528489 0.043733743367257875 0 0.010836830431202607 0.043095384475856501 0 0.011596309167499586 0.036288515258305565 0 0.011371241877464314 0.039366477344929908 0 0.016503978394640979 0.042066714503902251 0 0.016590824564797255 0.042006993815037898 0 0.016509156895679479 0.042160241248307855 0 0.0066963293237757423 0.030330502719780581 0 0.0075628580598328171 0.030523838630449919 0 0.0062716313049183065 0.031537457459670244 0 0.016503978394640979 0.042066714503902251 0 0.016468843004993683 0.04213469154498347 0 0.016509156895679479 0.042160241248307855 0 0.0098762127138395366 0.043949526984270362 0 0.012435328233528489 0.043733743367257875 0 0.010836830431202607 0.043095384475856501 0 0.0081178788059370916 0.031143884679947966 0 0.0075628580598328171 0.030523838630449919 0 0.0062716313049183065 0.031537457459670244 0 0.0088638418827898992 0.037682124542094735 0 0.011371241877464314 0.039366477344929908 0 0.0080886975190636069 0.030973869647391766 0 0.0081178788059370916 0.031143884679947966 0 0.0075628580598328171 0.030523838630449919 0 0.0098762127138395366 0.043949526984270362 0 0.0099479079674346729 0.043308101436428464 0 0.010836830431202607 0.043095384475856501 0 0.0099479079674346729 0.043308101436428464 0 0.010836830431202607 0.043095384475856501 0 0.010198230972572778 0.042702678986347893 0 0.010836830431202607 0.043095384475856501 0 0.010198230972572778 0.042702678986347893 0 0.010797600320058286 0.042465745938304766 0 0.011781013137172195 0.042217292305963994 0 0.010836830431202607 0.043095384475856501 0 0.010797600320058286 0.042465745938304766 0 0.011781013137172195 0.042217292305963994 0 0.010797600320058286 0.042465745938304766 0 0.010633904515369646 0.04187005343114774 0 0.010198230972572778 0.042702678986347893 0 0.010797600320058286 0.042465745938304766 0 0.010633904515369646 0.04187005343114774 0 0.0098240571868933764 0.042113561126861765 0 0.010198230972572778 0.042702678986347893 0 0.010633904515369646 0.04187005343114774 0 0.010633904515369646 0.04187005343114774 0 0.0110028356916215 0.041175463138100089 0 0.010062376560112522 0.041400883042606321 0 0.0098240571868933764 0.042113561126861765 0 0.010633904515369646 0.04187005343114774 0 0.010062376560112522 0.041400883042606321 0 0.011781013137172195 0.042217292305963994 0 0.010633904515369646 0.04187005343114774 0 0.0110028356916215 0.041175463138100089 0 0.0110028356916215 0.041175463138100089 0 0.010964483202177966 0.04053031933729899 0 0.012025590779681364 0.040903295734307239 0 0.0110028356916215 0.041175463138100089 0 0.010211389167152028 0.040772242635801023 0 0.010964483202177966 0.04053031933729899 0 0.0110028356916215 0.041175463138100089 0 0.010211389167152028 0.040772242635801023 0 0.010062376560112522 0.041400883042606321 0 0.010211389167152028 0.040772242635801023 0 0.010964483202177966 0.04053031933729899 0 0.010111039428470412 0.039926164360342971 0 0.010964483202177966 0.04053031933729899 0 0.011496574435818684 0.039833148307178955 0 0.012025590779681364 0.040903295734307239 0 0.010964483202177966 0.04053031933729899 0 0.011496574435818684 0.039833148307178955 0 0.010111039428470412 0.039926164360342971 0 0.010612283577766699 0.039319712502485123 0 0.011496574435818684 0.039833148307178955 0 0.011458073505421891 0.03860399558578375 0 0.010612283577766699 0.039319712502485123 0 0.011496574435818684 0.039833148307178955 0 0.010111039428470412 0.039926164360342971 0 0.010612283577766699 0.039319712502485123 0 0.010111039428470412 0.039926164360342971 0 0.0092504358862236357 0.038767303329666054 0 0.011496574435818684 0.039833148307178955 0 0.012025590779681364 0.040903295734307239 0 0.013365571082155607 0.040205786621774278 0 0.011496574435818684 0.039833148307178955 0 0.013365571082155607 0.040205786621774278 0 0.01286707938144677 0.039037429612653086 0 0.011496574435818684 0.039833148307178955 0 0.011458073505421891 0.03860399558578375 0 0.01286707938144677 0.039037429612653086 0 0.012025590779681364 0.040903295734307239 0 0.013485079685533918 0.041548705320753623 0 0.013365571082155607 0.040205786621774278 0 0.011781013137172195 0.042217292305963994 0 0.0110028356916215 0.041175463138100089 0 0.012025590779681364 0.040903295734307239 0 0.011781013137172195 0.042217292305963994 0 0.012025590779681364 0.040903295734307239 0 0.013485079685533918 0.041548705320753623 0 0.013485079685533918 0.041548705320753623 0 0.014753630330053205 0.040418271141983715 0 0.013365571082155607 0.040205786621774278 0 0.013485079685533918 0.041548705320753623 0 0.014579036921983812 0.041418172269210358 0 0.014753630330053205 0.040418271141983715 0 0.016350631461483221 0.041679821891373509 0 0.015656281669654309 0.0414278939082771 0 0.016220871555774945 0.040897821339964092 0 0.015656281669654309 0.0414278939082771 0 0.015507088880016255 0.040766233975737073 0 0.016220871555774945 0.040897821339964092 0 0.015656281669654309 0.0414278939082771 0 0.014579036921983812 0.041418172269210358 0 0.015507088880016255 0.040766233975737073 0 0.014753630330053205 0.040418271141983715 0 0.015507088880016255 0.040766233975737073 0 0.015917396372464108 0.040125568106587253 0 0.014579036921983812 0.041418172269210358 0 0.014753630330053205 0.040418271141983715 0 0.015507088880016255 0.040766233975737073 0 0.015507088880016255 0.040766233975737073 0 0.015917396372464108 0.040125568106587253 0 0.016220871555774945 0.040897821339964092 0 0.015917396372464108 0.040125568106587253 0 0.015508869050989152 0.039350669032822999 0 0.016347155362312644 0.039475092889388247 0 0.014753630330053205 0.040418271141983715 0 0.015508869050989152 0.039350669032822999 0 0.014491917123864688 0.039382644579285003 0 0.014753630330053205 0.040418271141983715 0 0.015917396372464108 0.040125568106587253 0 0.015508869050989152 0.039350669032822999 0 0.015508869050989152 0.039350669032822999 0 0.016034289325239079 0.038696839418766872 0 0.016347155362312644 0.039475092889388247 0 0.013365571082155607 0.040205786621774278 0 0.014491917123864688 0.039382644579285003 0 0.01286707938144677 0.039037429612653086 0 0.014753630330053205 0.040418271141983715 0 0.013365571082155607 0.040205786621774278 0 0.014491917123864688 0.039382644579285003 0 0.013977176636730626 0.038553708624143021 0 0.013551747323745296 0.037586514054957242 0 0.01286707938144677 0.039037429612653086 0 0.013977176636730626 0.038553708624143021 0 0.015166124395569873 0.038152582359856094 0 0.013551747323745296 0.037586514054957242 0 0.014491917123864688 0.039382644579285003 0 0.013977176636730626 0.038553708624143021 0 0.01286707938144677 0.039037429612653086 0 0.014491917123864688 0.039382644579285003 0 0.013977176636730626 0.038553708624143021 0 0.015166124395569873 0.038152582359856094 0 0.016034289325239079 0.038696839418766872 0 0.015166124395569873 0.038152582359856094 0 0.01644048673475048 0.037944527376325969 0 0.015508869050989152 0.039350669032822999 0 0.016034289325239079 0.038696839418766872 0 0.015166124395569873 0.038152582359856094 0 0.015508869050989152 0.039350669032822999 0 0.014491917123864688 0.039382644579285003 0 0.015166124395569873 0.038152582359856094 0 0.015166124395569873 0.038152582359856094 0 0.014970380828872492 0.036701786244385907 0 0.016052180167763171 0.037085532001188408 0 0.015166124395569873 0.038152582359856094 0 0.016052180167763171 0.037085532001188408 0 0.01644048673475048 0.037944527376325969 0 0.015166124395569873 0.038152582359856094 0 0.014970380828872492 0.036701786244385907 0 0.013551747323745296 0.037586514054957242 0 0.014970380828872492 0.036701786244385907 0 0.013551747323745296 0.037586514054957242 0 0.013706779957628489 0.035922283131737398 0 0.011220770536292805 0.038895079532906017 0 0.013131059763837058 0.037482799340314475 0 0.013551747323745296 0.037586514054957242 0 0.011855806305924709 0.03698260297478774 0 0.012447869232443913 0.038055241257406114 0 0.013551747323745296 0.037586514054957242 0 0.011855806305924709 0.03698260297478774 0 0.013706779957628489 0.035922283131737398 0 0.010727372420166234 0.040715621737730988 0 0.0097494202191440067 0.04002846928187391 0 0.010308492956387669 0.03868151477269674 0 0.0097494202191440067 0.04002846928187391 0 0.0096045274946684744 0.041816917257116518 0 0.0083685278323293848 0.038927832415172885 0 0.010727372420166234 0.040715621737730988 0 0.0097494202191440067 0.04002846928187391 0 0.0096045274946684744 0.041816917257116518 0 0.011220770536292805 0.038895079532906017 0 0.0098626128105695331 0.039422324709376309 0 0.011855806305924709 0.03698260297478774 0 0.010236669331410819 0.037959060747703985 0 0.011458073505421891 0.03860399558578375 0 0.0098626128105695331 0.039422324709376309 0 0.0097366516733796999 0.038981995269845304 0 0.010612283577766699 0.039319712502485123 0 0.011458073505421891 0.03860399558578375 0 0.0092504358862236357 0.038767303329666054 0 0.010236669331410819 0.037959060747703985 0 0.011458073505421891 0.03860399558578375 0 0.0092504358862236357 0.038767303329666054 0 0.011458073505421891 0.03860399558578375 0 0.01286707938144677 0.039037429612653086 0 0.012447869232443913 0.038055241257406114 0 0.011855806305924709 0.03698260297478774 0 0.011458073505421891 0.03860399558578375 0 0.012447869232443913 0.038055241257406114 0 0.013551747323745296 0.037586514054957242 0 0.01286707938144677 0.039037429612653086 0 0.012447869232443913 0.038055241257406114 0 0.020832480325923459 0.035529539604765036 0 0.020938036719757178 0.035775189837882047 0 0.019631489277877452 0.035864266556672027 0 0.025348577748799239 0.034485969434443708 0 0.025879585168230523 0.034294128043593636 0 0.026069987125796588 0.03481357694343639 0 0.022984534228055086 0.036226118709291849 0 0.019331727832057662 0.037130578141516227 0 0.020763813674111051 0.039442343502781967 0 0.019299276804057047 0.038857434159882416 0 0.019612913705037135 0.038243372369881998 0 0.022984534228055086 0.036226118709291849 0 0.023009513918629865 0.036947071592900296 0 0.025348577748799239 0.034485969434443708 0 0.02556214671833296 0.034160843139369089 0 0.025879585168230523 0.034294128043593636 0 0.02556214671833296 0.034160843139369089 0 0.02568964526931334 0.033775820100548304 0 0.025879585168230523 0.034294128043593636 0 0.025345568482815183 0.0340597976608248 0 0.02556214671833296 0.034160843139369089 0 0.02568964526931334 0.033775820100548304 0 0.02568964526931334 0.033775820100548304 0 0.025879585168230523 0.034294128043593636 0 0.026123510146361148 0.033831356312150396 0 0.026573249774979314 0.033593797083484103 0 0.026264948894808526 0.034214192646035937 0 0.026648770317182095 0.034418172927523687 0 0.025879585168230523 0.034294128043593636 0 0.026264948894808526 0.034214192646035937 0 0.026123510146361148 0.033831356312150396 0 0.026573249774979314 0.033593797083484103 0 0.026264948894808526 0.034214192646035937 0 0.026123510146361148 0.033831356312150396 0 0.025879585168230523 0.034294128043593636 0 0.026264948894808526 0.034214192646035937 0 0.026069987125796588 0.03481357694343639 0 0.026264948894808526 0.034214192646035937 0 0.026069987125796588 0.03481357694343639 0 0.026648770317182095 0.034418172927523687 0 0.026069987125796588 0.03481357694343639 0 0.026648770317182095 0.034418172927523687 0 0.026725648355904554 0.035146386130508425 0 0.018266637077279962 0.040101592216224016 0 0.017204102951200086 0.039708393144371419 0 0.017355784339263582 0.038855554385460699 0 0.018266637077279962 0.040101592216224016 0 0.017355784339263582 0.038855554385460699 0 0.017939085954907251 0.0384592963038509 0 0.022574331618413046 0.037190768012969312 0 0.020643725891911584 0.037066998508304479 0 0.01852495431256275 0.04150733844761624 0 0.018266637077279962 0.040101592216224016 0 0.017571960537627856 0.040802991666419937 0 0.02250847774411284 0.037799128305477478 0 0.022574331618413046 0.037190768012969312 0 0.018266637077279962 0.040101592216224016 0 0.017571960537627856 0.040802991666419937 0 0.017204102951200086 0.039708393144371419 0 0.017571960537627856 0.040802991666419937 0 0.016731530991608495 0.040369487525191483 0 0.017204102951200086 0.039708393144371419 0 0.017571960537627856 0.040802991666419937 0 0.016960887787918506 0.04123402874768007 0 0.016731530991608495 0.040369487525191483 0 0.016350631461483221 0.041679821891373509 0 0.016960887787918506 0.04123402874768007 0 0.016220871555774945 0.040897821339964092 0 0.016960887787918506 0.04123402874768007 0 0.016220871555774945 0.040897821339964092 0 0.016731530991608495 0.040369487525191483 0 0.015917396372464108 0.040125568106587253 0 0.016220871555774945 0.040897821339964092 0 0.016731530991608495 0.040369487525191483 0 0.015917396372464108 0.040125568106587253 0 0.016731530991608495 0.040369487525191483 0 0.016347155362312644 0.039475092889388247 0 0.016731530991608495 0.040369487525191483 0 0.017204102951200086 0.039708393144371419 0 0.016347155362312644 0.039475092889388247 0 0.017204102951200086 0.039708393144371419 0 0.016347155362312644 0.039475092889388247 0 0.016769931431153049 0.038806317219437822 0 0.017204102951200086 0.039708393144371419 0 0.016769931431153049 0.038806317219437822 0 0.017355784339263582 0.038855554385460699 0 0.016034289325239079 0.038696839418766872 0 0.016347155362312644 0.039475092889388247 0 0.016769931431153049 0.038806317219437822 0 0.016034289325239079 0.038696839418766872 0 0.016769931431153049 0.038806317219437822 0 0.01644048673475048 0.037944527376325969 0 0.016769931431153049 0.038806317219437822 0 0.017229327695653066 0.038147313599863668 0 0.017355784339263582 0.038855554385460699 0 0.017229327695653066 0.038147313599863668 0 0.01644048673475048 0.037944527376325969 0 0.016796584774266387 0.037342239415018859 0 0.016769931431153049 0.038806317219437822 0 0.017229327695653066 0.038147313599863668 0 0.01644048673475048 0.037944527376325969 0 0.016052180167763171 0.037085532001188408 0 0.01644048673475048 0.037944527376325969 0 0.016796584774266387 0.037342239415018859 0 0.016052180167763171 0.037085532001188408 0 0.016796584774266387 0.037342239415018859 0 0.016746785922502984 0.036526229487019848 0 0.016796584774266387 0.037342239415018859 0 0.017517067413107622 0.037069908831330274 0 0.016746785922502984 0.036526229487019848 0 0.017229327695653066 0.038147313599863668 0 0.016796584774266387 0.037342239415018859 0 0.017517067413107622 0.037069908831330274 0 0.017467291154295104 0.037455816029132435 0 0.020643725891911584 0.037066998508304479 0 0.017517067413107622 0.037069908831330274 0 0.018199975653485554 0.037661739403628686 0 0.017845935778660501 0.038252244803096587 0 0.017517067413107622 0.037069908831330274 0 0.018199975653485554 0.037661739403628686 0 0.018459329682245791 0.03703564862110631 0 0.018199975653485554 0.037661739403628686 0 0.017845935778660501 0.038252244803096587 0 0.018699912083199863 0.038069633715820034 0 0.017229327695653066 0.038147313599863668 0 0.017517067413107622 0.037069908831330274 0 0.017879644382851525 0.03843116675900763 0 0.01775930280133645 0.037234717637096612 0 0.020643725891911584 0.037066998508304479 0 0.017229327695653066 0.038147313599863668 0 0.017355784339263582 0.038855554385460699 0 0.017939085954907251 0.0384592963038509 0 0.023009513918629865 0.036947071592900296 0 0.020643725891911584 0.037066998508304479 0 0.019299276804057047 0.038857434159882416 0 0.017845935778660501 0.038252244803096587 0 0.018699912083199863 0.038069633715820034 0 0.018699912083199863 0.038069633715820034 0 0.018459329682245791 0.03703564862110631 0 0.019612913705037135 0.038243372369881998 0 0.019299276804057047 0.038857434159882416 0 0.018699912083199863 0.038069633715820034 0 0.019612913705037135 0.038243372369881998 0 0.018419726967134016 0.036495494451326584 0 0.019331727832057662 0.037130578141516227 0 0.018389025692895397 0.036065266314058812 0 0.019173046820060612 0.035833345808594999 0 0.019631489277877452 0.035864266556672027 0 0.018199975653485554 0.037661739403628686 0 0.018699912083199863 0.038069633715820034 0 0.018459329682245791 0.03703564862110631 0 0.018389025692895397 0.036065266314058812 0 0.019173046820060612 0.035833345808594999 0 0.018663636497422104 0.035840948798138289 0 0.019173046820060612 0.035833345808594999 0 0.019890331406698585 0.035642400196603342 0 0.019174089233101807 0.035832031925550206 0 0.019173046820060612 0.035833345808594999 0 0.019174089233101807 0.035832031925550206 0 0.018663636497422104 0.035840948798138289 0 0.020832480325923459 0.035529539604765036 0 0.019890331406698585 0.035642400196603342 0 0.019631489277877452 0.035864266556672027 0 0.019173046820060612 0.035833345808594999 0 0.019890331406698585 0.035642400196603342 0 0.019631489277877452 0.035864266556672027 0 0.019005110520629056 0.035563083904091089 0 0.018315839623253626 0.035604636946799294 0 0.017673965044211967 0.035400844676426797 0 0.019005110520629056 0.035563083904091089 0 0.018315839623253626 0.035604636946799294 0 0.019174089233101807 0.035832031925550206 0 0.018315839623253626 0.035604636946799294 0 0.019174089233101807 0.035832031925550206 0 0.018663636497422104 0.035840948798138289 0 0.018389025692895397 0.036065266314058812 0 0.018067634191826422 0.035721588624880535 0 0.018663636497422104 0.035840948798138289 0 0.018315839623253626 0.035604636946799294 0 0.018067634191826422 0.035721588624880535 0 0.018663636497422104 0.035840948798138289 0 0.018315839623253626 0.035604636946799294 0 0.018067634191826422 0.035721588624880535 0 0.017582806956735843 0.035348776915778424 0 0.018315839623253626 0.035604636946799294 0 0.017582806956735843 0.035348776915778424 0 0.017673965044211967 0.035400844676426797 0 0.017582806956735843 0.035348776915778424 0 0.017204132317397355 0.035822375223673646 0 0.016883429939550228 0.035309577110655944 0 0.018067634191826422 0.035721588624880535 0 0.017582806956735843 0.035348776915778424 0 0.017204132317397355 0.035822375223673646 0 0.017582806956735843 0.035348776915778424 0 0.016883429939550228 0.035309577110655944 0 0.017251925784400646 0.035086464590474889 0 0.017517067413107622 0.037069908831330274 0 0.018459329682245791 0.03703564862110631 0 0.017204132317397355 0.035822375223673646 0 0.018389025692895397 0.036065266314058812 0 0.018067634191826422 0.035721588624880535 0 0.017204132317397355 0.035822375223673646 0 0.018419726967134016 0.036495494451326584 0 0.01729811389220175 0.035811145477385009 0 0.017517067413107622 0.037069908831330274 0 0.017204132317397355 0.035822375223673646 0 0.016746785922502984 0.036526229487019848 0 0.017204132317397355 0.035822375223673646 0 0.016746785922502984 0.036526229487019848 0 0.015985944057993435 0.035983907694833728 0 0.016052180167763171 0.037085532001188408 0 0.016746785922502984 0.036526229487019848 0 0.015985944057993435 0.035983907694833728 0 0.017204132317397355 0.035822375223673646 0 0.016298106216857945 0.0354292992297972 0 0.015985944057993435 0.035983907694833728 0 0.017204132317397355 0.035822375223673646 0 0.016298106216857945 0.0354292992297972 0 0.016883429939550228 0.035309577110655944 0 0.016298106216857945 0.0354292992297972 0 0.016883429939550228 0.035309577110655944 0 0.016169305752259451 0.035015999271430891 0 0.016883429939550228 0.035309577110655944 0 0.016169305752259451 0.035015999271430891 0 0.017230542623329334 0.034771695069087012 0 0.014190958293700271 0.036315060730963279 0 0.013146690886015699 0.035980742595631866 0 0.012313195985990224 0.036626117432891923 0 0.015677296328434884 0.035558966601561402 0 0.013623523668953271 0.035902249113671694 0 0.016169305752259451 0.035015999271430891 0 0.017230542623329334 0.034771695069087012 0 0.014921444299720463 0.035161203880825956 0 0.013146690886015699 0.035980742595631866 0 0.014740439235574736 0.034999561387033744 0 0.012703040791479129 0.035000120910834404 0 0.014190958293700271 0.036315060730963279 0 0.013146690886015699 0.035980742595631866 0 0.014740439235574736 0.034999561387033744 0 0.015677296328434884 0.035558966601561402 0 0.016681063687664921 0.035472393725577436 0 0.014190958293700271 0.036315060730963279 0 0.014740439235574736 0.034999561387033744 0 0.016778747031233849 0.035481314517690044 0 0.017230542623329334 0.034771695069087012 0 0.017251925784400646 0.035086464590474889 0 0.017243666527801068 0.035163780709182448 0 0.017230542623329334 0.034771695069087012 0 0.017243666527801068 0.035163780709182448 0 0.016778747031233849 0.035481314517690044 0 0.016883429939550228 0.035309577110655944 0 0.017230542623329334 0.034771695069087012 0 0.017251925784400646 0.035086464590474889 0 0.017582806956735843 0.035348776915778424 0 0.017251925784400646 0.035086464590474889 0 0.017243666527801068 0.035163780709182448 0 0.017582806956735843 0.035348776915778424 0 0.017243666527801068 0.035163780709182448 0 0.017673965044211967 0.035400844676426797 0 0.017243666527801068 0.035163780709182448 0 0.017673965044211967 0.035400844676426797 0 0.016778747031233849 0.035481314517690044 0 0.014740439235574736 0.034999561387033744 0 0.016778747031233849 0.035481314517690044 0 0.016778424007935899 0.034999520701899357 0 0.016778747031233849 0.035481314517690044 0 0.017815163516721452 0.035353622412296816 0 0.016778424007935899 0.034999520701899357 0 0.019005110520629056 0.035563083904091089 0 0.017673965044211967 0.035400844676426797 0 0.017815163516721452 0.035353622412296816 0 0.017673965044211967 0.035400844676426797 0 0.016778747031233849 0.035481314517690044 0 0.017815163516721452 0.035353622412296816 0 0.010308492956387669 0.03868151477269674 0 0.012575264175142179 0.039017472541288747 0 0.011642891627594364 0.036060959827917814 0 0.011048443479487902 0.036502001152594575 0 0.0088798486789275852 0.037079003348999856 0 0.010308492956387669 0.03868151477269674 0 0.011642891627594364 0.036060959827917814 0 0.0087354206268003137 0.037139764772654758 0 0.0097494202191440067 0.04002846928187391 0 0.010308492956387669 0.03868151477269674 0 0.0083685278323293848 0.038927832415172885 0 0.010308492956387669 0.03868151477269674 0 0.0087354206268003137 0.037139764772654758 0 0.0083685278323293848 0.038927832415172885 0 0.010727372420166234 0.040715621737730988 0 0.010308492956387669 0.03868151477269674 0 0.012575264175142179 0.039017472541288747 0 0.013706779957628489 0.035922283131737398 0 0.015015490012478622 0.035942483407280075 0 0.015289801209669949 0.035217191357927849 0 0.013131059763837058 0.037482799340314475 0 0.014913817550015406 0.036112482080532825 0 0.014970380828872492 0.036701786244385907 0 0.013706779957628489 0.035922283131737398 0 0.015015490012478622 0.035942483407280075 0 0.014970380828872492 0.036701786244385907 0 0.016052180167763171 0.037085532001188408 0 0.015985944057993435 0.035983907694833728 0 0.014970380828872492 0.036701786244385907 0 0.015015490012478622 0.035942483407280075 0 0.015985944057993435 0.035983907694833728 0 0.015015490012478622 0.035942483407280075 0 0.015985944057993435 0.035983907694833728 0 0.015289801209669949 0.035217191357927849 0 0.016298106216857945 0.0354292992297972 0 0.016169305752259451 0.035015999271430891 0 0.015289801209669949 0.035217191357927849 0 0.016298106216857945 0.0354292992297972 0 0.015985944057993435 0.035983907694833728 0 0.015289801209669949 0.035217191357927849 0 0.012575264175142179 0.039017472541288747 0 0.014627146343866372 0.036985913342506074 0 0.011642891627594364 0.036060959827917814 0 0.012313195985990224 0.036626117432891923 0 0.011218038572874119 0.03604331403630362 0 0.010446238831975797 0.036921714578201828 0 0.014627146343866372 0.036985913342506074 0 0.014921444299720463 0.035161203880825956 0 0.011642891627594364 0.036060959827917814 0 0.013623523668953271 0.035902249113671694 0 0.011048443479487902 0.036502001152594575 0 0.016169305752259451 0.035015999271430891 0 0.014627146343866372 0.036985913342506074 0 0.014921444299720463 0.035161203880825956 0 0.016052578289764845 0.03510945507063612 0 0.014913817550015406 0.036112482080532825 0 0.012313195985990224 0.036626117432891923 0 0.012703040791479129 0.035000120910834404 0 0.011218038572874119 0.03604331403630362 0 0.013146690886015699 0.035980742595631866 0 0.012313195985990224 0.036626117432891923 0 0.012703040791479129 0.035000120910834404 0 0.012703040791479129 0.035000120910834404 0 0.011218038572874119 0.03604331403630362 0 0.010666569623389877 0.034999929014315007 0 0.011218038572874119 0.03604331403630362 0 0.010666569623389877 0.034999929014315007 0 0.0093478159471959768 0.036123161221445509 0 0.011218038572874119 0.03604331403630362 0 0.010446238831975797 0.036921714578201828 0 0.0093478159471959768 0.036123161221445509 0 0.010446238831975797 0.036921714578201828 0 0.0093478159471959768 0.036123161221445509 0 0.0087354206268003137 0.037139764772654758 0 0.010666569623389877 0.034999929014315007 0 0.0093478159471959768 0.036123161221445509 0 0.008629858494639998 0.034999903508502163 0 0.0093478159471959768 0.036123161221445509 0 0.008629858494639998 0.034999903508502163 0 0.0075084486757986697 0.036672500502377768 0 0.008629858494639998 0.034999903508502163 0 0.0065934400589903923 0.034999928867982345 0 0.0075084486757986697 0.036672500502377768 0 0.0065918820470844157 0.034999689088937601 0 0.0067914649502079953 0.036074075553656368 0 0.0056201271857071744 0.035823097525941434 0 0.0065932286810114439 0.035000185170847811 0 0.007163880785247656 0.036338732499837684 0 0.0093478159471959768 0.036123161221445509 0 0.0075084486757986697 0.036672500502377768 0 0.0087354206268003137 0.037139764772654758 0 0.0046870758554927224 0.03499969446874994 0 0.0056201271857071744 0.035823097525941434 0 0.0039992403365577862 0.035821473740988909 0 0.0065918820470844157 0.034999689088937601 0 0.0046870758554927224 0.03499969446874994 0 0.0056201271857071744 0.035823097525941434 0 0.0056201271857071744 0.035823097525941434 0 0.0048091781180506039 0.036459266166963392 0 0.0059843368480674893 0.036372447976466563 0 0.0067914649502079953 0.036074075553656368 0 0.0056201271857071744 0.035823097525941434 0 0.0059843368480674893 0.036372447976466563 0 0.0056201271857071744 0.035823097525941434 0 0.0048091781180506039 0.036459266166963392 0 0.0039992403365577862 0.035821473740988909 0 0.0048091781180506039 0.036459266166963392 0 0.0051736251225202676 0.037034436459386463 0 0.0039880201668740711 0.037165882679558455 0 0.0059843368480674893 0.036372447976466563 0 0.0051736251225202676 0.037034436459386463 0 0.0064897685235837648 0.036863830197458827 0 0.0048091781180506039 0.036459266166963392 0 0.0059843368480674893 0.036372447976466563 0 0.0051736251225202676 0.037034436459386463 0 0.0059117260815017012 0.037423830162626313 0 0.0051736251225202676 0.037034436459386463 0 0.0064897685235837648 0.036863830197458827 0 0.0059117260815017012 0.037423830162626313 0 0.0051736251225202676 0.037034436459386463 0 0.0051968247156126308 0.038004065261851822 0 0.0051736251225202676 0.037034436459386463 0 0.0051968247156126308 0.038004065261851822 0 0.0042799603670482808 0.037847805083724734 0 0.0051736251225202676 0.037034436459386463 0 0.0042799603670482808 0.037847805083724734 0 0.0039880201668740711 0.037165882679558455 0 0.0075084486757986697 0.036672500502377768 0 0.0087354206268003137 0.037139764772654758 0 0.0083685278323293848 0.038927832415172885 0 0.007163880785247656 0.036338732499837684 0 0.0080416068180173203 0.038187881808091961 0 0.0067914649502079953 0.036074075553656368 0 0.0059843368480674893 0.036372447976466563 0 0.0064897685235837648 0.036863830197458827 0 0.0067914649502079953 0.036074075553656368 0 0.0064897685235837648 0.036863830197458827 0 0.0077250529569107274 0.037065732375920299 0 0.0064897685235837648 0.036863830197458827 0 0.0068397656096307689 0.037425084065085032 0 0.0077250529569107274 0.037065732375920299 0 0.0059117260815017012 0.037423830162626313 0 0.0064897685235837648 0.036863830197458827 0 0.0068397656096307689 0.037425084065085032 0 0.009298982508778416 0.038469815403936243 0 0.0077250529569107274 0.037065732375920299 0 0.0083164767506166849 0.038174626541094714 0 0.0068397656096307689 0.037425084065085032 0 0.0077250529569107274 0.037065732375920299 0 0.0074828184472171223 0.037968017836064495 0 0.0077250529569107274 0.037065732375920299 0 0.0074828184472171223 0.037968017836064495 0 0.0083164767506166849 0.038174626541094714 0 0.0098626128105695331 0.039422324709376309 0 0.0080416068180173203 0.038187881808091961 0 0.0074828184472171223 0.037968017836064495 0 0.0083164767506166849 0.038174626541094714 0 0.0078093072046869641 0.038736926696060783 0 0.0083164767506166849 0.038174626541094714 0 0.0078093072046869641 0.038736926696060783 0 0.0092504358862236357 0.038767303329666054 0 0.009298982508778416 0.038469815403936243 0 0.0083164767506166849 0.038174626541094714 0 0.0092504358862236357 0.038767303329666054 0 0.0078093072046869641 0.038736926696060783 0 0.0082567629917633615 0.039488635401999095 0 0.0067665696092695385 0.039516254430112238 0 0.0078093072046869641 0.038736926696060783 0 0.0092504358862236357 0.038767303329666054 0 0.0082567629917633615 0.039488635401999095 0 0.006564799307749912 0.038579436084157058 0 0.0055546017087636157 0.039062829278389714 0 0.0067665696092695385 0.039516254430112238 0 0.0078093072046869641 0.038736926696060783 0 0.006564799307749912 0.038579436084157058 0 0.0067665696092695385 0.039516254430112238 0 0.0074828184472171223 0.037968017836064495 0 0.0078093072046869641 0.038736926696060783 0 0.006564799307749912 0.038579436084157058 0 0.0074828184472171223 0.037968017836064495 0 0.006564799307749912 0.038579436084157058 0 0.0062551343415258136 0.03788337592902568 0 0.0068397656096307689 0.037425084065085032 0 0.0074828184472171223 0.037968017836064495 0 0.0062551343415258136 0.03788337592902568 0 0.0059117260815017012 0.037423830162626313 0 0.0068397656096307689 0.037425084065085032 0 0.0062551343415258136 0.03788337592902568 0 0.0059117260815017012 0.037423830162626313 0 0.0062551343415258136 0.03788337592902568 0 0.0051968247156126308 0.038004065261851822 0 0.0051968247156126308 0.038004065261851822 0 0.0056318579771546824 0.038424149115127836 0 0.0046754518525123591 0.038622879462270977 0 0.0062551343415258136 0.03788337592902568 0 0.0051968247156126308 0.038004065261851822 0 0.0056318579771546824 0.038424149115127836 0 0.006564799307749912 0.038579436084157058 0 0.0062551343415258136 0.03788337592902568 0 0.0056318579771546824 0.038424149115127836 0 0.0042799603670482808 0.037847805083724734 0 0.0046754518525123591 0.038622879462270977 0 0.0035805493932392065 0.038506010685029936 0 0.0051968247156126308 0.038004065261851822 0 0.0042799603670482808 0.037847805083724734 0 0.0046754518525123591 0.038622879462270977 0 0.0046754518525123591 0.038622879462270977 0 0.0044552394396842852 0.039492597192795742 0 0.0038173346659745931 0.039052239409248853 0 0.0046754518525123591 0.038622879462270977 0 0.0055546017087636157 0.039062829278389714 0 0.0044552394396842852 0.039492597192795742 0 0.006564799307749912 0.038579436084157058 0 0.0056318579771546824 0.038424149115127836 0 0.0055546017087636157 0.039062829278389714 0 0.0056318579771546824 0.038424149115127836 0 0.0046754518525123591 0.038622879462270977 0 0.0055546017087636157 0.039062829278389714 0 0.0053765613087860134 0.039709578109153119 0 0.0043906304018944738 0.040378624654288951 0 0.0057859955074280964 0.040320915903213322 0 0.0053765613087860134 0.039709578109153119 0 0.0057859955074280964 0.040320915903213322 0 0.0067665696092695385 0.039516254430112238 0 0.0055546017087636157 0.039062829278389714 0 0.0053765613087860134 0.039709578109153119 0 0.0067665696092695385 0.039516254430112238 0 0.0055546017087636157 0.039062829278389714 0 0.0053765613087860134 0.039709578109153119 0 0.0044552394396842852 0.039492597192795742 0 0.0053765613087860134 0.039709578109153119 0 0.0044552394396842852 0.039492597192795742 0 0.0043906304018944738 0.040378624654288951 0 0.0044552394396842852 0.039492597192795742 0 0.0043906304018944738 0.040378624654288951 0 0.0037579107891392424 0.039920998495848334 0 0.0044552394396842852 0.039492597192795742 0 0.0037579107891392424 0.039920998495848334 0 0.0035338831868220741 0.039529224288150859 0 0.0041138889222397937 0.040354660019643787 0 0.0041276143668320612 0.039807903901341708 0 0.0045913727074262936 0.040264673575439607 0 0.0041138889222397937 0.040354660019643787 0 0.0037206359230969573 0.040349341193378588 0 0.0041276143668320612 0.039807903901341708 0 0.0041911181722543885 0.040056981681555165 0 0.005950862448669202 0.040308379930909785 0 0.0041276143668320612 0.039807903901341708 0 0.0051654923651783813 0.03953339121296242 0 0.0045913727074262936 0.040264673575439607 0 0.005950862448669202 0.040308379930909785 0 0.0053284610130215721 0.041209213348966697 0 0.0071746262775704154 0.040630102508544298 0 0.0062523347319444695 0.041790689774548299 0 0.0074459151699199314 0.041826413513279287 0 0.0071746262775704154 0.040630102508544298 0 0.0074459151699199314 0.041826413513279287 0 0.0083241638718532292 0.041234296597037444 0 0.0071746262775704154 0.040630102508544298 0 0.0083241638718532292 0.041234296597037444 0 0.0087940832990517359 0.04024569736796451 0 0.008377542608744383 0.042211878727140217 0 0.0074459151699199314 0.041826413513279287 0 0.0083241638718532292 0.041234296597037444 0 0.008377542608744383 0.042211878727140217 0 0.0083241638718532292 0.041234296597037444 0 0.0088138894099221606 0.041704558215306886 0 0.0088138894099221606 0.041704558215306886 0 0.0094131583803260532 0.041610057073651403 0 0.0093911356473199495 0.040908625620787287 0 0.0083241638718532292 0.041234296597037444 0 0.0088138894099221606 0.041704558215306886 0 0.0093911356473199495 0.040908625620787287 0 0.0091522285679961329 0.042224294414557918 0 0.0088138894099221606 0.041704558215306886 0 0.0094131583803260532 0.041610057073651403 0 0.010062376560112522 0.041400883042606321 0 0.0094131583803260532 0.041610057073651403 0 0.0093911356473199495 0.040908625620787287 0 0.0098240571868933764 0.042113561126861765 0 0.010062376560112522 0.041400883042606321 0 0.0094131583803260532 0.041610057073651403 0 0.010211389167152028 0.040772242635801023 0 0.010062376560112522 0.041400883042606321 0 0.0093911356473199495 0.040908625620787287 0 0.0083241638718532292 0.041234296597037444 0 0.0093911356473199495 0.040908625620787287 0 0.0087940832990517359 0.04024569736796451 0 0.0099081647805615933 0.039987099924465759 0 0.0082406340696767246 0.040488492217696952 0 0.010111039428470412 0.039926164360342971 0 0.0093911356473199495 0.040908625620787287 0 0.0087940832990517359 0.04024569736796451 0 0.010111039428470412 0.039926164360342971 0 0.0075549342544964223 0.040725479100811361 0 0.0082567629917633615 0.039488635401999095 0 0.010211389167152028 0.040772242635801023 0 0.010111039428470412 0.039926164360342971 0 0.0093911356473199495 0.040908625620787287 0 0.010111039428470412 0.039926164360342971 0 0.0092504358862236357 0.038767303329666054 0 0.0082567629917633615 0.039488635401999095 0 0.0075549342544964223 0.040725479100811361 0 0.0082567629917633615 0.039488635401999095 0 0.0067665696092695385 0.039516254430112238 0 0.0054056832914544713 0.041294379401217191 0 0.0075549342544964223 0.040725479100811361 0 0.0067665696092695385 0.039516254430112238 0 0.005950862448669202 0.040308379930909785 0 0.0082406340696767246 0.040488492217696952 0 0.005950862448669202 0.040308379930909785 0 0.0065199430366837197 0.039773664529411307 0 0.0021413575752949098 0.039380542184304 0 0.0016176115761877058 0.039032973507465797 0 0.0018018355305070254 0.039378022594024953 0 0.0021413575752949098 0.039380542184304 0 0.0024129079344177326 0.039605408699278331 0 0.002507077497021741 0.039350665403911994 0 0.0021413575752949098 0.039380542184304 0 0.002507077497021741 0.039350665403911994 0 0.0022262465105720767 0.039005538654476798 0 0.0021413575752949098 0.039380542184304 0 0.0016176115761877058 0.039032973507465797 0 0.0022262465105720767 0.039005538654476798 0 0.0016176115761877058 0.039032973507465797 0 0.0012672816299504283 0.039001131038699913 0 0.0018018355305070254 0.039378022594024953 0 0.0018018355305070254 0.039378022594024953 0 0.0019064882062880845 0.039803929944052595 0 0.00050438555668026546 0.039384912931149624 0 0.0018018355305070254 0.039378022594024953 0 0.0019064882062880845 0.039803929944052595 0 0.0023646443450215243 0.039602008016786552 0 0.0021413575752949098 0.039380542184304 0 0.0018018355305070254 0.039378022594024953 0 0.0023646443450215243 0.039602008016786552 0 0.0021413575752949098 0.039380542184304 0 0.0023646443450215243 0.039602008016786552 0 0.0024129079344177326 0.039605408699278331 0 0.0023646443450215243 0.039602008016786552 0 0.0023442259948341184 0.039799252802005615 0 0.0024129079344177326 0.039605408699278331 0 0.0023442259948341184 0.039799252802005615 0 0.0030824613664568851 0.040072159992941281 0 0.0027962208132979987 0.039629092831865387 0 0.0023442259948341184 0.039799252802005615 0 0.0024129079344177326 0.039605408699278331 0 0.0027962208132979987 0.039629092831865387 0 0.0041911181722543885 0.040056981681555165 0 0.003267322782018957 0.04011817139057762 0 0.0037206359230969573 0.040349341193378588 0 0.0041276143668320612 0.039807903901341708 0 0.0030824613664568851 0.040072159992941281 0 0.0043906304018944738 0.040378624654288951 0 0.0030824613664568851 0.040072159992941281 0 0.0037579107891392424 0.039920998495848334 0 0.0032300578121369551 0.040592576965290061 0 0.0023442259948341184 0.039799252802005615 0 0.0030824613664568851 0.040072159992941281 0 0.0030824613664568851 0.040072159992941281 0 0.0032672522534840155 0.039823954338453427 0 0.0027962208132979987 0.039629092831865387 0 0.0030824613664568851 0.040072159992941281 0 0.0032672522534840155 0.039823954338453427 0 0.0037579107891392424 0.039920998495848334 0 0.0035338831868220741 0.039529224288150859 0 0.0027962208132979987 0.039629092831865387 0 0.0029764015340038035 0.039096059174088482 0 0.0032672522534840155 0.039823954338453427 0 0.0037579107891392424 0.039920998495848334 0 0.0035338831868220741 0.039529224288150859 0 0.0032672522534840155 0.039823954338453427 0 0.0035338831868220741 0.039529224288150859 0 0.0027962208132979987 0.039629092831865387 0 0.0035338831868220741 0.039529224288150859 0 0.0029764015340038035 0.039096059174088482 0 0.0038173346659745931 0.039052239409248853 0 0.0044552394396842852 0.039492597192795742 0 0.0035338831868220741 0.039529224288150859 0 0.0038173346659745931 0.039052239409248853 0 0.002507077497021741 0.039350665403911994 0 0.0029764015340038035 0.039096059174088482 0 0.0022262465105720767 0.039005538654476798 0 0.0027962208132979987 0.039629092831865387 0 0.002507077497021741 0.039350665403911994 0 0.0029764015340038035 0.039096059174088482 0 0.0024129079344177326 0.039605408699278331 0 0.0027962208132979987 0.039629092831865387 0 0.002507077497021741 0.039350665403911994 0 0.0029764015340038035 0.039096059174088482 0 0.0026180245280621999 0.038474636306057797 0 0.0022262465105720767 0.039005538654476798 0 0.0029764015340038035 0.039096059174088482 0 0.0035805493932392065 0.038506010685029936 0 0.0026180245280621999 0.038474636306057797 0 0.0046754518525123591 0.038622879462270977 0 0.0038173346659745931 0.039052239409248853 0 0.0035805493932392065 0.038506010685029936 0 0.0029764015340038035 0.039096059174088482 0 0.0038173346659745931 0.039052239409248853 0 0.0035805493932392065 0.038506010685029936 0 0.0042799603670482808 0.037847805083724734 0 0.0035805493932392065 0.038506010685029936 0 0.0031369758931888651 0.03784746277449029 0 0.0035805493932392065 0.038506010685029936 0 0.0026180245280621999 0.038474636306057797 0 0.0031369758931888651 0.03784746277449029 0 0.0026180245280621999 0.038474636306057797 0 0.0022569091620611901 0.037853684725489119 0 0.0031369758931888651 0.03784746277449029 0 0.0015721523356180811 0.038494348112795188 0 0.0013718671507251955 0.037754918699887903 0 0.0022569091620611901 0.037853684725489119 0 0.0026180245280621999 0.038474636306057797 0 0.0015721523356180811 0.038494348112795188 0 0.0022569091620611901 0.037853684725489119 0 0.0016176115761877058 0.039032973507465797 0 0.0015721523356180811 0.038494348112795188 0 0.0022262465105720767 0.039005538654476798 0 0.0026180245280621999 0.038474636306057797 0 0.0015721523356180811 0.038494348112795188 0 0.0022262465105720767 0.039005538654476798 0 0.0016176115761877058 0.039032973507465797 0 0.0012672816299504283 0.039001131038699913 0 0.00083028105561713784 0.038790525983783332 0 0.0016176115761877058 0.039032973507465797 0 0.0015721523356180811 0.038494348112795188 0 0.00083028105561713784 0.038790525983783332 0 0.0015721523356180811 0.038494348112795188 0 0.00083028105561713784 0.038790525983783332 0 0.00039133871605596693 0.038145911197475915 0 0.0015721523356180811 0.038494348112795188 0 0.0013718671507251955 0.037754918699887903 0 0.00039133871605596693 0.038145911197475915 0 0.0013718671507251955 0.037754918699887903 0 0.00042767446196893355 0.037091283187358992 0 0.00039133871605596693 0.038145911197475915 0 0.0013718671507251955 0.037754918699887903 0 0.0022121000022849819 0.037076028360288546 0 0.00042767446196893355 0.037091283187358992 0 0.0013718671507251955 0.037754918699887903 0 0.0022569091620611901 0.037853684725489119 0 0.0022121000022849819 0.037076028360288546 0 0.0022121000022849819 0.037076028360288546 0 0.00042767446196893355 0.037091283187358992 0 0.0011774515848712325 0.036246349195159913 0 0.0042799603670482808 0.037847805083724734 0 0.0039880201668740711 0.037165882679558455 0 0.0031369758931888651 0.03784746277449029 0 0.0039880201668740711 0.037165882679558455 0 0.0030826490882280588 0.037218358582086566 0 0.0031369758931888651 0.03784746277449029 0 0.0022569091620611901 0.037853684725489119 0 0.0022121000022849819 0.037076028360288546 0 0.0030826490882280588 0.037218358582086566 0 0.0022569091620611901 0.037853684725489119 0 0.0030826490882280588 0.037218358582086566 0 0.0031369758931888651 0.03784746277449029 0 0.0022121000022849819 0.037076028360288546 0 0.0035076468004415322 0.036553249030882071 0 0.0025026802636488208 0.03597213362717231 0 0.0022121000022849819 0.037076028360288546 0 0.0030826490882280588 0.037218358582086566 0 0.0035076468004415322 0.036553249030882071 0 0.0048091781180506039 0.036459266166963392 0 0.0039880201668740711 0.037165882679558455 0 0.0035076468004415322 0.036553249030882071 0 0.0039880201668740711 0.037165882679558455 0 0.0030826490882280588 0.037218358582086566 0 0.0035076468004415322 0.036553249030882071 0 0.0035076468004415322 0.036553249030882071 0 0.0039992403365577862 0.035821473740988909 0 0.0025026802636488208 0.03597213362717231 0 0.0048091781180506039 0.036459266166963392 0 0.0035076468004415322 0.036553249030882071 0 0.0039992403365577862 0.035821473740988909 0 0.0039992403365577862 0.035821473740988909 0 0.0025026802636488208 0.03597213362717231 0 0.0027805049159985024 0.034999725268650132 0 0.0046870758554927224 0.03499969446874994 0 0.0039992403365577862 0.035821473740988909 0 0.0027805049159985024 0.034999725268650132 0 0.00042767446196893355 0.037091283187358992 0 0.0011774515848712325 0.036246349195159913 0 -0.00013902016821717883 0.036012466731159265 0 0.0022121000022849819 0.037076028360288546 0 0.0025026802636488208 0.03597213362717231 0 0.0011774515848712325 0.036246349195159913 0 0.0025026802636488208 0.03597213362717231 0 0.0011774515848712325 0.036246349195159913 0 0.00087443175016904651 0.034999778448029664 0 0.0025026802636488208 0.03597213362717231 0 0.0027805049159985024 0.034999725268650132 0 0.00087443175016904651 0.034999778448029664 0 0.0011774515848712325 0.036246349195159913 0 0.00087443175016904651 0.034999778448029664 0 -0.00013902016821717883 0.036012466731159265 0 0.00087443175016904651 0.034999778448029664 0 -0.0010318264393441271 0.034999767689830548 0 -0.00013902016821717883 0.036012466731159265 0 0.00042767446196893355 0.037091283187358992 0 -0.00013902016821717883 0.036012466731159265 0 -0.0017459713926282314 0.03647468094775784 0 -0.0010318264393441271 0.034999767689830548 0 -0.00013902016821717883 0.036012466731159265 0 -0.0017459713926282314 0.03647468094775784 0 -0.0010318264393441271 0.034999767689830548 0 -0.0017459713926282314 0.03647468094775784 0 -0.002938131807060785 0.034999708985638242 0 -0.0017459713926282314 0.03647468094775784 0 -0.002938131807060785 0.034999708985638242 0 -0.0037039693638465138 0.035848033456378901 0 -0.002938131807060785 0.034999708985638242 0 -0.0037039693638465138 0.035848033456378901 0 -0.0048443240526214867 0.034999726214505728 0 -0.0017459713926282314 0.03647468094775784 0 -0.0037039693638465138 0.035848033456378901 0 -0.0037182855124579845 0.037064974417792378 0 -0.0017459713926282314 0.03647468094775784 0 -0.0037182855124579845 0.037064974417792378 0 -0.0020502242296604081 0.038172941231894963 0 -0.0031572164617802161 0.036475430565907949 0 -0.0016574347596892587 0.037201995316339234 0 -0.0025759650407587917 0.035812154534774508 0 -0.0012697982307389045 0.036244451701205375 0 -0.002483974372411186 0.036401042913970956 0 -0.0017459713926282314 0.03647468094775784 0 -0.0020502242296604081 0.038172941231894963 0 -0.0006385615093717176 0.037797509291487202 0 0.00042767446196893355 0.037091283187358992 0 -0.0006385615093717176 0.037797509291487202 0 0.00039133871605596693 0.038145911197475915 0 0.00042767446196893355 0.037091283187358992 0 -0.0017459713926282314 0.03647468094775784 0 -0.0006385615093717176 0.037797509291487202 0 -0.0082151533273157763 0.036069029740072325 0 -0.0077604832389168077 0.035832059323506547 0 -0.0082494322139915043 0.036287171901024089 0 -0.0082947908071673501 0.036089033465215789 0 -0.0086688155600883506 0.036547416615450128 0 -0.0082151533273157763 0.036069029740072325 0 -0.0077604832389168077 0.035832059323506547 0 -0.0076051896726444497 0.035000290548914445 0 -0.0084065651254527536 0.036175112383223143 0 -0.0076057281840404703 0.034999967187678852 0 -0.0090254268761711266 0.035743525615840682 0 -0.0082947908071673501 0.036089033465215789 0 -0.0076054057906544239 0.035000242568577547 0 -0.0076057281840404703 0.034999967187678852 0 -0.0094878060607249022 0.034999896629513146 0 -0.0090254268761711266 0.035743525615840682 0 -0.0077604832389168077 0.035832059323506547 0 -0.0076051896726444497 0.035000290548914445 0 -0.0071910611498627449 0.035639106569294497 0 -0.0067516038194006056 0.034999672868203172 0 -0.0071910611498627449 0.035639106569294497 0 -0.0066325788697000959 0.03673924406358621 0 -0.0076051896726444497 0.035000290548914445 0 -0.0067516038194006056 0.034999672868203172 0 -0.0071910611498627449 0.035639106569294497 0 -0.0077854843707011777 0.035874422329310235 0 -0.0076859259532196626 0.036714141505009727 0 -0.0077604832389168077 0.035832059323506547 0 -0.0082116029982927316 0.036345789151484349 0 -0.0082494322139915043 0.036287171901024089 0 -0.0077604832389168077 0.035832059323506547 0 -0.0066325788697000959 0.03673924406358621 0 -0.0069849765416151567 0.037131636729257143 0 -0.0077604832389168077 0.035832059323506547 0 -0.0071910611498627449 0.035639106569294497 0 -0.0066325788697000959 0.03673924406358621 0 -0.0048649527620447143 0.035921472554512356 0 -0.004890368707668527 0.035705533243969016 0 -0.0037148148424246998 0.036041850798046823 0 -0.0067492024053925834 0.034999840628182372 0 -0.0048649527620447143 0.035921472554512356 0 -0.004890368707668527 0.035705533243969016 0 -0.0067510672212559193 0.034999679916621625 0 -0.0055034941033661787 0.036333681514734859 0 -0.0067492024053925834 0.034999840628182372 0 -0.004890368707668527 0.035705533243969016 0 -0.0048443240526214867 0.034999726214505728 0 -0.0037039693638465138 0.035848033456378901 0 -0.004890368707668527 0.035705533243969016 0 -0.0048443240526214867 0.034999726214505728 0 -0.0031572164617802161 0.036475430565907949 0 -0.0046846299051332965 0.035743828725808578 0 -0.0037039693638465138 0.035848033456378901 0 -0.0037182855124579845 0.037064974417792378 0 -0.004890368707668527 0.035705533243969016 0 -0.0025759650407587917 0.035812154534774508 0 -0.0037148148424246998 0.036041850798046823 0 -0.002483974372411186 0.036401042913970956 0 -0.0025759650407587917 0.035812154534774508 0 -0.004890368707668527 0.035705533243969016 0 -0.0037148148424246998 0.036041850798046823 0 -0.0037148148424246998 0.036041850798046823 0 -0.002483974372411186 0.036401042913970956 0 -0.0034301717868900597 0.036468368458657849 0 -0.0085950190595464621 0.036386618569714736 0 -0.0082116029982927316 0.036345789151484349 0 -0.0084137450460556613 0.036371159453985454 0 -0.0067777959536323047 0.037013013599022419 0 -0.0076859259532196626 0.036714141505009727 0 -0.0048649527620447143 0.035921472554512356 0 -0.0037148148424246998 0.036041850798046823 0 -0.0034301717868900597 0.036468368458657849 0 -0.0055034941033661787 0.036333681514734859 0 -0.0067777959536323047 0.037013013599022419 0 -0.0066325788697000959 0.03673924406358621 0 -0.0063813494736346286 0.038275912319914687 0 -0.0069849765416151567 0.037131636729257143 0 -0.0082116029982927316 0.036345789151484349 0 -0.0083257713967253167 0.036363946583084519 0 -0.0084137450460556613 0.036371159453985454 0 -0.0082116029982927316 0.036345789151484349 0 -0.0083257713967253167 0.036363946583084519 0 -0.0082494322139915043 0.036287171901024089 0 -0.0085950190595464621 0.036386618569714736 0 -0.0084137450460556613 0.036371159453985454 0 -0.0084619550945839155 0.036323306460868031 0 -0.0084137450460556613 0.036371159453985454 0 -0.0084012004643241409 0.036377810705256065 0 -0.0084619550945839155 0.036323306460868031 0 -0.0083257713967253167 0.036363946583084519 0 -0.0084137450460556613 0.036371159453985454 0 -0.0084012004643241409 0.036377810705256065 0 -0.0083257713967253167 0.036363946583084519 0 -0.0083657911652707372 0.036366599526030073 0 -0.0084012004643241409 0.036377810705256065 0 -0.0083657911652707372 0.036366599526030073 0 -0.0084512837042135212 0.036434729281482642 0 -0.0084470050804556791 0.036310757364499166 0 -0.0083657911652707372 0.036366599526030073 0 -0.0084012004643241409 0.036377810705256065 0 -0.0084512837042135212 0.036434729281482642 0 -0.0082151533273157763 0.036069029740072325 0 -0.0084470050804556791 0.036310757364499166 0 -0.0082494322139915043 0.036287171901024089 0 -0.0083657911652707372 0.036366599526030073 0 -0.0084470050804556791 0.036310757364499166 0 -0.0082494322139915043 0.036287171901024089 0 -0.0083257713967253167 0.036363946583084519 0 -0.0083657911652707372 0.036366599526030073 0 -0.0082494322139915043 0.036287171901024089 0 -0.0081943470709707651 0.036035075628372923 0 -0.0084416566695077865 0.036113883405480968 0 -0.0085202220024385138 0.03578294353520052 0 -0.0081943470709707651 0.036035075628372923 0 -0.0084015995390609183 0.036337076784926911 0 -0.0084416566695077865 0.036113883405480968 0 -0.0081943470709707651 0.036035075628372923 0 -0.0084015995390609183 0.036337076784926911 0 -0.0086804468941579539 0.036567434430211959 0 -0.0084512837042135212 0.036434729281482642 0 -0.0084015995390609183 0.036337076784926911 0 -0.0086804468941579539 0.036567434430211959 0 -0.0084012004643241409 0.036377810705256065 0 -0.0084512837042135212 0.036434729281482642 0 -0.0084015995390609183 0.036337076784926911 0 -0.0084012004643241409 0.036377810705256065 0 -0.0084015995390609183 0.036337076784926911 0 -0.0084378363155399976 0.03627171844363513 0 -0.0084015995390609183 0.036337076784926911 0 -0.0084378363155399976 0.03627171844363513 0 -0.0084416566695077865 0.036113883405480968 0 -0.0084378363155399976 0.03627171844363513 0 -0.0085346646465443085 0.036188286194346143 0 -0.0084416566695077865 0.036113883405480968 0 -0.0084012004643241409 0.036377810705256065 0 -0.0084378363155399976 0.03627171844363513 0 -0.0084619550945839155 0.036323306460868031 0 -0.0084378363155399976 0.03627171844363513 0 -0.0084619550945839155 0.036323306460868031 0 -0.0085346646465443085 0.036188286194346143 0 -0.0085950190595464621 0.036386618569714736 0 -0.0084619550945839155 0.036323306460868031 0 -0.0085346646465443085 0.036188286194346143 0 -0.0085346646465443085 0.036188286194346143 0 -0.0084416566695077865 0.036113883405480968 0 -0.0086798970577866199 0.036066089822229058 0 -0.0084416566695077865 0.036113883405480968 0 -0.0085202220024385138 0.03578294353520052 0 -0.0086798970577866199 0.036066089822229058 0 -0.0089538778326426812 0.036034069911969668 0 -0.0090093828746211201 0.035671599496792585 0 -0.0087714781805956453 0.03579799966546747 0 -0.0088565752921590628 0.036099586924627738 0 -0.0090602972166520593 0.035570320529352183 0 -0.0085202220024385138 0.03578294353520052 0 -0.0087714781805956453 0.03579799966546747 0 -0.0086798970577866199 0.036066089822229058 0 -0.0087714781805956453 0.03579799966546747 0 -0.0086798970577866199 0.036066089822229058 0 -0.0088565752921590628 0.036099586924627738 0 -0.0067777959536323047 0.037013013599022419 0 -0.0089538778326426812 0.036034069911969668 0 -0.0067777959536323047 0.037013013599022419 0 -0.0055731318552265704 0.036447460073568055 0 -0.0086627961662653855 0.037010088029616632 0 -0.0088518309134727902 0.036240581798320043 0 -0.0091077392060397149 0.036231064093428959 0 -0.0085950190595464621 0.036386618569714736 0 -0.0085346646465443085 0.036188286194346143 0 -0.0086798970577866199 0.036066089822229058 0 -0.0085950190595464621 0.036386618569714736 0 -0.0086798970577866199 0.036066089822229058 0 -0.0088565752921590628 0.036099586924627738 0 -0.002483974372411186 0.036401042913970956 0 -0.0021967137578864809 0.036789686439865819 0 -0.0017346779937784452 0.036657299314403043 0 -0.002483974372411186 0.036401042913970956 0 -0.0034301717868900597 0.036468368458657849 0 -0.0021967137578864809 0.036789686439865819 0 -0.0088518309134727902 0.036240581798320043 0 -0.0091077392060397149 0.036231064093428959 0 -0.0090602972166520593 0.035570320529352183 0 -0.0055731318552265704 0.036447460073568055 0 -0.005521216341019616 0.035653512316031533 0 -0.0091077392060397149 0.036231064093428959 0 -0.0094653176965098073 0.035539269837906971 0 -0.0090602972166520593 0.035570320529352183 0 -0.0021967137578864809 0.036789686439865819 0 -0.00096468708702281505 0.036183460439803257 0 -0.0013156067728755706 0.036539156201959633 0 -0.0094653176965098073 0.035539269837906971 0 -0.0092184711733652256 0.035252400175231999 0 -0.009688483472109613 0.03492654422487005 0 -0.0094653176965098073 0.035539269837906971 0 -0.0090602972166520593 0.035570320529352183 0 -0.0092184711733652256 0.035252400175231999 0 -0.0090899339128807342 0.034862360914561692 0 -0.009688483472109613 0.03492654422487005 0 -0.0093068663652564124 0.034337078921626997 0 -0.0092184711733652256 0.035252400175231999 0 -0.0090899339128807342 0.034862360914561692 0 -0.009688483472109613 0.03492654422487005 0 -0.0090899339128807342 0.034862360914561692 0 -0.0082930418250934702 0.035142352198694625 0 -0.008962375015971899 0.034471683614622751 0 -0.0090899339128807342 0.034862360914561692 0 -0.0087839364884409517 0.03542082576130464 0 -0.0082930418250934702 0.035142352198694625 0 -0.0090602972166520593 0.035570320529352183 0 -0.0092184711733652256 0.035252400175231999 0 -0.0087839364884409517 0.03542082576130464 0 -0.0092184711733652256 0.035252400175231999 0 -0.0090899339128807342 0.034862360914561692 0 -0.0087839364884409517 0.03542082576130464 0 -0.0087714781805956453 0.03579799966546747 0 -0.0090602972166520593 0.035570320529352183 0 -0.0087839364884409517 0.03542082576130464 0 -0.0085202220024385138 0.03578294353520052 0 -0.0087714781805956453 0.03579799966546747 0 -0.0087839364884409517 0.03542082576130464 0 -0.0085202220024385138 0.03578294353520052 0 -0.0087839364884409517 0.03542082576130464 0 -0.0082930418250934702 0.035142352198694625 0 -0.009617837842500563 0.032584485282551388 0 -0.010379899900281502 0.033045819189594983 0 -0.010680755351253193 0.032348712926256205 0 -0.009617837842500563 0.032584485282551388 0 -0.010379899900281502 0.033045819189594983 0 -0.0098125417213177149 0.033534767890025068 0 -0.009352344049371724 0.033386217640286694 0 -0.008947688617122463 0.033975622497000368 0 -0.0081943470709707651 0.036035075628372923 0 -0.0085202220024385138 0.03578294353520052 0 -0.0082930418250934702 0.035142352198694625 0 -0.010381231239937047 0.031613193722532754 0 -0.009617837842500563 0.032584485282551388 0 -0.010680755351253193 0.032348712926256205 0 -9.3602946984370961e-06 0.037021432600695993 0 -0.0010943563301167203 0.036975778732225149 0 5.1978533614304086e-05 0.038217855616986506 0 -0.0010943563301167203 0.036975778732225149 0 -0.00092841805545574132 0.038096174593231523 0 5.1978533614304086e-05 0.038217855616986506 0 0.0012672816299504283 0.039001131038699913 0 -0.0002929752349896329 0.038964344571808099 0 0.00083028105561713784 0.038790525983783332 0 0.0012672816299504283 0.039001131038699913 0 -9.3602946984370961e-06 0.037021432600695993 0 5.1978533614304086e-05 0.038217855616986506 0 0.0011234783989140819 0.038916317358942826 0 -0.00017462083593204643 0.037985982745797224 0 -0.0006385615093717176 0.037797509291487202 0 -0.0002929752349896329 0.038964344571808099 0 0.00039133871605596693 0.038145911197475915 0 -0.0002929752349896329 0.038964344571808099 0 0.00083028105561713784 0.038790525983783332 0 0.00039133871605596693 0.038145911197475915 0 -0.0016574347596892587 0.037201995316339234 0 -0.00017462083593204643 0.037985982745797224 0 -0.0020502242296604081 0.038172941231894963 0 -0.0006385615093717176 0.037797509291487202 0 -0.0002929752349896329 0.038964344571808099 0 -0.0012697982307389045 0.036244451701205375 0 -9.3602946984370961e-06 0.037021432600695993 0 -0.0010943563301167203 0.036975778732225149 0 -0.0012697982307389045 0.036244451701205375 0 -0.0017346779937784452 0.036657299314403043 0 -0.0010943563301167203 0.036975778732225149 0 -0.0012697982307389045 0.036244451701205375 0 -0.002483974372411186 0.036401042913970956 0 -0.0017346779937784452 0.036657299314403043 0 -0.0021967137578864809 0.036789686439865819 0 -0.0017346779937784452 0.036657299314403043 0 -0.0013156067728755706 0.036539156201959633 0 -0.0017346779937784452 0.036657299314403043 0 -0.0013156067728755706 0.036539156201959633 0 -0.0010943563301167203 0.036975778732225149 0 -0.0013156067728755706 0.036539156201959633 0 -0.0010943563301167203 0.036975778732225149 0 -0.00092841805545574132 0.038096174593231523 0 -0.0010642988240540776 0.036571110588513568 0 -0.00019749910530890248 0.036679673097935128 0 0.00035832971830991557 0.035093000800378318 0 0.00010052705686194147 0.035357796521414589 0 0.00048508472808285767 0.035150553568743623 0 0.00035832971830991557 0.035093000800378318 0 0.00010052705686194147 0.035357796521414589 0 -0.00045249588072833919 0.035756394817173104 0 -0.0013156067728755706 0.036539156201959633 0 0.00035832971830991557 0.035093000800378318 0 -0.00045249588072833919 0.035756394817173104 0 -0.00096468708702281505 0.036183460439803257 0 0.0001714642628229251 0.035364167900708281 0 0.00010434325919194247 0.035416008270883516 0 -0.005521216341019616 0.035653512316031533 0 -0.0022471687417091359 0.035099936456309072 0 -0.00096468708702281505 0.036183460439803257 0 -0.00031185909620133872 0.035679231278060934 0 0.00010434325919194247 0.035416008270883516 0 -0.00096468708702281505 0.036183460439803257 0 -0.0013156067728755706 0.036539156201959633 0 -0.00045249588072833919 0.035756394817173104 0 -0.00096468708702281505 0.036183460439803257 0 -0.00045249588072833919 0.035756394817173104 0 -0.00031185909620133872 0.035679231278060934 0 0.00010052705686194147 0.035357796521414589 0 -0.00045249588072833919 0.035756394817173104 0 -0.00031185909620133872 0.035679231278060934 0 0.00010052705686194147 0.035357796521414589 0 -0.00031185909620133872 0.035679231278060934 0 0.00010434325919194247 0.035416008270883516 0 0.00010052705686194147 0.035357796521414589 0 0.00010434325919194247 0.035416008270883516 0 0.00042034322537706911 0.035215551487456927 0 0.00032983786409697489 0.035296102867140335 0 0.00010434325919194247 0.035416008270883516 0 0.00042034322537706911 0.035215551487456927 0 -0.0022471687417091359 0.035099936456309072 0 -0.0017872915359910646 0.034889566924950412 0 0.00032983786409697489 0.035296102867140335 0 0.00042034322537706911 0.035215551487456927 0 0.0007298497812893316 0.034985286611481037 0 -0.0022471687417091359 0.035099936456309072 0 -0.00034973803548009314 0.03560565473939388 0 0.00035832971830991557 0.035093000800378318 0 0.00048508472808285767 0.035150553568743623 0 0.00089198885565848062 0.03489457532909572 0 0.00010052705686194147 0.035357796521414589 0 0.00042034322537706911 0.035215551487456927 0 0.00048508472808285767 0.035150553568743623 0 0.00042034322537706911 0.035215551487456927 0 0.00048508472808285767 0.035150553568743623 0 0.00072119308410192732 0.034953798327209101 0 0.00042034322537706911 0.035215551487456927 0 0.00072119308410192732 0.034953798327209101 0 0.0007298497812893316 0.034985286611481037 0 0.00048508472808285767 0.035150553568743623 0 0.00089198885565848062 0.03489457532909572 0 0.00072119308410192732 0.034953798327209101 0 0.00089198885565848062 0.03489457532909572 0 0.0013354655662343683 0.034573468436282846 0 0.0013055710939817967 0.034721172522047726 0 0.00035832971830991557 0.035093000800378318 0 0.00089198885565848062 0.03489457532909572 0 0.0013354655662343683 0.034573468436282846 0 -0.00019749910530890248 0.036679673097935128 0 0.00095005068157064413 0.036980249201338959 0 -0.00092841805545574132 0.038096174593231523 0 5.1978533614304086e-05 0.038217855616986506 0 0.00050438555668026546 0.039384912931149624 0 0.0012672816299504283 0.039001131038699913 0 0.0018018355305070254 0.039378022594024953 0 0.00050438555668026546 0.039384912931149624 0 0.0012672816299504283 0.039001131038699913 0 5.1978533614304086e-05 0.038217855616986506 0 0.00050438555668026546 0.039384912931149624 0 0.0019758634522446237 0.037100429416010203 0 0.00095005068157064413 0.036980249201338959 0 0.0013354655662343683 0.034573468436282846 0 0.0016788406961015323 0.034602219625844817 0 0.0013055710939817967 0.034721172522047726 0 0.0020673122837782552 0.034460693676782263 0 0.0013354655662343683 0.034573468436282846 0 0.0016788406961015323 0.034602219625844817 0 0.00089198885565848062 0.03489457532909572 0 0.0013055710939817967 0.034721172522047726 0 0.00098600307058346491 0.034791282741967508 0 0.0013055710939817967 0.034721172522047726 0 0.0014059475678878032 0.034654222006006603 0 0.00098600307058346491 0.034791282741967508 0 0.0016788406961015323 0.034602219625844817 0 0.0013055710939817967 0.034721172522047726 0 0.0014059475678878032 0.034654222006006603 0 0.0014059475678878032 0.034654222006006603 0 0.0016548948954372394 0.034545683871914153 0 0.0012530717195904388 0.03466903510630677 0 0.0014059475678878032 0.034654222006006603 0 0.0016548948954372394 0.034545683871914153 0 0.00190787423964121 0.034478963503735763 0 0.0016548948954372394 0.034545683871914153 0 0.00190787423964121 0.034478963503735763 0 0.0019855077353214553 0.034395823248224384 0 0.0016788406961015323 0.034602219625844817 0 0.0014059475678878032 0.034654222006006603 0 0.00190787423964121 0.034478963503735763 0 0.0022784448649516204 0.034235015875344568 0 0.00190787423964121 0.034478963503735763 0 0.0021497565583820182 0.034184735187239731 0 0.0020349673025214124 0.034497284538165494 0 0.0016788406961015323 0.034602219625844817 0 0.00190787423964121 0.034478963503735763 0 0.0021497565583820182 0.034184735187239731 0 0.0019855077353214553 0.034395823248224384 0 0.002144255124153355 0.034355128331401669 0 0.00190787423964121 0.034478963503735763 0 0.0021497565583820182 0.034184735187239731 0 0.0019855077353214553 0.034395823248224384 0 0.0016548948954372394 0.034545683871914153 0 0.0019855077353214553 0.034395823248224384 0 0.002144255124153355 0.034355128331401669 0 0.002144255124153355 0.034355128331401669 0 0.0025798201617074613 0.034074423490893124 0 0.0028876661502929492 0.03406914444430819 0 0.0021468019932354434 0.034379900035265393 0 0.0018732291444779683 0.034366000097934189 0 0.0016548948954372394 0.034545683871914153 0 0.002144255124153355 0.034355128331401669 0 0.0013367521631339682 0.034798913478884634 0 0.0077855053429498481 0.031143889118065531 0 0.0057902524370426365 0.031652855035697557 0 0.0025798201617074613 0.034074423490893124 0 0.0023055820831899558 0.033977945722182983 0 0.0032349301837826211 0.033672607331861046 0 0.002144255124153355 0.034355128331401669 0 0.0025798201617074613 0.034074423490893124 0 0.0023055820831899558 0.033977945722182983 0 0.012341957990403173 0.028465586162817493 0 0.012716019227370732 0.028194595642418274 0 0.012635466568585673 0.028130653198145276 0 0.0068404542065546876 0.031484804256633005 0 0.0077855053429498481 0.031143889118065531 0 0.011722730915385135 0.028933861562931165 0 0.012341957990403173 0.028465586162817493 0 0.012103468905844638 0.028302763810028601 0 0.0022226216719307594 0.033997115642497501 0 0.0021497565583820182 0.034184735187239731 0 0.002144255124153355 0.034355128331401669 0 0.0022226216719307594 0.033997115642497501 0 0.002144255124153355 0.034355128331401669 0 0.0023055820831899558 0.033977945722182983 0 0.0057902524370426365 0.031652855035697557 0 0.0018120715992782084 0.03367045668481445 0 0.0027806272451008432 0.033957702624652412 0 0.0028379810307474708 0.034028905270413815 0 0.0025654882022055421 0.033851108376083267 0 0.0027806272451008432 0.033957702624652412 0 0.0026605298958793256 0.033812647488679036 0 0.0025654882022055421 0.033851108376083267 0 0.0057902524370426365 0.031652855035697557 0 0.0030348155563545954 0.034471042398363703 0 0.0025798201617074613 0.034074423490893124 0 0.0028604034404359205 0.034016170117246447 0 0.0028876661502929492 0.03406914444430819 0 0.0025798201617074613 0.034074423490893124 0 0.0032349301837826211 0.033672607331861046 0 0.0028604034404359205 0.034016170117246447 0 0.0027806272451008432 0.033957702624652412 0 0.0028379810307474708 0.034028905270413815 0 0.0028604034404359205 0.034016170117246447 0 0.0027806272451008432 0.033957702624652412 0 0.0028604034404359205 0.034016170117246447 0 0.0028876661502929492 0.03406914444430819 0 0.0013367521631339682 0.034798913478884634 0 0.0010141262500204344 0.034793514397099073 0 0.0012690556339977513 0.034684149739788055 0 0.0016548948954372394 0.034545683871914153 0 0.0013367521631339682 0.034798913478884634 0 0.0012690556339977513 0.034684149739788055 0 0.0018732291444779683 0.034366000097934189 0 0.0027840835607635455 0.034444008964186396 0 0.0027806272451008432 0.033957702624652412 0 0.0028876661502929492 0.03406914444430819 0 0.0026605298958793256 0.033812647488679036 0 0.0010141262500204344 0.034793514397099073 0 0.00099407481919842715 0.034734873797055393 0 0.0010691309987930161 0.034706757487789792 0 0.00099407481919842715 0.034734873797055393 0 0.00089865709005480029 0.034794056870983942 0 0.00099947097309916063 0.034761257991820449 0 0.00099407481919842715 0.034734873797055393 0 0.0010691309987930161 0.034706757487789792 0 0.00089865709005480029 0.034794056870983942 0 0.0010141262500204344 0.034793514397099073 0 0.0012690556339977513 0.034684149739788055 0 0.0010691309987930161 0.034706757487789792 0 0.0012690556339977513 0.034684149739788055 0 0.0010691309987930161 0.034706757487789792 0 0.0012530717195904388 0.03466903510630677 0 0.0016548948954372394 0.034545683871914153 0 0.0012690556339977513 0.034684149739788055 0 0.0012530717195904388 0.03466903510630677 0 0.0010691309987930161 0.034706757487789792 0 0.0012530717195904388 0.03466903510630677 0 0.00098600307058346491 0.034791282741967508 0 0.0014059475678878032 0.034654222006006603 0 0.0012530717195904388 0.03466903510630677 0 0.00098600307058346491 0.034791282741967508 0 0.0010691309987930161 0.034706757487789792 0 0.00098600307058346491 0.034791282741967508 0 0.00089865709005480029 0.034794056870983942 0 0.00098600307058346491 0.034791282741967508 0 0.00072119308410192732 0.034953798327209101 0 0.00089865709005480029 0.034794056870983942 0 0.00072119308410192732 0.034953798327209101 0 0.00089865709005480029 0.034794056870983942 0 0.0007298497812893316 0.034985286611481037 0 0.00089198885565848062 0.03489457532909572 0 0.00098600307058346491 0.034791282741967508 0 0.00072119308410192732 0.034953798327209101 0 0.00078868033473413119 0.035124616837131299 0 0.0007298497812893316 0.034985286611481037 0 0.00099947097309916063 0.034761257991820449 0 0.00089865709005480029 0.034794056870983942 0 0.0007298497812893316 0.034985286611481037 0 0.00099947097309916063 0.034761257991820449 0 -0.0022471687417091359 0.035099936456309072 0 -0.0045376065860091774 0.034718019475221358 0 -0.0090899339128807342 0.034862360914561692 0 -0.0093068663652564124 0.034337078921626997 0 -0.008962375015971899 0.034471683614622751 0 -0.0093068663652564124 0.034337078921626997 0 -0.008962375015971899 0.034471683614622751 0 -0.0089774259656180948 0.034235507982075662 0 -0.008962375015971899 0.034471683614622751 0 -0.0089774259656180948 0.034235507982075662 0 -0.0088462408155104717 0.034135379376565966 0 -0.0089774259656180948 0.034235507982075662 0 -0.0088462408155104717 0.034135379376565966 0 -0.0089959210871671837 0.034400863049095336 0 -0.0089774259656180948 0.034235507982075662 0 -0.0089959210871671837 0.034400863049095336 0 -0.008973754416566046 0.034166988460081912 0 0.00099407481919842715 0.034734873797055393 0 0.00099947097309916063 0.034761257991820449 0 0.00091024372074965942 0.034763304879902812 0 -0.0045376065860091774 0.034718019475221358 0 -0.0032047740523292664 0.034374009314859441 0 -0.0093068663652564124 0.034337078921626997 0 -0.0089774259656180948 0.034235507982075662 0 -0.008973754416566046 0.034166988460081912 0 -0.010379899900281502 0.033045819189594983 0 -0.010199049473559247 0.033809053707249952 0 -0.0098125417213177149 0.033534767890025068 0 -0.010199049473559247 0.033809053707249952 0 -0.0098125417213177149 0.033534767890025068 0 -0.0095632951023822532 0.034144682286503206 0 -0.0082930418250934702 0.035142352198694625 0 -0.008962375015971899 0.034471683614622751 0 -0.0088462408155104717 0.034135379376565966 0 -0.009617837842500563 0.032584485282551388 0 -0.0098125417213177149 0.033534767890025068 0 -0.0088462408155104717 0.034135379376565966 0 -0.008947688617122463 0.033975622497000368 0 -0.0088580338709125378 0.034076173650935543 0 -0.0098125417213177149 0.033534767890025068 0 -0.0088462408155104717 0.034135379376565966 0 -0.0095632951023822532 0.034144682286503206 0 -0.0088462408155104717 0.034135379376565966 0 -0.0089959210871671837 0.034400863049095336 0 -0.0095632951023822532 0.034144682286503206 0 -0.0089959210871671837 0.034400863049095336 0 -0.0095632951023822532 0.034144682286503206 0 -0.0094660870262864103 0.034590480701614905 0 -0.0098890943892242979 0.034395255634707279 0 -0.0096777424077294765 0.03510523898819156 0 -0.010559195272744463 0.034258335058454353 0 -0.010199049473559247 0.033809053707249952 0 -0.0095632951023822532 0.034144682286503206 0 -0.0098890943892242979 0.034395255634707279 0 -0.0095632951023822532 0.034144682286503206 0 -0.0098890943892242979 0.034395255634707279 0 -0.0094660870262864103 0.034590480701614905 0 -0.010199049473559247 0.033809053707249952 0 -0.0098890943892242979 0.034395255634707279 0 -0.010559195272744463 0.034258335058454353 0 -0.013247042477949169 0.030662807060193489 0 -0.012492616038285805 0.03056099141159865 0 -0.012237953053782174 0.032169694422066984 0 -0.012528395331670543 0.032664992872310811 0 -0.011199725966988977 0.033287090041856732 0 -0.0098890943892242979 0.034395255634707279 0 -0.0096777424077294765 0.03510523898819156 0 -0.0094660870262864103 0.034590480701614905 0 -0.0096777424077294765 0.03510523898819156 0 -0.0094660870262864103 0.034590480701614905 0 -0.0089594691984513312 0.035045664011435232 0 -0.0089959210871671837 0.034400863049095336 0 -0.0094660870262864103 0.034590480701614905 0 -0.0089594691984513312 0.035045664011435232 0 -0.0089594691984513312 0.035045664011435232 0 -0.00839955909690813 0.035346755466005061 0 -0.0088231737689008077 0.036044977894058819 0 -0.012528395331670543 0.032664992872310811 0 -0.0045175558246606856 0.032196020306295633 0 -0.0096777424077294765 0.03510523898819156 0 -0.0089594691984513312 0.035045664011435232 0 -0.0088231737689008077 0.036044977894058819 0 -0.013247042477949169 0.030662807060193489 0 -0.013310825810699978 0.029429950003828028 0 -0.013773229735176784 0.02942982535936341 0 -0.013310825810699978 0.029429950003828028 0 -0.013383549222062452 0.029308262987310443 0 -0.013542564435626079 0.02934291375784542 0 -0.01329879083524909 0.029468826350670656 0 -0.013033079641658203 0.029984116203878888 0 -0.013247042477949169 0.030662807060193489 0 -0.013310825810699978 0.029429950003828028 0 -0.012492616038285805 0.03056099141159865 0 0.0010141262500204344 0.034793514397099073 0 0.00099407481919842715 0.034734873797055393 0 0.00091024372074965942 0.034763304879902812 0 0.0027840835607635455 0.034444008964186396 0 -0.0032047740523292664 0.034374009314859441 0 0.0026605298958793256 0.033812647488679036 0 0.0025705143639168414 0.033791297210677612 0 0.0025393375466655353 0.033776671834501525 0 -0.0089959210871671837 0.034400863049095336 0 -0.0089594691984513312 0.035045664011435232 0 -0.0079230620109173901 0.034585849070210638 0 -0.010895910886335928 0.034096251354832026 0 -0.0032047740523292664 0.034374009314859441 0 -0.0089594691984513312 0.035045664011435232 0 -0.0079230620109173901 0.034585849070210638 0 -0.00839955909690813 0.035346755466005061 0 0.0025705143639168414 0.033791297210677612 0 0.0025393375466655353 0.033776671834501525 0 0.0025779385729757902 0.033710741392138734 0 -0.0032047740523292664 0.034374009314859441 0 -0.0029676241660241106 0.03468488044740161 0 0.0025779385729757902 0.033710741392138734 0 0.0026336611891509413 0.03337904109625154 0 0.0025654882022055421 0.033851108376083267 0 0.0029792865503920443 0.033322434031580452 0 0.0018120715992782084 0.03367045668481445 0 0.0025779385729757902 0.033710741392138734 0 0.0026336611891509413 0.03337904109625154 0 0.0026841675005579049 0.033308199058512754 0 -0.0029676241660241106 0.03468488044740161 0 -0.0045175558246606856 0.032196020306295633 0 0.0025705143639168414 0.033791297210677612 0 0.0025779385729757902 0.033710741392138734 0 0.0025654882022055421 0.033851108376083267 0 0.0026605298958793256 0.033812647488679036 0 0.0025705143639168414 0.033791297210677612 0 0.0025654882022055421 0.033851108376083267 0 0.0024427933133957199 0.033013516016652818 0 0.0024677260424117351 0.032933895654497801 0 0.0025062788396500763 0.032940426568165822 0 0.0024427933133957199 0.033013516016652818 0 0.0024977613083852278 0.033079125103145257 0 0.0024677260424117351 0.032933895654497801 0 0.0024977613083852278 0.033079125103145257 0 0.0024603190299576942 0.032881183930733672 0 0.0026841675005579049 0.033308199058512754 0 0.0042270967456977384 0.033925200346466879 0 -0.0045175558246606856 0.032196020306295633 0 0.0026336611891509413 0.03337904109625154 0 0.0024427933133957199 0.033013516016652818 0 0.0024977613083852278 0.033079125103145257 0 0.0026336611891509413 0.03337904109625154 0 0.0024977613083852278 0.033079125103145257 0 0.0026841675005579049 0.033308199058512754 0 0.0024977613083852278 0.033079125103145257 0 0.0024603190299576942 0.032881183930733672 0 0.0024677260424117351 0.032933895654497801 0 0.0024603190299576942 0.032881183930733672 0 0.0024368240496731169 0.032958659370333369 0 0.0022462780906439316 0.032988316626086638 0 0.0024677260424117351 0.032933895654497801 0 0.0025190803953191077 0.032978154090611313 0 0.0024368240496731169 0.032958659370333369 0 0.0024603190299576942 0.032881183930733672 0 0.0024677260424117351 0.032933895654497801 0 0.0024368240496731169 0.032958659370333369 0 0.0024677260424117351 0.032933895654497801 0 0.0025190803953191077 0.032978154090611313 0 0.0025062788396500763 0.032940426568165822 0 -0.013278518692803229 0.029273975997808507 0 -0.013310825810699978 0.029429950003828028 0 -0.013308951353531245 0.029132991251121558 0 -0.013278518692803229 0.029273975997808507 0 -0.013310825810699978 0.029429950003828028 0 -0.013383549222062452 0.029308262987310443 0 -0.0045175558246606856 0.032196020306295633 0 -0.0062654259803896937 0.031608691461073979 0 -0.013310825810699978 0.029429950003828028 0 -0.013773229735176784 0.02942982535936341 0 -0.013308951353531245 0.029132991251121558 0 0.0024603190299576942 0.032881183930733672 0 0.0021366198708663948 0.032509742731141995 0 0.001936363423181999 0.032851219691081929 0 0.0024603190299576942 0.032881183930733672 0 0.001936363423181999 0.032851219691081929 0 0.0022462780906439316 0.032988316626086638 0 -0.013278518692803229 0.029273975997808507 0 -0.013308951353531245 0.029132991251121558 0 -0.013215579209912804 0.029195387663538172 0 -0.013308951353531245 0.029132991251121558 0 -0.013177950489900109 0.029091150142340219 0 -0.013215579209912804 0.029195387663538172 0 0.001936363423181999 0.032851219691081929 0 0.0017102704431321727 0.033110537021868697 0 0.002105424273852454 0.033177126804700523 0 -0.0062654259803896937 0.031608691461073979 0 -0.00364215279508264 0.027377957101333821 0 0.001936363423181999 0.032851219691081929 0 0.002105424273852454 0.033177126804700523 0 0.0022462780906439316 0.032988316626086638 0 0.0020457814616032053 0.021732516213818852 0 0.0051296922272207994 0.020779650088170922 0 0.0043816234117028501 0.021882151324395131 0 0.0020457814616032053 0.021732516213818852 0 0.0043816234117028501 0.021882151324395131 0 0.003861757315040985 0.022683636800990389 0 0.0031747941136971332 0.020408725196700755 0 0.0020457814616032053 0.021732516213818852 0 0.0051214831823266924 0.020659779205172792 0 0.0024934854102382342 0.021277474786125759 0 0.0048877216315585427 0.022760302652586068 0 0.0031747941136971332 0.020408725196700755 0 0.0020457814616032053 0.021732516213818852 0 0.00097709922791696692 0.021855276027283321 0 -0.00364215279508264 0.027377957101333821 0 0.0032376453644722483 0.024952349946979174 0 -3.9989316183878206e-05 0.020437728372781992 0 0.0023300704568472051 0.020804120554667006 0 -0.00038220665961357872 0.021510401822306707 0 0.0031747941136971332 0.020408725196700755 0 0.00097709922791696692 0.021855276027283321 0 -0.00038220665961357872 0.021510401822306707 0 0.0032376453644722483 0.024952349946979174 0 -0.00015959053456299102 0.020462100862835536 0 0.0020457814616032053 0.021732516213818852 0 0.00097709922791696692 0.021855276027283321 0 0.00091722575776715667 0.023475120095575078 0 0.00097709922791696692 0.021855276027283321 0 -0.00038220665961357872 0.021510401822306707 0 -6.1170544056674643e-05 0.02253526974495406 0 0.0067106518309551439 0.027163892859026876 0 0.0075850392506586033 0.025945529830330227 0 0.011666169477169761 0.025414817010470346 0 0.0052663365377514787 0.02637563938796797 0 0.0055729821972664044 0.025967551121168841 0 0.0045252613217260538 0.026247090934730793 0 0.0066443632329855626 0.028677843905226964 0 0.0027319885650427299 0.029727239124731051 0 0.0065258026143021203 0.024352564519767157 0 0.0066443632329855626 0.028677843905226964 0 0.0025190803953191077 0.032978154090611313 0 0.0024368240496731169 0.032958659370333369 0 0.0023685664538176318 0.033097610747792487 0 0.0024368240496731169 0.032958659370333369 0 0.0022462780906439316 0.032988316626086638 0 0.0023685664538176318 0.033097610747792487 0 0.002105424273852454 0.033177126804700523 0 0.0022462780906439316 0.032988316626086638 0 0.0023685664538176318 0.033097610747792487 0 0.0032376453644722483 0.024952349946979174 0 0.0027319885650427299 0.029727239124731051 0 0.0052663365377514787 0.02637563938796797 0 0.0045252613217260538 0.026247090934730793 0 0.004416141844699276 0.026655505714585227 0 0.0064290991321477907 0.022255579885924037 0 0.0048877216315585427 0.022760302652586068 0 0.0062019144662788352 0.021280254999949788 0 0.0063604314036917464 0.021062004031037172 0 0.0051296922272207994 0.020779650088170922 0 0.0063892684173793872 0.023070593837933664 0 0.0061184925647030878 0.023445394649617472 0 0.0055217354800184562 0.023370290012672355 0 0.0065258026143021203 0.024352564519767157 0 0.0048877216315585427 0.022760302652586068 0 0.0062019144662788352 0.021280254999949788 0 0.0051296922272207994 0.020779650088170922 0 0.0055741156440990867 0.021702828082126889 0 0.0064620345360423739 0.022165643547781687 0 0.0064290991321477907 0.022255579885924037 0 0.0032376453644722483 0.024952349946979174 0 0.0048877216315585427 0.022760302652586068 0 0.0034846270943670074 0.026525991243766676 0 0.0045252613217260538 0.026247090934730793 0 0.004416141844699276 0.026655505714585227 0 0.0051296922272207994 0.020779650088170922 0 0.0043816234117028501 0.021882151324395131 0 0.0055741156440990867 0.021702828082126889 0 0.0043816234117028501 0.021882151324395131 0 0.0055741156440990867 0.021702828082126889 0 0.0053003454433902513 0.022504985708533987 0 0.0043816234117028501 0.021882151324395131 0 0.0053003454433902513 0.022504985708533987 0 0.003861757315040985 0.022683636800990389 0 0.0055741156440990867 0.021702828082126889 0 0.0068136064063738025 0.022220721653319741 0 0.0053003454433902513 0.022504985708533987 0 0.0062019144662788352 0.021280254999949788 0 0.0055741156440990867 0.021702828082126889 0 0.0068136064063738025 0.022220721653319741 0 0.0071296734272356561 0.021147216527828593 0 0.0073258353826556192 0.021526917168417686 0 0.0084250570520971128 0.021544603956726287 0 0.0068136064063738025 0.022220721653319741 0 0.0067287032086453692 0.021619994177777959 0 0.0073258353826556192 0.021526917168417686 0 0.0062019144662788352 0.021280254999949788 0 0.0068136064063738025 0.022220721653319741 0 0.0067287032086453692 0.021619994177777959 0 0.0064290991321477907 0.022255579885924037 0 0.0069032354404342678 0.021977799873002711 0 0.0063528721651552192 0.021111622059941132 0 0.0067287032086453692 0.021619994177777959 0 0.0073258353826556192 0.021526917168417686 0 0.0062019144662788352 0.021280254999949788 0 0.0063528721651552192 0.021111622059941132 0 0.0067287032086453692 0.021619994177777959 0 0.0071296734272356561 0.021147216527828593 0 0.0068893127803514812 0.021481200942015416 0 0.0073258353826556192 0.021526917168417686 0 0.0065258026143021203 0.024352564519767157 0 0.0064290991321477907 0.022255579885924037 0 0.0073258353826556192 0.021526917168417686 0 0.0080112916106161985 0.022447526375860595 0 0.0084250570520971128 0.021544603956726287 0 0.0068136064063738025 0.022220721653319741 0 0.0073258353826556192 0.021526917168417686 0 0.0080112916106161985 0.022447526375860595 0 0.0080112916106161985 0.022447526375860595 0 0.0091340842408763022 0.022424191427638577 0 0.0084250570520971128 0.021544603956726287 0 0.0091340842408763022 0.022424191427638577 0 0.0084250570520971128 0.021544603956726287 0 0.0094714654192111763 0.021983718989056676 0 0.012431190685156182 0.027993078053153219 0 0.012806131400665464 0.027958803470222379 0 0.012673473172516977 0.027886138530459879 0 0.0071296734272356561 0.021147216527828593 0 0.0084250570520971128 0.021544603956726287 0 0.0091398457734843778 0.020922565861434542 0 0.0066443632329855626 0.028677843905226964 0 0.012539223412184121 0.026888128535981222 0 0.0065258026143021203 0.024352564519767157 0 0.011555715279828089 0.025348277409440751 0 0.0075850392506586033 0.025945529830330227 0 0.011666169477169761 0.025414817010470346 0 0.010845193327072976 0.024986537951440624 0 0.0084250570520971128 0.021544603956726287 0 0.0091398457734843778 0.020922565861434542 0 0.0094714654192111763 0.021983718989056676 0 0.011555715279828089 0.025348277409440751 0 0.012539223412184121 0.026888128535981222 0 0.012539223412184121 0.026888128535981222 0 0.012881649689729227 0.02746467993009544 0 0.012539223412184121 0.026888128535981222 0 0.012824281023130879 0.027708794856729693 0 0.011555715279828089 0.025348277409440751 0 0.011624928002396923 0.024003636965643334 0 0.012708207117136348 0.027864110481750838 0 0.01264758963348599 0.027846538694907656 0 0.012859554442971627 0.027615557537451565 0 0.014225155209226299 0.026964189760387468 0 0.013065030749494803 0.026278302851168642 0 0.012950133011164634 0.027451719261230533 0 0.0091398457734843778 0.020922565861434542 0 0.0094714654192111763 0.021983718989056676 0 0.010331403618172441 0.022167720473891688 0 0.011555715279828089 0.025348277409440751 0 0.013533999577509984 0.027747940409519476 0 0.012708207117136348 0.027864110481750838 0 0.012950133011164634 0.027451719261230533 0 0.012859554442971627 0.027615557537451565 0 0.0094714654192111763 0.021983718989056676 0 0.010331403618172441 0.022167720473891688 0 0.010023694691572571 0.022848980215356824 0 0.0091340842408763022 0.022424191427638577 0 0.0094714654192111763 0.021983718989056676 0 0.010023694691572571 0.022848980215356824 0 0.010331403618172441 0.022167720473891688 0 0.010867346215518185 0.023110412392388306 0 0.010023694691572571 0.022848980215356824 0 0.013065030749494803 0.026278302851168642 0 0.012283461995087206 0.025341569232634573 0 0.012591634941327907 0.026659477719143936 0 0.011624928002396923 0.024003636965643334 0 0.011517321896053831 0.024220017640386959 0 0.012283461995087206 0.025341569232634573 0 0.012591634941327907 0.026659477719143936 0 0.012101364612145456 0.026740712247196485 0 0.012591634941327907 0.026659477719143936 0 0.012101364612145456 0.026740712247196485 0 0.012529174192884128 0.027394134839955005 0 0.013065030749494803 0.026278302851168642 0 0.012591634941327907 0.026659477719143936 0 0.012950133011164634 0.027451719261230533 0 0.012591634941327907 0.026659477719143936 0 0.012950133011164634 0.027451719261230533 0 0.012529174192884128 0.027394134839955005 0 0.012950133011164634 0.027451719261230533 0 0.012700631393496399 0.027770001024648185 0 0.012529174192884128 0.027394134839955005 0 0.012700631393496399 0.027770001024648185 0 0.012529174192884128 0.027394134839955005 0 0.012402446137702514 0.027905533421292591 0 0.012700631393496399 0.027770001024648185 0 0.012749597573767757 0.027910866334510388 0 0.012836512565171578 0.027693161486469199 0 0.012950133011164634 0.027451719261230533 0 0.012700631393496399 0.027770001024648185 0 0.012836512565171578 0.027693161486469199 0 0.011922202194117038 0.027690596328752492 0 0.012101364612145456 0.026740712247196485 0 0.012529174192884128 0.027394134839955005 0 0.011922202194117038 0.027690596328752492 0 0.012529174192884128 0.027394134839955005 0 0.012402446137702514 0.027905533421292591 0 0.012402446137702514 0.027905533421292591 0 0.012103468905844638 0.028302763810028601 0 0.012534167100310346 0.028117157456681807 0 0.012341957990403173 0.028465586162817493 0 0.012103468905844638 0.028302763810028601 0 0.012534167100310346 0.028117157456681807 0 0.011922202194117038 0.027690596328752492 0 0.012402446137702514 0.027905533421292591 0 0.012103468905844638 0.028302763810028601 0 0.012534167100310346 0.028117157456681807 0 0.012635466568585673 0.028130653198145276 0 0.012749597573767757 0.027910866334510388 0 0.012700631393496399 0.027770001024648185 0 0.012534167100310346 0.028117157456681807 0 0.012749597573767757 0.027910866334510388 0 0.012700631393496399 0.027770001024648185 0 0.012402446137702514 0.027905533421292591 0 0.012534167100310346 0.028117157456681807 0 0.012341957990403173 0.028465586162817493 0 0.012534167100310346 0.028117157456681807 0 0.012635466568585673 0.028130653198145276 0 0.012716019227370732 0.028194595642418274 0 0.012635466568585673 0.028130653198145276 0 0.012777334386996728 0.027946277995461503 0 0.012716019227370732 0.028194595642418274 0 0.012777334386996728 0.027946277995461503 0 0.012852849916537457 0.027759615678739476 0 0.012749597573767757 0.027910866334510388 0 0.012777334386996728 0.027946277995461503 0 0.012837009110760361 0.027777463393792043 0 0.012635466568585673 0.028130653198145276 0 0.012749597573767757 0.027910866334510388 0 0.012777334386996728 0.027946277995461503 0 0.002557259153601216 0.032936347408654226 0 0.0024427933133957199 0.033013516016652818 0 0.0025062788396500763 0.032940426568165822 0 0.0057902524370426365 0.031652855035697557 0 0.008020726500484545 0.030373272053861634 0 0.012431190685156182 0.027993078053153219 0 0.012852849916537457 0.027759615678739476 0 0.012673473172516977 0.027886138530459879 0 0.012852849916537457 0.027759615678739476 0 0.012816992953537039 0.027799088676818729 0 0.012837009110760361 0.027777463393792043 0 0.0066443632329855626 0.028677843905226964 0 0.008020726500484545 0.030373272053861634 0 0.012811293317608262 0.027873401005129739 0 0.012673473172516977 0.027886138530459879 0 0.012816992953537039 0.027799088676818729 0 0.012852849916537457 0.027759615678739476 0 0.012673473172516977 0.027886138530459879 0 0.012816992953537039 0.027799088676818729 0 0.012811293317608262 0.027873401005129739 0 0.012816992953537039 0.027799088676818729 0 0.012837713022155571 0.027753193181344591 0 0.012816992953537039 0.027799088676818729 0 0.012837713022155571 0.027753193181344591 0 0.012837009110760361 0.027777463393792043 0 0.012837713022155571 0.027753193181344591 0 0.012859554442971627 0.027615557537451565 0 0.012837009110760361 0.027777463393792043 0 0.012811293317608262 0.027873401005129739 0 0.012837713022155571 0.027753193181344591 0 0.012859554442971627 0.027615557537451565 0 0.012950133011164634 0.027451719261230533 0 0.012859554442971627 0.027615557537451565 0 0.012836512565171578 0.027693161486469199 0 0.012859554442971627 0.027615557537451565 0 0.012836512565171578 0.027693161486469199 0 0.012837009110760361 0.027777463393792043 0 0.012749597573767757 0.027910866334510388 0 0.012836512565171578 0.027693161486469199 0 0.012837009110760361 0.027777463393792043 0 0.012777334386996728 0.027946277995461503 0 0.012852849916537457 0.027759615678739476 0 0.012837009110760361 0.027777463393792043 0 -0.015880423284878237 0.028923690612184954 0 -0.015309057159407198 0.028799366961389464 0 -0.014926089935129413 0.029677138239631893 0 -0.015880423284878237 0.028923690612184954 0 -0.016173500046892247 0.029198714313036361 0 -0.014926089935129413 0.029677138239631893 0 -0.015880423284878237 0.028923690612184954 0 -0.015309057159407198 0.028799366961389464 0 -0.015951866408384016 0.028730406042092885 0 -0.015309057159407198 0.028799366961389464 0 -0.014926089935129413 0.029677138239631893 0 -0.01399472607369861 0.029022091474266879 0 -0.015315563989239887 0.028403092750037599 0 -0.015309057159407198 0.028799366961389464 0 -0.014781862214529982 0.028312878761683431 0 -0.015309057159407198 0.028799366961389464 0 -0.01399472607369861 0.029022091474266879 0 -0.014781862214529982 0.028312878761683431 0 -0.015315563989239887 0.028403092750037599 0 -0.015309057159407198 0.028799366961389464 0 -0.015777887049151638 0.028516018682498052 0 -0.015309057159407198 0.028799366961389464 0 -0.015777887049151638 0.028516018682498052 0 -0.015951866408384016 0.028730406042092885 0 -0.015315563989239887 0.028403092750037599 0 -0.015777887049151638 0.028516018682498052 0 -0.015641557062912169 0.028068297175573319 0 -0.021564375325923986 0.032934229872716499 0 -0.021709003729018714 0.033288499412880312 0 -0.021243498349841253 0.032719190917842228 0 -0.015777887049151638 0.028516018682498052 0 -0.016307280213295843 0.028714057364216623 0 -0.015641557062912169 0.028068297175573319 0 -0.018844176382493649 0.031010551528513473 0 -0.018772448084070831 0.030272356865765734 0 -0.021564375325923986 0.032934229872716499 0 -0.022039450868555955 0.033105442582772843 0 -0.022816926623876951 0.032821424086523429 0 -0.021564375325923986 0.032934229872716499 0 -0.021557860879608488 0.033492581174241191 0 -0.021709003729018714 0.033288499412880312 0 -0.021564375325923986 0.032934229872716499 0 -0.022039450868555955 0.033105442582772843 0 -0.021557860879608488 0.033492581174241191 0 -0.022039450868555955 0.033105442582772843 0 -0.021557860879608488 0.033492581174241191 0 -0.022449061882549044 0.033211473292699419 0 -0.015777887049151638 0.028516018682498052 0 -0.015951866408384016 0.028730406042092885 0 -0.016307280213295843 0.028714057364216623 0 -0.022816926623876951 0.032821424086523429 0 -0.022449061882549044 0.033211473292699419 0 -0.023481934186303045 0.033125059111547187 0 -0.022816926623876951 0.032821424086523429 0 -0.023481934186303045 0.033125059111547187 0 -0.024153283301680265 0.032568931903238688 0 -0.022039450868555955 0.033105442582772843 0 -0.022816926623876951 0.032821424086523429 0 -0.022449061882549044 0.033211473292699419 0 -0.021557860879608488 0.033492581174241191 0 -0.022449061882549044 0.033211473292699419 0 -0.023005886552100275 0.033645603211914815 0 -0.023481934186303045 0.033125059111547187 0 -0.023005886552100275 0.033645603211914815 0 -0.023682929513992243 0.033692599543356724 0 -0.022449061882549044 0.033211473292699419 0 -0.023481934186303045 0.033125059111547187 0 -0.023005886552100275 0.033645603211914815 0 -0.021557860879608488 0.033492581174241191 0 -0.016545567024205645 0.03095429251492544 0 -0.021709003729018714 0.033288499412880312 0 -0.021114413084481438 0.033212100689114558 0 -0.020586784121382751 0.033441559039315075 0 -0.021557860879608488 0.033492581174241191 0 -0.023005886552100275 0.033645603211914815 0 -0.023538992761979276 0.03465837564229992 0 -0.016545567024205645 0.03095429251492544 0 -0.021709003729018714 0.033288499412880312 0 -0.017079466666798677 0.029474802887193813 0 -0.018844176382493649 0.031010551528513473 0 -0.017375612499316323 0.029621101273315752 0 -0.023005886552100275 0.033645603211914815 0 -0.023538992761979276 0.03465837564229992 0 -0.023682929513992243 0.033692599543356724 0 -0.016307280213295843 0.028714057364216623 0 -0.016472544576334631 0.029199500724403412 0 -0.017079466666798677 0.029474802887193813 0 -0.016307280213295843 0.028714057364216623 0 -0.016211333578544516 0.028997874288168829 0 -0.016472544576334631 0.029199500724403412 0 -0.016106367490451565 0.028840478869644377 0 -0.016307280213295843 0.028714057364216623 0 -0.016211333578544516 0.028997874288168829 0 -0.015880423284878237 0.028923690612184954 0 -0.016106367490451565 0.028840478869644377 0 -0.016211333578544516 0.028997874288168829 0 -0.016106367490451565 0.028840478869644377 0 -0.015951866408384016 0.028730406042092885 0 -0.016307280213295843 0.028714057364216623 0 -0.015880423284878237 0.028923690612184954 0 -0.016106367490451565 0.028840478869644377 0 -0.015951866408384016 0.028730406042092885 0 -0.015880423284878237 0.028923690612184954 0 -0.016211333578544516 0.028997874288168829 0 -0.016173500046892247 0.029198714313036361 0 -0.016211333578544516 0.028997874288168829 0 -0.016173500046892247 0.029198714313036361 0 -0.016472544576334631 0.029199500724403412 0 -0.016173500046892247 0.029198714313036361 0 -0.016506202253188756 0.02933662954033368 0 -0.016117180097757738 0.029143907807843955 0 -0.016173500046892247 0.029198714313036361 0 -0.016472544576334631 0.029199500724403412 0 -0.016506202253188756 0.02933662954033368 0 -0.016545567024205645 0.03095429251492544 0 -0.017079466666798677 0.029474802887193813 0 -0.0164516034493996 0.029436036593179952 0 -0.016472544576334631 0.029199500724403412 0 -0.016506202253188756 0.02933662954033368 0 -0.017079466666798677 0.029474802887193813 0 -0.016643693667500428 0.029278947189493056 0 -0.016457393575470058 0.029274862956609801 0 -0.016567419809950343 0.029254955145583367 0 -0.017079466666798677 0.029474802887193813 0 -0.016643693667500428 0.029278947189493056 0 -0.0164516034493996 0.029436036593179952 0 -0.016506202253188756 0.02933662954033368 0 -0.017079466666798677 0.029474802887193813 0 -0.016643693667500428 0.029278947189493056 0 -0.016457393575470058 0.029274862956609801 0 -0.016117180097757738 0.029143907807843955 0 -0.016179500557855428 0.029471304212825896 0 -0.016506202253188756 0.02933662954033368 0 -0.016643693667500428 0.029278947189493056 0 -0.016457393575470058 0.029274862956609801 0 -0.016506202253188756 0.02933662954033368 0 -0.016457393575470058 0.029274862956609801 0 -0.016117180097757738 0.029143907807843955 0 -0.016173500046892247 0.029198714313036361 0 -0.016117180097757738 0.029143907807843955 0 -0.015700431257257483 0.028578971015473072 0 -0.016097806403942538 0.029177103132193065 0 -0.015174605366794439 0.029111521501755565 0 -0.015700431257257483 0.028578971015473072 0 -0.015475334705926836 0.028956803625454323 0 -0.014669256714703255 0.028140093805316995 0 -0.016117180097757738 0.029143907807843955 0 -0.015475334705926836 0.028956803625454323 0 -0.015737304535703652 0.029385108393719942 0 -0.016117180097757738 0.029143907807843955 0 -0.015700431257257483 0.028578971015473072 0 -0.015475334705926836 0.028956803625454323 0 -0.015475334705926836 0.028956803625454323 0 -0.014828238204574252 0.029057812808015681 0 -0.015250591485883917 0.029413968330203641 0 -0.015475334705926836 0.028956803625454323 0 -0.014828238204574252 0.029057812808015681 0 -0.014669256714703255 0.028140093805316995 0 -0.013939751279003116 0.028999027618316561 0 -0.014669256714703255 0.028140093805316995 0 -0.013163129025094372 0.027936153028210089 0 -0.014828238204574252 0.029057812808015681 0 -0.013939751279003116 0.028999027618316561 0 -0.014669256714703255 0.028140093805316995 0 -0.014752430931823494 0.029113560713208444 0 -0.010729711737813763 0.026610448392908131 0 -0.01389971460440555 0.02973648467210456 0 -0.013226593679047475 0.029634911049549063 0 -0.013386847006700606 0.029316789975534437 0 -0.015174605366794439 0.029111521501755565 0 -0.014752430931823494 0.029113560713208444 0 -0.0014304515610573394 0.022140131205942042 0 -0.0020057618974313358 0.023158806955751062 0 -0.0037781914361828786 0.02191062426655202 0 -0.00364215279508264 0.027377957101333821 0 -0.00096874597697122768 0.021702645647657497 0 -3.9989316183878206e-05 0.020437728372781992 0 -0.00038220665961357872 0.021510401822306707 0 -0.0010093099770289847 0.021943884955401612 0 -0.00038220665961357872 0.021510401822306707 0 -0.0010093099770289847 0.021943884955401612 0 -6.1170544056674643e-05 0.02253526974495406 0 -0.0090804456361357026 0.025704898352958586 0 -0.010729711737813763 0.026610448392908131 0 -0.0020057618974313358 0.023158806955751062 0 -0.0033511218959962562 0.023326541068122802 0 -0.0037781914361828786 0.02191062426655202 0 -0.0047946507224160368 0.023179412618234314 0 -0.0033511218959962562 0.023326541068122802 0 -0.0037781914361828786 0.02191062426655202 0 -0.013226593679047475 0.029634911049549063 0 -0.013140652564539652 0.029243096957176026 0 -0.013386847006700606 0.029316789975534437 0 -0.010729711737813763 0.026610448392908131 0 -0.013661524583253648 0.030196644278764336 0 -0.00364215279508264 0.027377957101333821 0 -0.010729711737813763 0.026610448392908131 0 -0.013177950489900109 0.029091150142340219 0 -0.013215579209912804 0.029195387663538172 0 -0.013140652564539652 0.029243096957176026 0 -0.013177950489900109 0.029091150142340219 0 -0.013045435210127113 0.029136609705528897 0 -0.013140652564539652 0.029243096957176026 0 -0.013215579209912804 0.029195387663538172 0 -0.013211565494320324 0.029122305614069123 0 -0.013140652564539652 0.029243096957176026 0 -0.013211565494320324 0.029122305614069123 0 -0.013386847006700606 0.029316789975534437 0 -0.013300738525025052 0.029008784680599906 0 -0.013211565494320324 0.029122305614069123 0 -0.013140652564539652 0.029243096957176026 0 -0.013386847006700606 0.029316789975534437 0 -0.013300738525025052 0.029008784680599906 0 -0.013150210821837902 0.02871420712677605 0 -0.01328695709673355 0.02899740860630462 0 -0.013211565494320324 0.029122305614069123 0 -0.013296276151401143 0.029190403473244489 0 -0.01328695709673355 0.02899740860630462 0 -0.013211565494320324 0.029122305614069123 0 -0.013300738525025052 0.029008784680599906 0 -0.01328695709673355 0.02899740860630462 0 -0.013215579209912804 0.029195387663538172 0 -0.013211565494320324 0.029122305614069123 0 -0.013296276151401143 0.029190403473244489 0 -0.013278518692803229 0.029273975997808507 0 -0.013296276151401143 0.029190403473244489 0 -0.013383549222062452 0.029308262987310443 0 -0.013278518692803229 0.029273975997808507 0 -0.013215579209912804 0.029195387663538172 0 -0.013296276151401143 0.029190403473244489 0 -0.014926089935129413 0.029677138239631893 0 -0.01389971460440555 0.02973648467210456 0 -0.01399472607369861 0.029022091474266879 0 -0.01389971460440555 0.02973648467210456 0 -0.01399472607369861 0.029022091474266879 0 -0.013386847006700606 0.029316789975534437 0 -0.01399472607369861 0.029022091474266879 0 -0.013386847006700606 0.029316789975534437 0 -0.013300738525025052 0.029008784680599906 0 -0.01399472607369861 0.029022091474266879 0 -0.013300738525025052 0.029008784680599906 0 -0.013150210821837902 0.02871420712677605 0 -0.01399472607369861 0.029022091474266879 0 -0.014002738711106915 0.028513965530102055 0 -0.013150210821837902 0.02871420712677605 0 -0.01399472607369861 0.029022091474266879 0 -0.014002738711106915 0.028513965530102055 0 -0.014781862214529982 0.028312878761683431 0 -0.013188686002092002 0.028644607882359247 0 -0.012673787983326098 0.028427485646198635 0 -0.014002738711106915 0.028513965530102055 0 -0.014144015884710879 0.02769153849535649 0 -0.014781862214529982 0.028312878761683431 0 -0.014002738711106915 0.028513965530102055 0 -0.013150210821837902 0.02871420712677605 0 -0.014144015884710879 0.02769153849535649 0 -0.013150210821837902 0.02871420712677605 0 -0.013028824713929616 0.029344641702199768 0 -0.01328695709673355 0.02899740860630462 0 -0.013150210821837902 0.02871420712677605 0 -0.013028824713929616 0.029344641702199768 0 -0.011797726760572367 0.02929529685389607 0 -0.013028824713929616 0.029344641702199768 0 -0.012664661189833807 0.03001890640720686 0 -0.011797726760572367 0.02929529685389607 0 -0.013028824713929616 0.029344641702199768 0 -0.012664661189833807 0.03001890640720686 0 -0.013283012833778798 0.029782625519717578 0 -0.011797726760572367 0.02929529685389607 0 -0.0118790771451511 0.030358461084606981 0 -0.010734757760628542 0.030026688843871361 0 -0.012664661189833807 0.03001890640720686 0 -0.011797726760572367 0.02929529685389607 0 -0.0118790771451511 0.030358461084606981 0 -0.013383549222062452 0.029308262987310443 0 -0.013434107024563336 0.029264192762523553 0 -0.013542564435626079 0.02934291375784542 0 -0.013296276151401143 0.029190403473244489 0 -0.013383549222062452 0.029308262987310443 0 -0.013434107024563336 0.029264192762523553 0 -0.013296276151401143 0.029190403473244489 0 -0.013434107024563336 0.029264192762523553 0 -0.01328695709673355 0.02899740860630462 0 -0.013434107024563336 0.029264192762523553 0 -0.013481181415184382 0.029526405526583536 0 -0.013542564435626079 0.02934291375784542 0 -0.013434107024563336 0.029264192762523553 0 -0.013334944086529908 0.029358762942320499 0 -0.013481181415184382 0.029526405526583536 0 -0.013028824713929616 0.029344641702199768 0 -0.013334944086529908 0.029358762942320499 0 -0.01328695709673355 0.02899740860630462 0 -0.013434107024563336 0.029264192762523553 0 -0.013334944086529908 0.029358762942320499 0 -0.01328695709673355 0.02899740860630462 0 -0.013028824713929616 0.029344641702199768 0 -0.013334944086529908 0.029358762942320499 0 -0.013283012833778798 0.029782625519717578 0 -0.013283012833778798 0.029782625519717578 0 -0.013481181415184382 0.029526405526583536 0 -0.013666020392084569 0.030057581908690227 0 -0.013334944086529908 0.029358762942320499 0 -0.013283012833778798 0.029782625519717578 0 -0.013481181415184382 0.029526405526583536 0 -0.012492616038285805 0.03056099141159865 0 -0.012237953053782174 0.032169694422066984 0 -0.011741509480562448 0.031921320508298288 0 -0.013481181415184382 0.029526405526583536 0 -0.013542564435626079 0.02934291375784542 0 -0.013666020392084569 0.030057581908690227 0 -0.013033079641658203 0.029984116203878888 0 -0.012689039532335146 0.031003678408604449 0 -0.012237953053782174 0.032169694422066984 0 -0.011741509480562448 0.031921320508298288 0 -0.01146240061939084 0.03301599139320046 0 -0.013666020392084569 0.030057581908690227 0 -0.013078937103091064 0.030387162936826046 0 -0.013173476236764767 0.031346375048456381 0 -0.012689039532335146 0.031003678408604449 0 -0.012278589725026873 0.032051304893970442 0 -0.013283012833778798 0.029782625519717578 0 -0.013666020392084569 0.030057581908690227 0 -0.013078937103091064 0.030387162936826046 0 -0.011741509480562448 0.031921320508298288 0 -0.011415177928046681 0.032847008398028343 0 -0.01146240061939084 0.03301599139320046 0 -0.010379899900281502 0.033045819189594983 0 -0.010199049473559247 0.033809053707249952 0 -0.010708577257372167 0.033369225379400874 0 -0.010199049473559247 0.033809053707249952 0 -0.010559195272744463 0.034258335058454353 0 -0.010708577257372167 0.033369225379400874 0 -0.011199725966988977 0.033287090041856732 0 -0.011535511596810679 0.032987882698152525 0 -0.010559195272744463 0.034258335058454353 0 -0.01146240061939084 0.03301599139320046 0 -0.010708577257372167 0.033369225379400874 0 -0.01146240061939084 0.03301599139320046 0 -0.010708577257372167 0.033369225379400874 0 -0.01094835339272341 0.032816303389469462 0 -0.0118790771451511 0.030358461084606981 0 -0.012534325001566074 0.030865877220850328 0 -0.012037988397950642 0.031429847183124297 0 -0.0118790771451511 0.030358461084606981 0 -0.011306207570168151 0.031107407004597448 0 -0.012037988397950642 0.031429847183124297 0 -0.012664661189833807 0.03001890640720686 0 -0.0118790771451511 0.030358461084606981 0 -0.012534325001566074 0.030865877220850328 0 -0.012664661189833807 0.03001890640720686 0 -0.013283012833778798 0.029782625519717578 0 -0.013078937103091064 0.030387162936826046 0 -0.012664661189833807 0.03001890640720686 0 -0.013078937103091064 0.030387162936826046 0 -0.012534325001566074 0.030865877220850328 0 -0.013078937103091064 0.030387162936826046 0 -0.013173476236764767 0.031346375048456381 0 -0.012534325001566074 0.030865877220850328 0 -0.012278589725026873 0.032051304893970442 0 -0.01201333918667981 0.032461108384879173 0 -0.013173476236764767 0.031346375048456381 0 -0.012401650990188416 0.031776999391719719 0 -0.011971357497899029 0.032501992711712085 0 -0.011415177928046681 0.032847008398028343 0 -0.01146240061939084 0.03301599139320046 0 -0.011971357497899029 0.032501992711712085 0 -0.012534325001566074 0.030865877220850328 0 -0.012401650990188416 0.031776999391719719 0 -0.012037988397950642 0.031429847183124297 0 -0.013173476236764767 0.031346375048456381 0 -0.012534325001566074 0.030865877220850328 0 -0.012401650990188416 0.031776999391719719 0 -0.012401650990188416 0.031776999391719719 0 -0.012037988397950642 0.031429847183124297 0 -0.012112233987730736 0.032085784165960425 0 -0.013579135650838263 0.03303245530491656 0 -0.014523185837293567 0.033980053477413584 0 -0.016299982092144841 0.034856443992356496 0 -0.016814279274988783 0.035692137336027586 0 -0.016317132077463138 0.035948036268661131 0 -0.011306207570168151 0.031107407004597448 0 -0.012037988397950642 0.031429847183124297 0 -0.011910444300460368 0.03238726295390592 0 -0.012037988397950642 0.031429847183124297 0 -0.012112233987730736 0.032085784165960425 0 -0.011910444300460368 0.03238726295390592 0 -0.016299982092144841 0.034856443992356496 0 -0.01561940104524074 0.034933551791343033 0 -0.015816898808997767 0.035713238543184568 0 -0.016299982092144841 0.034856443992356496 0 -0.015816898808997767 0.035713238543184568 0 -0.016317132077463138 0.035948036268661131 0 -0.01561940104524074 0.034933551791343033 0 -0.015235610393601018 0.035366268200246576 0 -0.014960261297988733 0.034697837925704057 0 -0.01561940104524074 0.034933551791343033 0 -0.015235610393601018 0.035366268200246576 0 -0.015816898808997767 0.035713238543184568 0 -0.015709229790157053 0.030973131190566709 0 -0.018238394874116548 0.03374001084003813 0 -0.021033157329495365 0.032448124997429287 0 -0.021398211538731809 0.032540390653170152 0 -0.02131788922708067 0.032319918029609575 0 -0.01561940104524074 0.034933551791343033 0 -0.015796624298865167 0.034040161652292865 0 -0.014960261297988733 0.034697837925704057 0 -0.016299982092144841 0.034856443992356496 0 -0.01561940104524074 0.034933551791343033 0 -0.015796624298865167 0.034040161652292865 0 -0.013579135650838263 0.03303245530491656 0 -0.015709229790157053 0.030973131190566709 0 -0.0118790771451511 0.030358461084606981 0 -0.011306207570168151 0.031107407004597448 0 -0.010734757760628542 0.030026688843871361 0 -0.012673787983326098 0.028427485646198635 0 -0.015709229790157053 0.030973131190566709 0 -0.015709229790157053 0.030973131190566709 0 -0.018772448084070831 0.030272356865765734 0 -0.021033157329495365 0.032448124997429287 0 -0.021243498349841253 0.032719190917842228 0 -0.021398211538731809 0.032540390653170152 0 -0.015315563989239887 0.028403092750037599 0 -0.015641557062912169 0.028068297175573319 0 -0.014781862214529982 0.028312878761683431 0 -0.014977591105597959 0.027128607848737059 0 -0.015641557062912169 0.028068297175573319 0 -0.014781862214529982 0.028312878761683431 0 -0.014144015884710879 0.02769153849535649 0 -0.014977591105597959 0.027128607848737059 0 -0.014781862214529982 0.028312878761683431 0 -0.023314682725992075 0.0323263101276237 0 -0.023177470909965442 0.03167095574381526 0 -0.024741322722141891 0.031972571956789951 0 -0.021564375325923986 0.032934229872716499 0 -0.022816926623876951 0.032821424086523429 0 -0.023314682725992075 0.0323263101276237 0 -0.021564375325923986 0.032934229872716499 0 -0.023314682725992075 0.0323263101276237 0 -0.023177470909965442 0.03167095574381526 0 -0.022816926623876951 0.032821424086523429 0 -0.023314682725992075 0.0323263101276237 0 -0.024153283301680265 0.032568931903238688 0 -0.021243498349841253 0.032719190917842228 0 -0.021468435942497113 0.032681256699116264 0 -0.021398211538731809 0.032540390653170152 0 -0.021621626674764659 0.032957873755619087 0 -0.022276852712025137 0.032038667122648863 0 -0.021564375325923986 0.032934229872716499 0 -0.021468435942497113 0.032681256699116264 0 -0.021611465015944898 0.032566695282938825 0 -0.021564375325923986 0.032934229872716499 0 -0.021243498349841253 0.032719190917842228 0 -0.021468435942497113 0.032681256699116264 0 -0.021468435942497113 0.032681256699116264 0 -0.021398211538731809 0.032540390653170152 0 -0.021611465015944898 0.032566695282938825 0 -0.021398211538731809 0.032540390653170152 0 -0.021611465015944898 0.032566695282938825 0 -0.021556409985494535 0.032457771371436551 0 -0.022276852712025137 0.032038667122648863 0 -0.023916156894638593 0.032041359045099582 0 -0.021611465015944898 0.032566695282938825 0 -0.021604962119109356 0.032450480594000367 0 -0.021556409985494535 0.032457771371436551 0 -0.021604962119109356 0.032450480594000367 0 -0.021556409985494535 0.032457771371436551 0 -0.021609278821917082 0.032446048393415555 0 -0.021611465015944898 0.032566695282938825 0 -0.021604962119109356 0.032450480594000367 0 -0.021648964777063694 0.032450802065459083 0 -0.022068650090498375 0.031747778467229149 0 -0.019363351213138071 0.03395080749985821 0 -0.021398211538731809 0.032540390653170152 0 -0.021556409985494535 0.032457771371436551 0 -0.02131788922708067 0.032319918029609575 0 -0.021556409985494535 0.032457771371436551 0 -0.02131788922708067 0.032319918029609575 0 -0.021525537815591453 0.032196131703093572 0 -0.014960261297988733 0.034697837925704057 0 -0.014155451184079439 0.035328479560575436 0 -0.01469637612362578 0.035597831185716876 0 -0.015235610393601018 0.035366268200246576 0 -0.014960261297988733 0.034697837925704057 0 -0.01469637612362578 0.035597831185716876 0 -0.018238394874116548 0.03374001084003813 0 -0.019363351213138071 0.03395080749985821 0 -0.021604962119109356 0.032450480594000367 0 -0.021620831843108066 0.032447515398464806 0 -0.021609278821917082 0.032446048393415555 0 -0.021620831843108066 0.032447515398464806 0 -0.021609278821917082 0.032446048393415555 0 -0.021620400299822696 0.032449469900505068 0 -0.021609278821917082 0.032446048393415555 0 -0.021620400299822696 0.032449469900505068 0 -0.021622312508859189 0.032454036523802209 0 -0.019363351213138071 0.03395080749985821 0 -0.022172101455212076 0.034952685173357277 0 -0.019469091729323557 0.035056218802345065 0 -0.019657479475001318 0.034928458184247897 0 -0.019480575446856902 0.034842670818127044 0 -0.022172101455212076 0.034952685173357277 0 -0.017694375828607025 0.03580131894921372 0 -0.024286349842793247 0.036016829130682847 0 -0.024206982771823225 0.035852156856226447 0 -0.023923349121815415 0.03584353491367586 0 -0.024206982771823225 0.035852156856226447 0 -0.024263197698233995 0.035580211592265529 0 -0.024353463666220272 0.03596832109554926 0 -0.022172101455212076 0.034952685173357277 0 -0.022342764602601727 0.034923620609964096 0 -0.024286349842793247 0.036016829130682847 0 -0.024206982771823225 0.035852156856226447 0 -0.024353463666220272 0.03596832109554926 0 -0.019363351213138071 0.03395080749985821 0 -0.017694375828607025 0.03580131894921372 0 -0.014155451184079439 0.035328479560575436 0 -0.014124488507332937 0.035777195263820664 0 -0.01469637612362578 0.035597831185716876 0 -0.024206982771823225 0.035852156856226447 0 -0.023923349121815415 0.03584353491367586 0 -0.024263197698233995 0.035580211592265529 0 -0.023923349121815415 0.03584353491367586 0 -0.024263197698233995 0.035580211592265529 0 -0.024029776455854902 0.034832442111320326 0 -0.017694375828607025 0.03580131894921372 0 -0.019236909085561266 0.035732911365265976 0 -0.01419398888311621 0.036046885292865982 0 -0.014104749164950357 0.03697491875982075 0 -0.014447256686722355 0.036603825972918801 0 -0.024263197698233995 0.035580211592265529 0 -0.024029776455854902 0.034832442111320326 0 -0.024634203505284103 0.035375403197480552 0 -0.014601420955376894 0.036967634772225443 0 -0.014892689111449838 0.036416200690353721 0 -0.0150293970347529 0.037140117364273979 0 -0.014104749164950357 0.03697491875982075 0 -0.014601420955376894 0.036967634772225443 0 -0.014447256686722355 0.036603825972918801 0 -0.014601420955376894 0.036967634772225443 0 -0.014447256686722355 0.036603825972918801 0 -0.014892689111449838 0.036416200690353721 0 -0.017694375828607025 0.03580131894921372 0 -0.014267223722659256 0.036137646950303672 0 -0.01419398888311621 0.036046885292865982 0 -0.014447256686722355 0.036603825972918801 0 -0.014892689111449838 0.036416200690353721 0 -0.015235610393601018 0.035366268200246576 0 -0.014865768087751518 0.03622807214703793 0 -0.01469637612362578 0.035597831185716876 0 -0.014124488507332937 0.035777195263820664 0 -0.014865768087751518 0.03622807214703793 0 -0.01469637612362578 0.035597831185716876 0 -0.015235610393601018 0.035366268200246576 0 -0.014865768087751518 0.03622807214703793 0 -0.015816898808997767 0.035713238543184568 0 -0.015816898808997767 0.035713238543184568 0 -0.015665095020100959 0.036739924773812674 0 -0.016317132077463138 0.035948036268661131 0 -0.015665095020100959 0.036739924773812674 0 -0.016317132077463138 0.035948036268661131 0 -0.016516953358302524 0.036572665005151869 0 -0.015665095020100959 0.036739924773812674 0 -0.016516953358302524 0.036572665005151869 0 -0.016439662661699463 0.037465094378360486 0 -0.014865768087751518 0.03622807214703793 0 -0.015816898808997767 0.035713238543184568 0 -0.015665095020100959 0.036739924773812674 0 -0.014892689111449838 0.036416200690353721 0 -0.015665095020100959 0.036739924773812674 0 -0.0150293970347529 0.037140117364273979 0 -0.014267223722659256 0.036137646950303672 0 -0.015843797965428646 0.03681148967613776 0 -0.015665095020100959 0.036739924773812674 0 -0.0150293970347529 0.037140117364273979 0 -0.01556574643305428 0.037382997244064679 0 -0.0150293970347529 0.037140117364273979 0 -0.01556574643305428 0.037382997244064679 0 -0.015091570973403181 0.037813291990667665 0 -0.015665095020100959 0.036739924773812674 0 -0.01556574643305428 0.037382997244064679 0 -0.016439662661699463 0.037465094378360486 0 -0.01556574643305428 0.037382997244064679 0 -0.015589979765432338 0.038006436366509543 0 -0.016439662661699463 0.037465094378360486 0 -0.014732048085903393 0.039050191767340404 0 -0.014938319665048305 0.038443077294685137 0 -0.01278475462791537 0.039616867588077073 0 -0.013978138971134214 0.03861248804041946 0 -0.013063854445278947 0.038589355966510176 0 -0.015589979765432338 0.038006436366509543 0 -0.016439662661699463 0.037465094378360486 0 -0.015516399340270496 0.038411763151090711 0 -0.014881042171952042 0.038389359754565207 0 -0.015547745889934312 0.038461528965920651 0 -0.015091570973403181 0.037813291990667665 0 -0.014683197062654469 0.038121666319424832 0 -0.015353439404709786 0.038394325340176685 0 -0.01556574643305428 0.037382997244064679 0 -0.015589979765432338 0.038006436366509543 0 -0.015091570973403181 0.037813291990667665 0 -0.015589979765432338 0.038006436366509543 0 -0.015353439404709786 0.038394325340176685 0 -0.015394093463354422 0.038400722919130159 0 -0.015294427800724991 0.038066891272164151 0 -0.014938319665048305 0.038443077294685137 0 -0.015589979765432338 0.038006436366509543 0 -0.015091570973403181 0.037813291990667665 0 -0.015353439404709786 0.038394325340176685 0 -0.014683197062654469 0.038121666319424832 0 -0.014041689091308596 0.037940993969186577 0 -0.01454188444027122 0.03749581446610057 0 -0.015091570973403181 0.037813291990667665 0 -0.014683197062654469 0.038121666319424832 0 -0.01454188444027122 0.03749581446610057 0 -0.016020514969994775 0.03882850364880279 0 -0.017028642316330719 0.039118350411127649 0 -0.017086948155729715 0.03849623408660844 0 -0.014881042171952042 0.038389359754565207 0 -0.018755838638207293 0.036791310783819926 0 -0.017034917328030419 0.039392375963149588 0 -0.017086948155729715 0.03849623408660844 0 -0.017845819843542856 0.03884590879457079 0 -0.018755838638207293 0.036791310783819926 0 -0.017421103331973518 0.039190396954654136 0 -0.019236909085561266 0.035732911365265976 0 -0.018755838638207293 0.036791310783819926 0 -0.014104749164950357 0.03697491875982075 0 -0.014041689091308596 0.037940993969186577 0 -0.01454188444027122 0.03749581446610057 0 -0.024029776455854902 0.034832442111320326 0 -0.02411559352290394 0.033764416826157266 0 -0.024518898109021345 0.03415323592603061 0 -0.024029776455854902 0.034832442111320326 0 -0.024683824984006279 0.034491058120865191 0 -0.024518898109021345 0.03415323592603061 0 -0.014104749164950357 0.03697491875982075 0 -0.014601420955376894 0.036967634772225443 0 -0.01454188444027122 0.03749581446610057 0 -0.014601420955376894 0.036967634772225443 0 -0.0150293970347529 0.037140117364273979 0 -0.01454188444027122 0.03749581446610057 0 -0.0150293970347529 0.037140117364273979 0 -0.015091570973403181 0.037813291990667665 0 -0.01454188444027122 0.03749581446610057 0 -0.010381231239937047 0.031613193722532754 0 -0.010680755351253193 0.032348712926256205 0 -0.011233225144826242 0.032058474697756502 0 -0.010680755351253193 0.032348712926256205 0 -0.01094835339272341 0.032816303389469462 0 -0.011500650222423877 0.032641476122485275 0 -0.010379899900281502 0.033045819189594983 0 -0.010680755351253193 0.032348712926256205 0 -0.01094835339272341 0.032816303389469462 0 -0.010379899900281502 0.033045819189594983 0 -0.010708577257372167 0.033369225379400874 0 -0.01094835339272341 0.032816303389469462 0 -0.01146240061939084 0.03301599139320046 0 -0.011500650222423877 0.032641476122485275 0 -0.011971357497899029 0.032501992711712085 0 -0.01146240061939084 0.03301599139320046 0 -0.01094835339272341 0.032816303389469462 0 -0.011500650222423877 0.032641476122485275 0 -0.010680755351253193 0.032348712926256205 0 -0.011500650222423877 0.032641476122485275 0 -0.011233225144826242 0.032058474697756502 0 -0.011500650222423877 0.032641476122485275 0 -0.011233225144826242 0.032058474697756502 0 -0.011903283512244929 0.032209769508522279 0 -0.011233225144826242 0.032058474697756502 0 -0.011903283512244929 0.032209769508522279 0 -0.011375901902669853 0.031486777775741666 0 -0.011768245602991995 0.032158427611016067 0 -0.012921008407820679 0.03538996176589352 0 -0.011500650222423877 0.032641476122485275 0 -0.011921734019943528 0.032500365554232281 0 -0.011971357497899029 0.032501992711712085 0 -0.012921008407820679 0.03538996176589352 0 -0.014523185837293567 0.033980053477413584 0 -0.017326183695153267 0.036530685345337578 0 -0.01674440717855117 0.036185928227626472 0 -0.016814279274988783 0.035692137336027586 0 -0.011921734019943528 0.032500365554232281 0 -0.011971357497899029 0.032501992711712085 0 -0.011910444300460368 0.03238726295390592 0 -0.012112233987730736 0.032085784165960425 0 -0.011971357497899029 0.032501992711712085 0 -0.011910444300460368 0.03238726295390592 0 -0.012401650990188416 0.031776999391719719 0 -0.012112233987730736 0.032085784165960425 0 -0.011971357497899029 0.032501992711712085 0 -0.01674440717855117 0.036185928227626472 0 -0.016814279274988783 0.035692137336027586 0 -0.016317132077463138 0.035948036268661131 0 -0.01674440717855117 0.036185928227626472 0 -0.016317132077463138 0.035948036268661131 0 -0.016516953358302524 0.036572665005151869 0 -0.017326183695153267 0.036530685345337578 0 -0.016516953358302524 0.036572665005151869 0 -0.016439662661699463 0.037465094378360486 0 -0.017326183695153267 0.036530685345337578 0 -0.01674440717855117 0.036185928227626472 0 -0.016516953358302524 0.036572665005151869 0 -0.012921008407820679 0.03538996176589352 0 -0.014732048085903393 0.039050191767340404 0 -0.01278475462791537 0.039616867588077073 0 -0.011832047542705042 0.039281177384225256 0 -0.012276364736890144 0.038523632428244234 0 -0.01278475462791537 0.039616867588077073 0 -0.012276364736890144 0.038523632428244234 0 -0.013063854445278947 0.038589355966510176 0 -0.011832047542705042 0.039281177384225256 0 -0.011283580394401433 0.038980485566020781 0 -0.011431572195857715 0.038453623308068445 0 -0.011832047542705042 0.039281177384225256 0 -0.010954099937225483 0.039521520487322118 0 -0.011283580394401433 0.038980485566020781 0 -0.011832047542705042 0.039281177384225256 0 -0.011431572195857715 0.038453623308068445 0 -0.012276364736890144 0.038523632428244234 0 -0.011688808027114259 0.040575081528018656 0 -0.011832047542705042 0.039281177384225256 0 -0.010954099937225483 0.039521520487322118 0 -0.012921008407820679 0.03538996176589352 0 -0.011088920911419551 0.035467033767980417 0 -0.011688808027114259 0.040575081528018656 0 -0.01278475462791537 0.039616867588077073 0 -0.011832047542705042 0.039281177384225256 0 -0.011088920911419551 0.035467033767980417 0 -0.009959800761072387 0.035711798112746863 0 -0.010954099937225483 0.039521520487322118 0 -0.010918175158672499 0.038663679620599516 0 -0.010205284778546094 0.038430924008105813 0 -0.010954099937225483 0.039521520487322118 0 -0.010918175158672499 0.038663679620599516 0 -0.011283580394401433 0.038980485566020781 0 -0.010918175158672499 0.038663679620599516 0 -0.011283580394401433 0.038980485566020781 0 -0.011431572195857715 0.038453623308068445 0 -0.0081943470709707651 0.036035075628372923 0 -0.0086804468941579539 0.036567434430211959 0 -0.008720025001492401 0.036616308859418696 0 -0.010381231239937047 0.031613193722532754 0 -0.011375901902669853 0.031486777775741666 0 -0.010884941092428685 0.03083719877807236 0 -0.009352344049371724 0.033386217640286694 0 -0.009959800761072387 0.035711798112746863 0 -0.010381231239937047 0.031613193722532754 0 -0.011233225144826242 0.032058474697756502 0 -0.011375901902669853 0.031486777775741666 0 -0.0089500746582431793 0.036785187022719656 0 -0.0087780774421570215 0.036648441409348954 0 -0.0097232241314572816 0.036782688277160587 0 -0.0089500746582431793 0.036785187022719656 0 -0.0097232241314572816 0.036782688277160587 0 -0.0092693074423110429 0.036368347446220937 0 -0.0087699317937374715 0.03665588115840325 0 -0.0087780774421570215 0.036648441409348954 0 -0.0097232241314572816 0.036782688277160587 0 -0.0089500746582431793 0.036785187022719656 0 -0.0086804468941579539 0.036567434430211959 0 -0.0087780774421570215 0.036648441409348954 0 -0.0084512837042135212 0.036434729281482642 0 -0.0084470050804556791 0.036310757364499166 0 -0.0086804468941579539 0.036567434430211959 0 -0.0086688155600883506 0.036547416615450128 0 -0.0086992736008940676 0.036588980571634878 0 -0.0086804468941579539 0.036567434430211959 0 -0.008720025001492401 0.036616308859418696 0 -0.0087780774421570215 0.036648441409348954 0 -0.009959800761072387 0.035711798112746863 0 -0.0099279338751654643 0.03574978643489482 0 -0.009959800761072387 0.035711798112746863 0 -0.010140116485128296 0.037305034080510995 0 -0.010205284778546094 0.038430924008105813 0 -0.010953174111586467 0.038058132849365128 0 -0.010779394487440714 0.03717824084544398 0 -0.010918175158672499 0.038663679620599516 0 -0.010205284778546094 0.038430924008105813 0 -0.010953174111586467 0.038058132849365128 0 -0.010918175158672499 0.038663679620599516 0 -0.010953174111586467 0.038058132849365128 0 -0.011431572195857715 0.038453623308068445 0 -0.010953174111586467 0.038058132849365128 0 -0.010779394487440714 0.03717824084544398 0 -0.011595993928121591 0.037722792941068846 0 -0.010779394487440714 0.03717824084544398 0 -0.011595993928121591 0.037722792941068846 0 -0.012062584251714314 0.036901262505716279 0 -0.011595993928121591 0.037722792941068846 0 -0.012349105479721406 0.037720622531992647 0 -0.012062584251714314 0.036901262505716279 0 -0.010953174111586467 0.038058132849365128 0 -0.011595993928121591 0.037722792941068846 0 -0.011431572195857715 0.038453623308068445 0 -0.011595993928121591 0.037722792941068846 0 -0.011431572195857715 0.038453623308068445 0 -0.012276364736890144 0.038523632428244234 0 -0.011595993928121591 0.037722792941068846 0 -0.012276364736890144 0.038523632428244234 0 -0.012349105479721406 0.037720622531992647 0 -0.012276364736890144 0.038523632428244234 0 -0.012828873879761225 0.038101747930233902 0 -0.012349105479721406 0.037720622531992647 0 -0.012276364736890144 0.038523632428244234 0 -0.012828873879761225 0.038101747930233902 0 -0.013063854445278947 0.038589355966510176 0 -0.012828873879761225 0.038101747930233902 0 -0.012948311677417628 0.037436226377349363 0 -0.012349105479721406 0.037720622531992647 0 -0.012948311677417628 0.037436226377349363 0 -0.012062584251714314 0.036901262505716279 0 -0.013217067561445375 0.036528183300582738 0 -0.012948311677417628 0.037436226377349363 0 -0.012349105479721406 0.037720622531992647 0 -0.012062584251714314 0.036901262505716279 0 -0.012291812099622969 0.035825919991278057 0 -0.012062584251714314 0.036901262505716279 0 -0.013217067561445375 0.036528183300582738 0 -0.012291812099622969 0.035825919991278057 0 -0.011370810375612718 0.034999856623813004 0 -0.013253769392874863 0.034999977093600983 0 -0.012291812099622969 0.035825919991278057 0 -0.013217067561445375 0.036528183300582738 0 -0.013253769392874863 0.034999977093600983 0 -0.012291812099622969 0.035825919991278057 0 -0.011370810375612718 0.034999856623813004 0 -0.011237766556947243 0.035759267918339825 0 -0.012291812099622969 0.035825919991278057 0 -0.011237766556947243 0.035759267918339825 0 -0.012062584251714314 0.036901262505716279 0 -0.010779394487440714 0.03717824084544398 0 -0.011237766556947243 0.035759267918339825 0 -0.012062584251714314 0.036901262505716279 0 -0.0097232241314572816 0.036782688277160587 0 -0.011237766556947243 0.035759267918339825 0 -0.0099957706760618759 0.035809852268313784 0 -0.0097232241314572816 0.036782688277160587 0 -0.0099957706760618759 0.035809852268313784 0 -0.0092693074423110429 0.036368347446220937 0 -0.010140116485128296 0.037305034080510995 0 -0.0112473384770572 0.035601627492185976 0 -0.011370810375612718 0.034999856623813004 0 -0.011237766556947243 0.035759267918339825 0 -0.0099957706760618759 0.035809852268313784 0 -0.011370810375612718 0.034999856623813004 0 -0.0099957706760618759 0.035809852268313784 0 -0.0094878060607249022 0.034999896629513146 0 -0.0099957706760618759 0.035809852268313784 0 -0.0094878060607249022 0.034999896629513146 0 -0.0090254268761711266 0.035743525615840682 0 -0.0084065651254527536 0.036175112383223143 0 -0.0090254268761711266 0.035743525615840682 0 -0.0092693074423110429 0.036368347446220937 0 -0.0084065651254527536 0.036175112383223143 0 -0.0089500746582431793 0.036785187022719656 0 -0.0092693074423110429 0.036368347446220937 0 -0.0099957706760618759 0.035809852268313784 0 -0.0090254268761711266 0.035743525615840682 0 -0.0092693074423110429 0.036368347446220937 0 -0.015717519924182986 0.037292776926113679 0 -0.016374562046279448 0.03726306701941929 0 -0.016091360026414557 0.036347896676006068 0 -0.015717519924182986 0.037292776926113679 0 -0.016374562046279448 0.03726306701941929 0 -0.016235146993868896 0.038060987949243397 0 -0.015717519924182986 0.037292776926113679 0 -0.016235146993868896 0.038060987949243397 0 -0.015434118191243131 0.03815481838284146 0 -0.016374562046279448 0.03726306701941929 0 -0.017099657625329626 0.037590487166885136 0 -0.017332218530992895 0.03643426347755082 0 -0.017099657625329626 0.037590487166885136 0 -0.017332218530992895 0.03643426347755082 0 -0.017916237026691064 0.037189554104608058 0 -0.016374562046279448 0.03726306701941929 0 -0.017099657625329626 0.037590487166885136 0 -0.016235146993868896 0.038060987949243397 0 -0.017099657625329626 0.037590487166885136 0 -0.017086948155729715 0.03849623408660844 0 -0.016235146993868896 0.038060987949243397 0 -0.017099657625329626 0.037590487166885136 0 -0.017086948155729715 0.03849623408660844 0 -0.017765287412300348 0.038058475398959915 0 -0.016020514969994775 0.03882850364880279 0 -0.017086948155729715 0.03849623408660844 0 -0.016235146993868896 0.038060987949243397 0 -0.016020514969994775 0.03882850364880279 0 -0.016235146993868896 0.038060987949243397 0 -0.015434118191243131 0.03815481838284146 0 -0.016020514969994775 0.03882850364880279 0 -0.015353439404709786 0.038394325340176685 0 -0.015434118191243131 0.03815481838284146 0 -0.014938319665048305 0.038443077294685137 0 -0.014637941327750795 0.037544246464052217 0 -0.01489696844170414 0.038684186437568477 0 -0.015434118191243131 0.03815481838284146 0 -0.015055738031874726 0.03751236314277151 0 -0.015353439404709786 0.038394325340176685 0 -0.015394093463354422 0.038400722919130159 0 -0.015434118191243131 0.03815481838284146 0 -0.014938319665048305 0.038443077294685137 0 -0.015394841374019792 0.038184477459301293 0 -0.013978138971134214 0.03861248804041946 0 -0.013063854445278947 0.038589355966510176 0 -0.013463315662541966 0.037990403337311893 0 -0.013978138971134214 0.03861248804041946 0 -0.013463315662541966 0.037990403337311893 0 -0.014291771847836905 0.037505777581989592 0 -0.012828873879761225 0.038101747930233902 0 -0.013063854445278947 0.038589355966510176 0 -0.013463315662541966 0.037990403337311893 0 -0.012828873879761225 0.038101747930233902 0 -0.012948311677417628 0.037436226377349363 0 -0.013463315662541966 0.037990403337311893 0 -0.012948311677417628 0.037436226377349363 0 -0.013727602193409674 0.037182688592052433 0 -0.013217067561445375 0.036528183300582738 0 -0.012948311677417628 0.037436226377349363 0 -0.013463315662541966 0.037990403337311893 0 -0.013727602193409674 0.037182688592052433 0 -0.013463315662541966 0.037990403337311893 0 -0.013727602193409674 0.037182688592052433 0 -0.014291771847836905 0.037505777581989592 0 -0.013727602193409674 0.037182688592052433 0 -0.014291771847836905 0.037505777581989592 0 -0.014700992471526959 0.036317607669254647 0 -0.015717519924182986 0.037292776926113679 0 -0.015055738031874726 0.03751236314277151 0 -0.015112944086908189 0.036305546637367951 0 -0.015717519924182986 0.037292776926113679 0 -0.015434118191243131 0.03815481838284146 0 -0.015055738031874726 0.03751236314277151 0 -0.014637941327750795 0.037544246464052217 0 -0.014913584920189708 0.036268832861096438 0 -0.013727602193409674 0.037182688592052433 0 -0.014700992471526959 0.036317607669254647 0 -0.013217067561445375 0.036528183300582738 0 -0.014700992471526959 0.036317607669254647 0 -0.013217067561445375 0.036528183300582738 0 -0.013253769392874863 0.034999977093600983 0 -0.014700992471526959 0.036317607669254647 0 -0.013253769392874863 0.034999977093600983 0 -0.01513625558437114 0.034999905679457557 0 -0.014913584920189708 0.036268832861096438 0 -0.015136584688132313 0.035000262584898897 0 -0.015112944086908189 0.036305546637367951 0 -0.015137033504580261 0.03500000463085904 0 -0.016091360026414557 0.036347896676006068 0 -0.015137033504580261 0.03500000463085904 0 -0.016091360026414557 0.036347896676006068 0 -0.016704985265579651 0.034999935640085411 0 -0.015717519924182986 0.037292776926113679 0 -0.015112944086908189 0.036305546637367951 0 -0.016091360026414557 0.036347896676006068 0 -0.016374562046279448 0.03726306701941929 0 -0.016091360026414557 0.036347896676006068 0 -0.017332218530992895 0.03643426347755082 0 -0.017332218530992895 0.03643426347755082 0 -0.016704985265579651 0.034999935640085411 0 -0.018272967323771747 0.034999914778462038 0 -0.016091360026414557 0.036347896676006068 0 -0.017332218530992895 0.03643426347755082 0 -0.016704985265579651 0.034999935640085411 0 -0.017332218530992895 0.03643426347755082 0 -0.018272967323771747 0.034999914778462038 0 -0.018925798743806895 0.036404184684159131 0 -0.018273353639469817 0.035000263942896175 0 -0.019023967606581212 0.036454166134652286 0 -0.018273342165688475 0.034999973782304628 0 -0.019120915962396165 0.036524992170434915 0 -0.020129766075245702 0.03499994398531997 0 -0.017332218530992895 0.03643426347755082 0 -0.018925798743806895 0.036404184684159131 0 -0.017916237026691064 0.037189554104608058 0 -0.018925798743806895 0.036404184684159131 0 -0.017916237026691064 0.037189554104608058 0 -0.018677128573408759 0.037561691212407856 0 -0.017099657625329626 0.037590487166885136 0 -0.017916237026691064 0.037189554104608058 0 -0.017765287412300348 0.038058475398959915 0 -0.017916237026691064 0.037189554104608058 0 -0.018677128573408759 0.037561691212407856 0 -0.017765287412300348 0.038058475398959915 0 -0.018925798743806895 0.036404184684159131 0 -0.018677128573408759 0.037561691212407856 0 -0.019733478425139502 0.03783964647954733 0 -0.019023967606581212 0.036454166134652286 0 -0.019836480746488222 0.037951576101859515 0 -0.018677128573408759 0.037561691212407856 0 -0.018606171065948134 0.038498211240488113 0 -0.019733478425139502 0.03783964647954733 0 -0.018606171065948134 0.038498211240488113 0 -0.019733478425139502 0.03783964647954733 0 -0.019655174071490818 0.039167109686867499 0 -0.018606171065948134 0.038498211240488113 0 -0.017845819843542856 0.03884590879457079 0 -0.017765287412300348 0.038058475398959915 0 -0.017086948155729715 0.03849623408660844 0 -0.017845819843542856 0.03884590879457079 0 -0.017765287412300348 0.038058475398959915 0 -0.018677128573408759 0.037561691212407856 0 -0.018606171065948134 0.038498211240488113 0 -0.017765287412300348 0.038058475398959915 0 -0.021895475287300462 0.038449569464237152 0 -0.021014544600836033 0.038611854402517569 0 -0.021191219619559117 0.037836321990388291 0 -0.021895475287300462 0.038449569464237152 0 -0.022154029864216086 0.038990999389560438 0 -0.021467033581724599 0.039299654455506337 0 -0.021895475287300462 0.038449569464237152 0 -0.021014544600836033 0.038611854402517569 0 -0.021467033581724599 0.039299654455506337 0 -0.021014544600836033 0.038611854402517569 0 -0.019919309778879419 0.03800751466489035 0 -0.02063229908859248 0.039480068439498993 0 -0.019733478425139502 0.03783964647954733 0 -0.019655174071490818 0.039167109686867499 0 -0.02063229908859248 0.039480068439498993 0 -0.021014544600836033 0.038611854402517569 0 -0.019919309778879419 0.03800751466489035 0 -0.021191219619559117 0.037836321990388291 0 -0.019836480746488222 0.037951576101859515 0 -0.020578266840389631 0.039394990790418437 0 -0.019919309778879419 0.03800751466489035 0 -0.021191219619559117 0.037836321990388291 0 -0.020822759389615982 0.036492517228948453 0 -0.021895475287300462 0.038449569464237152 0 -0.021191219619559117 0.037836321990388291 0 -0.022298421104273273 0.037310941187645254 0 -0.021191219619559117 0.037836321990388291 0 -0.020822759389615982 0.036492517228948453 0 -0.022298421104273273 0.037310941187645254 0 -0.019120915962396165 0.036524992170434915 0 -0.019919309778879419 0.03800751466489035 0 -0.020822759389615982 0.036492517228948453 0 -0.019120915962396165 0.036524992170434915 0 -0.020822759389615982 0.036492517228948453 0 -0.020129766075245702 0.03499994398531997 0 -0.020822759389615982 0.036492517228948453 0 -0.020129766075245702 0.03499994398531997 0 -0.021986244233994284 0.034999905018672825 0 -0.020822759389615982 0.036492517228948453 0 -0.021986244233994284 0.034999905018672825 0 -0.02292354656375949 0.036128982648545978 0 -0.021986244233994284 0.034999905018672825 0 -0.023842724337020036 0.034999906018791702 0 -0.02292354656375949 0.036128982648545978 0 -0.023842724337020036 0.034999906018791702 0 -0.02292354656375949 0.036128982648545978 0 -0.02478689228799566 0.036752840864866881 0 -0.02292354656375949 0.036128982648545978 0 -0.02478689228799566 0.036752840864866881 0 -0.023435530740013442 0.037561946515061326 0 -0.020822759389615982 0.036492517228948453 0 -0.02292354656375949 0.036128982648545978 0 -0.022298421104273273 0.037310941187645254 0 -0.023842724337020036 0.034999906018791702 0 -0.025699265337171671 0.034999820994404449 0 -0.02478689228799566 0.036752840864866881 0 -0.025699265337171671 0.034999820994404449 0 -0.02478689228799566 0.036752840864866881 0 -0.026943888451214849 0.036469175166346644 0 -0.02478689228799566 0.036752840864866881 0 -0.024398160786195916 0.039153735901526224 0 -0.026348893802838259 0.038487525258218483 0 -0.02478689228799566 0.036752840864866881 0 -0.023435530740013442 0.037561946515061326 0 -0.024398160786195916 0.039153735901526224 0 -0.02478689228799566 0.036752840864866881 0 -0.026943888451214849 0.036469175166346644 0 -0.026348893802838259 0.038487525258218483 0 -0.025792112332696876 0.036799628334309296 0 -0.027050705010787532 0.036512695254516038 0 -0.02292354656375949 0.036128982648545978 0 -0.022298421104273273 0.037310941187645254 0 -0.023435530740013442 0.037561946515061326 0 -0.022298421104273273 0.037310941187645254 0 -0.023435530740013442 0.037561946515061326 0 -0.022791172959709463 0.038500254873068046 0 -0.023435530740013442 0.037561946515061326 0 -0.022791172959709463 0.038500254873068046 0 -0.024398160786195916 0.039153735901526224 0 -0.021895475287300462 0.038449569464237152 0 -0.022298421104273273 0.037310941187645254 0 -0.022791172959709463 0.038500254873068046 0 -0.021895475287300462 0.038449569464237152 0 -0.022791172959709463 0.038500254873068046 0 -0.022154029864216086 0.038990999389560438 0 -0.022791172959709463 0.038500254873068046 0 -0.022154029864216086 0.038990999389560438 0 -0.02247190180863106 0.039716732524551816 0 -0.022154029864216086 0.038990999389560438 0 -0.02247190180863106 0.039716732524551816 0 -0.021467033581724599 0.039299654455506337 0 -0.022791172959709463 0.038500254873068046 0 -0.02247190180863106 0.039716732524551816 0 -0.024398160786195916 0.039153735901526224 0 -0.026486686719976355 0.034623016369780206 0 -0.026745622052932121 0.034913587791429626 0 -0.027039661978651586 0.034535162490836158 0 -0.024154520121584443 0.037442123841327293 0 -0.025792112332696876 0.036799628334309296 0 -0.026745622052932121 0.034913587791429626 0 -0.027039661978651586 0.034535162490836158 0 -0.027003079656649474 0.034948302033332282 0 -0.026745622052932121 0.034913587791429626 0 -0.026681285391655738 0.034956962087581631 0 -0.026682779510300025 0.034773370209434142 0 -0.026486686719976355 0.034623016369780206 0 -0.026745622052932121 0.034913587791429626 0 -0.026281004649026826 0.034898833507804351 0 -0.026614083538534422 0.034887334050824129 0 -0.026743824353703049 0.034807378563464983 0 -0.027039661978651586 0.034535162490836158 0 -0.027356187445021673 0.034936885061008054 0 -0.027823604307467834 0.03450288385152149 0 -0.027356187445021673 0.034936885061008054 0 -0.027823604307467834 0.03450288385152149 0 -0.027885601900597141 0.035005286894396581 0 -0.027039661978651586 0.034535162490836158 0 -0.027003079656649474 0.034948302033332282 0 -0.027356187445021673 0.034936885061008054 0 -0.027356187445021673 0.034936885061008054 0 -0.027432261725816667 0.035200241877352559 0 -0.027885601900597141 0.035005286894396581 0 -0.027356187445021673 0.034936885061008054 0 -0.027432261725816667 0.035200241877352559 0 -0.026964500510779556 0.035079278004741352 0 -0.027003079656649474 0.034948302033332282 0 -0.026964500510779556 0.035079278004741352 0 -0.026748832106981351 0.035015065733875785 0 -0.027003079656649474 0.034948302033332282 0 -0.027356187445021673 0.034936885061008054 0 -0.026964500510779556 0.035079278004741352 0 -0.026964500510779556 0.035079278004741352 0 -0.026862729244995994 0.035166522037640612 0 -0.026670960039372544 0.035065451548038647 0 -0.027432261725816667 0.035200241877352559 0 -0.026964500510779556 0.035079278004741352 0 -0.026862729244995994 0.035166522037640612 0 -0.027432261725816667 0.035200241877352559 0 -0.026862729244995994 0.035166522037640612 0 -0.027100168924287054 0.035271733774606427 0 -0.026681285391655738 0.034956962087581631 0 -0.026748832106981351 0.035015065733875785 0 -0.026639696456720516 0.035019773456079317 0 -0.026745622052932121 0.034913587791429626 0 -0.026681285391655738 0.034956962087581631 0 -0.026748832106981351 0.035015065733875785 0 -0.026745622052932121 0.034913587791429626 0 -0.027003079656649474 0.034948302033332282 0 -0.026748832106981351 0.035015065733875785 0 -0.026964500510779556 0.035079278004741352 0 -0.026748832106981351 0.035015065733875785 0 -0.026670960039372544 0.035065451548038647 0 -0.026748832106981351 0.035015065733875785 0 -0.026670960039372544 0.035065451548038647 0 -0.026639696456720516 0.035019773456079317 0 -0.026670960039372544 0.035065451548038647 0 -0.026639696456720516 0.035019773456079317 0 -0.026601946825536637 0.034861689072255855 0 -0.026681285391655738 0.034956962087581631 0 -0.026639696456720516 0.035019773456079317 0 -0.026618915873266053 0.035043329236825939 0 -0.026618915873266053 0.035043329236825939 0 -0.02650847203588326 0.03514090965464664 0 -0.026692559325112247 0.034913379991519909 0 -0.026639696456720516 0.035019773456079317 0 -0.026618915873266053 0.035043329236825939 0 -0.026692559325112247 0.034913379991519909 0 -0.026681285391655738 0.034956962087581631 0 -0.026618915873266053 0.035043329236825939 0 -0.026551721524972097 0.034867768224559524 0 -0.026618915873266053 0.035043329236825939 0 -0.026551721524972097 0.034867768224559524 0 -0.02650847203588326 0.03514090965464664 0 -0.026015758036857486 0.034812114317405246 0 -0.02636081729333576 0.034826728911348331 0 -0.02650847203588326 0.03514090965464664 0 -0.026551721524972097 0.034867768224559524 0 -0.02636081729333576 0.034826728911348331 0 -0.02650847203588326 0.03514090965464664 0 -0.026015758036857486 0.034812114317405246 0 -0.02650847203588326 0.03514090965464664 0 -0.025845465974868139 0.035185555794095456 0 -0.02650847203588326 0.03514090965464664 0 -0.025940548881624469 0.035890582950147631 0 -0.025845465974868139 0.035185555794095456 0 -0.02653562554759124 0.035154235434194568 0 -0.026339127036287088 0.035474283226451339 0 -0.02650847203588326 0.03514090965464664 0 -0.026855048518157267 0.034959141711055762 0 -0.026692559325112247 0.034913379991519909 0 -0.025940548881624469 0.035890582950147631 0 -0.025340825903359631 0.035709437675803826 0 -0.025443715925009731 0.036480696249443299 0 -0.025940548881624469 0.035890582950147631 0 -0.025340825903359631 0.035709437675803826 0 -0.025845465974868139 0.035185555794095456 0 -0.024353463666220272 0.03596832109554926 0 -0.024634203505284103 0.035375403197480552 0 -0.024630332219299896 0.036188055829119291 0 -0.025340825903359631 0.035709437675803826 0 -0.02481919353432329 0.035322202534693231 0 -0.024868785097597847 0.036181832715588239 0 -0.024777073727386162 0.03564023446849094 0 -0.023862427353313238 0.034646172331881782 0 -0.022172101455212076 0.034952685173357277 0 -0.023862427353313238 0.034646172331881782 0 -0.024289835288659346 0.036012233275508204 0 -0.024353463666220272 0.03596832109554926 0 -0.024630332219299896 0.036188055829119291 0 -0.024263197698233995 0.035580211592265529 0 -0.024353463666220272 0.03596832109554926 0 -0.024634203505284103 0.035375403197480552 0 -0.024029776455854902 0.034832442111320326 0 -0.024634203505284103 0.035375403197480552 0 -0.024683824984006279 0.034491058120865191 0 -0.02481919353432329 0.035322202534693231 0 -0.025354901485741779 0.035091264277553297 0 -0.025130512047520256 0.034527479526306401 0 -0.024777073727386162 0.03564023446849094 0 -0.024678287485119105 0.034438358024807027 0 -0.02481919353432329 0.035322202534693231 0 -0.024683824984006279 0.034491058120865191 0 -0.025130512047520256 0.034527479526306401 0 -0.025340825903359631 0.035709437675803826 0 -0.02481919353432329 0.035322202534693231 0 -0.025354901485741779 0.035091264277553297 0 -0.025340825903359631 0.035709437675803826 0 -0.025845465974868139 0.035185555794095456 0 -0.025354901485741779 0.035091264277553297 0 -0.025354901485741779 0.035091264277553297 0 -0.02563334970373974 0.034768294648178662 0 -0.025130512047520256 0.034527479526306401 0 -0.026015758036857486 0.034812114317405246 0 -0.025845465974868139 0.035185555794095456 0 -0.02563334970373974 0.034768294648178662 0 -0.025845465974868139 0.035185555794095456 0 -0.025354901485741779 0.035091264277553297 0 -0.02563334970373974 0.034768294648178662 0 -0.025130512047520256 0.034527479526306401 0 -0.025221921944874836 0.034056193218230182 0 -0.025998151582667973 0.03426620302860206 0 -0.02563334970373974 0.034768294648178662 0 -0.025130512047520256 0.034527479526306401 0 -0.026391749479075292 0.03444000076756816 0 -0.025976936261804067 0.034044145462490641 0 -0.024422066479479702 0.035815000170297547 0 -0.024879655523195127 0.034286791507115416 0 -0.024518898109021345 0.03415323592603061 0 -0.025221921944874836 0.034056193218230182 0 -0.025130512047520256 0.034527479526306401 0 -0.024879655523195127 0.034286791507115416 0 -0.025221921944874836 0.034056193218230182 0 -0.024683824984006279 0.034491058120865191 0 -0.025130512047520256 0.034527479526306401 0 -0.024879655523195127 0.034286791507115416 0 -0.024683824984006279 0.034491058120865191 0 -0.024879655523195127 0.034286791507115416 0 -0.024518898109021345 0.03415323592603061 0 -0.018755838638207293 0.036791310783819926 0 -0.022150216986549901 0.037079144490119051 0 -0.02411559352290394 0.033764416826157266 0 -0.024518898109021345 0.03415323592603061 0 -0.025221921944874836 0.034056193218230182 0 -0.017034917328030419 0.039392375963149588 0 -0.017845819843542856 0.03884590879457079 0 -0.018761863467421386 0.03981160734924083 0 -0.018606171065948134 0.038498211240488113 0 -0.017845819843542856 0.03884590879457079 0 -0.018761863467421386 0.03981160734924083 0 -0.022150216986549901 0.037079144490119051 0 -0.024422066479479702 0.035815000170297547 0 -0.018761863467421386 0.03981160734924083 0 -0.019655174071490818 0.039167109686867499 0 -0.020556795036496146 0.040218478718819374 0 -0.018606171065948134 0.038498211240488113 0 -0.018761863467421386 0.03981160734924083 0 -0.019655174071490818 0.039167109686867499 0 -0.019655174071490818 0.039167109686867499 0 -0.02063229908859248 0.039480068439498993 0 -0.020556795036496146 0.040218478718819374 0 -0.021014544600836033 0.038611854402517569 0 -0.02063229908859248 0.039480068439498993 0 -0.021467033581724599 0.039299654455506337 0 -0.02247190180863106 0.039716732524551816 0 -0.021467033581724599 0.039299654455506337 0 -0.020556795036496146 0.040218478718819374 0 -0.024154520121584443 0.037442123841327293 0 -0.024422066479479702 0.035815000170297547 0 -0.02063229908859248 0.039480068439498993 0 -0.021467033581724599 0.039299654455506337 0 -0.020556795036496146 0.040218478718819374 0 -0.026743824353703049 0.034807378563464983 0 -0.024422066479479702 0.035815000170297547 0 -0.026681285391655738 0.034956962087581631 0 -0.026551721524972097 0.034867768224559524 0 -0.026682779510300025 0.034773370209434142 0 -0.026486686719976355 0.034623016369780206 0 -0.026281004649026826 0.034898833507804351 0 -0.025756176776136199 0.034798698654082569 0 -0.026551721524972097 0.034867768224559524 0 -0.026682779510300025 0.034773370209434142 0 -0.026391749479075292 0.03444000076756816 0 -0.026015758036857486 0.034812114317405246 0 -0.02563334970373974 0.034768294648178662 0 -0.026391749479075292 0.03444000076756816 0 -0.026551721524972097 0.034867768224559524 0 -0.02636081729333576 0.034826728911348331 0 -0.026391749479075292 0.03444000076756816 0 -0.026015758036857486 0.034812114317405246 0 -0.02636081729333576 0.034826728911348331 0 -0.026391749479075292 0.03444000076756816 0 -0.034999959966074488 0.031338897663711417 0 -0.036173891330315962 0.031422683436981576 0 -0.03565433909818598 0.030508140732531532 0 -0.03225124791633404 0.035716978667053548 0 -0.031841204270475681 0.035648364830418722 0 -0.032591152981879756 0.035653319147245802 0 -0.032648666480197611 0.035638684074433095 0 -0.031715889562002247 0.035568259078058828 0 -0.032648666480197611 0.035638684074433095 0 -0.033058061075911666 0.035627345013527989 0 -0.033218714988802217 0.035442003199204528 0 -0.03225124791633404 0.035716978667053548 0 -0.032869074297143877 0.035557515063019893 0 -0.032591152981879756 0.035653319147245802 0 -0.032648666480197611 0.035638684074433095 0 -0.033058061075911666 0.035627345013527989 0 -0.034999959966074488 0.031338897663711417 0 -0.036173891330315962 0.031422683436981576 0 -0.03559877805238814 0.033060994875395738 0 -0.034391507092664308 0.033508472363446437 0 -0.034645175009440955 0.034290861144211641 0 -0.034999959966074488 0.031338897663711417 0 -0.03559877805238814 0.033060994875395738 0 -0.034999991169691061 0.033018574441493087 0 -0.032591152981879756 0.035653319147245802 0 -0.033058061075911666 0.035627345013527989 0 -0.033647177320684299 0.035662561645661804 0 -0.033647177320684299 0.035662561645661804 0 -0.034035079954803191 0.035107111165537039 0 -0.033218714988802217 0.035442003199204528 0 -0.034645175009440955 0.034290861144211641 0 -0.034999877548085104 0.034698047326309774 0 -0.03559877805238814 0.033060994875395738 0 -0.034999991169691061 0.033018574441493087 0 -0.034999999907755291 0.034698253536376483 0 -0.034035079954803191 0.035107111165537039 0 -0.035000445496561713 0.03499774469842485 0 -0.033511032791924099 0.035000102201149193 0 -0.033647177320684299 0.035662561645661804 0 -0.034035079954803191 0.035107111165537039 0 -0.034998002072024463 0.034702242433523461 0 -0.034035079954803191 0.035107111165537039 0 -0.034998002072024463 0.034702242433523461 0 -0.035000445496561713 0.03499774469842485 0 -0.034035079954803191 0.035107111165537039 0 -0.033511032791924099 0.035000102201149193 0 -0.033218714988802217 0.035442003199204528 0 -0.033510621775654031 0.035000025589685804 0 -0.032869074297143877 0.035557515063019893 0 -0.033509848974428103 0.034999769528630847 0 -0.032512972122764286 0.035778008245598569 0 -0.032389511629294501 0.034999857990869805 0 -0.033058061075911666 0.035627345013527989 0 -0.033647177320684299 0.035662561645661804 0 -0.033218714988802217 0.035442003199204528 0 -0.032025151609126085 0.035591997669841752 0 -0.03167488907990626 0.035760560477815319 0 -0.03184696803988156 0.035788730308754929 0 -0.032512972122764286 0.035778008245598569 0 -0.032025151609126085 0.035591997669841752 0 -0.03184696803988156 0.035788730308754929 0 -0.032512972122764286 0.035778008245598569 0 -0.032025151609126085 0.035591997669841752 0 -0.032389511629294501 0.034999857990869805 0 -0.032025151609126085 0.035591997669841752 0 -0.032389511629294501 0.034999857990869805 0 -0.031269556144195278 0.035000016188174964 0 -0.031267140394713538 0.034999922085273277 0 -0.030066385245735291 0.036059239588493976 0 -0.030053832729472575 0.035565526808608201 0 -0.032025151609126085 0.035591997669841752 0 -0.031269556144195278 0.035000016188174964 0 -0.03167488907990626 0.035760560477815319 0 -0.031268509124551244 0.034999946990735928 0 -0.03086801056141809 0.035796787471126239 0 -0.03086801056141809 0.035796787471126239 0 -0.030481222906500436 0.035725682566493791 0 -0.030066385245735291 0.036059239588493976 0 -0.029276357620966378 0.035797402649320645 0 -0.029498491173042433 0.036061382560029609 0 -0.03167488907990626 0.035760560477815319 0 -0.03184696803988156 0.035788730308754929 0 -0.031646469889399696 0.03566618823566535 0 -0.03184696803988156 0.035788730308754929 0 -0.031686309363063041 0.035651229820297614 0 -0.031646469889399696 0.03566618823566535 0 -0.031872575872114374 0.03576616818070965 0 -0.032512972122764286 0.035778008245598569 0 -0.03184696803988156 0.035788730308754929 0 -0.031872575872114374 0.03576616818070965 0 -0.03184696803988156 0.035788730308754929 0 -0.031686309363063041 0.035651229820297614 0 -0.031872575872114374 0.03576616818070965 0 -0.031686309363063041 0.035651229820297614 0 -0.031715889562002247 0.035568259078058828 0 -0.031686309363063041 0.035651229820297614 0 -0.0314418588899801 0.035542724925075798 0 -0.031715889562002247 0.035568259078058828 0 -0.031686309363063041 0.035651229820297614 0 -0.031646469889399696 0.03566618823566535 0 -0.0314418588899801 0.035542724925075798 0 -0.029276357620966378 0.035797402649320645 0 -0.029338352779042922 0.035306081862384535 0 -0.029412205568770038 0.035073856162507203 0 -0.030481222906500436 0.035725682566493791 0 -0.030229555752058174 0.035345358261221337 0 -0.029276357620966378 0.035797402649320645 0 -0.029338352779042922 0.035306081862384535 0 -0.029498491173042433 0.036061382560029609 0 -0.029338352779042922 0.035306081862384535 0 -0.028870184303190938 0.034806434828140463 0 -0.029023613422087816 0.035085318046367685 0 -0.029338352779042922 0.035306081862384535 0 -0.029498491173042433 0.036061382560029609 0 -0.028870184303190938 0.034806434828140463 0 -0.029498491173042433 0.036061382560029609 0 -0.028760353705839348 0.036166842768270022 0 -0.028247816635601247 0.037561246830457279 0 -0.029334884820416976 0.036083951394072528 0 -0.028486696921297044 0.036208868282336513 0 -0.029498491173042433 0.036061382560029609 0 -0.029605558221353426 0.036019743938605131 0 -0.028760353705839348 0.036166842768270022 0 -0.030066385245735291 0.036059239588493976 0 -0.029498491173042433 0.036061382560029609 0 -0.029605558221353426 0.036019743938605131 0 -0.029605558221353426 0.036019743938605131 0 -0.030053832729472575 0.035565526808608201 0 -0.028760353705839348 0.036166842768270022 0 -0.030066385245735291 0.036059239588493976 0 -0.029605558221353426 0.036019743938605131 0 -0.030053832729472575 0.035565526808608201 0 -0.031267140394713538 0.034999922085273277 0 -0.030053832729472575 0.035565526808608201 0 -0.029412042080941385 0.034999788674734245 0 -0.030053832729472575 0.035565526808608201 0 -0.029412042080941385 0.034999788674734245 0 -0.028760353705839348 0.036166842768270022 0 -0.029412042080941385 0.034999788674734245 0 -0.028760353705839348 0.036166842768270022 0 -0.027555795705233702 0.034999749839261803 0 -0.028760353705839348 0.036166842768270022 0 -0.027555795705233702 0.034999749839261803 0 -0.026943888451214849 0.036469175166346644 0 -0.025699265337171671 0.034999820994404449 0 -0.027555795705233702 0.034999749839261803 0 -0.026943888451214849 0.036469175166346644 0 -0.026943888451214849 0.036469175166346644 0 -0.028247816635601247 0.037561246830457279 0 -0.026348893802838259 0.038487525258218483 0 -0.028760353705839348 0.036166842768270022 0 -0.026943888451214849 0.036469175166346644 0 -0.028247816635601247 0.037561246830457279 0 -0.028870184303190938 0.034806434828140463 0 -0.027823604307467834 0.03450288385152149 0 -0.028499837874904028 0.034988227161464061 0 -0.028486696921297044 0.036208868282336513 0 -0.027050705010787532 0.036512695254516038 0 -0.027823604307467834 0.03450288385152149 0 -0.028499837874904028 0.034988227161464061 0 -0.027885601900597141 0.035005286894396581 0 -0.028870184303190938 0.034806434828140463 0 -0.028499837874904028 0.034988227161464061 0 -0.029023613422087816 0.035085318046367685 0 -0.028499837874904028 0.034988227161464061 0 -0.028184412586045496 0.035188552336587832 0 -0.02899781416554896 0.035161924092710968 0 -0.028499837874904028 0.034988227161464061 0 -0.027885601900597141 0.035005286894396581 0 -0.028184412586045496 0.035188552336587832 0 -0.027432261725816667 0.035200241877352559 0 -0.027923679863593787 0.035365944085956828 0 -0.028184412586045496 0.035188552336587832 0 -0.027432261725816667 0.035200241877352559 0 -0.027885601900597141 0.035005286894396581 0 -0.028184412586045496 0.035188552336587832 0 -0.027432261725816667 0.035200241877352559 0 -0.027923679863593787 0.035365944085956828 0 -0.027555524617241197 0.035449176243301038 0 -0.027432261725816667 0.035200241877352559 0 -0.027555524617241197 0.035449176243301038 0 -0.027100168924287054 0.035271733774606427 0 -0.027923679863593787 0.035365944085956828 0 -0.028499460792068079 0.035452792901976428 0 -0.028151720704453802 0.035640245511461263 0 -0.027923679863593787 0.035365944085956828 0 -0.028151720704453802 0.035640245511461263 0 -0.027555524617241197 0.035449176243301038 0 -0.027923679863593787 0.035365944085956828 0 -0.028184412586045496 0.035188552336587832 0 -0.028499460792068079 0.035452792901976428 0 -0.028499460792068079 0.035452792901976428 0 -0.029280979921456025 0.035657442294982869 0 -0.02899781416554896 0.035161924092710968 0 -0.028184412586045496 0.035188552336587832 0 -0.028499460792068079 0.035452792901976428 0 -0.02899781416554896 0.035161924092710968 0 -0.028499460792068079 0.035452792901976428 0 -0.029280979921456025 0.035657442294982869 0 -0.028701205243272843 0.035786386333647224 0 -0.028499460792068079 0.035452792901976428 0 -0.028701205243272843 0.035786386333647224 0 -0.028151720704453802 0.035640245511461263 0 -0.029280979921456025 0.035657442294982869 0 -0.029416813337334542 0.036184469097927552 0 -0.028701205243272843 0.035786386333647224 0 -0.029280979921456025 0.035657442294982869 0 -0.02899781416554896 0.035161924092710968 0 -0.029947405417222284 0.035413907342349241 0 -0.02899781416554896 0.035161924092710968 0 -0.029412205568770038 0.035073856162507203 0 -0.029947405417222284 0.035413907342349241 0 -0.02899781416554896 0.035161924092710968 0 -0.029023613422087816 0.035085318046367685 0 -0.029412205568770038 0.035073856162507203 0 -0.028499837874904028 0.034988227161464061 0 -0.02899781416554896 0.035161924092710968 0 -0.029023613422087816 0.035085318046367685 0 -0.029338352779042922 0.035306081862384535 0 -0.029023613422087816 0.035085318046367685 0 -0.029412205568770038 0.035073856162507203 0 -0.031646469889399696 0.03566618823566535 0 -0.031083795723868747 0.03544356880598927 0 -0.0314418588899801 0.035542724925075798 0 -0.031083795723868747 0.03544356880598927 0 -0.0314418588899801 0.035542724925075798 0 -0.031176512709920154 0.03544689320278821 0 -0.031715889562002247 0.035568259078058828 0 -0.031176512709920154 0.03544689320278821 0 -0.031614218271132227 0.035558967729471001 0 -0.0314418588899801 0.035542724925075798 0 -0.031715889562002247 0.035568259078058828 0 -0.031176512709920154 0.03544689320278821 0 -0.031176512709920154 0.03544689320278821 0 -0.029947405417222284 0.035413907342349241 0 -0.031043627194489623 0.0355324807526032 0 -0.031176512709920154 0.03544689320278821 0 -0.031043627194489623 0.0355324807526032 0 -0.031614218271132227 0.035558967729471001 0 -0.030229555752058174 0.035345358261221337 0 -0.030000692834058644 0.035491546021057342 0 -0.031083795723868747 0.03544356880598927 0 -0.031176512709920154 0.03544689320278821 0 -0.029947405417222284 0.035413907342349241 0 -0.029280979921456025 0.035657442294982869 0 -0.030500979629069992 0.036028693396793932 0 -0.029416813337334542 0.036184469097927552 0 -0.029280979921456025 0.035657442294982869 0 -0.029947405417222284 0.035413907342349241 0 -0.030500979629069992 0.036028693396793932 0 -0.03449729511268642 0.030336351147177813 0 -0.037111369701078714 0.026821778996987101 0 -0.03449729511268642 0.030336351147177813 0 -0.033981228820746175 0.032170788951877895 0 -0.03748559033012467 0.02706660575494399 0 -0.037099766117435901 0.02828270639911051 0 -0.036372879389197518 0.027539777547756959 0 -0.029947405417222284 0.035413907342349241 0 -0.030500979629069992 0.036028693396793932 0 -0.031043627194489623 0.0355324807526032 0 -0.037099766117435901 0.02828270639911051 0 -0.036372879389197518 0.027539777547756959 0 -0.036061312075538567 0.028617190413881281 0 -0.037811561613221051 0.026481383139208527 0 -0.036424462603686897 0.027196882508766076 0 -0.036613155214412878 0.025062529046558854 0 -0.036424462603686897 0.027196882508766076 0 -0.034999970842778144 0.027979398004150158 0 -0.03499993368901741 0.025880046396417656 0 -0.036372879389197518 0.027539777547756959 0 -0.035000034491705502 0.027979943846448325 0 -0.036061312075538567 0.028617190413881281 0 -0.037111369701078714 0.026821778996987101 0 -0.034999155502915089 0.027980043622594521 0 -0.035000034491705502 0.027979943846448325 0 -0.036061312075538567 0.028617190413881281 0 -0.034999945004159989 0.029659126119980068 0 -0.036061312075538567 0.028617190413881281 0 -0.036690344032214821 0.029783464747748761 0 -0.034999945004159989 0.029659126119980068 0 -0.037099766117435901 0.02828270639911051 0 -0.036061312075538567 0.028617190413881281 0 -0.036690344032214821 0.029783464747748761 0 -0.033981228820746175 0.032170788951877895 0 -0.034200881433058279 0.032587936226273234 0 -0.034391507092664308 0.033508472363446437 0 -0.034200881433058279 0.032587936226273234 0 -0.036173891330315962 0.031422683436981576 0 -0.036690344032214821 0.029783464747748761 0 -0.03565433909818598 0.030508140732531532 0 -0.032591152981879756 0.035653319147245802 0 -0.031715889562002247 0.035568259078058828 0 -0.031614218271132227 0.035558967729471001 0 -0.036690344032214821 0.029783464747748761 0 -0.034999945004159989 0.029659126119980068 0 -0.03565433909818598 0.030508140732531532 0 -0.034999959966074488 0.031338897663711417 0 -0.034999945004159989 0.029659126119980068 0 -0.03565433909818598 0.030508140732531532 0 -0.036476162264203492 0.022485412351264174 0 -0.034999904938111795 0.023780597795870183 0 -0.034999870744049269 0.021681124614204194 0 -0.036476162264203492 0.022485412351264174 0 -0.037525041687172342 0.021777826985768568 0 -0.036781549709789078 0.021514744643122131 0 -0.036476162264203492 0.022485412351264174 0 -0.036232981284141735 0.023753149738745535 0 -0.03740386770222711 0.0236385472823652 0 -0.036476162264203492 0.022485412351264174 0 -0.036232981284141735 0.023753149738745535 0 -0.034999904938111795 0.023780597795870183 0 -0.034999904938111795 0.023780597795870183 0 -0.03499993368901741 0.025880046396417656 0 -0.036613155214412878 0.025062529046558854 0 -0.036232981284141735 0.023753149738745535 0 -0.034999904938111795 0.023780597795870183 0 -0.036613155214412878 0.025062529046558854 0 -0.036424462603686897 0.027196882508766076 0 -0.03499993368901741 0.025880046396417656 0 -0.036613155214412878 0.025062529046558854 0 -0.036232981284141735 0.023753149738745535 0 -0.036613155214412878 0.025062529046558854 0 -0.03740386770222711 0.0236385472823652 0 -0.036613155214412878 0.025062529046558854 0 -0.0384183406246719 0.024689351469696599 0 -0.03740386770222711 0.0236385472823652 0 -0.037811561613221051 0.026481383139208527 0 -0.036613155214412878 0.025062529046558854 0 -0.0384183406246719 0.024689351469696599 0 -0.03449729511268642 0.030336351147177813 0 -0.035462845112746576 0.029611640280916521 0 -0.03449729511268642 0.030336351147177813 0 -0.029411438016019049 0.035073089677797972 0 -0.03295343888314585 0.031727342182064015 0 -0.032006792572153303 0.034170942809795171 0 -0.030766877307415862 0.03281667327417552 0 -0.032006792572153303 0.034170942809795171 0 -0.030860095597626841 0.034084122315393962 0 -0.030766877307415862 0.03281667327417552 0 -0.032006792572153303 0.034170942809795171 0 -0.031090022045709837 0.03641866946011655 0 -0.030499691461448524 0.035085789918838893 0 -0.0384183406246719 0.024689351469696599 0 -0.038482828116024756 0.022812997778305547 0 -0.038995948881479121 0.022865467460394397 0 -0.0384183406246719 0.024689351469696599 0 -0.03740386770222711 0.0236385472823652 0 -0.038482828116024756 0.022812997778305547 0 -0.035462845112746576 0.029611640280916521 0 -0.033900475611272532 0.027240634784541976 0 -0.03740386770222711 0.0236385472823652 0 -0.03762211379959135 0.022694821892785277 0 -0.038482828116024756 0.022812997778305547 0 -0.036476162264203492 0.022485412351264174 0 -0.03740386770222711 0.0236385472823652 0 -0.03762211379959135 0.022694821892785277 0 -0.036476162264203492 0.022485412351264174 0 -0.03762211379959135 0.022694821892785277 0 -0.037525041687172342 0.021777826985768568 0 -0.03762211379959135 0.022694821892785277 0 -0.038162194604538222 0.02210290542366964 0 -0.037525041687172342 0.021777826985768568 0 -0.038162194604538222 0.02210290542366964 0 -0.038482828116024756 0.022812997778305547 0 -0.03874655968513406 0.021840406222990449 0 -0.038482828116024756 0.022812997778305547 0 -0.038956083429574517 0.022845506906019684 0 -0.03874655968513406 0.021840406222990449 0 -0.038131765833741928 0.025489194232203392 0 -0.033900475611272532 0.027240634784541976 0 -0.03762211379959135 0.022694821892785277 0 -0.038162194604538222 0.02210290542366964 0 -0.038482828116024756 0.022812997778305547 0 -0.030116458149605157 0.026849052519694168 0 -0.030422671295227566 0.02659242710504715 0 -0.030438173577064829 0.026878237742984055 0 -0.038956083429574517 0.022845506906019684 0 -0.039467599478353349 0.021216388151731214 0 -0.03874655968513406 0.021840406222990449 0 -0.030116458149605157 0.026849052519694168 0 -0.030422671295227566 0.02659242710504715 0 -0.030287700176310266 0.026273822083215135 0 -0.033900475611272532 0.027240634784541976 0 -0.035240793780640468 0.023195864741911904 0 -0.033900475611272532 0.027240634784541976 0 -0.029830070882325956 0.031461867913018644 0 -0.030422671295227566 0.02659242710504715 0 -0.030548376728967104 0.026719520520941641 0 -0.030625374034043522 0.026525294684048569 0 -0.030548376728967104 0.026719520520941641 0 -0.030438173577064829 0.026878237742984055 0 -0.030766359800579689 0.026925062352064669 0 -0.029830070882325956 0.031461867913018644 0 -0.028288243127565879 0.032383604012151013 0 -0.03069023587006384 0.026673762086375216 0 -0.030766359800579689 0.026925062352064669 0 -0.030821228966742716 0.026525289623679494 0 -0.03069023587006384 0.026673762086375216 0 -0.030821228966742716 0.026525289623679494 0 -0.030625374034043522 0.026525294684048569 0 -0.030548376728967104 0.026719520520941641 0 -0.03069023587006384 0.026673762086375216 0 -0.030625374034043522 0.026525294684048569 0 -0.030548376728967104 0.026719520520941641 0 -0.03069023587006384 0.026673762086375216 0 -0.030766359800579689 0.026925062352064669 0 -0.030422671295227566 0.02659242710504715 0 -0.030548376728967104 0.026719520520941641 0 -0.030438173577064829 0.026878237742984055 0 -0.029716711944537746 0.036339329227788063 0 -0.029090316750133356 0.03580971238300093 0 -0.029704178013828759 0.035449407937663463 0 -0.028975800300057024 0.035038742779818395 0 -0.028585911723164392 0.034845597194994173 0 -0.028436848689901179 0.036063370596122662 0 -0.029716711944537746 0.036339329227788063 0 -0.029090316750133356 0.03580971238300093 0 -0.028428042673610727 0.036226904320022735 0 -0.028414414258043318 0.036121366003689884 0 -0.028288243127565879 0.032383604012151013 0 -0.029090316750133356 0.03580971238300093 0 -0.028975800300057024 0.035038742779818395 0 -0.028428042673610727 0.036226904320022735 0 -0.029090316750133356 0.03580971238300093 0 -0.028975800300057024 0.035038742779818395 0 -0.029704178013828759 0.035449407937663463 0 -0.028975800300057024 0.035038742779818395 0 -0.029704178013828759 0.035449407937663463 0 -0.029624604839469007 0.034879504317215766 0 -0.029704178013828759 0.035449407937663463 0 -0.030499691461448524 0.035085789918838893 0 -0.029624604839469007 0.034879504317215766 0 -0.031090022045709837 0.03641866946011655 0 -0.030251226691733784 0.035823993118895933 0 -0.030499691461448524 0.035085789918838893 0 -0.031090022045709837 0.03641866946011655 0 -0.029716711944537746 0.036339329227788063 0 -0.030251226691733784 0.035823993118895933 0 -0.029704178013828759 0.035449407937663463 0 -0.030251226691733784 0.035823993118895933 0 -0.030499691461448524 0.035085789918838893 0 -0.029716711944537746 0.036339329227788063 0 -0.029704178013828759 0.035449407937663463 0 -0.030251226691733784 0.035823993118895933 0 -0.032006792572153303 0.034170942809795171 0 -0.030499691461448524 0.035085789918838893 0 -0.030860095597626841 0.034084122315393962 0 -0.029845688078950609 0.03423415404867549 0 -0.030766877307415862 0.03281667327417552 0 -0.028693700028366201 0.033994419417801562 0 -0.030499691461448524 0.035085789918838893 0 -0.029845688078950609 0.03423415404867549 0 -0.029624604839469007 0.034879504317215766 0 -0.030499691461448524 0.035085789918838893 0 -0.029845688078950609 0.03423415404867549 0 -0.030860095597626841 0.034084122315393962 0 -0.029845688078950609 0.03423415404867549 0 -0.030860095597626841 0.034084122315393962 0 -0.030766877307415862 0.03281667327417552 0 -0.029416813337334542 0.036184469097927552 0 -0.028701205243272843 0.035786386333647224 0 -0.028233441908486579 0.036036548114631299 0 -0.028701205243272843 0.035786386333647224 0 -0.028233441908486579 0.036036548114631299 0 -0.028151720704453802 0.035640245511461263 0 -0.029411438016019049 0.035073089677797972 0 -0.028682073660903421 0.034872381161221294 0 -0.029845688078950609 0.03423415404867549 0 -0.028693700028366201 0.033994419417801562 0 -0.029117514686365528 0.034586443000508525 0 -0.029845688078950609 0.03423415404867549 0 -0.029117514686365528 0.034586443000508525 0 -0.029624604839469007 0.034879504317215766 0 -0.028975800300057024 0.035038742779818395 0 -0.029117514686365528 0.034586443000508525 0 -0.029624604839469007 0.034879504317215766 0 -0.028693700028366201 0.033994419417801562 0 -0.029117514686365528 0.034586443000508525 0 -0.028585911723164392 0.034845597194994173 0 -0.028975800300057024 0.035038742779818395 0 -0.029117514686365528 0.034586443000508525 0 -0.028585911723164392 0.034845597194994173 0 -0.028693700028366201 0.033994419417801562 0 -0.027147541821925018 0.035349668541578096 0 -0.027854269702282278 0.035274692807987833 0 -0.028693700028366201 0.033994419417801562 0 -0.028585911723164392 0.034845597194994173 0 -0.027854269702282278 0.035274692807987833 0 -0.028233441908486579 0.036036548114631299 0 -0.027607837221581527 0.035592710651428321 0 -0.027147541821925018 0.035349668541578096 0 -0.028682073660903421 0.034872381161221294 0 -0.027238942823383506 0.035369178324139966 0 -0.028233441908486579 0.036036548114631299 0 -0.028151720704453802 0.035640245511461263 0 -0.027607837221581527 0.035592710651428321 0 -0.028151720704453802 0.035640245511461263 0 -0.027607837221581527 0.035592710651428321 0 -0.027555524617241197 0.035449176243301038 0 -0.027555524617241197 0.035449176243301038 0 -0.027096838882261377 0.035349465182561712 0 -0.027100168924287054 0.035271733774606427 0 -0.027607837221581527 0.035592710651428321 0 -0.027555524617241197 0.035449176243301038 0 -0.027096838882261377 0.035349465182561712 0 -0.027607837221581527 0.035592710651428321 0 -0.027096838882261377 0.035349465182561712 0 -0.027147541821925018 0.035349668541578096 0 -0.027096838882261377 0.035349465182561712 0 -0.027147541821925018 0.035349668541578096 0 -0.026507402378351145 0.035214646776327241 0 -0.027147541821925018 0.035349668541578096 0 -0.026843478966725329 0.035756313449050683 0 -0.026507402378351145 0.035214646776327241 0 -0.026843478966725329 0.035756313449050683 0 -0.027337071308225734 0.035634654556282994 0 -0.027739540868609743 0.036117327038584883 0 -0.025738409692635331 0.035417133237542968 0 -0.025393246346054693 0.034692521743320881 0 -0.027147541821925018 0.035349668541578096 0 -0.026843478966725329 0.035756313449050683 0 -0.027337071308225734 0.035634654556282994 0 -0.028775577198151343 0.035070218697628205 0 -0.025393246346054693 0.034692521743320881 0 -0.028585911723164392 0.034845597194994173 0 -0.027876806166737683 0.036021192758069025 0 -0.028436848689901179 0.036063370596122662 0 -0.028585911723164392 0.034845597194994173 0 -0.027854269702282278 0.035274692807987833 0 -0.027739540868609743 0.036117327038584883 0 -0.027147541821925018 0.035349668541578096 0 -0.027854269702282278 0.035274692807987833 0 -0.027337071308225734 0.035634654556282994 0 -0.025393246346054693 0.034692521743320881 0 -0.028288243127565879 0.032383604012151013 0 -0.027854269702282278 0.035274692807987833 0 -0.027337071308225734 0.035634654556282994 0 -0.027739540868609743 0.036117327038584883 0 -0.022134836463462013 0.032203944933245549 0 -0.022167504114594339 0.03220004590775162 0 -0.022059815415773117 0.032193214469231839 0 -0.028288243127565879 0.032383604012151013 0 -0.024689779869156665 0.028359306586293681 0 -0.022134836463462013 0.032203944933245549 0 -0.022090992478304251 0.032201432812301603 0 -0.022059815415773117 0.032193214469231839 0 -0.030766359800579689 0.026925062352064669 0 -0.030979194629255399 0.026406635379902437 0 -0.030821228966742716 0.026525289623679494 0 -0.025393246346054693 0.034692521743320881 0 -0.022795571329781501 0.032803117010753044 0 -0.024431938571714516 0.035196277505134377 0 -0.02346707482715054 0.035060792063989987 0 -0.024486663123069265 0.03445797262002382 0 -0.02346707482715054 0.035060792063989987 0 -0.024486663123069265 0.03445797262002382 0 -0.024235972415775089 0.033626793874279727 0 -0.024431938571714516 0.035196277505134377 0 -0.024486663123069265 0.03445797262002382 0 -0.025885108283357813 0.03519372898688547 0 -0.022090992478304251 0.032201432812301603 0 -0.022059815415773117 0.032193214469231839 0 -0.021980190209288382 0.031860402629162912 0 -0.024486663123069265 0.03445797262002382 0 -0.024235972415775089 0.033626793874279727 0 -0.025145728803413668 0.03404494388473546 0 -0.030979194629255399 0.026406635379902437 0 -0.030821228966742716 0.026525289623679494 0 -0.030740631009190014 0.026358616633000834 0 -0.030979194629255399 0.026406635379902437 0 -0.030746384378339757 0.026039830345086563 0 -0.030740631009190014 0.026358616633000834 0 -0.024689779869156665 0.028359306586293681 0 -0.026947575097012066 0.026021408562426393 0 -0.023337142752334478 0.02606526049516612 0 -0.023089879615577822 0.026473006773034498 0 -0.023565570033546854 0.026316606313562686 0 -0.023089879615577822 0.026473006773034498 0 -0.023405476970191921 0.026655422875813187 0 -0.023565570033546854 0.026316606313562686 0 -0.024689779869156665 0.028359306586293681 0 -0.022268020234650788 0.029373792412537778 0 -0.022090992478304251 0.032201432812301603 0 -0.021980190209288382 0.031860402629162912 0 -0.022522671059245734 0.031758221746548118 0 -0.022795571329781501 0.032803117010753044 0 -0.023475206927681309 0.031969484067368936 0 -0.021980190209288382 0.031860402629162912 0 -0.022045713977603441 0.030626147762598425 0 -0.022522671059245734 0.031758221746548118 0 -0.023089879615577822 0.026473006773034498 0 -0.022854298100583495 0.026923690365626467 0 -0.023194025626229839 0.026924761402647126 0 -0.022268020234650788 0.029373792412537778 0 -0.022522014301202563 0.028651845910628696 0 -0.022854298100583495 0.026923690365626467 0 -0.022674767327869213 0.027781884989186639 0 -0.023076752326958175 0.027226982108457549 0 -0.022854298100583495 0.026923690365626467 0 -0.023194025626229839 0.026924761402647126 0 -0.023076752326958175 0.027226982108457549 0 -0.023194025626229839 0.026924761402647126 0 -0.02353709778350712 0.02706110982515491 0 -0.023076752326958175 0.027226982108457549 0 -0.023194025626229839 0.026924761402647126 0 -0.023405476970191921 0.026655422875813187 0 -0.02353709778350712 0.02706110982515491 0 -0.023089879615577822 0.026473006773034498 0 -0.023194025626229839 0.026924761402647126 0 -0.023405476970191921 0.026655422875813187 0 -0.023405476970191921 0.026655422875813187 0 -0.023822212199622078 0.026564971838922303 0 -0.02353709778350712 0.02706110982515491 0 -0.033529903189605414 0.022662627953404322 0 -0.030985453836355321 0.022353260208303378 0 -0.03870527814959248 0.01857108478981245 0 -0.039067279922042515 0.017572451273517413 0 -0.038283877666620517 0.017934820538182159 0 -0.033529903189605414 0.022662627953404322 0 -0.039067910782392072 0.018132537255040531 0 -0.039980633438659062 0.019605901330985595 0 -0.039061060635210108 0.0185061367779309 0 -0.038653068775860194 0.019855012066843543 0 -0.033529903189605414 0.022662627953404322 0 -0.035240793780640468 0.023195864741911904 0 -0.039980633438659062 0.019605901330985595 0 -0.039467599478353349 0.021216388151731214 0 -0.038653068775860194 0.019855012066843543 0 -0.023405476970191921 0.026655422875813187 0 -0.023822212199622078 0.026564971838922303 0 -0.023565570033546854 0.026316606313562686 0 -0.030496839286818393 0.025664644628557876 0 -0.030553234172613304 0.026247343339773768 0 -0.030287700176310266 0.026273822083215135 0 -0.030496839286818393 0.025664644628557876 0 -0.030746384378339757 0.026039830345086563 0 -0.030553234172613304 0.026247343339773768 0 -0.033529903189605414 0.022662627953404322 0 -0.026947575097012066 0.026021408562426393 0 -0.030746384378339757 0.026039830345086563 0 -0.030553234172613304 0.026247343339773768 0 -0.030740631009190014 0.026358616633000834 0 -0.030553234172613304 0.026247343339773768 0 -0.030625374034043522 0.026525294684048569 0 -0.030740631009190014 0.026358616633000834 0 -0.030821228966742716 0.026525289623679494 0 -0.030625374034043522 0.026525294684048569 0 -0.030740631009190014 0.026358616633000834 0 -0.030422671295227566 0.02659242710504715 0 -0.030553234172613304 0.026247343339773768 0 -0.030625374034043522 0.026525294684048569 0 -0.030422671295227566 0.02659242710504715 0 -0.030553234172613304 0.026247343339773768 0 -0.030287700176310266 0.026273822083215135 0 -0.039467599478353349 0.021216388151731214 0 -0.03820418385034114 0.021088370345225375 0 -0.03874655968513406 0.021840406222990449 0 -0.038162194604538222 0.02210290542366964 0 -0.03820418385034114 0.021088370345225375 0 -0.03874655968513406 0.021840406222990449 0 -0.038162194604538222 0.02210290542366964 0 -0.03820418385034114 0.021088370345225375 0 -0.037525041687172342 0.021777826985768568 0 -0.03820418385034114 0.021088370345225375 0 -0.037525041687172342 0.021777826985768568 0 -0.03709736844271215 0.020799875840692275 0 -0.037525041687172342 0.021777826985768568 0 -0.03709736844271215 0.020799875840692275 0 -0.036781549709789078 0.021514744643122131 0 -0.03820418385034114 0.021088370345225375 0 -0.037665631093573661 0.020018316733433041 0 -0.03709736844271215 0.020799875840692275 0 -0.037665631093573661 0.020018316733433041 0 -0.03709736844271215 0.020799875840692275 0 -0.036517562064974259 0.019599796242574071 0 -0.03820418385034114 0.021088370345225375 0 -0.037665631093573661 0.020018316733433041 0 -0.038653068775860194 0.019855012066843543 0 -0.039467599478353349 0.021216388151731214 0 -0.03820418385034114 0.021088370345225375 0 -0.038653068775860194 0.019855012066843543 0 -0.039061060635210108 0.0185061367779309 0 -0.038653068775860194 0.019855012066843543 0 -0.037500467194977072 0.018971004673685878 0 -0.037665631093573661 0.020018316733433041 0 -0.038653068775860194 0.019855012066843543 0 -0.037500467194977072 0.018971004673685878 0 -0.039067910782392072 0.018132537255040531 0 -0.037978671243783256 0.017461399597191812 0 -0.039061060635210108 0.0185061367779309 0 -0.037374123289317301 0.017959325421642185 0 -0.037500467194977072 0.018971004673685878 0 -0.039061060635210108 0.0185061367779309 0 -0.037374123289317301 0.017959325421642185 0 -0.037981158658860176 0.017411358209944799 0 -0.037374123289317301 0.017959325421642185 0 -0.036609247644212341 0.018355206614119979 0 -0.036715834368441586 0.017543443069161255 0 -0.037374123289317301 0.017959325421642185 0 -0.037500467194977072 0.018971004673685878 0 -0.036609247644212341 0.018355206614119979 0 -0.037665631093573661 0.020018316733433041 0 -0.037500467194977072 0.018971004673685878 0 -0.036517562064974259 0.019599796242574071 0 -0.037500467194977072 0.018971004673685878 0 -0.036517562064974259 0.019599796242574071 0 -0.036609247644212341 0.018355206614119979 0 -0.036517562064974259 0.019599796242574071 0 -0.036609247644212341 0.018355206614119979 0 -0.035650497847422226 0.018476132432054558 0 -0.036609247644212341 0.018355206614119979 0 -0.035650497847422226 0.018476132432054558 0 -0.03614842971623454 0.017666655692280347 0 -0.036609247644212341 0.018355206614119979 0 -0.036715834368441586 0.017543443069161255 0 -0.03614842971623454 0.017666655692280347 0 -0.035650218913793399 0.018375369069133361 0 -0.035533093209553099 0.016867355036898759 0 -0.035650497847422226 0.018476132432054558 0 -0.034999891116335537 0.019581739697025268 0 -0.03499993458957195 0.017482317502008272 0 -0.035650497847422226 0.018476132432054558 0 -0.03499993458957195 0.017482317502008272 0 -0.035545406253200539 0.016617237921053147 0 -0.036517562064974259 0.019599796242574071 0 -0.035650497847422226 0.018476132432054558 0 -0.034999891116335537 0.019581739697025268 0 -0.034999891116335537 0.019581739697025268 0 -0.036031360416084263 0.021002699101291367 0 -0.034999870744049269 0.021681124614204194 0 -0.036517562064974259 0.019599796242574071 0 -0.034999891116335537 0.019581739697025268 0 -0.036031360416084263 0.021002699101291367 0 -0.03709736844271215 0.020799875840692275 0 -0.036517562064974259 0.019599796242574071 0 -0.036031360416084263 0.021002699101291367 0 -0.03709736844271215 0.020799875840692275 0 -0.036031360416084263 0.021002699101291367 0 -0.036781549709789078 0.021514744643122131 0 -0.036476162264203492 0.022485412351264174 0 -0.036031360416084263 0.021002699101291367 0 -0.036781549709789078 0.021514744643122131 0 -0.036476162264203492 0.022485412351264174 0 -0.036031360416084263 0.021002699101291367 0 -0.034999870744049269 0.021681124614204194 0 -0.026239633770284324 0.034312675413372823 0 -0.025865376650036839 0.032932089375847212 0 -0.026695794879629899 0.034211780423358373 0 -0.026239633770284324 0.034312675413372823 0 -0.026695794879629899 0.034211780423358373 0 -0.026695219594456514 0.034353904776598179 0 -0.026239633770284324 0.034312675413372823 0 -0.026695219594456514 0.034353904776598179 0 -0.026859121377980369 0.034068194884015364 0 -0.025690113864277532 0.03323424400466448 0 -0.026244614715529878 0.033173355078341384 0 -0.025128702919319314 0.032203196874964236 0 -0.025273853415400251 0.032334307917780435 0 -0.025676876977063969 0.032313459176433711 0 -0.025128702919319314 0.032203196874964236 0 -0.025273853415400251 0.032334307917780435 0 -0.025028127672473463 0.032259241087879295 0 -0.025273853415400251 0.032334307917780435 0 -0.024943579316548836 0.03235083430491302 0 -0.025092031765665389 0.032511880139534155 0 -0.025273853415400251 0.032334307917780435 0 -0.024943579316548836 0.03235083430491302 0 -0.025028127672473463 0.032259241087879295 0 -0.024943579316548836 0.03235083430491302 0 -0.024741322722141891 0.031972571956789951 0 -0.025028127672473463 0.032259241087879295 0 -0.024943579316548836 0.03235083430491302 0 -0.024153283301680265 0.032568931903238688 0 -0.024741322722141891 0.031972571956789951 0 -0.023314682725992075 0.0323263101276237 0 -0.024153283301680265 0.032568931903238688 0 -0.024741322722141891 0.031972571956789951 0 -0.024943579316548836 0.03235083430491302 0 -0.024153283301680265 0.032568931903238688 0 -0.024804734988202598 0.0326765513665375 0 -0.024884118951892516 0.031742130475307155 0 -0.023916156894638593 0.032041359045099582 0 -0.024741322722141891 0.031972571956789951 0 -0.025067315751449382 0.032892861298384937 0 -0.025065435869035122 0.032791363258343482 0 -0.023177470909965442 0.03167095574381526 0 -0.024741322722141891 0.031972571956789951 0 -0.024638249394602449 0.030117010697303166 0 -0.025128702919319314 0.032203196874964236 0 -0.025028127672473463 0.032259241087879295 0 -0.025067315751449382 0.032892861298384937 0 -0.024741322722141891 0.031972571956789951 0 -0.025028127672473463 0.032259241087879295 0 -0.025067315751449382 0.032892861298384937 0 -0.025690113864277532 0.03323424400466448 0 -0.02515059012033664 0.032921539387866697 0 -0.025067315751449382 0.032892861298384937 0 -0.025093891001675188 0.032559877981694886 0 -0.025865376650036839 0.032932089375847212 0 -0.025067315751449382 0.032892861298384937 0 -0.025065435869035122 0.032791363258343482 0 -0.025093891001675188 0.032559877981694886 0 -0.023916156894638593 0.032041359045099582 0 -0.025459799313665776 0.034407577847267799 0 -0.021604962119109356 0.032450480594000367 0 -0.021620831843108066 0.032447515398464806 0 -0.021648964777063694 0.032450802065459083 0 -0.025340825903359631 0.035709437675803826 0 -0.024868785097597847 0.036181832715588239 0 -0.025443715925009731 0.036480696249443299 0 -0.021620831843108066 0.032447515398464806 0 -0.021648964777063694 0.032450802065459083 0 -0.021630636784852615 0.032452283489285826 0 -0.023916156894638593 0.032041359045099582 0 -0.023862427353313238 0.034646172331881782 0 -0.024550357287985755 0.032969333002397835 0 -0.024609691793355912 0.034196078598414524 0 -0.023891875307548369 0.033820975324345422 0 -0.023862427353313238 0.034646172331881782 0 -0.025459799313665776 0.034407577847267799 0 -0.021620400299822696 0.032449469900505068 0 -0.021622312508859189 0.032454036523802209 0 -0.021630636784852615 0.032452283489285826 0 -0.021620831843108066 0.032447515398464806 0 -0.021620400299822696 0.032449469900505068 0 -0.021630636784852615 0.032452283489285826 0 -0.025459799313665776 0.034407577847267799 0 -0.026403013703642952 0.033783664660847278 0 -0.026855048518157267 0.034959141711055762 0 -0.026996057977514372 0.034806127108792766 0 -0.026862693763247559 0.034833642306087868 0 -0.026339127036287088 0.035474283226451339 0 -0.025459799313665776 0.034407577847267799 0 -0.026855048518157267 0.034959141711055762 0 -0.026862693763247559 0.034833642306087868 0 -0.026692559325112247 0.034913379991519909 0 -0.026862693763247559 0.034833642306087868 0 -0.026880712674073142 0.034658406991283565 0 -0.026692559325112247 0.034913379991519909 0 -0.026996057977514372 0.034806127108792766 0 -0.026862693763247559 0.034833642306087868 0 -0.026880712674073142 0.034658406991283565 0 -0.026239633770284324 0.034312675413372823 0 -0.025067315751449382 0.032892861298384937 0 -0.025865376650036839 0.032932089375847212 0 -0.026880712674073142 0.034658406991283565 0 -0.026695794879629899 0.034211780423358373 0 -0.026729884422631661 0.0346860407628619 0 -0.026695794879629899 0.034211780423358373 0 -0.026729884422631661 0.0346860407628619 0 -0.026601946825536637 0.034861689072255855 0 -0.026403013703642952 0.033783664660847278 0 -0.026603802824851391 0.034106778689031239 0 -0.026639696456720516 0.035019773456079317 0 -0.026692559325112247 0.034913379991519909 0 -0.026601946825536637 0.034861689072255855 0 -0.026880712674073142 0.034658406991283565 0 -0.026692559325112247 0.034913379991519909 0 -0.026729884422631661 0.0346860407628619 0 -0.026692559325112247 0.034913379991519909 0 -0.026729884422631661 0.0346860407628619 0 -0.026601946825536637 0.034861689072255855 0 -0.026670960039372544 0.035065451548038647 0 -0.026601946825536637 0.034861689072255855 0 -0.026585632499749379 0.035053872042561864 0 -0.026601946825536637 0.034861689072255855 0 -0.026585632499749379 0.035053872042561864 0 -0.026529427278272347 0.034796040447556235 0 -0.026585632499749379 0.035053872042561864 0 -0.026529427278272347 0.034796040447556235 0 -0.026312103726964443 0.035037307375196489 0 -0.026695794879629899 0.034211780423358373 0 -0.026529427278272347 0.034796040447556235 0 -0.026613212267321652 0.034482592161123732 0 -0.026695794879629899 0.034211780423358373 0 -0.026601946825536637 0.034861689072255855 0 -0.026529427278272347 0.034796040447556235 0 -0.026862729244995994 0.035166522037640612 0 -0.027100168924287054 0.035271733774606427 0 -0.026702897618032743 0.03520107396346861 0 -0.027096838882261377 0.035349465182561712 0 -0.027100168924287054 0.035271733774606427 0 -0.026702897618032743 0.03520107396346861 0 -0.026862729244995994 0.035166522037640612 0 -0.026585632499749379 0.035053872042561864 0 -0.026702897618032743 0.03520107396346861 0 -0.026862729244995994 0.035166522037640612 0 -0.026670960039372544 0.035065451548038647 0 -0.026585632499749379 0.035053872042561864 0 -0.026585632499749379 0.035053872042561864 0 -0.026702897618032743 0.03520107396346861 0 -0.026312103726964443 0.035037307375196489 0 -0.026702897618032743 0.03520107396346861 0 -0.026507402378351145 0.035214646776327241 0 -0.026312103726964443 0.035037307375196489 0 -0.027096838882261377 0.035349465182561712 0 -0.026702897618032743 0.03520107396346861 0 -0.026507402378351145 0.035214646776327241 0 -0.026507402378351145 0.035214646776327241 0 -0.025885108283357813 0.03519372898688547 0 -0.026312103726964443 0.035037307375196489 0 -0.026843478966725329 0.035756313449050683 0 -0.026507402378351145 0.035214646776327241 0 -0.025885108283357813 0.03519372898688547 0 -0.025738409692635331 0.035417133237542968 0 -0.025859474586733208 0.035302363878929537 0 -0.025885108283357813 0.03519372898688547 0 -0.026312103726964443 0.035037307375196489 0 -0.025972955500326914 0.034472352347076511 0 -0.026312103726964443 0.035037307375196489 0 -0.025972955500326914 0.034472352347076511 0 -0.026395460626228519 0.034544266694351088 0 -0.024486663123069265 0.03445797262002382 0 -0.025885108283357813 0.03519372898688547 0 -0.025145728803413668 0.03404494388473546 0 -0.025885108283357813 0.03519372898688547 0 -0.025972955500326914 0.034472352347076511 0 -0.025145728803413668 0.03404494388473546 0 -0.026613212267321652 0.034482592161123732 0 -0.026395460626228519 0.034544266694351088 0 -0.026695219594456514 0.034353904776598179 0 -0.026695794879629899 0.034211780423358373 0 -0.026613212267321652 0.034482592161123732 0 -0.026695219594456514 0.034353904776598179 0 -0.026529427278272347 0.034796040447556235 0 -0.026312103726964443 0.035037307375196489 0 -0.026395460626228519 0.034544266694351088 0 -0.026529427278272347 0.034796040447556235 0 -0.026613212267321652 0.034482592161123732 0 -0.026395460626228519 0.034544266694351088 0 -0.025972955500326914 0.034472352347076511 0 -0.026395460626228519 0.034544266694351088 0 -0.026318943155023426 0.03387188387363211 0 -0.026395460626228519 0.034544266694351088 0 -0.026695219594456514 0.034353904776598179 0 -0.026318943155023426 0.03387188387363211 0 -0.026695219594456514 0.034353904776598179 0 -0.026318943155023426 0.03387188387363211 0 -0.026859121377980369 0.034068194884015364 0 -0.026318943155023426 0.03387188387363211 0 -0.026810716843143619 0.033059169597455619 0 -0.026859121377980369 0.034068194884015364 0 -0.026318943155023426 0.03387188387363211 0 -0.026107714982639189 0.033064230033285964 0 -0.02548286557870692 0.033512737616075983 0 -0.026318943155023426 0.03387188387363211 0 -0.026107714982639189 0.033064230033285964 0 -0.026810716843143619 0.033059169597455619 0 -0.026107714982639189 0.033064230033285964 0 -0.025398666476610033 0.032541206866535034 0 -0.025925101465285958 0.031409399748814501 0 -0.026107714982639189 0.033064230033285964 0 -0.026810716843143619 0.033059169597455619 0 -0.025925101465285958 0.031409399748814501 0 -0.024235972415775089 0.033626793874279727 0 -0.025145728803413668 0.03404494388473546 0 -0.024793778797122346 0.033281858466832806 0 -0.025145728803413668 0.03404494388473546 0 -0.024793778797122346 0.033281858466832806 0 -0.02548286557870692 0.033512737616075983 0 -0.025972955500326914 0.034472352347076511 0 -0.025145728803413668 0.03404494388473546 0 -0.02548286557870692 0.033512737616075983 0 -0.025972955500326914 0.034472352347076511 0 -0.026318943155023426 0.03387188387363211 0 -0.02548286557870692 0.033512737616075983 0 -0.02548286557870692 0.033512737616075983 0 -0.025398666476610033 0.032541206866535034 0 -0.024952390782851573 0.032697138890831139 0 -0.026107714982639189 0.033064230033285964 0 -0.02548286557870692 0.033512737616075983 0 -0.025398666476610033 0.032541206866535034 0 -0.024793778797122346 0.033281858466832806 0 -0.02548286557870692 0.033512737616075983 0 -0.024952390782851573 0.032697138890831139 0 -0.024793778797122346 0.033281858466832806 0 -0.024952390782851573 0.032697138890831139 0 -0.024243387824445132 0.032398635314128899 0 -0.024235972415775089 0.033626793874279727 0 -0.024793778797122346 0.033281858466832806 0 -0.024243387824445132 0.032398635314128899 0 -0.022045713977603441 0.030626147762598425 0 -0.022522671059245734 0.031758221746548118 0 -0.024081474204446045 0.030051082190119326 0 -0.023475206927681309 0.031969484067368936 0 -0.024115235391850773 0.030119258315580023 0 -0.024243387824445132 0.032398635314128899 0 -0.02494971404803285 0.031463643161033866 0 -0.024081474204446045 0.030051082190119326 0 -0.025398666476610033 0.032541206866535034 0 -0.024952390782851573 0.032697138890831139 0 -0.02494971404803285 0.031463643161033866 0 -0.024952390782851573 0.032697138890831139 0 -0.024243387824445132 0.032398635314128899 0 -0.02494971404803285 0.031463643161033866 0 -0.02494971404803285 0.031463643161033866 0 -0.024081474204446045 0.030051082190119326 0 -0.025735826992991588 0.029203648866494004 0 -0.022522014301202563 0.028651845910628696 0 -0.022690669550843305 0.027851871538054598 0 -0.022045713977603441 0.030626147762598425 0 -0.024081474204446045 0.030051082190119326 0 -0.022674767327869213 0.027781884989186639 0 -0.02592444666734136 0.032122680792594553 0 -0.025925101465285958 0.031409399748814501 0 -0.026366984987573512 0.031415872971498095 0 -0.026342889597934103 0.032557437687743981 0 -0.02592608929604864 0.031530024856669357 0 -0.025398666476610033 0.032541206866535034 0 -0.02494971404803285 0.031463643161033866 0 -0.025925101465285958 0.031409399748814501 0 -0.02494971404803285 0.031463643161033866 0 -0.025925101465285958 0.031409399748814501 0 -0.025735826992991588 0.029203648866494004 0 -0.025925101465285958 0.031409399748814501 0 -0.026366984987573512 0.031415872971498095 0 -0.025735826992991588 0.029203648866494004 0 -0.023312059932904913 0.028674658539478284 0 -0.023026405950167101 0.027366315388385604 0 -0.020194989066797051 0.025907775727924989 0 -0.02067203073834813 0.025806464497470923 0 -0.020154880986068775 0.02569345828326685 0 -0.020194989066797051 0.025907775727924989 0 -0.02067203073834813 0.025806464497470923 0 -0.020684956904044861 0.02659715559180869 0 -0.02067203073834813 0.025806464497470923 0 -0.020684956904044861 0.02659715559180869 0 -0.021432257499453624 0.026290753787197554 0 -0.02592444666734136 0.032122680792594553 0 -0.026366984987573512 0.031415872971498095 0 -0.025865736304465092 0.032220272713884335 0 -0.026366984987573512 0.031415872971498095 0 -0.025753793074935541 0.032311867780049262 0 -0.025865736304465092 0.032220272713884335 0 -0.023312059932904913 0.028674658539478284 0 -0.022970859977588819 0.029098972168837681 0 -0.02592444666734136 0.032122680792594553 0 -0.025865736304465092 0.032220272713884335 0 -0.025676876977063969 0.032313459176433711 0 -0.025753793074935541 0.032311867780049262 0 -0.025519014028210062 0.032413271310665702 0 -0.025282953229978429 0.0325699127631741 0 -0.025753793074935541 0.032311867780049262 0 -0.025865736304465092 0.032220272713884335 0 -0.025519014028210062 0.032413271310665702 0 -0.025273853415400251 0.032334307917780435 0 -0.025519014028210062 0.032413271310665702 0 -0.025676876977063969 0.032313459176433711 0 -0.025519014028210062 0.032413271310665702 0 -0.025266625408417898 0.032466347260638267 0 -0.025282953229978429 0.0325699127631741 0 -0.025273853415400251 0.032334307917780435 0 -0.025519014028210062 0.032413271310665702 0 -0.025266625408417898 0.032466347260638267 0 -0.025865736304465092 0.032220272713884335 0 -0.025519014028210062 0.032413271310665702 0 -0.025676876977063969 0.032313459176433711 0 -0.026342889597934103 0.032557437687743981 0 -0.026244614715529878 0.033173355078341384 0 -0.024758384823898503 0.032969362401922456 0 -0.024020988012391688 0.031761024670036456 0 -0.024313656430945796 0.033039341104497237 0 -0.0249218631573991 0.032843975638182227 0 -0.024944666591889278 0.032942012623800782 0 -0.024313656430945796 0.033039341104497237 0 -0.024804734988202598 0.0326765513665375 0 -0.0249218631573991 0.032843975638182227 0 -0.024313656430945796 0.033039341104497237 0 -0.024912034266707423 0.033614343003152067 0 -0.024142417954732178 0.033996482753008539 0 -0.024313656430945796 0.033039341104497237 0 -0.023682929513992243 0.033692599543356724 0 -0.024142417954732178 0.033996482753008539 0 -0.023481934186303045 0.033125059111547187 0 -0.024313656430945796 0.033039341104497237 0 -0.023682929513992243 0.033692599543356724 0 -0.023481934186303045 0.033125059111547187 0 -0.024153283301680265 0.032568931903238688 0 -0.024313656430945796 0.033039341104497237 0 -0.024153283301680265 0.032568931903238688 0 -0.024313656430945796 0.033039341104497237 0 -0.024804734988202598 0.0326765513665375 0 -0.024943579316548836 0.03235083430491302 0 -0.024804734988202598 0.0326765513665375 0 -0.025092031765665389 0.032511880139534155 0 -0.024804734988202598 0.0326765513665375 0 -0.025092031765665389 0.032511880139534155 0 -0.025097828746018118 0.032634046161042984 0 -0.025273853415400251 0.032334307917780435 0 -0.025266625408417898 0.032466347260638267 0 -0.025092031765665389 0.032511880139534155 0 -0.025266625408417898 0.032466347260638267 0 -0.025092031765665389 0.032511880139534155 0 -0.025097828746018118 0.032634046161042984 0 -0.025266625408417898 0.032466347260638267 0 -0.025282953229978429 0.0325699127631741 0 -0.025097828746018118 0.032634046161042984 0 -0.025282953229978429 0.0325699127631741 0 -0.025097828746018118 0.032634046161042984 0 -0.025071575350888994 0.032708901683008385 0 -0.025282953229978429 0.0325699127631741 0 -0.025071575350888994 0.032708901683008385 0 -0.024981886529666382 0.032782053453556954 0 -0.024804734988202598 0.0326765513665375 0 -0.025097828746018118 0.032634046161042984 0 -0.0249218631573991 0.032843975638182227 0 -0.025097828746018118 0.032634046161042984 0 -0.025071575350888994 0.032708901683008385 0 -0.0249218631573991 0.032843975638182227 0 -0.025071575350888994 0.032708901683008385 0 -0.0249218631573991 0.032843975638182227 0 -0.024981886529666382 0.032782053453556954 0 -0.024098825517633114 0.03205458177610572 0 -0.024020988012391688 0.031761024670036456 0 -0.022970859977588819 0.029098972168837681 0 -0.024020988012391688 0.031761024670036456 0 -0.024020988012391688 0.031761024670036456 0 -0.019206034001434238 0.028395369371820762 0 -0.020684956904044861 0.02659715559180869 0 -0.021527530931723864 0.027318169522287557 0 -0.021432257499453624 0.026290753787197554 0 -0.025753793074935541 0.032311867780049262 0 -0.025282953229978429 0.0325699127631741 0 -0.024981886529666382 0.032782053453556954 0 -0.024912034266707423 0.033614343003152067 0 -0.024142417954732178 0.033996482753008539 0 -0.024859917070704216 0.035530959400217145 0 -0.023538992761979276 0.03465837564229992 0 -0.024142417954732178 0.033996482753008539 0 -0.024859917070704216 0.035530959400217145 0 -0.023538992761979276 0.03465837564229992 0 -0.023682929513992243 0.033692599543356724 0 -0.024142417954732178 0.033996482753008539 0 -0.020586784121382751 0.033441559039315075 0 -0.019206034001434238 0.028395369371820762 0 -0.016545567024205645 0.03095429251492544 0 -0.0164516034493996 0.029436036593179952 0 -0.015686992479570401 0.029693069453342876 0 -0.018127463956856219 0.024257505394891053 0 -0.019206034001434238 0.028395369371820762 0 -0.019206034001434238 0.028395369371820762 0 -0.014839755585005429 0.02623535116273781 0 -0.016261566780075488 0.0239156956637964 0 -0.015142914706721366 0.023170449890912027 0 -0.015109552121111718 0.024712291978993352 0 -0.015686992479570401 0.029693069453342876 0 -0.016234381371766308 0.029213543381021011 0 -0.015605088673074082 0.02876485195742224 0 -0.016643693667500428 0.029278947189493056 0 -0.016234381371766308 0.029213543381021011 0 -0.01649208046882265 0.028872338982556287 0 -0.016643693667500428 0.029278947189493056 0 -0.0164516034493996 0.029436036593179952 0 -0.016234381371766308 0.029213543381021011 0 -0.0164516034493996 0.029436036593179952 0 -0.015686992479570401 0.029693069453342876 0 -0.016234381371766308 0.029213543381021011 0 -0.016234381371766308 0.029213543381021011 0 -0.01649208046882265 0.028872338982556287 0 -0.015605088673074082 0.02876485195742224 0 -0.01649208046882265 0.028872338982556287 0 -0.015605088673074082 0.02876485195742224 0 -0.016165771526328067 0.027686174444166385 0 -0.015109552121111718 0.024712291978993352 0 -0.015337992920947761 0.026496337116477135 0 -0.01605108825785306 0.025445663259708772 0 -0.014839755585005429 0.02623535116273781 0 -0.015477880286296951 0.026704402405821285 0 -0.015605088673074082 0.02876485195742224 0 -0.016165771526328067 0.027686174444166385 0 -0.015337992920947761 0.026496337116477135 0 -0.016165771526328067 0.027686174444166385 0 -0.017146760086535418 0.027590772096405813 0 -0.016705808063058308 0.02642898664343038 0 -0.01649208046882265 0.028872338982556287 0 -0.016165771526328067 0.027686174444166385 0 -0.017146760086535418 0.027590772096405813 0 -0.016165771526328067 0.027686174444166385 0 -0.015337992920947761 0.026496337116477135 0 -0.016705808063058308 0.02642898664343038 0 -0.015337992920947761 0.026496337116477135 0 -0.01543613017031498 0.025699783148344372 0 -0.016705808063058308 0.02642898664343038 0 -0.015337992920947761 0.026496337116477135 0 -0.015520018119743056 0.026452421233813674 0 -0.01605108825785306 0.025445663259708772 0 -0.015337992920947761 0.026496337116477135 0 -0.01543613017031498 0.025699783148344372 0 -0.015520018119743056 0.026452421233813674 0 -0.01543613017031498 0.025699783148344372 0 -0.015094560450884911 0.026102640642634827 0 -0.015520018119743056 0.026452421233813674 0 -0.01543613017031498 0.025699783148344372 0 -0.015094560450884911 0.026102640642634827 0 -0.014757300951697177 0.024644115502436417 0 -0.01543613017031498 0.025699783148344372 0 -0.016521367315456371 0.024896719966409197 0 -0.016705808063058308 0.02642898664343038 0 -0.017616781530176016 0.02742799396567348 0 -0.016906348949856268 0.028132217134578513 0 -0.016079628102927533 0.026730297768351428 0 -0.017616781530176016 0.02742799396567348 0 -0.017781166050417754 0.02848061633723219 0 -0.016906348949856268 0.028132217134578513 0 -0.017616781530176016 0.02742799396567348 0 -0.017781166050417754 0.02848061633723219 0 -0.018824731465704361 0.027906454367626989 0 -0.017781166050417754 0.02848061633723219 0 -0.016906348949856268 0.028132217134578513 0 -0.017086304417279739 0.028973352112456153 0 -0.016906348949856268 0.028132217134578513 0 -0.016079628102927533 0.026730297768351428 0 -0.015911769385480726 0.028791733000818776 0 -0.015919814437502025 0.027166124297442543 0 -0.01528868528882364 0.026083203616656288 0 -0.015094560450884911 0.026102640642634827 0 -0.016079628102927533 0.026730297768351428 0 -0.015232477706613156 0.026288379842083407 0 -0.014908526535244269 0.025834009291749251 0 -0.01528868528882364 0.026083203616656288 0 -0.015094560450884911 0.026102640642634827 0 -0.016079628102927533 0.026730297768351428 0 -0.015520018119743056 0.026452421233813674 0 -0.016079628102927533 0.026730297768351428 0 -0.015520018119743056 0.026452421233813674 0 -0.016782437996505088 0.026223908662100389 0 -0.015520018119743056 0.026452421233813674 0 -0.016782437996505088 0.026223908662100389 0 -0.01605108825785306 0.025445663259708772 0 -0.017616781530176016 0.02742799396567348 0 -0.016782437996505088 0.026223908662100389 0 -0.018590774737646289 0.026753255060820848 0 -0.017616781530176016 0.02742799396567348 0 -0.016079628102927533 0.026730297768351428 0 -0.016782437996505088 0.026223908662100389 0 -0.016782437996505088 0.026223908662100389 0 -0.017724654175982391 0.024636958246559159 0 -0.018590774737646289 0.026753255060820848 0 -0.016782437996505088 0.026223908662100389 0 -0.01605108825785306 0.025445663259708772 0 -0.017724654175982391 0.024636958246559159 0 -0.016261566780075488 0.0239156956637964 0 -0.015109552121111718 0.024712291978993352 0 -0.01605108825785306 0.025445663259708772 0 -0.016261566780075488 0.0239156956637964 0 -0.01605108825785306 0.025445663259708772 0 -0.017724654175982391 0.024636958246559159 0 -0.018127463956856219 0.024257505394891053 0 -0.019091875549848272 0.025339119479039839 0 -0.020154880986068775 0.02569345828326685 0 -0.020442200742916632 0.025501368467942681 0 -0.020113963320626559 0.026171613270877355 0 -0.020194989066797051 0.025907775727924989 0 -0.020154880986068775 0.02569345828326685 0 -0.020442200742916632 0.025501368467942681 0 -0.020442200742916632 0.025501368467942681 0 -0.020113963320626559 0.026171613270877355 0 -0.02112863904163937 0.02633205999657524 0 -0.020113963320626559 0.026171613270877355 0 -0.02112863904163937 0.02633205999657524 0 -0.021467230384079453 0.026950433390611594 0 -0.019091875549848272 0.025339119479039839 0 -0.020023878509008369 0.026067171967350235 0 -0.017724654175982391 0.024636958246559159 0 -0.020113963320626559 0.026171613270877355 0 -0.018590774737646289 0.026753255060820848 0 -0.024081474204446045 0.030051082190119326 0 -0.025735826992991588 0.029203648866494004 0 -0.022674767327869213 0.027781884989186639 0 -0.023026405950167101 0.027366315388385604 0 -0.022663043006246015 0.026733613552745183 0 -0.025735826992991588 0.029203648866494004 0 -0.022674767327869213 0.027781884989186639 0 -0.022633666043417645 0.026675240068232568 0 -0.020442200742916632 0.025501368467942681 0 -0.02112863904163937 0.02633205999657524 0 -0.022633666043417645 0.026675240068232568 0 -0.02112863904163937 0.02633205999657524 0 -0.022633666043417645 0.026675240068232568 0 -0.021467230384079453 0.026950433390611594 0 -0.022633666043417645 0.026675240068232568 0 -0.022468711771285527 0.02708210748179795 0 -0.021467230384079453 0.026950433390611594 0 -0.022674767327869213 0.027781884989186639 0 -0.022633666043417645 0.026675240068232568 0 -0.022883177026517914 0.027187670609755271 0 -0.022633666043417645 0.026675240068232568 0 -0.022468711771285527 0.02708210748179795 0 -0.022883177026517914 0.027187670609755271 0 -0.022787229492345535 0.027365909820100849 0 -0.022468711771285527 0.02708210748179795 0 -0.022883177026517914 0.027187670609755271 0 -0.022787229492345535 0.027365909820100849 0 -0.022009018543221615 0.027882787025164231 0 -0.022898000791276057 0.027961811661531111 0 -0.022787229492345535 0.027365909820100849 0 -0.022468711771285527 0.02708210748179795 0 -0.022009018543221615 0.027882787025164231 0 -0.022468711771285527 0.02708210748179795 0 -0.021467230384079453 0.026950433390611594 0 -0.022009018543221615 0.027882787025164231 0 -0.021467230384079453 0.026950433390611594 0 -0.022009018543221615 0.027882787025164231 0 -0.0203612381845059 0.02757123088051066 0 -0.022009018543221615 0.027882787025164231 0 -0.020827267669704299 0.02868026621627855 0 -0.021764721017913199 0.028928717104549508 0 -0.022009018543221615 0.027882787025164231 0 -0.0203612381845059 0.02757123088051066 0 -0.020827267669704299 0.02868026621627855 0 -0.022009018543221615 0.027882787025164231 0 -0.022485189060550474 0.028663428624871 0 -0.021764721017913199 0.028928717104549508 0 -0.022009018543221615 0.027882787025164231 0 -0.022485189060550474 0.028663428624871 0 -0.022898000791276057 0.027961811661531111 0 -0.018590774737646289 0.026753255060820848 0 -0.0203612381845059 0.02757123088051066 0 -0.018824731465704361 0.027906454367626989 0 -0.020113963320626559 0.026171613270877355 0 -0.018590774737646289 0.026753255060820848 0 -0.0203612381845059 0.02757123088051066 0 -0.020113963320626559 0.026171613270877355 0 -0.021467230384079453 0.026950433390611594 0 -0.0203612381845059 0.02757123088051066 0 -0.0203612381845059 0.02757123088051066 0 -0.019755886674512578 0.028518592490025675 0 -0.020827267669704299 0.02868026621627855 0 -0.0203612381845059 0.02757123088051066 0 -0.019755886674512578 0.028518592490025675 0 -0.018824731465704361 0.027906454367626989 0 -0.019755886674512578 0.028518592490025675 0 -0.018824731465704361 0.027906454367626989 0 -0.018785441332814925 0.029023870472733915 0 -0.017616781530176016 0.02742799396567348 0 -0.018590774737646289 0.026753255060820848 0 -0.018824731465704361 0.027906454367626989 0 -0.017781166050417754 0.02848061633723219 0 -0.018824731465704361 0.027906454367626989 0 -0.018785441332814925 0.029023870472733915 0 -0.019755886674512578 0.028518592490025675 0 -0.018785441332814925 0.029023870472733915 0 -0.019787698866585331 0.029716871400710866 0 -0.017781166050417754 0.02848061633723219 0 -0.018785441332814925 0.029023870472733915 0 -0.017838916950401885 0.029529863493180104 0 -0.018785441332814925 0.029023870472733915 0 -0.018616385379588995 0.029934381738191785 0 -0.017838916950401885 0.029529863493180104 0 -0.018785441332814925 0.029023870472733915 0 -0.019787698866585331 0.029716871400710866 0 -0.018616385379588995 0.029934381738191785 0 -0.019755886674512578 0.028518592490025675 0 -0.020827267669704299 0.02868026621627855 0 -0.019787698866585331 0.029716871400710866 0 -0.020827267669704299 0.02868026621627855 0 -0.019787698866585331 0.029716871400710866 0 -0.021049599758096213 0.029794048966386277 0 -0.019787698866585331 0.029716871400710866 0 -0.020291347450461905 0.030470601790388487 0 -0.021049599758096213 0.029794048966386277 0 -0.020291347450461905 0.030470601790388487 0 -0.018959299998681619 0.030528706751467134 0 -0.019545883388323623 0.031137869002255153 0 -0.019787698866585331 0.029716871400710866 0 -0.020291347450461905 0.030470601790388487 0 -0.018959299998681619 0.030528706751467134 0 -0.020291347450461905 0.030470601790388487 0 -0.021003896277624272 0.03120345358808814 0 -0.019545883388323623 0.031137869002255153 0 -0.018959299998681619 0.030528706751467134 0 -0.019545883388323623 0.031137869002255153 0 -0.017998899567764577 0.030983804868836298 0 -0.018616385379588995 0.029934381738191785 0 -0.017838916950401885 0.029529863493180104 0 -0.017998899567764577 0.030983804868836298 0 -0.018959299998681619 0.030528706751467134 0 -0.018616385379588995 0.029934381738191785 0 -0.017998899567764577 0.030983804868836298 0 -0.019787698866585331 0.029716871400710866 0 -0.018959299998681619 0.030528706751467134 0 -0.018616385379588995 0.029934381738191785 0 -0.022485189060550474 0.028663428624871 0 -0.022399094815243808 0.029777080420974409 0 -0.023386807130688452 0.028511091006891746 0 -0.022485189060550474 0.028663428624871 0 -0.021764721017913199 0.028928717104549508 0 -0.022399094815243808 0.029777080420974409 0 -0.020827267669704299 0.02868026621627855 0 -0.021764721017913199 0.028928717104549508 0 -0.021049599758096213 0.029794048966386277 0 -0.021764721017913199 0.028928717104549508 0 -0.021049599758096213 0.029794048966386277 0 -0.022399094815243808 0.029777080420974409 0 -0.021049599758096213 0.029794048966386277 0 -0.022399094815243808 0.029777080420974409 0 -0.021003896277624272 0.03120345358808814 0 -0.024269315509803706 0.026080571431115765 0 -0.021894560962135649 0.021409581730386162 0 -0.020291347450461905 0.030470601790388487 0 -0.021049599758096213 0.029794048966386277 0 -0.021003896277624272 0.03120345358808814 0 -0.027436510805087813 0.01999981241813897 0 -0.027907226698797374 0.021609143786275636 0 -0.028676320114274335 0.019577578510965119 0 -0.027436510805087813 0.01999981241813897 0 -0.027907226698797374 0.021609143786275636 0 -0.025824911660643348 0.021375860678608277 0 -0.038811884952491202 0.014271511724937741 0 -0.03863279990376723 0.014611088844853227 0 -0.039085319755744433 0.01432017705368979 0 -0.032688483194747008 0.016384632956576058 0 -0.021894560962135649 0.021409581730386162 0 -0.029357188449373323 0.013847391920547849 0 -0.022795626969440642 0.013017960785837 0 -0.025997520604334721 0.016770728826693563 0 -0.022795626969440642 0.013017960785837 0 -0.025997520604334721 0.016770728826693563 0 -0.023147384926623299 0.01909994007433902 0 -0.02222070454366417 0.015688115119525014 0 -0.031074467098535067 0.011777099686901313 0 -0.025997520604334721 0.016770728826693563 0 -0.023147384926623299 0.01909994007433902 0 -0.027452746030550795 0.018909830947769619 0 -0.031074467098535067 0.011777099686901313 0 -0.014543963842995548 0.012037037587514073 0 -0.021780366827799696 0.012504613982788506 0 -0.0296916898669791 0.01217784339313621 0 -0.016875598168668401 0.016135180952599883 0 -0.032688483194747008 0.016384632956576058 0 -0.031074467098535067 0.011777099686901313 0 -0.029357188449373323 0.013847391920547849 0 -0.025997520604334721 0.016770728826693563 0 -0.027452746030550795 0.018909830947769619 0 -0.017778321662529645 0.020689802705638249 0 -0.017684956907835576 0.021764226340528794 0 -0.016756139702843415 0.020572955789658742 0 -0.01525744625195008 0.016976749285219722 0 -0.015192391207503028 0.022794404452365222 0 -0.0090457020373238689 0.016431225732454136 0 -0.010698351768713532 0.016669117532359824 0 -0.011795805135839816 0.020220498479268285 0 -0.018842641684635831 0.026005521885798751 0 -0.015192391207503028 0.022794404452365222 0 -0.010698351768713532 0.016669117532359824 0 -0.011828436996532249 0.017613170467162521 0 -0.011795805135839816 0.020220498479268285 0 -0.021894560962135649 0.021409581730386162 0 -0.018842641684635831 0.026005521885798751 0 -0.021894560962135649 0.021409581730386162 0 -0.01525744625195008 0.016976749285219722 0 -0.01881553904700109 0.020816652766763841 0 -0.017778321662529645 0.020689802705638249 0 -0.017684956907835576 0.021764226340528794 0 -0.023147384926623299 0.01909994007433902 0 -0.019063964181162452 0.019208523458956881 0 -0.017738341425854402 0.017458838236902439 0 -0.022795626969440642 0.013017960785837 0 -0.023147384926623299 0.01909994007433902 0 -0.017738341425854402 0.017458838236902439 0 -0.02222070454366417 0.015688115119525014 0 -0.015385216662151259 0.01521107869569013 0 -0.021780366827799696 0.012504613982788506 0 -0.01429284013092114 0.012711850147500849 0 -0.016875598168668401 0.016135180952599883 0 -0.010628102650948658 0.013912532333297234 0 -0.011045457898071785 0.013567104074444596 0 -0.010227256060071707 0.013365787693871234 0 -0.015385216662151259 0.01521107869569013 0 -0.01525744625195008 0.016976749285219722 0 -0.015385216662151259 0.01521107869569013 0 -0.014543963842995548 0.012037037587514073 0 -0.015005042622476842 0.015928885279872056 0 -0.014268882845400656 0.014955465779448377 0 -0.013110283040163234 0.015978801879769321 0 -0.015385216662151259 0.01521107869569013 0 -0.011687019683895589 0.015451839774755399 0 -0.010628102650948658 0.013912532333297234 0 -0.011628616997618409 0.013930189828667229 0 -0.011045457898071785 0.013567104074444596 0 -0.01525744625195008 0.016976749285219722 0 -0.011687019683895589 0.015451839774755399 0 -0.0090457020373238689 0.016431225732454136 0 -0.010698351768713532 0.016669117532359824 0 -0.010388875737012204 0.015214084634126381 0 -0.010698351768713532 0.016669117532359824 0 -0.011580597952566423 0.016054341055993626 0 -0.011828436996532249 0.017613170467162521 0 -0.010698351768713532 0.016669117532359824 0 -0.011580597952566423 0.016054341055993626 0 -0.010940561719521097 0.015194447968421537 0 -0.010698351768713532 0.016669117532359824 0 -0.010388875737012204 0.015214084634126381 0 -0.010940561719521097 0.015194447968421537 0 -0.011580597952566423 0.016054341055993626 0 -0.010940561719521097 0.015194447968421537 0 -0.01235300141496299 0.014827720811769522 0 -0.011687019683895589 0.015451839774755399 0 -0.011386072575512659 0.015432827002502121 0 -0.011580597952566423 0.016054341055993626 0 -0.01235300141496299 0.014827720811769522 0 -0.012748713369043537 0.016006840388037943 0 -0.014174621383457469 0.01677496340114059 0 -0.012748713369043537 0.016006840388037943 0 -0.014239090603450338 0.014508588497206727 0 -0.01235300141496299 0.014827720811769522 0 -0.012748713369043537 0.016006840388037943 0 -0.014239090603450338 0.014508588497206727 0 -0.014174621383457469 0.01677496340114059 0 -0.013062447896555349 0.017205658252136633 0 -0.012748713369043537 0.016006840388037943 0 -0.011580597952566423 0.016054341055993626 0 -0.012748713369043537 0.016006840388037943 0 -0.011828436996532249 0.017613170467162521 0 -0.013062447896555349 0.017205658252136633 0 -0.012748713369043537 0.016006840388037943 0 -0.011828436996532249 0.017613170467162521 0 -0.013062447896555349 0.017205658252136633 0 -0.011828436996532249 0.017613170467162521 0 -0.013479968321959022 0.018438047132900159 0 -0.011828436996532249 0.017613170467162521 0 -0.013479968321959022 0.018438047132900159 0 -0.012587398748602773 0.019174298577269582 0 -0.014174621383457469 0.01677496340114059 0 -0.013062447896555349 0.017205658252136633 0 -0.013479968321959022 0.018438047132900159 0 -0.013479968321959022 0.018438047132900159 0 -0.012587398748602773 0.019174298577269582 0 -0.013270214542412086 0.020455185094442743 0 -0.013479968321959022 0.018438047132900159 0 -0.014591269338213503 0.019654929708081983 0 -0.013270214542412086 0.020455185094442743 0 -0.011828436996532249 0.017613170467162521 0 -0.012587398748602773 0.019174298577269582 0 -0.011795805135839816 0.020220498479268285 0 -0.012587398748602773 0.019174298577269582 0 -0.011795805135839816 0.020220498479268285 0 -0.013270214542412086 0.020455185094442743 0 -0.01530407245490566 0.017691089510242373 0 -0.017414166878946244 0.015368924375528345 0 -0.016551031062707295 0.020265450864349475 0 -0.014591269338213503 0.019654929708081983 0 -0.01530407245490566 0.017691089510242373 0 -0.016551031062707295 0.020265450864349475 0 -0.013479968321959022 0.018438047132900159 0 -0.014591269338213503 0.019654929708081983 0 -0.01530407245490566 0.017691089510242373 0 -0.014174621383457469 0.01677496340114059 0 -0.013479968321959022 0.018438047132900159 0 -0.01530407245490566 0.017691089510242373 0 -0.015461685007215724 0.015913695311611544 0 -0.017414166878946244 0.015368924375528345 0 -0.014239090603450338 0.014508588497206727 0 -0.01530407245490566 0.017691089510242373 0 -0.015461685007215724 0.015913695311611544 0 -0.017414166878946244 0.015368924375528345 0 -0.014174621383457469 0.01677496340114059 0 -0.01530407245490566 0.017691089510242373 0 -0.015461685007215724 0.015913695311611544 0 -0.014174621383457469 0.01677496340114059 0 -0.015461685007215724 0.015913695311611544 0 -0.014239090603450338 0.014508588497206727 0 -0.010854648868220568 0.01745462885956163 0 -0.012817454105777837 0.019816228407556792 0 -0.014011082014479289 0.016567931249855613 0 -0.013752215330304641 0.016142933448863906 0 -0.014114263398943951 0.020892543927022326 0 -0.012817454105777837 0.019816228407556792 0 -0.014011082014479289 0.016567931249855613 0 -0.015982308659453683 0.019876397351901567 0 -0.015018862823150084 0.021537301369919791 0 -0.015040534373367814 0.022666637840002925 0 -0.015304569794456135 0.022141077258787837 0 -0.012817454105777837 0.019816228407556792 0 -0.015304569794456135 0.022141077258787837 0 -0.015982308659453683 0.019876397351901567 0 -0.014114263398943951 0.020892543927022326 0 -0.015002712562920873 0.021873659043049831 0 -0.014373481339128543 0.020615897329674851 0 -0.015018862823150084 0.021537301369919791 0 -0.01402139373125267 0.022409377236983934 0 -0.015018862823150084 0.021537301369919791 0 -0.015040534373367814 0.022666637840002925 0 -0.01402139373125267 0.022409377236983934 0 -0.013752215330304641 0.016142933448863906 0 -0.015486585113560243 0.021500101653940857 0 -0.015040534373367814 0.022666637840002925 0 -0.015197431499651741 0.024101845646666349 0 -0.01402139373125267 0.022409377236983934 0 -0.015304569794456135 0.022141077258787837 0 -0.015959344244532603 0.023415798582783368 0 -0.016803209499474784 0.022180819375341793 0 -0.015040534373367814 0.022666637840002925 0 -0.015304569794456135 0.022141077258787837 0 -0.015959344244532603 0.023415798582783368 0 -0.015040534373367814 0.022666637840002925 0 -0.015959344244532603 0.023415798582783368 0 -0.015197431499651741 0.024101845646666349 0 -0.01543613017031498 0.025699783148344372 0 -0.016521367315456371 0.024896719966409197 0 -0.015197431499651741 0.024101845646666349 0 -0.016521367315456371 0.024896719966409197 0 -0.015959344244532603 0.023415798582783368 0 -0.015197431499651741 0.024101845646666349 0 -0.015197431499651741 0.024101845646666349 0 -0.014757300951697177 0.024644115502436417 0 -0.01402139373125267 0.022409377236983934 0 -0.01543613017031498 0.025699783148344372 0 -0.015197431499651741 0.024101845646666349 0 -0.014757300951697177 0.024644115502436417 0 -0.015094560450884911 0.026102640642634827 0 -0.014757300951697177 0.024644115502436417 0 -0.013864853201515327 0.025005146315500854 0 -0.014757300951697177 0.024644115502436417 0 -0.013864853201515327 0.025005146315500854 0 -0.01402139373125267 0.022409377236983934 0 -0.0154783407282448 0.025202182001908196 0 -0.013633313874278937 0.022724563892980977 0 -0.014686373062030954 0.021649430464674092 0 -0.01528868528882364 0.026083203616656288 0 -0.015631272478144661 0.02673803484919374 0 -0.016906348949856268 0.028132217134578513 0 -0.015911769385480726 0.028791733000818776 0 -0.017086304417279739 0.028973352112456153 0 -0.015911769385480726 0.028791733000818776 0 -0.017086304417279739 0.028973352112456153 0 -0.017042834075481909 0.029916663919251428 0 -0.017781166050417754 0.02848061633723219 0 -0.017086304417279739 0.028973352112456153 0 -0.017838916950401885 0.029529863493180104 0 -0.017086304417279739 0.028973352112456153 0 -0.017838916950401885 0.029529863493180104 0 -0.017042834075481909 0.029916663919251428 0 -0.013633313874278937 0.022724563892980977 0 -0.013270214542412086 0.020455185094442743 0 -0.014686373062030954 0.021649430464674092 0 -0.017838916950401885 0.029529863493180104 0 -0.017042834075481909 0.029916663919251428 0 -0.017998899567764577 0.030983804868836298 0 -0.015631272478144661 0.02673803484919374 0 -0.015192391207503028 0.022794404452365222 0 -0.013633313874278937 0.022724563892980977 0 -0.011883337169850247 0.020314000954247902 0 -0.013270214542412086 0.020455185094442743 0 -0.015192391207503028 0.022794404452365222 0 -0.012697585399550952 0.021448196186735071 0 -0.014591269338213503 0.019654929708081983 0 -0.013270214542412086 0.020455185094442743 0 -0.014686373062030954 0.021649430464674092 0 -0.0154783407282448 0.025202182001908196 0 -0.016551031062707295 0.020265450864349475 0 -0.014686373062030954 0.021649430464674092 0 -0.01528868528882364 0.026083203616656288 0 -0.015486585113560243 0.021500101653940857 0 -0.014591269338213503 0.019654929708081983 0 -0.016551031062707295 0.020265450864349475 0 -0.014686373062030954 0.021649430464674092 0 -0.03499999147901748 0.013283288305339414 0 -0.035360891223657806 0.014807438317235551 0 -0.035180463794677493 0.012995654797411623 0 -0.03535608318677802 0.01528285763329432 0 -0.035101633635014201 0.01363894571433715 0 -0.035400553533308829 0.014804531014267838 0 -0.03538193195558724 0.015783012137586424 0 -0.034967779448280653 0.014319383321812 0 -0.035625940769964795 0.015068243093503251 0 -0.035400553533308829 0.014804531014267838 0 -0.03538193195558724 0.015783012137586424 0 -0.035625940769964795 0.015068243093503251 0 -0.035987464430117168 0.014803047173514505 0 -0.03605779718296704 0.015238646599682078 0 -0.035625940769964795 0.015068243093503251 0 -0.03605779718296704 0.015238646599682078 0 -0.035740916140179178 0.01546006090577544 0 -0.035400553533308829 0.014804531014267838 0 -0.035406856645577904 0.01437622566380067 0 -0.034967779448280653 0.014319383321812 0 -0.035625940769964795 0.015068243093503251 0 -0.035400553533308829 0.014804531014267838 0 -0.035744759087191748 0.014419618701426273 0 -0.035625940769964795 0.015068243093503251 0 -0.035744759087191748 0.014419618701426273 0 -0.035987464430117168 0.014803047173514505 0 -0.035400553533308829 0.014804531014267838 0 -0.035744759087191748 0.014419618701426273 0 -0.035406856645577904 0.01437622566380067 0 -0.035744759087191748 0.014419618701426273 0 -0.036196777560141821 0.014412128451384365 0 -0.035987464430117168 0.014803047173514505 0 -0.036196777560141821 0.014412128451384365 0 -0.035987464430117168 0.014803047173514505 0 -0.036406402031201879 0.014870309001464136 0 -0.036406402031201879 0.014870309001464136 0 -0.036910472530033579 0.01487042547641927 0 -0.036638686621704469 0.014240641603869326 0 -0.036196777560141821 0.014412128451384365 0 -0.036406402031201879 0.014870309001464136 0 -0.036638686621704469 0.014240641603869326 0 -0.036406402031201879 0.014870309001464136 0 -0.036531154765564504 0.015427829596163017 0 -0.036910472530033579 0.01487042547641927 0 -0.036406402031201879 0.014870309001464136 0 -0.03605779718296704 0.015238646599682078 0 -0.036531154765564504 0.015427829596163017 0 -0.035987464430117168 0.014803047173514505 0 -0.036406402031201879 0.014870309001464136 0 -0.03605779718296704 0.015238646599682078 0 -0.03605779718296704 0.015238646599682078 0 -0.036015243810858036 0.015745396258239255 0 -0.035740916140179178 0.01546006090577544 0 -0.03605779718296704 0.015238646599682078 0 -0.036531154765564504 0.015427829596163017 0 -0.036015243810858036 0.015745396258239255 0 -0.036531154765564504 0.015427829596163017 0 -0.036015243810858036 0.015745396258239255 0 -0.036634769000430535 0.016171202805320212 0 -0.036015243810858036 0.015745396258239255 0 -0.035963549589132442 0.016340655705373942 0 -0.036634769000430535 0.016171202805320212 0 -0.03499999147901748 0.013283288305339414 0 -0.035360891223657806 0.014807438317235551 0 -0.03500001953626785 0.01538270607415335 0 -0.036015243810858036 0.015745396258239255 0 -0.03538193195558724 0.015783012137586424 0 -0.035963549589132442 0.016340655705373942 0 -0.035625940769964795 0.015068243093503251 0 -0.035740916140179178 0.01546006090577544 0 -0.03538193195558724 0.015783012137586424 0 -0.036015243810858036 0.015745396258239255 0 -0.035740916140179178 0.01546006090577544 0 -0.03538193195558724 0.015783012137586424 0 -0.03538193195558724 0.015783012137586424 0 -0.035525448423880369 0.017069742032153327 0 -0.035963549589132442 0.016340655705373942 0 -0.03535608318677802 0.01528285763329432 0 -0.035533093209553099 0.016867355036898759 0 -0.035360891223657806 0.014807438317235551 0 -0.03500001953626785 0.01538270607415335 0 -0.035545406253200539 0.016617237921053147 0 -0.035525448423880369 0.017069742032153327 0 -0.03626440445299902 0.016932312823650496 0 -0.035963549589132442 0.016340655705373942 0 -0.035650497847422226 0.018476132432054558 0 -0.035525448423880369 0.017069742032153327 0 -0.03614842971623454 0.017666655692280347 0 -0.03500001953626785 0.01538270607415335 0 -0.03499993458957195 0.017482317502008272 0 -0.035545406253200539 0.016617237921053147 0 -0.036715834368441586 0.017543443069161255 0 -0.03626440445299902 0.016932312823650496 0 -0.037232638062253964 0.016875270587440878 0 -0.036715834368441586 0.017543443069161255 0 -0.03614842971623454 0.017666655692280347 0 -0.03626440445299902 0.016932312823650496 0 -0.035525448423880369 0.017069742032153327 0 -0.03614842971623454 0.017666655692280347 0 -0.03626440445299902 0.016932312823650496 0 -0.03626440445299902 0.016932312823650496 0 -0.036634769000430535 0.016171202805320212 0 -0.037232638062253964 0.016875270587440878 0 -0.03626440445299902 0.016932312823650496 0 -0.035963549589132442 0.016340655705373942 0 -0.036634769000430535 0.016171202805320212 0 -0.036634769000430535 0.016171202805320212 0 -0.037312186308742543 0.016121756451485964 0 -0.037232638062253964 0.016875270587440878 0 -0.037312186308742543 0.016121756451485964 0 -0.037232638062253964 0.016875270587440878 0 -0.03787426633553647 0.01644750182636532 0 -0.037374123289317301 0.017959325421642185 0 -0.037232638062253964 0.016875270587440878 0 -0.037981158658860176 0.017411358209944799 0 -0.037374123289317301 0.017959325421642185 0 -0.036715834368441586 0.017543443069161255 0 -0.037232638062253964 0.016875270587440878 0 -0.037232638062253964 0.016875270587440878 0 -0.037981158658860176 0.017411358209944799 0 -0.03787426633553647 0.01644750182636532 0 -0.037981158658860176 0.017411358209944799 0 -0.03787426633553647 0.01644750182636532 0 -0.038549628849680419 0.016798252717956062 0 -0.037686651573545504 0.015576301777104491 0 -0.038135206240303435 0.015157340496203084 0 -0.038227836740864406 0.015918717813779237 0 -0.03787426633553647 0.01644750182636532 0 -0.037686651573545504 0.015576301777104491 0 -0.038227836740864406 0.015918717813779237 0 -0.037312186308742543 0.016121756451485964 0 -0.03787426633553647 0.01644750182636532 0 -0.037686651573545504 0.015576301777104491 0 -0.037312186308742543 0.016121756451485964 0 -0.037686651573545504 0.015576301777104491 0 -0.037077721174483901 0.015543706062459547 0 -0.036634769000430535 0.016171202805320212 0 -0.037312186308742543 0.016121756451485964 0 -0.037077721174483901 0.015543706062459547 0 -0.036531154765564504 0.015427829596163017 0 -0.036634769000430535 0.016171202805320212 0 -0.037077721174483901 0.015543706062459547 0 -0.037686651573545504 0.015576301777104491 0 -0.037077721174483901 0.015543706062459547 0 -0.037510176840472101 0.014792140656518626 0 -0.037077721174483901 0.015543706062459547 0 -0.036910472530033579 0.01487042547641927 0 -0.037510176840472101 0.014792140656518626 0 -0.036531154765564504 0.015427829596163017 0 -0.037077721174483901 0.015543706062459547 0 -0.036910472530033579 0.01487042547641927 0 -0.036910472530033579 0.01487042547641927 0 -0.037510176840472101 0.014792140656518626 0 -0.037113244524875966 0.014351803176086106 0 -0.037510176840472101 0.014792140656518626 0 -0.038135206240303435 0.015157340496203084 0 -0.037950107807341919 0.014219475070113743 0 -0.037686651573545504 0.015576301777104491 0 -0.037510176840472101 0.014792140656518626 0 -0.038135206240303435 0.015157340496203084 0 -0.038135206240303435 0.015157340496203084 0 -0.038846430600902065 0.015611630400807501 0 -0.038726530698034431 0.014764849248492369 0 -0.038846430600902065 0.015611630400807501 0 -0.039084440507315452 0.015124423382820105 0 -0.038726530698034431 0.014764849248492369 0 -0.039084440507315452 0.015124423382820105 0 -0.039242607811148272 0.014769889001405622 0 -0.038726530698034431 0.014764849248492369 0 -0.038135206240303435 0.015157340496203084 0 -0.038846430600902065 0.015611630400807501 0 -0.038227836740864406 0.015918717813779237 0 -0.038846430600902065 0.015611630400807501 0 -0.038227836740864406 0.015918717813779237 0 -0.038549628849680419 0.016798252717956062 0 -0.03787426633553647 0.01644750182636532 0 -0.038227836740864406 0.015918717813779237 0 -0.038549628849680419 0.016798252717956062 0 -0.039067279922042515 0.017572451273517413 0 -0.038283877666620517 0.017934820538182159 0 -0.038549628849680419 0.016798252717956062 0 -0.038283877666620517 0.017934820538182159 0 -0.037981158658860176 0.017411358209944799 0 -0.038549628849680419 0.016798252717956062 0 -0.039067279922042515 0.017572451273517413 0 -0.038549628849680419 0.016798252717956062 0 -0.039374136403092133 0.016495201718822457 0 -0.038846430600902065 0.015611630400807501 0 -0.038549628849680419 0.016798252717956062 0 -0.039374136403092133 0.016495201718822457 0 -0.02353709778350712 0.02706110982515491 0 -0.023305339967413626 0.027240256301122676 0 -0.023076752326958175 0.027226982108457549 0 -0.030985453836355321 0.022353260208303378 0 -0.031400910788583994 0.021872048528919143 0 -0.022674767327869213 0.027781884989186639 0 -0.023076752326958175 0.027226982108457549 0 -0.022883177026517914 0.027187670609755271 0 -0.023305339967413626 0.027240256301122676 0 -0.022883177026517914 0.027187670609755271 0 -0.023057214224332576 0.02738383355743133 0 -0.022787229492345535 0.027365909820100849 0 -0.022883177026517914 0.027187670609755271 0 -0.023057214224332576 0.02738383355743133 0 -0.023305339967413626 0.027240256301122676 0 -0.023076752326958175 0.027226982108457549 0 -0.022883177026517914 0.027187670609755271 0 -0.022787229492345535 0.027365909820100849 0 -0.023034851309732395 0.027579992573289591 0 -0.023057214224332576 0.02738383355743133 0 -0.022787229492345535 0.027365909820100849 0 -0.023034851309732395 0.027579992573289591 0 -0.022898000791276057 0.027961811661531111 0 -0.023034851309732395 0.027579992573289591 0 -0.023057214224332576 0.02738383355743133 0 -0.023403696890204211 0.027764504345599756 0 -0.031400910788583994 0.021872048528919143 0 -0.031368212522805521 0.021555097075448108 0 -0.023305339967413626 0.027240256301122676 0 -0.023057214224332576 0.02738383355743133 0 -0.023403696890204211 0.027764504345599756 0 -0.038846430600902065 0.015611630400807501 0 -0.039374136403092133 0.016495201718822457 0 -0.039523830510227759 0.015379484102264276 0 -0.039523830510227759 0.015379484102264276 0 -0.039457758344355255 0.01488213151213726 0 -0.039242607811148272 0.014769889001405622 0 -0.039084440507315452 0.015124423382820105 0 -0.039523830510227759 0.015379484102264276 0 -0.039242607811148272 0.014769889001405622 0 -0.038846430600902065 0.015611630400807501 0 -0.039084440507315452 0.015124423382820105 0 -0.039523830510227759 0.015379484102264276 0 -0.031368212522805521 0.021555097075448108 0 -0.029428604045975196 0.021396269295384438 0 -0.022485189060550474 0.028663428624871 0 -0.022898000791276057 0.027961811661531111 0 -0.023386807130688452 0.028511091006891746 0 -0.023034851309732395 0.027579992573289591 0 -0.022898000791276057 0.027961811661531111 0 -0.023403696890204211 0.027764504345599756 0 -0.022898000791276057 0.027961811661531111 0 -0.023403696890204211 0.027764504345599756 0 -0.023386807130688452 0.028511091006891746 0 -0.039356504479764784 0.01457338196228691 0 -0.039457758344355255 0.01488213151213726 0 -0.039242607811148272 0.014769889001405622 0 -0.024269315509803706 0.026080571431115765 0 -0.029428604045975196 0.021396269295384438 0 -0.027436510805087813 0.01999981241813897 0 -0.028676320114274335 0.019577578510965119 0 -0.029039652772055731 0.018676016569989774 0 -0.033964067056725319 0.016967148254180574 0 -0.029428604045975196 0.021396269295384438 0 -0.039356504479764784 0.01457338196228691 0 -0.039242607811148272 0.014769889001405622 0 -0.039201127381547358 0.014474118078280428 0 -0.039242607811148272 0.014769889001405622 0 -0.039201127381547358 0.014474118078280428 0 -0.039021434563680006 0.014360710799652345 0 -0.039201127381547358 0.014474118078280428 0 -0.03912369655171738 0.014349007310186131 0 -0.039021434563680006 0.014360710799652345 0 -0.039201127381547358 0.014474118078280428 0 -0.039185349326153293 0.014413218500043954 0 -0.03912369655171738 0.014349007310186131 0 -0.039161542659377144 0.014331473500213366 0 -0.039356504479764784 0.01457338196228691 0 -0.039185349326153293 0.014413218500043954 0 -0.032688483194747008 0.016384632956576058 0 -0.033964067056725319 0.016967148254180574 0 -0.039356504479764784 0.01457338196228691 0 -0.039201127381547358 0.014474118078280428 0 -0.039185349326153293 0.014413218500043954 0 -0.039161542659377144 0.014331473500213366 0 -0.039185349326153293 0.014413218500043954 0 -0.039085319755744433 0.01432017705368979 0 -0.032688483194747008 0.016384632956576058 0 -0.039906020104775411 0.015313029197718242 0 -0.039085319755744433 0.01432017705368979 0 -0.039136914187944016 0.014406180902638802 0 -0.03912369655171738 0.014349007310186131 0 -0.039185349326153293 0.014413218500043954 0 -0.039085319755744433 0.01432017705368979 0 -0.03912369655171738 0.014349007310186131 0 -0.031074467098535067 0.011777099686901313 0 -0.034401335431199324 0.0077341992552941189 0 -0.030918813258095288 0.0057097926574219537 0 -0.033175897819905549 0.0055678481710714186 0 -0.031790509338461649 0.0061896328518742322 0 -0.03863279990376723 0.014611088844853227 0 -0.039085319755744433 0.01432017705368979 0 -0.039136914187944016 0.014406180902638802 0 -0.031074467098535067 0.011777099686901313 0 -0.038110525810076845 0.012248229928599579 0 -0.032596040602809524 0.010997735977868871 0 -0.035214086382091996 0.010182642364245965 0 -0.035390201712567383 0.010912994760284152 0 -0.034401335431199324 0.0077341992552941189 0 -0.037090839092044581 0.0087302457995346219 0 -0.035214086382091996 0.010182642364245965 0 -0.035390201712567383 0.010912994760284152 0 -0.037694261025254305 0.0094326203035292513 0 -0.033175897819905549 0.0055678481710714186 0 -0.035779546072635997 0.00550514721671427 0 -0.034382433586573224 0.0065848788986365122 0 -0.039136914187944016 0.014406180902638802 0 -0.03912369655171738 0.014349007310186131 0 -0.039093417229900111 0.014326083968432109 0 -0.038110525810076845 0.012248229928599579 0 -0.038246187451410625 0.012356246627657847 0 -0.035390201712567383 0.010912994760284152 0 -0.037694261025254305 0.0094326203035292513 0 -0.038041555819280169 0.010829752386977969 0 -0.038246187451410625 0.012356246627657847 0 -0.037090839092044581 0.0087302457995346219 0 -0.038327746389128621 0.010914812873157839 0 -0.038235079026641139 0.010543942175516468 0 -0.037988643634839295 0.010792850703356114 0 -0.037090839092044581 0.0087302457995346219 0 -0.037845935251307666 0.0077678483909094835 0 -0.038137173477210094 0.0089294267318876623 0 -0.038443253689216486 0.0086849183102797409 0 -0.038077850792378312 0.0085238538546381793 0 -0.038793949742742036 0.009195320166212044 0 -0.038227958375733728 0.0087269565208907118 0 -0.038371784930482884 0.0090693615121208351 0 -0.03833704754095036 0.0090710718130252964 0 -0.038427064490207712 0.0089936422185142445 0 -0.0383395831147555 0.0093603977009413652 0 -0.038793949742742036 0.009195320166212044 0 -0.0383395831147555 0.0093603977009413652 0 -0.038227958375733728 0.0087269565208907118 0 -0.037090839092044581 0.0087302457995346219 0 -0.0383395831147555 0.0093603977009413652 0 -0.037799828165551629 0.0086820438750436438 0 -0.0378110499132377 0.0086869563480688455 0 -0.037803877045465097 0.0086880718666039834 0 -0.037799828165551629 0.0086820438750436438 0 -0.037815966173069343 0.0086845034988947689 0 -0.0378110499132377 0.0086869563480688455 0 -0.038235079026641139 0.010543942175516468 0 -0.037888304153777759 0.010554429529468258 0 -0.037988643634839295 0.010792850703356114 0 -0.037888304153777759 0.010554429529468258 0 -0.037988643634839295 0.010792850703356114 0 -0.037636500090240575 0.010886975836771201 0 -0.038814447224090394 0.013236815327756371 0 -0.038082041206737777 0.013457486318642112 0 -0.038438049183272913 0.014014974679009144 0 -0.038327746389128621 0.010914812873157839 0 -0.037988643634839295 0.010792850703356114 0 -0.037856177503149756 0.011064033743223995 0 -0.038246187451410625 0.012356246627657847 0 -0.037965392427615513 0.01225528584351589 0 -0.037988643634839295 0.010792850703356114 0 -0.037856177503149756 0.011064033743223995 0 -0.037636500090240575 0.010886975836771201 0 -0.038082041206737777 0.013457486318642112 0 -0.038438049183272913 0.014014974679009144 0 -0.037950107807341919 0.014219475070113743 0 -0.03912369655171738 0.014349007310186131 0 -0.039093417229900111 0.014326083968432109 0 -0.039021434563680006 0.014360710799652345 0 -0.038814447224090394 0.013236815327756371 0 -0.038438049183272913 0.014014974679009144 0 -0.039021434563680006 0.014360710799652345 0 -0.038246187451410625 0.012356246627657847 0 -0.039264122434931804 0.014946607399792455 0 -0.039242607811148272 0.014769889001405622 0 -0.039021434563680006 0.014360710799652345 0 -0.038726530698034431 0.014764849248492369 0 -0.038438049183272913 0.014014974679009144 0 -0.039021434563680006 0.014360710799652345 0 -0.038726530698034431 0.014764849248492369 0 -0.038438049183272913 0.014014974679009144 0 -0.038726530698034431 0.014764849248492369 0 -0.037950107807341919 0.014219475070113743 0 -0.038135206240303435 0.015157340496203084 0 -0.038726530698034431 0.014764849248492369 0 -0.037950107807341919 0.014219475070113743 0 -0.037510176840472101 0.014792140656518626 0 -0.037950107807341919 0.014219475070113743 0 -0.037440736597647836 0.014119048320620747 0 -0.037510176840472101 0.014792140656518626 0 -0.037113244524875966 0.014351803176086106 0 -0.037440736597647836 0.014119048320620747 0 -0.036910472530033579 0.01487042547641927 0 -0.037113244524875966 0.014351803176086106 0 -0.036638686621704469 0.014240641603869326 0 -0.037113244524875966 0.014351803176086106 0 -0.036980624341727636 0.013772217992975096 0 -0.036638686621704469 0.014240641603869326 0 -0.037113244524875966 0.014351803176086106 0 -0.036980624341727636 0.013772217992975096 0 -0.037440736597647836 0.014119048320620747 0 -0.038413797140543521 0.01114376588870172 0 -0.03757019223268486 0.010655474509435572 0 -0.036946705871826108 0.0116737526246176 0 -0.036980624341727636 0.013772217992975096 0 -0.037440736597647836 0.014119048320620747 0 -0.03742295959399175 0.013556899379815518 0 -0.03772710161223667 0.012124103619570226 0 -0.036733022717989859 0.012297706986848272 0 -0.036900812014396246 0.014000991172084944 0 -0.03772710161223667 0.012124103619570226 0 -0.036980624341727636 0.013772217992975096 0 -0.037907273667441489 0.012602260418560137 0 -0.036453116835356708 0.013026032764317777 0 -0.038082041206737777 0.013457486318642112 0 -0.037950107807341919 0.014219475070113743 0 -0.03742295959399175 0.013556899379815518 0 -0.037950107807341919 0.014219475070113743 0 -0.037440736597647836 0.014119048320620747 0 -0.03742295959399175 0.013556899379815518 0 -0.037965392427615513 0.01225528584351589 0 -0.03772710161223667 0.012124103619570226 0 -0.037856177503149756 0.011064033743223995 0 -0.037383868966325041 0.011222767720493671 0 -0.037636500090240575 0.010886975836771201 0 -0.038413797140543521 0.01114376588870172 0 -0.039144441583257951 0.010163462207802121 0 -0.038419461975418609 0.0104390079368157 0 -0.03772710161223667 0.012124103619570226 0 -0.03845916255164035 0.010436977771073164 0 -0.038810160811661901 0.0099531552659647329 0 -0.039144441583257951 0.010163462207802121 0 -0.038419461975418609 0.0104390079368157 0 -0.0383395831147555 0.0093603977009413652 0 -0.03845916255164035 0.010436977771073164 0 -0.038793949742742036 0.009195320166212044 0 -0.039066892608498736 0.0097200329336445002 0 -0.038793949742742036 0.009195320166212044 0 -0.037322157423613229 0.0091205750544721305 0 -0.039732891875251905 0.0092238391527211631 0 -0.038810160811661901 0.0099531552659647329 0 -0.037733492612565901 0.0092390715151400727 0 -0.038137173477210094 0.0089294267318876623 0 -0.0369044537210877 0.0090168540553647852 0 -0.03760367822771897 0.0084479018806246989 0 -0.039641591903101542 0.0092960864513200025 0 -0.038810160811661901 0.0099531552659647329 0 -0.039144441583257951 0.010163462207802121 0 -0.03980899668169996 0.0092906465767151978 0 -0.039641591903101542 0.0092960864513200025 0 -0.039144441583257951 0.010163462207802121 0 -0.038137173477210094 0.0089294267318876623 0 -0.038077850792378312 0.0085238538546381793 0 -0.03760367822771897 0.0084479018806246989 0 -0.038810160811661901 0.0099531552659647329 0 -0.037733492612565901 0.0092390715151400727 0 -0.037948755046184841 0.010021932280609009 0 -0.037733492612565901 0.0092390715151400727 0 -0.037948755046184841 0.010021932280609009 0 -0.0367682106699284 0.0097987239556451035 0 -0.037948755046184841 0.010021932280609009 0 -0.03757019223268486 0.010655474509435572 0 -0.0367682106699284 0.0097987239556451035 0 -0.037948755046184841 0.010021932280609009 0 -0.038419461975418609 0.0104390079368157 0 -0.03757019223268486 0.010655474509435572 0 -0.038810160811661901 0.0099531552659647329 0 -0.037948755046184841 0.010021932280609009 0 -0.038419461975418609 0.0104390079368157 0 -0.038413797140543521 0.01114376588870172 0 -0.038419461975418609 0.0104390079368157 0 -0.03757019223268486 0.010655474509435572 0 -0.036685878502485891 0.010806345130506961 0 -0.0367682106699284 0.0097987239556451035 0 -0.0359081907045549 0.010382383533105402 0 -0.0367682106699284 0.0097987239556451035 0 -0.036038027321909256 0.0098115602797398897 0 -0.0359081907045549 0.010382383533105402 0 -0.03757019223268486 0.010655474509435572 0 -0.036685878502485891 0.010806345130506961 0 -0.0367682106699284 0.0097987239556451035 0 -0.037322157423613229 0.0091205750544721305 0 -0.035639073685548514 0.0092417213205850997 0 -0.0369044537210877 0.0090168540553647852 0 -0.035575300720293371 0.0092548475556606773 0 -0.036230398668176157 0.0085570514056176987 0 -0.037733492612565901 0.0092390715151400727 0 -0.0367682106699284 0.0097987239556451035 0 -0.035575300720293371 0.0092548475556606773 0 -0.035575300720293371 0.0092548475556606773 0 -0.035000208635183556 0.0093455842450217864 0 -0.03528151200181525 0.0085407622898180276 0 -0.035575300720293371 0.0092548475556606773 0 -0.035796376357807601 0.0086695390203966518 0 -0.036230398668176157 0.0085570514056176987 0 -0.035575300720293371 0.0092548475556606773 0 -0.035796376357807601 0.0086695390203966518 0 -0.03528151200181525 0.0085407622898180276 0 -0.036038027321909256 0.0098115602797398897 0 -0.035000208635183556 0.0093455842450217864 0 -0.0359081907045549 0.010382383533105402 0 -0.0367682106699284 0.0097987239556451035 0 -0.035575300720293371 0.0092548475556606773 0 -0.036038027321909256 0.0098115602797398897 0 -0.035575300720293371 0.0092548475556606773 0 -0.036038027321909256 0.0098115602797398897 0 -0.035000208635183556 0.0093455842450217864 0 -0.035000208635183556 0.0093455842450217864 0 -0.0359081907045549 0.010382383533105402 0 -0.034999327776858449 0.011185290099626596 0 -0.0359081907045549 0.010382383533105402 0 -0.034999327776858449 0.011185290099626596 0 -0.035991934961820071 0.011299280518946998 0 -0.036685878502485891 0.010806345130506961 0 -0.0359081907045549 0.010382383533105402 0 -0.035991934961820071 0.011299280518946998 0 -0.034999327776858449 0.011185290099626596 0 -0.035203612559609937 0.012591034212025915 0 -0.035991934961820071 0.011299280518946998 0 -0.035203612559609937 0.012591034212025915 0 -0.035991934961820071 0.011299280518946998 0 -0.036946705871826108 0.0116737526246176 0 -0.035220290192089325 0.012644966207585723 0 -0.036733022717989859 0.012297706986848272 0 -0.035203612559609937 0.012591034212025915 0 -0.036453116835356708 0.013026032764317777 0 -0.036423375203139534 0.013535812105087154 0 -0.036685878502485891 0.010806345130506961 0 -0.035991934961820071 0.011299280518946998 0 -0.036946705871826108 0.0116737526246176 0 -0.03757019223268486 0.010655474509435572 0 -0.036685878502485891 0.010806345130506961 0 -0.036946705871826108 0.0116737526246176 0 -0.036980624341727636 0.013772217992975096 0 -0.036453116835356708 0.013026032764317777 0 -0.036423375203139534 0.013535812105087154 0 -0.036423375203139534 0.013535812105087154 0 -0.036065332315125549 0.013813562645118465 0 -0.036638686621704469 0.014240641603869326 0 -0.036980624341727636 0.013772217992975096 0 -0.036423375203139534 0.013535812105087154 0 -0.036638686621704469 0.014240641603869326 0 -0.036196777560141821 0.014412128451384365 0 -0.036065332315125549 0.013813562645118465 0 -0.036638686621704469 0.014240641603869326 0 -0.035744759087191748 0.014419618701426273 0 -0.036196777560141821 0.014412128451384365 0 -0.036065332315125549 0.013813562645118465 0 -0.03499997776368164 0.011184394952524098 0 -0.035101633635014201 0.01363894571433715 0 -0.034999327776858449 0.011185290099626596 0 -0.035203612559609937 0.012591034212025915 0 -0.034967779448280653 0.014319383321812 0 -0.03499999147901748 0.013283288305339414 0 -0.03500000006296957 0.011183800817950774 0 -0.035180463794677493 0.012995654797411623 0 -0.035203612559609937 0.012591034212025915 0 -0.036423375203139534 0.013535812105087154 0 -0.036065332315125549 0.013813562645118465 0 -0.035744759087191748 0.014419618701426273 0 -0.036065332315125549 0.013813562645118465 0 -0.035528077053121332 0.013850705937461731 0 -0.035744759087191748 0.014419618701426273 0 -0.035528077053121332 0.013850705937461731 0 -0.035406856645577904 0.01437622566380067 0 -0.035528077053121332 0.013850705937461731 0 -0.035406856645577904 0.01437622566380067 0 -0.034967779448280653 0.014319383321812 0 -0.035203612559609937 0.012591034212025915 0 -0.035528077053121332 0.013850705937461731 0 -0.034967779448280653 0.014319383321812 0 -0.035203612559609937 0.012591034212025915 0 -0.036065332315125549 0.013813562645118465 0 -0.035528077053121332 0.013850705937461731 0 -0.035682495069737315 0.0045141761843334538 0 -0.036200792996714748 0.0057252507278603322 0 -0.034999891015264607 0.005670624888120813 0 -0.035682495069737315 0.0045141761843334538 0 -0.034999891015264607 0.005670624888120813 0 -0.03499961854509577 0.0038319811988361424 0 -0.035682495069737315 0.0045141761843334538 0 -0.03671085716952837 0.0042574217868676456 0 -0.036200792996714748 0.0057252507278603322 0 -0.03671085716952837 0.0042574217868676456 0 -0.036200792996714748 0.0057252507278603322 0 -0.037788362753586928 0.0058452572041288271 0 -0.036200792996714748 0.0057252507278603322 0 -0.036445954923756935 0.0072175901153876832 0 -0.037788362753586928 0.0058452572041288271 0 -0.036200792996714748 0.0057252507278603322 0 -0.035651513453380287 0.0065249315452715166 0 -0.036445954923756935 0.0072175901153876832 0 -0.036320656077558425 0.0074089499997627211 0 -0.037510135820972478 0.0064817196857869155 0 -0.036200792996714748 0.0057252507278603322 0 -0.034999891015264607 0.005670624888120813 0 -0.035651513453380287 0.0065249315452715166 0 -0.035651513453380287 0.0065249315452715166 0 -0.034999924709160107 0.0075085329893981338 0 -0.036445954923756935 0.0072175901153876832 0 -0.034999891015264607 0.005670624888120813 0 -0.035651513453380287 0.0065249315452715166 0 -0.034999924709160107 0.0075085329893981338 0 -0.03533851311480412 0.008488425701745364 0 -0.036320656077558425 0.0074089499997627211 0 -0.034999924709160107 0.0075085329893981338 0 -0.03528151200181525 0.0085407622898180276 0 -0.036445954923756935 0.0072175901153876832 0 -0.035796376357807601 0.0086695390203966518 0 -0.03528151200181525 0.0085407622898180276 0 -0.036231228395901635 0.0076176667316015549 0 -0.035000208635183556 0.0093455842450217864 0 -0.034999924709160107 0.0075085329893981338 0 -0.03528151200181525 0.0085407622898180276 0 -0.035796376357807601 0.0086695390203966518 0 -0.036230398668176157 0.0085570514056176987 0 -0.036231228395901635 0.0076176667316015549 0 -0.036230398668176157 0.0085570514056176987 0 -0.036231228395901635 0.0076176667316015549 0 -0.0369824742255025 0.0081508878508843204 0 -0.036231228395901635 0.0076176667316015549 0 -0.037151924049522847 0.0075416728442001596 0 -0.037045588412200535 0.0067729601281239652 0 -0.036231228395901635 0.0076176667316015549 0 -0.037151924049522847 0.0075416728442001596 0 -0.0369824742255025 0.0081508878508843204 0 -0.037151924049522847 0.0075416728442001596 0 -0.037821675628927513 0.0072852336742411095 0 -0.037045588412200535 0.0067729601281239652 0 -0.037151924049522847 0.0075416728442001596 0 -0.0369824742255025 0.0081508878508843204 0 -0.037646482508363832 0.0078982600995528927 0 -0.0369044537210877 0.0090168540553647852 0 -0.0369824742255025 0.0081508878508843204 0 -0.03760367822771897 0.0084479018806246989 0 -0.0369044537210877 0.0090168540553647852 0 -0.036230398668176157 0.0085570514056176987 0 -0.0369824742255025 0.0081508878508843204 0 -0.038077850792378312 0.0085238538546381793 0 -0.03760367822771897 0.0084479018806246989 0 -0.037903897925688074 0.0082720316424755615 0 -0.03760367822771897 0.0084479018806246989 0 -0.037903897925688074 0.0082720316424755615 0 -0.037646482508363832 0.0078982600995528927 0 -0.0369824742255025 0.0081508878508843204 0 -0.03760367822771897 0.0084479018806246989 0 -0.037646482508363832 0.0078982600995528927 0 -0.038036189293207325 0.008059388994601395 0 -0.037903897925688074 0.0082720316424755615 0 -0.038306970109160808 0.0082829577932266168 0 -0.038036189293207325 0.008059388994601395 0 -0.037903897925688074 0.0082720316424755615 0 -0.037646482508363832 0.0078982600995528927 0 -0.038036189293207325 0.008059388994601395 0 -0.037646482508363832 0.0078982600995528927 0 -0.038219597614037003 0.0077810277287550904 0 -0.037646482508363832 0.0078982600995528927 0 -0.037821675628927513 0.0072852336742411095 0 -0.038219597614037003 0.0077810277287550904 0 -0.037151924049522847 0.0075416728442001596 0 -0.037646482508363832 0.0078982600995528927 0 -0.037821675628927513 0.0072852336742411095 0 -0.037821675628927513 0.0072852336742411095 0 -0.03795396187247245 0.0067346020384343817 0 -0.037045588412200535 0.0067729601281239652 0 -0.037821675628927513 0.0072852336742411095 0 -0.03795396187247245 0.0067346020384343817 0 -0.038388448630327844 0.0070680830074888916 0 -0.03671085716952837 0.0042574217868676456 0 -0.037788362753586928 0.0058452572041288271 0 -0.039501702666285325 0.0040999703305520177 0 -0.03795396187247245 0.0067346020384343817 0 -0.037045588412200535 0.0067729601281239652 0 -0.03780919498901119 0.0059837734174821629 0 -0.037510135820972478 0.0064817196857869155 0 -0.03769151842852176 0.0036727737298283339 0 -0.03795396187247245 0.0067346020384343817 0 -0.03780919498901119 0.0059837734174821629 0 -0.038627902623836301 0.0068030440349536652 0 -0.03700152333335819 0.0013338972196346142 0 -0.037217088969461611 0.0017786632614864017 0 -0.037230092746610474 0.0011609420569023915 0 -0.03769151842852176 0.0036727737298283339 0 -0.03822728850879524 0.0041066474672091634 0 -0.037420896325908198 0.0014914361618482512 0 -0.037217088969461611 0.0017786632614864017 0 -0.037230092746610474 0.0011609420569023915 0 -0.037217088969461611 0.0017786632614864017 0 -0.037513556208197373 0.0018277217852379736 0 -0.037671610332502992 0.0023621501081791964 0 -0.038627902623836301 0.0068030440349536652 0 -0.038657343238986439 0.0070965501349634546 0 -0.039047977086781496 0.0072940585621151938 0 -0.03822728850879524 0.0041066474672091634 0 -0.036066738596356195 0.0063869713029383436 0 -0.037420896325908198 0.0014914361618482512 0 -0.037217088969461611 0.0017786632614864017 0 -0.037513556208197373 0.0018277217852379736 0 -0.03795396187247245 0.0067346020384343817 0 -0.038627902623836301 0.0068030440349536652 0 -0.038388448630327844 0.0070680830074888916 0 -0.038627902623836301 0.0068030440349536652 0 -0.038388448630327844 0.0070680830074888916 0 -0.038657343238986439 0.0070965501349634546 0 -0.037821675628927513 0.0072852336742411095 0 -0.038388448630327844 0.0070680830074888916 0 -0.038219597614037003 0.0077810277287550904 0 -0.038388448630327844 0.0070680830074888916 0 -0.038557812534466357 0.0076197676952893248 0 -0.038609024641222157 0.0072664590329241932 0 -0.038388448630327844 0.0070680830074888916 0 -0.038219597614037003 0.0077810277287550904 0 -0.038759294523118451 0.0082887488258298041 0 -0.03849808307565844 0.0071593582554360154 0 -0.038310725138063134 0.0078797548136004952 0 -0.038388448630327844 0.0070680830074888916 0 -0.038657343238986439 0.0070965501349634546 0 -0.038609024641222157 0.0072664590329241932 0 -0.038219597614037003 0.0077810277287550904 0 -0.038759294523118451 0.0082887488258298041 0 -0.038306970109160808 0.0082829577932266168 0 -0.038036189293207325 0.008059388994601395 0 -0.038219597614037003 0.0077810277287550904 0 -0.038306970109160808 0.0082829577932266168 0 -0.038443253689216486 0.0086849183102797409 0 -0.038759294523118451 0.0082887488258298041 0 -0.038306970109160808 0.0082829577932266168 0 -0.038227958375733728 0.0087269565208907118 0 -0.038310725138063134 0.0078797548136004952 0 -0.038009430940818448 0.0084838935231057039 0 -0.038394215352326976 0.0079939212769081069 0 -0.038432556375013166 0.0081460059469143642 0 -0.038310725138063134 0.0078797548136004952 0 -0.037845935251307666 0.0077678483909094835 0 -0.038227958375733728 0.0087269565208907118 0 -0.037845935251307666 0.0077678483909094835 0 -0.038443253689216486 0.0086849183102797409 0 -0.038077850792378312 0.0085238538546381793 0 -0.038306970109160808 0.0082829577932266168 0 -0.038077850792378312 0.0085238538546381793 0 -0.037903897925688074 0.0082720316424755615 0 -0.038306970109160808 0.0082829577932266168 0 -0.036028658475618654 0.0065058667960755387 0 -0.033951342804068224 0.008101488350346412 0 -0.034382433586573224 0.0065848788986365122 0 -0.035779546072635997 0.00550514721671427 0 -0.036028658475618654 0.0065058667960755387 0 -0.034382433586573224 0.0065848788986365122 0 -0.037845935251307666 0.0077678483909094835 0 -0.036066738596356195 0.0063869713029383436 0 -0.038310725138063134 0.0078797548136004952 0 -0.038885034528046952 0.0071978572722810061 0 -0.038532913649388906 0.0076215602867028562 0 -0.038547155075051617 0.0076804741942906153 0 -0.038826188933929535 0.0072690969761600019 0 -0.038547155075051617 0.0076804741942906153 0 -0.038826188933929535 0.0072690969761600019 0 -0.039047977086781496 0.0072940585621151938 0 -0.038557812534466357 0.0076197676952893248 0 -0.038826188933929535 0.0072690969761600019 0 -0.038609024641222157 0.0072664590329241932 0 -0.038826188933929535 0.0072690969761600019 0 -0.038657343238986439 0.0070965501349634546 0 -0.039047977086781496 0.0072940585621151938 0 -0.038826188933929535 0.0072690969761600019 0 -0.038657343238986439 0.0070965501349634546 0 -0.038609024641222157 0.0072664590329241932 0 -0.036066738596356195 0.0063869713029383436 0 -0.032548793787453269 0.0067694054255186048 0 -0.033175897819905549 0.0055678481710714186 0 -0.034382433586573224 0.0065848788986365122 0 -0.032838264890148072 0.00714501521325099 0 -0.033951342804068224 0.008101488350346412 0 -0.034382433586573224 0.0065848788986365122 0 -0.032838264890148072 0.00714501521325099 0 -0.031790509338461649 0.0061896328518742322 0 -0.032427241259387209 0.006768268150972168 0 -0.031395216308596319 0.0066851339223178829 0 -0.033175897819905549 0.0055678481710714186 0 -0.031790509338461649 0.0061896328518742322 0 -0.032838264890148072 0.00714501521325099 0 -0.032427241259387209 0.006768268150972168 0 -0.031395216308596319 0.0066851339223178829 0 -0.031510338453485658 0.0073241630892767664 0 -0.031942020433326536 0.00632997769028203 0 -0.032548793787453269 0.0067694054255186048 0 -0.036066738596356195 0.0063869713029383436 0 -0.034693379764093001 0.0050337772380856871 0 -0.033141977263040426 0.007353617637291668 0 -0.031839163989019613 0.0083212659193046806 0 -0.031510338453485658 0.0073241630892767664 0 -0.033141977263040426 0.007353617637291668 0 -0.032427241259387209 0.006768268150972168 0 -0.031510338453485658 0.0073241630892767664 0 -0.037671610332502992 0.0023621501081791964 0 -0.038243396891519024 0.0019837768882879259 0 -0.037752947953839183 0.0016915890386270268 0 -0.037513556208197373 0.0018277217852379736 0 -0.037671610332502992 0.0023621501081791964 0 -0.037752947953839183 0.0016915890386270268 0 -0.037752947953839183 0.0016915890386270268 0 -0.038148359730180215 0.0013518897940450727 0 -0.037647330676124524 0.0012015204546875012 0 -0.037420896325908198 0.0014914361618482512 0 -0.037752947953839183 0.0016915890386270268 0 -0.037647330676124524 0.0012015204546875012 0 -0.037420896325908198 0.0014914361618482512 0 -0.037513556208197373 0.0018277217852379736 0 -0.037752947953839183 0.0016915890386270268 0 -0.038243396891519024 0.0019837768882879259 0 -0.037752947953839183 0.0016915890386270268 0 -0.038148359730180215 0.0013518897940450727 0 -0.038148359730180215 0.0013518897940450727 0 -0.037871878672921813 0.00083317184253299114 0 -0.038425944832345071 0.00065242041102328585 0 -0.037647330676124524 0.0012015204546875012 0 -0.037871878672921813 0.00083317184253299114 0 -0.037434677494520639 0.00086821861716789299 0 -0.038148359730180215 0.0013518897940450727 0 -0.037647330676124524 0.0012015204546875012 0 -0.037871878672921813 0.00083317184253299114 0 -0.037871878672921813 0.00083317184253299114 0 -0.037738101304545205 2.8020558227940682e-05 0 -0.037434677494520639 0.00086821861716789299 0 -0.037871878672921813 0.00083317184253299114 0 -0.037738101304545205 2.8020558227940682e-05 0 -0.038425944832345071 0.00065242041102328585 0 -0.037738101304545205 2.8020558227940682e-05 0 -0.038425944832345071 0.00065242041102328585 0 -0.038616416420307734 -0.00075091457186309365 0 -0.037555607048430292 -0.00043318694970112531 0 -0.038675407300300356 -0.0011793902824980421 0 -0.037481689672012944 -0.0020748276660269181 0 -0.037370293827708213 -0.00089830625068259467 0 -0.038637573793797515 -0.0016015901993211847 0 -0.037978432145260366 -0.0032750149718794659 0 -0.037481689672012944 -0.0020748276660269181 0 -0.038637573793797515 -0.0016015901993211847 0 -0.036858020730821131 -0.0027556968227049347 0 -0.037481689672012944 -0.0020748276660269181 0 -0.036858169026413888 -0.0011500524842025385 0 -0.037481689672012944 -0.0020748276660269181 0 -0.037370293827708213 -0.00089830625068259467 0 -0.036858169026413888 -0.0011500524842025385 0 -0.036858169026413888 -0.0011500524842025385 0 -0.036394416782868498 -0.00036209391168297273 0 -0.036532996503766305 -5.157694155537558e-05 0 -0.037370293827708213 -0.00089830625068259467 0 -0.036858169026413888 -0.0011500524842025385 0 -0.036532996503766305 -5.157694155537558e-05 0 -0.037555607048430292 -0.00043318694970112531 0 -0.036881583411803892 0.00035016429291408809 0 -0.036858169026413888 -0.0011500524842025385 0 -0.036394416782868498 -0.00036209391168297273 0 -0.035995887179934474 -0.0018653046055985096 0 -0.036858020730821131 -0.0027556968227049347 0 -0.036858169026413888 -0.0011500524842025385 0 -0.035995887179934474 -0.0018653046055985096 0 -0.036394416782868498 -0.00036209391168297273 0 -0.035995887179934474 -0.0018653046055985096 0 -0.034538698729635511 -0.0019105168728941935 0 -0.036368793697429069 -0.00035494833134358777 0 -0.035650019932734631 -0.0010877557682782923 0 -0.034591286909310501 -0.0033006469340835895 0 -0.035995887179934474 -0.0018653046055985096 0 -0.034538698729635511 -0.0019105168728941935 0 -0.036394416782868498 -0.00036209391168297273 0 -0.037141235258378626 0.00014789891289485391 0 -0.036746058165695726 2.3847748738720357e-05 0 -0.037141235258378626 0.00014789891289485391 0 -0.036746058165695726 2.3847748738720357e-05 0 -0.036977115026959412 0.00028382562034411909 0 -0.036394416782868498 -0.00036209391168297273 0 -0.036746058165695726 2.3847748738720357e-05 0 -0.036532996503766305 -5.157694155537558e-05 0 -0.036746058165695726 2.3847748738720357e-05 0 -0.036532996503766305 -5.157694155537558e-05 0 -0.037087922432131444 0.0010997593054254717 0 -0.037143421694779362 0.0010178266889887746 0 -0.037206763983477144 0.00067023151597097241 0 -0.037087922432131444 0.0010997593054254717 0 -0.036881583411803892 0.00035016429291408809 0 -0.036993888867960213 0.00097909143898102262 0 -0.037143421694779362 0.0010178266889887746 0 -0.037206763983477144 0.00067023151597097241 0 -0.037248681213712179 0.00090969382843990375 0 -0.037738101304545205 2.8020558227940682e-05 0 -0.037206763983477144 0.00067023151597097241 0 -0.037434677494520639 0.00086821861716789299 0 -0.037206763983477144 0.00067023151597097241 0 -0.037434677494520639 0.00086821861716789299 0 -0.037248681213712179 0.00090969382843990375 0 -0.037434677494520639 0.00086821861716789299 0 -0.037248681213712179 0.00090969382843990375 0 -0.037230092746610474 0.0011609420569023915 0 -0.037420896325908198 0.0014914361618482512 0 -0.037647330676124524 0.0012015204546875012 0 -0.037230092746610474 0.0011609420569023915 0 -0.037647330676124524 0.0012015204546875012 0 -0.037434677494520639 0.00086821861716789299 0 -0.037230092746610474 0.0011609420569023915 0 -0.03700152333335819 0.0013338972196346142 0 -0.037143421694779362 0.0010178266889887746 0 -0.037230092746610474 0.0011609420569023915 0 -0.037143421694779362 0.0010178266889887746 0 -0.037248681213712179 0.00090969382843990375 0 -0.037230092746610474 0.0011609420569023915 0 -0.03700152333335819 0.0013338972196346142 0 -0.037143421694779362 0.0010178266889887746 0 -0.037087922432131444 0.0010997593054254717 0 -0.03700152333335819 0.0013338972196346142 0 -0.037038159892686821 0.0019146507208145252 0 -0.037087922432131444 0.0010997593054254717 0 -0.03769151842852176 0.0036727737298283339 0 -0.037215169980638375 0.0016189001078025273 0 -0.03671085716952837 0.0042574217868676456 0 -0.039501702666285325 0.0040999703305520177 0 -0.037038159892686821 0.0019146507208145252 0 -0.037038159892686821 0.0019146507208145252 0 -0.037087922432131444 0.0010997593054254717 0 -0.036910994920513938 0.00097976799868415218 0 -0.037038159892686821 0.0019146507208145252 0 -0.036910994920513938 0.00097976799868415218 0 -0.036579111888652656 0.0013844166141731072 0 -0.037087922432131444 0.0010997593054254717 0 -0.037033546997647653 0.00059757851676394216 0 -0.036910994920513938 0.00097976799868415218 0 -0.037087922432131444 0.0010997593054254717 0 -0.036977115026959412 0.00028382562034411909 0 -0.037033546997647653 0.00059757851676394216 0 -0.036746058165695726 2.3847748738720357e-05 0 -0.037087922432131444 0.0010997593054254717 0 -0.036977115026959412 0.00028382562034411909 0 -0.037033546997647653 0.00059757851676394216 0 -0.037100114506962496 0.00027693002543809628 0 -0.036972180457769989 0.00047022069037914516 0 -0.036977115026959412 0.00028382562034411909 0 -0.037033546997647653 0.00059757851676394216 0 -0.037100114506962496 0.00027693002543809628 0 -0.037141235258378626 0.00014789891289485391 0 -0.037100114506962496 0.00027693002543809628 0 -0.037143307277404801 6.7413339752464321e-05 0 -0.037141235258378626 0.00014789891289485391 0 -0.036977115026959412 0.00028382562034411909 0 -0.037100114506962496 0.00027693002543809628 0 -0.037100114506962496 0.00027693002543809628 0 -0.037035529135844701 0.00012026275360521356 0 -0.037143307277404801 6.7413339752464321e-05 0 -0.037100114506962496 0.00027693002543809628 0 -0.037035529135844701 0.00012026275360521356 0 -0.036972180457769989 0.00047022069037914516 0 -0.037035529135844701 0.00012026275360521356 0 -0.037143307277404801 6.7413339752464321e-05 0 -0.037091232846655352 -8.4149488176223794e-05 0 -0.03712949640524206 -0.00034017756334569425 0 -0.037091232846655352 -8.4149488176223794e-05 0 -0.037197056859976672 -0.0001059878048948828 0 -0.037143307277404801 6.7413339752464321e-05 0 -0.037091232846655352 -8.4149488176223794e-05 0 -0.037197056859976672 -0.0001059878048948828 0 -0.037141235258378626 0.00014789891289485391 0 -0.037143307277404801 6.7413339752464321e-05 0 -0.037197056859976672 -0.0001059878048948828 0 -0.037293993180286748 -0.00034970825736954669 0 -0.037141235258378626 0.00014789891289485391 0 -0.037197056859976672 -0.0001059878048948828 0 -0.036712333196531138 -0.00013505873130501358 0 -0.036509810191617822 0.0001071500660307191 0 -0.036438782438043833 -0.00019396132504386743 0 -0.036607258861919179 -0.00044181005477286842 0 -0.036712333196531138 -0.00013505873130501358 0 -0.036438782438043833 -0.00019396132504386743 0 -0.037035529135844701 0.00012026275360521356 0 -0.036953604720149483 -0.00010789089181973122 0 -0.036816682663649861 0.00015859929059963202 0 -0.036907936844137568 -0.00044495670317700294 0 -0.036712333196531138 -0.00013505873130501358 0 -0.036953604720149483 -0.00010789089181973122 0 -0.03712949640524206 -0.00034017756334569425 0 -0.037091232846655352 -8.4149488176223794e-05 0 -0.036953604720149483 -0.00010789089181973122 0 -0.037035529135844701 0.00012026275360521356 0 -0.037091232846655352 -8.4149488176223794e-05 0 -0.036953604720149483 -0.00010789089181973122 0 -0.036712333196531138 -0.00013505873130501358 0 -0.036953604720149483 -0.00010789089181973122 0 -0.036816682663649861 0.00015859929059963202 0 -0.037035529135844701 0.00012026275360521356 0 -0.036816682663649861 0.00015859929059963202 0 -0.036972180457769989 0.00047022069037914516 0 -0.036712333196531138 -0.00013505873130501358 0 -0.036816682663649861 0.00015859929059963202 0 -0.036509810191617822 0.0001071500660307191 0 -0.036816682663649861 0.00015859929059963202 0 -0.036641514421658181 0.00045917238342458498 0 -0.036509810191617822 0.0001071500660307191 0 -0.036816682663649861 0.00015859929059963202 0 -0.036641514421658181 0.00045917238342458498 0 -0.036972180457769989 0.00047022069037914516 0 -0.036641514421658181 0.00045917238342458498 0 -0.036972180457769989 0.00047022069037914516 0 -0.036910994920513938 0.00097976799868415218 0 -0.037033546997647653 0.00059757851676394216 0 -0.036972180457769989 0.00047022069037914516 0 -0.036910994920513938 0.00097976799868415218 0 -0.036641514421658181 0.00045917238342458498 0 -0.036910994920513938 0.00097976799868415218 0 -0.036362654092635574 0.00080467447239591331 0 -0.036910994920513938 0.00097976799868415218 0 -0.036362654092635574 0.00080467447239591331 0 -0.036579111888652656 0.0013844166141731072 0 -0.036362654092635574 0.00080467447239591331 0 -0.036064209541749923 0.0010628907647051817 0 -0.036579111888652656 0.0013844166141731072 0 -0.036362654092635574 0.00080467447239591331 0 -0.036064209541749923 0.0010628907647051817 0 -0.035908486523926947 0.00060022145227362693 0 -0.036362654092635574 0.00080467447239591331 0 -0.035908486523926947 0.00060022145227362693 0 -0.036212865361432582 0.00031744265345607086 0 -0.036641514421658181 0.00045917238342458498 0 -0.036362654092635574 0.00080467447239591331 0 -0.036212865361432582 0.00031744265345607086 0 -0.036212865361432582 0.00031744265345607086 0 -0.036509810191617822 0.0001071500660307191 0 -0.036121167459878194 -8.4760350009449898e-05 0 -0.036641514421658181 0.00045917238342458498 0 -0.036212865361432582 0.00031744265345607086 0 -0.036509810191617822 0.0001071500660307191 0 -0.035908486523926947 0.00060022145227362693 0 -0.036212865361432582 0.00031744265345607086 0 -0.035733924296236869 0.00010521602560844449 0 -0.036212865361432582 0.00031744265345607086 0 -0.036121167459878194 -8.4760350009449898e-05 0 -0.035733924296236869 0.00010521602560844449 0 -0.035899554052784791 -0.00049320947055829175 0 -0.036121167459878194 -8.4760350009449898e-05 0 -0.0358303008873017 -0.00020538562415397656 0 -0.036121167459878194 -8.4760350009449898e-05 0 -0.0358303008873017 -0.00020538562415397656 0 -0.035733924296236869 0.00010521602560844449 0 -0.036509810191617822 0.0001071500660307191 0 -0.036121167459878194 -8.4760350009449898e-05 0 -0.036438782438043833 -0.00019396132504386743 0 -0.036295804669935691 -0.00049392339649638169 0 -0.036121167459878194 -8.4760350009449898e-05 0 -0.036438782438043833 -0.00019396132504386743 0 -0.034999953801769144 0.0001576083407602205 0 -0.035310910518601218 4.4379750508633542e-05 0 -0.035545712223111314 0.0017834143389044241 0 -0.035269225239461383 -0.00015118229969086683 0 -0.035451512871725127 0.0013283279603045323 0 -0.03525022709433228 -0.00032984418345564801 0 -0.035733924296236869 0.00010521602560844449 0 -0.035340479403699075 0.00080053277745168806 0 -0.03525022709433228 -0.00032984418345564801 0 -0.035600271465881919 -0.00036052551750905036 0 -0.035733924296236869 0.00010521602560844449 0 -0.0358303008873017 -0.00020538562415397656 0 -0.035600271465881919 -0.00036052551750905036 0 -0.035733924296236869 0.00010521602560844449 0 -0.035899554052784791 -0.00049320947055829175 0 -0.0358303008873017 -0.00020538562415397656 0 -0.035600271465881919 -0.00036052551750905036 0 -0.034999953801769144 0.0001576083407602205 0 -0.035000067014788201 0.0019954804225043123 0 -0.035545712223111314 0.0017834143389044241 0 -0.035908486523926947 0.00060022145227362693 0 -0.035733924296236869 0.00010521602560844449 0 -0.035340479403699075 0.00080053277745168806 0 -0.036064209541749923 0.0010628907647051817 0 -0.035908486523926947 0.00060022145227362693 0 -0.035340479403699075 0.00080053277745168806 0 -0.036064209541749923 0.0010628907647051817 0 -0.035340479403699075 0.00080053277745168806 0 -0.035986011716306422 0.0017122732128707031 0 -0.035000067014788201 0.0019954804225043123 0 -0.03499961854509577 0.0038319811988361424 0 -0.035692586490080114 0.0030768656763595676 0 -0.035000067014788201 0.0019954804225043123 0 -0.035545712223111314 0.0017834143389044241 0 -0.035692586490080114 0.0030768656763595676 0 -0.035451512871725127 0.0013283279603045323 0 -0.035684889891613364 0.0029573235270020926 0 -0.035340479403699075 0.00080053277745168806 0 -0.035986011716306422 0.0017122732128707031 0 -0.035692586490080114 0.0030768656763595676 0 -0.036064209541749923 0.0010628907647051817 0 -0.035986011716306422 0.0017122732128707031 0 -0.036579111888652656 0.0013844166141731072 0 -0.037038159892686821 0.0019146507208145252 0 -0.035986011716306422 0.0017122732128707031 0 -0.035692586490080114 0.0030768656763595676 0 -0.037038159892686821 0.0019146507208145252 0 -0.035986011716306422 0.0017122732128707031 0 -0.036579111888652656 0.0013844166141731072 0 -0.035682495069737315 0.0045141761843334538 0 -0.03671085716952837 0.0042574217868676456 0 -0.035692586490080114 0.0030768656763595676 0 -0.03671085716952837 0.0042574217868676456 0 -0.037038159892686821 0.0019146507208145252 0 -0.035692586490080114 0.0030768656763595676 0 -0.035682495069737315 0.0045141761843334538 0 -0.03499961854509577 0.0038319811988361424 0 -0.035692586490080114 0.0030768656763595676 0 -0.012261180726266597 0.010312078713466269 0 -0.012339815511765346 0.010352676665115254 0 -0.012267066754204452 0.0099207137819498116 0 -0.012261180726266597 0.010312078713466269 0 -0.012267066754204452 0.0099207137819498116 0 -0.012287515698635695 0.0098818871621033071 0 -0.012339815511765346 0.010352676665115254 0 -0.012055098659963083 0.0098149613094252845 0 -0.012267066754204452 0.0099207137819498116 0 -0.012339815511765346 0.010352676665115254 0 -0.012055098659963083 0.0098149613094252845 0 -0.01152891989324592 0.010432716082901505 0 -0.012055098659963083 0.0098149613094252845 0 -0.012192827806671573 0.0095350830769280089 0 -0.011961874908295873 0.009446609643267781 0 -0.012055098659963083 0.0098149613094252845 0 -0.012267066754204452 0.0099207137819498116 0 -0.012192827806671573 0.0095350830769280089 0 -0.012267066754204452 0.0099207137819498116 0 -0.012192827806671573 0.0095350830769280089 0 -0.012375315465015845 0.0095734424698745609 0 -0.012524949444412382 0.0092658868648336622 0 -0.01050948900215498 0.0076261389237233124 0 -0.012267066754204452 0.0099207137819498116 0 -0.012287515698635695 0.0098818871621033071 0 -0.012375315465015845 0.0095734424698745609 0 -0.012651804111143073 0.0094058678185679895 0 -0.012287515698635695 0.0098818871621033071 0 -0.012375315465015845 0.0095734424698745609 0 -0.012651804111143073 0.0094058678185679895 0 -0.01309286671327862 0.0057091033849220561 0 -0.015273561522902062 0.0093458028002512249 0 -0.012651804111143073 0.0094058678185679895 0 -0.01309286671327862 0.0057091033849220561 0 -0.008829851522147587 0.0052634125001170956 0 -0.012651804111143073 0.0094058678185679895 0 -0.013830969415022184 0.010863030178857456 0 -0.015273561522902062 0.0093458028002512249 0 -0.012651804111143073 0.0094058678185679895 0 -0.013830969415022184 0.010863030178857456 0 -0.012263828058021573 0.010520779797668082 0 -0.012651804111143073 0.0094058678185679895 0 -0.012287515698635695 0.0098818871621033071 0 -0.012263828058021573 0.010520779797668082 0 -0.012261180726266597 0.010312078713466269 0 -0.012287515698635695 0.0098818871621033071 0 -0.012263828058021573 0.010520779797668082 0 -0.012261180726266597 0.010312078713466269 0 -0.012263828058021573 0.010520779797668082 0 -0.012345290997799293 0.010450962948528651 0 -0.012263828058021573 0.010520779797668082 0 -0.013669386483955218 0.012961008824693428 0 -0.011405987876360069 0.014083652327220513 0 -0.012213282396999724 0.010803557845943541 0 -0.011847847401169287 0.011910022554121104 0 -0.013830969415022184 0.010863030178857456 0 -0.013669386483955218 0.012961008824693428 0 -0.015775150769425691 0.012218788166315091 0 -0.013830969415022184 0.010863030178857456 0 -0.012263828058021573 0.010520779797668082 0 -0.013669386483955218 0.012961008824693428 0 -0.013669386483955218 0.012961008824693428 0 -0.014011082014479289 0.016567931249855613 0 -0.011405987876360069 0.014083652327220513 0 -0.013669386483955218 0.012961008824693428 0 -0.014011082014479289 0.016567931249855613 0 -0.01565378097432386 0.014582389399065842 0 -0.013752215330304641 0.016142933448863906 0 -0.011847847401169287 0.011910022554121104 0 -0.010854648868220568 0.01745462885956163 0 -0.014011082014479289 0.016567931249855613 0 -0.011405987876360069 0.014083652327220513 0 -0.012334806071455403 0.010686562118730172 0 -0.012345290997799293 0.010450962948528651 0 -0.012233498013324573 0.01041171104339584 0 -0.017414166878946244 0.015368924375528345 0 -0.014239090603450338 0.014508588497206727 0 -0.014579086739287605 0.012233871406929385 0 -0.013752215330304641 0.016142933448863906 0 -0.013412632160399361 0.010851484757411108 0 -0.012261180726266597 0.010312078713466269 0 -0.012345290997799293 0.010450962948528651 0 -0.012233498013324573 0.01041171104339584 0 -0.012261180726266597 0.010312078713466269 0 -0.012339815511765346 0.010352676665115254 0 -0.012233498013324573 0.01041171104339584 0 -0.012339815511765346 0.010352676665115254 0 -0.014579086739287605 0.012233871406929385 0 -0.011739281117193528 0.011741011185131101 0 -0.012508950463439776 0.010592838235536814 0 -0.013412632160399361 0.010851484757411108 0 -0.014579086739287605 0.012233871406929385 0 -0.01261959712136443 0.013293962587670261 0 -0.011739281117193528 0.011741011185131101 0 -0.014239090603450338 0.014508588497206727 0 -0.014579086739287605 0.012233871406929385 0 -0.01261959712136443 0.013293962587670261 0 -0.01235300141496299 0.014827720811769522 0 -0.014239090603450338 0.014508588497206727 0 -0.01261959712136443 0.013293962587670261 0 -0.010940561719521097 0.015194447968421537 0 -0.01235300141496299 0.014827720811769522 0 -0.01261959712136443 0.013293962587670261 0 -0.010346837643896933 0.015202954874783259 0 -0.010940561719521097 0.015194447968421537 0 -0.01261959712136443 0.013293962587670261 0 -0.011687019683895589 0.015451839774755399 0 -0.012451089345497393 0.013446617663622167 0 -0.011628616997618409 0.013930189828667229 0 -0.01261959712136443 0.013293962587670261 0 -0.011296931791914964 0.012984114721690037 0 -0.011296931791914964 0.012984114721690037 0 -0.010640764487593718 0.012197350675181871 0 -0.011739281117193528 0.011741011185131101 0 -0.01261959712136443 0.013293962587670261 0 -0.011296931791914964 0.012984114721690037 0 -0.011739281117193528 0.011741011185131101 0 -0.011628616997618409 0.013930189828667229 0 -0.011045457898071785 0.013567104074444596 0 -0.011296931791914964 0.012984114721690037 0 -0.010330007467766912 0.013157975682797196 0 -0.010640764487593718 0.012197350675181871 0 -0.0093014821348234508 0.011604541205314782 0 -0.011045457898071785 0.013567104074444596 0 -0.011296931791914964 0.012984114721690037 0 -0.010227256060071707 0.013365787693871234 0 -0.0099551993565865741 0.01339380673287586 0 -0.014543963842995548 0.012037037587514073 0 -0.011296931791914964 0.012984114721690037 0 -0.010330007467766912 0.013157975682797196 0 -0.010640764487593718 0.012197350675181871 0 -0.010783300566040469 0.011267541811010142 0 -0.0093014821348234508 0.011604541205314782 0 -0.010585250751398609 0.010482759015835754 0 -0.010640764487593718 0.012197350675181871 0 -0.010783300566040469 0.011267541811010142 0 -0.0093014821348234508 0.011604541205314782 0 -0.010640764487593718 0.012197350675181871 0 -0.010783300566040469 0.011267541811010142 0 -0.011739281117193528 0.011741011185131101 0 -0.010783300566040469 0.011267541811010142 0 -0.011739281117193528 0.011741011185131101 0 -0.01152891989324592 0.010432716082901505 0 -0.031395216308596319 0.0066851339223178829 0 -0.030673066123749902 0.006649079097362523 0 -0.031510338453485658 0.0073241630892767664 0 -0.030918813258095288 0.0057097926574219537 0 -0.031790509338461649 0.0061896328518742322 0 -0.031395216308596319 0.0066851339223178829 0 -0.031074467098535067 0.011777099686901313 0 -0.02774552110202546 0.0080242476864912961 0 -0.030918813258095288 0.0057097926574219537 0 -0.031395216308596319 0.0066851339223178829 0 -0.030673066123749902 0.006649079097362523 0 -0.014543963842995548 0.012037037587514073 0 -0.023531418920398881 0.0093990107775583746 0 -0.025304943585325854 0.0081357991405724729 0 -0.020868232945931698 0.0094843571752071445 0 -0.024379193516322333 0.010532357749005754 0 -0.020868232945931698 0.0094843571752071445 0 -0.024379193516322333 0.010532357749005754 0 -0.023488083000270159 0.012880434791017208 0 -0.023531418920398881 0.0093990107775583746 0 -0.031197005586780787 0.0088653221557683428 0 -0.02774552110202546 0.0080242476864912961 0 -0.023531418920398881 0.0093990107775583746 0 -0.030364732785785453 0.0074620833253272231 0 -0.031510338453485658 0.0073241630892767664 0 -0.030937613698242682 0.0081832154065031634 0 -0.030673066123749902 0.006649079097362523 0 -0.030364732785785453 0.0074620833253272231 0 -0.031510338453485658 0.0073241630892767664 0 -0.031839163989019613 0.0083212659193046806 0 -0.031510338453485658 0.0073241630892767664 0 -0.030937613698242682 0.0081832154065031634 0 -0.031839163989019613 0.0083212659193046806 0 -0.030937613698242682 0.0081832154065031634 0 -0.030511367542184156 0.00921871483188102 0 -0.030304279062982453 0.0074370936549782258 0 -0.030937613698242682 0.0081832154065031634 0 -0.029800873256324582 0.0088090867026802255 0 -0.023531418920398881 0.0093990107775583746 0 -0.018492572963940163 0.010439338312447746 0 -0.0093014821348234508 0.011604541205314782 0 -0.0099035936318922959 0.0097938795263377999 0 -0.010585250751398609 0.010482759015835754 0 -0.030937613698242682 0.0081832154065031634 0 -0.030511367542184156 0.00921871483188102 0 -0.029800873256324582 0.0088090867026802255 0 -0.030511367542184156 0.00921871483188102 0 -0.029800873256324582 0.0088090867026802255 0 -0.029269174772951961 0.01000997997600203 0 -0.038243396891519024 0.0019837768882879259 0 -0.038148359730180215 0.0013518897940450727 0 -0.03901438694944262 0.0015788843728703026 0 -0.034693379764093001 0.0050337772380856871 0 -0.036411591294023375 0.0051815853377646173 0 -0.012339815511765346 0.010352676665115254 0 -0.011739281117193528 0.011741011185131101 0 -0.01152891989324592 0.010432716082901505 0 -0.010783300566040469 0.011267541811010142 0 -0.01152891989324592 0.010432716082901505 0 -0.010585250751398609 0.010482759015835754 0 -0.0099035936318922959 0.0097938795263377999 0 -0.010585250751398609 0.010482759015835754 0 -0.011252851741043525 0.009653427172131258 0 -0.01152891989324592 0.010432716082901505 0 -0.010585250751398609 0.010482759015835754 0 -0.011252851741043525 0.009653427172131258 0 -0.018492572963940163 0.010439338312447746 0 -0.025734079221194854 0.0043558942315560668 0 -0.0099035936318922959 0.0097938795263377999 0 -0.011252851741043525 0.009653427172131258 0 -0.010703953295836047 0.0071136851665056997 0 -0.012055098659963083 0.0098149613094252845 0 -0.011252851741043525 0.009653427172131258 0 -0.011961874908295873 0.009446609643267781 0 -0.012055098659963083 0.0098149613094252845 0 -0.01152891989324592 0.010432716082901505 0 -0.011252851741043525 0.009653427172131258 0 -0.011294241174685096 0.0095250142952647207 0 -0.01292585324955961 0.0089683129721114824 0 -0.010703953295836047 0.0071136851665056997 0 -0.012440667287931492 0.0056335131448745392 0 -0.013360678067537778 0.0076630182988198774 0 -0.011252851741043525 0.009653427172131258 0 -0.010703953295836047 0.0071136851665056997 0 -0.013360678067537778 0.0076630182988198774 0 -0.04012301295890431 0.00096348693007266672 0 -0.039392382946854182 4.6850615789235035e-06 0 -0.040792336852298126 -0.00029138840887157241 0 -0.025734079221194854 0.0043558942315560668 0 -0.031856791457234163 -0.0017735666124117926 0 -0.012440667287931492 0.0056335131448745392 0 -0.013833874691446382 0.0057819354637304813 0 -0.013360678067537778 0.0076630182988198774 0 -0.020917619473310438 -0.00084383805395692884 0 -0.021218092269636151 -0.0012197295278121184 0 -0.02105718584983025 -0.0014534665349414449 0 -0.021218092269636151 -0.0012197295278121184 0 -0.02105718584983025 -0.0014534665349414449 0 -0.021513052669287849 -0.0015574731949553971 0 -0.025734079221194854 0.0043558942315560668 0 -0.016175525342265965 0.0026731226978515725 0 -0.038148359730180215 0.0013518897940450727 0 -0.03901438694944262 0.0015788843728703026 0 -0.038425944832345071 0.00065242041102328585 0 -0.03901438694944262 0.0015788843728703026 0 -0.039225004267198695 0.00083151302319303384 0 -0.038425944832345071 0.00065242041102328585 0 -0.036411591294023375 0.0051815853377646173 0 -0.025734079221194854 0.0043558942315560668 0 -0.03901438694944262 0.0015788843728703026 0 -0.04012301295890431 0.00096348693007266672 0 -0.039225004267198695 0.00083151302319303384 0 -0.039225004267198695 0.00083151302319303384 0 -0.039392382946854182 4.6850615789235035e-06 0 -0.038425944832345071 0.00065242041102328585 0 -0.04012301295890431 0.00096348693007266672 0 -0.039225004267198695 0.00083151302319303384 0 -0.039392382946854182 4.6850615789235035e-06 0 -0.039392382946854182 4.6850615789235035e-06 0 -0.038425944832345071 0.00065242041102328585 0 -0.038616416420307734 -0.00075091457186309365 0 -0.039392382946854182 4.6850615789235035e-06 0 -0.038616416420307734 -0.00075091457186309365 0 -0.040055838814939293 -0.0018258138155438962 0 -0.038919536844003629 -0.0029066404214065757 0 -0.038637573793797515 -0.0016015901993211847 0 -0.040055838814939293 -0.0018258138155438962 0 -0.038675407300300356 -0.0011793902824980421 0 -0.040026822691643524 -0.0017844559597526219 0 -0.038919536844003629 -0.0029066404214065757 0 -0.037978432145260366 -0.0032750149718794659 0 -0.038637573793797515 -0.0016015901993211847 0 -0.02105718584983025 -0.0014534665349414449 0 -0.021227275367311033 -0.0019972795761851272 0 -0.021513052669287849 -0.0015574731949553971 0 -0.031856791457234163 -0.0017735666124117926 0 -0.027623576786934022 -0.0032143032360444942 0 -0.039392382946854182 4.6850615789235035e-06 0 -0.040792336852298126 -0.00029138840887157241 0 -0.040055838814939293 -0.0018258138155438962 0 -0.040792336852298126 -0.00029138840887157241 0 -0.040055838814939293 -0.0018258138155438962 0 -0.041445400388017119 -0.0018485544335596806 0 -0.040624559509557907 -0.0030823151229755832 0 -0.040055838814939293 -0.0018258138155438962 0 -0.041445400388017119 -0.0018485544335596806 0 -0.041587055460529238 -0.0028296949464148274 0 -0.027623576786934022 -0.0032143032360444942 0 -0.0071997242529118471 -0.0040650171937949451 0 -0.0083775804396641028 -0.0044849583010144736 0 -0.0083492659100044032 -0.0026708110477652071 0 -0.009106491394707936 -0.0032304668205058516 0 -0.01065558419807087 -0.0030149129703407867 0 -0.0101033990678626 -0.0040611697324456743 0 -0.010402471466325553 -0.0053381218461211483 0 -0.0094504532046269882 -0.0045504243677180175 0 -0.0101033990678626 -0.0040611697324456743 0 -0.0083775804396641028 -0.0044849583010144736 0 -0.0094504532046269882 -0.0045504243677180175 0 -0.0092071184692247132 -0.0034120754760051815 0 -0.0094504532046269882 -0.0045504243677180175 0 -0.0092071184692247132 -0.0034120754760051815 0 -0.0101033990678626 -0.0040611697324456743 0 -0.0089614612148960493 -0.0030049451749077035 0 -0.010066754322128701 -0.0040221248798384159 0 -0.009106491394707936 -0.0032304668205058516 0 -0.0090113409759233071 -0.0013301032724224115 0 -0.01065558419807087 -0.0030149129703407867 0 -0.010664751882835385 0.0038381964141483709 0 -0.0096867425083777565 -0.0028080128115283132 0 -0.009106491394707936 -0.0032304668205058516 0 -0.0081158129902640843 -0.0024067733370606373 0 -0.0090113409759233071 -0.0013301032724224115 0 -0.027623576786934022 -0.0032143032360444942 0 -0.011925606949062176 -0.0018040084327425761 0 -0.0083775804396641028 -0.0044849583010144736 0 -0.0092071184692247132 -0.0034120754760051815 0 -0.0083492659100044032 -0.0026708110477652071 0 -0.0089614612148960493 -0.0030049451749077035 0 -0.011925606949062176 -0.0018040084327425761 0 -0.016175525342265965 0.0026731226978515725 0 -0.011925606949062176 -0.0018040084327425761 0 -0.012440667287931492 0.0056335131448745392 0 -0.014163110484123071 0.0041902050456533975 0 -0.013833874691446382 0.0057819354637304813 0 -0.013833874691446382 0.0057819354637304813 0 -0.015376189319822774 0.0056435798693982653 0 -0.013360678067537778 0.0076630182988198774 0 -0.014163110484123071 0.0041902050456533975 0 -0.013833874691446382 0.0057819354637304813 0 -0.015376189319822774 0.0056435798693982653 0 -0.011925606949062176 -0.0018040084327425761 0 -0.010664751882835385 0.0038381964141483709 0 -0.010664751882835385 0.0038381964141483709 0 -0.01050948900215498 0.0076261389237233124 0 -0.012201517355323099 0.0092471912701687399 0 -0.012192827806671573 0.0095350830769280089 0 -0.012375315465015845 0.0095734424698745609 0 -0.010664751882835385 0.0038381964141483709 0 -0.01292585324955961 0.0089683129721114824 0 -0.012201517355323099 0.0092471912701687399 0 -0.012192827806671573 0.0095350830769280089 0 -0.011961874908295873 0.009446609643267781 0 -0.01309286671327862 0.0057091033849220561 0 -0.0098375882763147224 0.0018009420594368971 0 -0.013291269917335341 0.0019680382811526533 0 -0.01309286671327862 0.0057091033849220561 0 -0.008829851522147587 0.0052634125001170956 0 -0.0098375882763147224 0.0018009420594368971 0 -0.006006078677362481 0.0015970268993958858 0 -0.0098375882763147224 0.0018009420594368971 0 -0.0094860380274896967 -0.0015523777844473885 0 -0.006006078677362481 0.0015970268993958858 0 -0.008829851522147587 0.0052634125001170956 0 -0.0098375882763147224 0.0018009420594368971 0 -0.0098375882763147224 0.0018009420594368971 0 -0.013291269917335341 0.0019680382811526533 0 -0.011879654485074598 -0.00059965001623869807 0 -0.011879654485074598 -0.00059965001623869807 0 -0.0094860380274896967 -0.0015523777844473885 0 -0.012274742931055594 -0.0043223801825026595 0 -0.0098375882763147224 0.0018009420594368971 0 -0.011879654485074598 -0.00059965001623869807 0 -0.0094860380274896967 -0.0015523777844473885 0 -0.010402471466325553 -0.0053381218461211483 0 -0.0101033990678626 -0.0040611697324456743 0 -0.012274742931055594 -0.0043223801825026595 0 -0.01065558419807087 -0.0030149129703407867 0 -0.0101033990678626 -0.0040611697324456743 0 -0.012274742931055594 -0.0043223801825026595 0 -0.0096867425083777565 -0.0028080128115283132 0 -0.012268047893539543 -0.0040988601947657306 0 -0.012274742931055594 -0.0043223801825026595 0 -0.015672274489724851 -0.002828285369990316 0 -0.014120616888027059 -0.00054195396009501691 0 -0.015672274489724851 -0.002828285369990316 0 -0.015602832122238628 -0.00038309978161103411 0 -0.014120616888027059 -0.00054195396009501691 0 -0.011879654485074598 -0.00059965001623869807 0 -0.012274742931055594 -0.0043223801825026595 0 -0.014120616888027059 -0.00054195396009501691 0 -0.017177418454559466 -0.0026989221174800607 0 -0.018469299099344819 0.00033403406626629831 0 -0.017734496715650593 -0.0005933913735652668 0 -0.015925757383380128 -0.00014440821249238291 0 -0.01754806008787807 0.0013213191127523659 0 -0.018007116204997002 -0.0029357010512591035 0 -0.017177418454559466 -0.0026989221174800607 0 -0.017878388366188325 -0.0028812062112729985 0 -0.018059338252699141 -0.0013096449886914889 0 -0.019405755235553004 -0.00093758130832045385 0 -0.015672274489724851 -0.002828285369990316 0 -0.017878388366188325 -0.0028812062112729985 0 -0.018059338252699141 -0.0013096449886914889 0 -0.016123063369979786 -0.005674439795238748 0 -0.015672274489724851 -0.002828285369990316 0 -0.018421105857298593 -0.0037362021533632614 0 -0.016203445804458611 -0.0029854164766517869 0 -0.017177418454559466 -0.0026989221174800607 0 -0.015672274489724851 -0.002828285369990316 0 -0.015602832122238628 -0.00038309978161103411 0 -0.017144735659202791 -0.00012906186104267556 0 -0.015672274489724851 -0.002828285369990316 0 -0.017144735659202791 -0.00012906186104267556 0 -0.018059338252699141 -0.0013096449886914889 0 -0.017144735659202791 -0.00012906186104267556 0 -0.018059338252699141 -0.0013096449886914889 0 -0.0183477162058109 0.0005298573790476006 0 -0.018059338252699141 -0.0013096449886914889 0 -0.0183477162058109 0.0005298573790476006 0 -0.019405755235553004 -0.00093758130832045385 0 -0.0188596256841701 0.0013775846189006693 0 -0.0183477162058109 0.0005298573790476006 0 -0.017834143131580653 0.0020246139376752397 0 -0.017144735659202791 -0.00012906186104267556 0 -0.0183477162058109 0.0005298573790476006 0 -0.017834143131580653 0.0020246139376752397 0 -0.0188596256841701 0.0013775846189006693 0 -0.0183477162058109 0.0005298573790476006 0 -0.019331710156463146 0.00058657465110020963 0 -0.017144735659202791 -0.00012906186104267556 0 -0.017834143131580653 0.0020246139376752397 0 -0.015513612884043293 0.0017181689048870867 0 -0.022670015428833016 0.0045231682065580339 0 -0.018558385618919072 0.0033440605446226866 0 -0.020262348685397304 0.0073839908362433896 0 -0.020483521405130815 0.0032825677157788608 0 -0.016873400274036145 0.0025342974642108291 0 -0.022670015428833016 0.0045231682065580339 0 -0.024053741069567036 0.0078509816144785756 0 -0.026461617877231187 0.0054095217308022829 0 -0.020483521405130815 0.0032825677157788608 0 -0.022041296083873559 0.0038277414756286272 0 -0.0188596256841701 0.0013775846189006693 0 -0.017834143131580653 0.0020246139376752397 0 -0.019884214260335788 0.0023102139258372517 0 -0.013489587024607667 0.0019800658988061784 0 -0.016873400274036145 0.0025342974642108291 0 -0.013291269917335341 0.0019680382811526533 0 -0.014120616888027059 -0.00054195396009501691 0 -0.015513612884043293 0.0017181689048870867 0 -0.013291269917335341 0.0019680382811526533 0 -0.011879654485074598 -0.00059965001623869807 0 -0.014120616888027059 -0.00054195396009501691 0 -0.015602832122238628 -0.00038309978161103411 0 -0.014120616888027059 -0.00054195396009501691 0 -0.015513612884043293 0.0017181689048870867 0 -0.015602832122238628 -0.00038309978161103411 0 -0.017144735659202791 -0.00012906186104267556 0 -0.015513612884043293 0.0017181689048870867 0 -0.018558385618919072 0.0033440605446226866 0 -0.016436783954785629 0.0062218600443760281 0 -0.020262348685397304 0.0073839908362433896 0 -0.013291269917335341 0.0019680382811526533 0 -0.018558385618919072 0.0033440605446226866 0 -0.016436783954785629 0.0062218600443760281 0 -0.01309286671327862 0.0057091033849220561 0 -0.013291269917335341 0.0019680382811526533 0 -0.016436783954785629 0.0062218600443760281 0 -0.016436783954785629 0.0062218600443760281 0 -0.015273561522902062 0.0093458028002512249 0 -0.017769275735196766 0.0088912149982639799 0 -0.01309286671327862 0.0057091033849220561 0 -0.016436783954785629 0.0062218600443760281 0 -0.015273561522902062 0.0093458028002512249 0 -0.015273561522902062 0.0093458028002512249 0 -0.017263869473697301 0.010879449660260004 0 -0.015775150769425691 0.012218788166315091 0 -0.013830969415022184 0.010863030178857456 0 -0.015273561522902062 0.0093458028002512249 0 -0.015775150769425691 0.012218788166315091 0 -0.015273561522902062 0.0093458028002512249 0 -0.017263869473697301 0.010879449660260004 0 -0.017769275735196766 0.0088912149982639799 0 -0.019547145940438947 0.010467726097655537 0 -0.017769275735196766 0.0088912149982639799 0 -0.020262348685397304 0.0073839908362433896 0 -0.019547145940438947 0.010467726097655537 0 -0.017263869473697301 0.010879449660260004 0 -0.017769275735196766 0.0088912149982639799 0 -0.016436783954785629 0.0062218600443760281 0 -0.017769275735196766 0.0088912149982639799 0 -0.020262348685397304 0.0073839908362433896 0 -0.022670015428833016 0.0045231682065580339 0 -0.020262348685397304 0.0073839908362433896 0 -0.024053741069567036 0.0078509816144785756 0 -0.020262348685397304 0.0073839908362433896 0 -0.024053741069567036 0.0078509816144785756 0 -0.022752459657791102 0.0099885600126392408 0 -0.022752459657791102 0.0099885600126392408 0 -0.025281279020051201 0.01170014405635072 0 -0.025251011401159127 0.009885543625551229 0 -0.024053741069567036 0.0078509816144785756 0 -0.022752459657791102 0.0099885600126392408 0 -0.025251011401159127 0.009885543625551229 0 -0.019547145940438947 0.010467726097655537 0 -0.022752459657791102 0.0099885600126392408 0 -0.021847291007401012 0.01275141810051518 0 -0.019547145940438947 0.010467726097655537 0 -0.020262348685397304 0.0073839908362433896 0 -0.022752459657791102 0.0099885600126392408 0 -0.019547145940438947 0.010467726097655537 0 -0.021847291007401012 0.01275141810051518 0 -0.018393448455630779 0.01352445643487517 0 -0.021847291007401012 0.01275141810051518 0 -0.023421316538894885 0.014392894411017983 0 -0.025281279020051201 0.01170014405635072 0 -0.022752459657791102 0.0099885600126392408 0 -0.021847291007401012 0.01275141810051518 0 -0.025281279020051201 0.01170014405635072 0 -0.023421316538894885 0.014392894411017983 0 -0.021243324176914147 0.016565495355470444 0 -0.025357117014071534 0.016538717229941824 0 -0.023421316538894885 0.014392894411017983 0 -0.025281279020051201 0.01170014405635072 0 -0.025357117014071534 0.016538717229941824 0 -0.021847291007401012 0.01275141810051518 0 -0.023421316538894885 0.014392894411017983 0 -0.021243324176914147 0.016565495355470444 0 -0.021847291007401012 0.01275141810051518 0 -0.018393448455630779 0.01352445643487517 0 -0.021243324176914147 0.016565495355470444 0 -0.018393448455630779 0.01352445643487517 0 -0.017369808216707309 0.016909679040768108 0 -0.021243324176914147 0.016565495355470444 0 -0.014011082014479289 0.016567931249855613 0 -0.01565378097432386 0.014582389399065842 0 -0.017369808216707309 0.016909679040768108 0 -0.01565378097432386 0.014582389399065842 0 -0.018393448455630779 0.01352445643487517 0 -0.017369808216707309 0.016909679040768108 0 -0.017263869473697301 0.010879449660260004 0 -0.015775150769425691 0.012218788166315091 0 -0.018393448455630779 0.01352445643487517 0 -0.01565378097432386 0.014582389399065842 0 -0.015775150769425691 0.012218788166315091 0 -0.018393448455630779 0.01352445643487517 0 -0.013669386483955218 0.012961008824693428 0 -0.01565378097432386 0.014582389399065842 0 -0.015775150769425691 0.012218788166315091 0 -0.019547145940438947 0.010467726097655537 0 -0.017263869473697301 0.010879449660260004 0 -0.018393448455630779 0.01352445643487517 0 -0.02056708249317549 0.0044968441404638288 0 -0.020840705130476578 0.0049422725227654648 0 -0.020863351961994406 0.0041437620349653688 0 -0.022111435675642648 0.0067080815826581234 0 -0.020722221292846423 0.0034287898351138026 0 -0.02056708249317549 0.0044968441404638288 0 -0.020840705130476578 0.0049422725227654648 0 -0.020263282551678918 0.004795663950798155 0 -0.022111435675642648 0.0067080815826581234 0 -0.024828548779642419 0.0095759618546189858 0 -0.020802269975388917 0.004396604653007309 0 -0.020902143897289893 0.0043512081955965499 0 -0.020933549757007616 0.0044620218705111354 0 -0.020902143897289893 0.0043512081955965499 0 -0.020863351961994406 0.0041437620349653688 0 -0.020968777202436801 0.0042572585275189841 0 -0.020802269975388917 0.004396604653007309 0 -0.020902143897289893 0.0043512081955965499 0 -0.020863351961994406 0.0041437620349653688 0 -0.01957823774515521 0.0051418743737331836 0 -0.019991760692155806 0.0053133822095671425 0 -0.019172187604886221 0.0054141420668134266 0 -0.019246405009479578 0.0048883489316683959 0 -0.01957823774515521 0.0051418743737331836 0 -0.019997025286782332 0.0049584289727780274 0 -0.022111435675642648 0.0067080815826581234 0 -0.019963827113664557 0.0044057062494218084 0 -0.019246405009479578 0.0048883489316683959 0 -0.01957823774515521 0.0051418743737331836 0 -0.019172187604886221 0.0054141420668134266 0 -0.022111435675642648 0.0067080815826581234 0 -0.018087287968246334 0.013999673119168573 0 -0.027896379739703242 0.01277902673054292 0 -0.027088485464668199 0.012912484351830598 0 -0.027789851914085149 0.013793828507015393 0 -0.026778376593258303 0.013278840279085191 0 -0.026777474270061712 0.013892676650603007 0 -0.027789851914085149 0.013793828507015393 0 -0.026778376593258303 0.013278840279085191 0 -0.027088485464668199 0.012912484351830598 0 -0.027789851914085149 0.013793828507015393 0 -0.026778376593258303 0.013278840279085191 0 -0.026418383000653477 0.01333554475709834 0 -0.026777474270061712 0.013892676650603007 0 -0.026418383000653477 0.01333554475709834 0 -0.026773679287804032 0.012819472708030103 0 -0.026178025910072934 0.012690774147937022 0 -0.026778376593258303 0.013278840279085191 0 -0.026418383000653477 0.01333554475709834 0 -0.026773679287804032 0.012819472708030103 0 -0.026778376593258303 0.013278840279085191 0 -0.026773679287804032 0.012819472708030103 0 -0.027088485464668199 0.012912484351830598 0 -0.026178025910072934 0.012690774147937022 0 -0.025281279020051201 0.01170014405635072 0 -0.025462272461359434 0.014081474684415122 0 -0.026306041551307308 0.010547504633157942 0 -0.021700860833084132 0.018299987975777088 0 -0.026418383000653477 0.01333554475709834 0 -0.026178025910072934 0.012690774147937022 0 -0.025462272461359434 0.014081474684415122 0 -0.026418383000653477 0.01333554475709834 0 -0.025462272461359434 0.014081474684415122 0 -0.026777474270061712 0.013892676650603007 0 -0.026178025910072934 0.012690774147937022 0 -0.026153501973045827 0.011897317853144823 0 -0.026861191592428321 0.01230334030426789 0 -0.026178025910072934 0.012690774147937022 0 -0.026153501973045827 0.011897317853144823 0 -0.025281279020051201 0.01170014405635072 0 -0.026153501973045827 0.011897317853144823 0 -0.026861191592428321 0.01230334030426789 0 -0.026582291798586316 0.010861765009141053 0 -0.026153501973045827 0.011897317853144823 0 -0.025281279020051201 0.01170014405635072 0 -0.026582291798586316 0.010861765009141053 0 -0.027896379739703242 0.01277902673054292 0 -0.027088485464668199 0.012912484351830598 0 -0.02698690303308808 0.012549193072772401 0 -0.026041728688564525 0.01234547082946622 0 -0.024828548779642419 0.0095759618546189858 0 -0.026773679287804032 0.012819472708030103 0 -0.027088485464668199 0.012912484351830598 0 -0.02708311304972208 0.012448214069027132 0 -0.026773679287804032 0.012819472708030103 0 -0.02708311304972208 0.012448214069027132 0 -0.026861191592428321 0.01230334030426789 0 -0.026773679287804032 0.012819472708030103 0 -0.026178025910072934 0.012690774147937022 0 -0.026861191592428321 0.01230334030426789 0 -0.024828548779642419 0.0095759618546189858 0 -0.026553005079145982 0.010592368325115203 0 -0.027540302756600788 0.012492384275981672 0 -0.026861191592428321 0.01230334030426789 0 -0.026582291798586316 0.010861765009141053 0 -0.027540302756600788 0.012492384275981672 0 -0.027252370469640685 0.0092521466250805838 0 -0.026582291798586316 0.010861765009141053 0 -0.024828548779642419 0.0095759618546189858 0 -0.023616023775494474 0.0064627788265837292 0 -0.02056708249317549 0.0044968441404638288 0 -0.020263282551678918 0.004795663950798155 0 -0.020059339079749852 0.0039992223568889648 0 -0.024053741069567036 0.0078509816144785756 0 -0.027252370469640685 0.0092521466250805838 0 -0.025251011401159127 0.009885543625551229 0 -0.025281279020051201 0.01170014405635072 0 -0.026582291798586316 0.010861765009141053 0 -0.025251011401159127 0.009885543625551229 0 -0.027252370469640685 0.0092521466250805838 0 -0.026582291798586316 0.010861765009141053 0 -0.025251011401159127 0.009885543625551229 0 -0.023616023775494474 0.0064627788265837292 0 -0.022041296083873559 0.0038277414756286272 0 -0.024053741069567036 0.0078509816144785756 0 -0.027252370469640685 0.0092521466250805838 0 -0.026461617877231187 0.0054095217308022829 0 -0.020059339079749852 0.0039992223568889648 0 -0.019638636528381784 0.0028558069411362993 0 -0.019757913745304424 0.002874328457884399 0 -0.020059339079749852 0.0039992223568889648 0 -0.020380759588288066 0.0033320171529969468 0 -0.020699835634492049 0.00362247050261981 0 -0.020059339079749852 0.0039992223568889648 0 -0.019757913745304424 0.002874328457884399 0 -0.02009187744068365 0.0031039596720313545 0 -0.020059339079749852 0.0039992223568889648 0 -0.020380759588288066 0.0033320171529969468 0 -0.02009187744068365 0.0031039596720313545 0 -0.020699835634492049 0.00362247050261981 0 -0.021073418409881785 0.0037383282765318386 0 -0.020781995928551657 0.0031406374812024186 0 -0.020699835634492049 0.00362247050261981 0 -0.020863351961994406 0.0041437620349653688 0 -0.021073418409881785 0.0037383282765318386 0 -0.020380759588288066 0.0033320171529969468 0 -0.020699835634492049 0.00362247050261981 0 -0.020781995928551657 0.0031406374812024186 0 -0.020059339079749852 0.0039992223568889648 0 -0.020699835634492049 0.00362247050261981 0 -0.020863351961994406 0.0041437620349653688 0 -0.02056708249317549 0.0044968441404638288 0 -0.020059339079749852 0.0039992223568889648 0 -0.020863351961994406 0.0041437620349653688 0 -0.020863351961994406 0.0041437620349653688 0 -0.020968777202436801 0.0042572585275189841 0 -0.021036711058683044 0.0040223531661383724 0 -0.020863351961994406 0.0041437620349653688 0 -0.021073418409881785 0.0037383282765318386 0 -0.021036711058683044 0.0040223531661383724 0 -0.021073418409881785 0.0037383282765318386 0 -0.020978493397193189 0.003608820801581395 0 -0.020722933646680486 0.0037377768363052056 0 -0.021058256300221435 0.0036477433940087576 0 -0.020822993653342108 0.0031562299589920047 0 -0.021073418409881785 0.0037383282765318386 0 -0.020978493397193189 0.003608820801581395 0 -0.021050690038707558 0.0036505116763054439 0 -0.021073418409881785 0.0037383282765318386 0 -0.020781995928551657 0.0031406374812024186 0 -0.021052315921622846 0.0026839329967784848 0 -0.020781995928551657 0.0031406374812024186 0 -0.021052315921622846 0.0026839329967784848 0 -0.020524066666864973 0.0024149382338474264 0 -0.020722933646680486 0.0037377768363052056 0 -0.020851820226541286 0.0032981227978864792 0 -0.020374904264223264 0.0029845628755581994 0 -0.020978493397193189 0.003608820801581395 0 -0.020722933646680486 0.0037377768363052056 0 -0.020851820226541286 0.0032981227978864792 0 -0.020722933646680486 0.0037377768363052056 0 -0.020374904264223264 0.0029845628755581994 0 -0.019242720714932288 0.0027998306296676528 0 -0.020822993653342108 0.0031562299589920047 0 -0.019820463921763749 0.0018275284311578964 0 -0.020374904264223264 0.0029845628755581994 0 -0.021015782265832852 0.0026257605605950938 0 -0.020044193952513025 0.002382439646529939 0 -0.020679513255128758 0.0030215273732604906 0 -0.020600371384623398 0.0021248965216405617 0 -0.020851820226541286 0.0032981227978864792 0 -0.020374904264223264 0.0029845628755581994 0 -0.021015782265832852 0.0026257605605950938 0 -0.020851820226541286 0.0032981227978864792 0 -0.020865952477981873 0.0033308645310752699 0 -0.020990864922873106 0.0034560150919015513 0 -0.020978493397193189 0.003608820801581395 0 -0.020990864922873106 0.0034560150919015513 0 -0.021050690038707558 0.0036505116763054439 0 -0.020978493397193189 0.003608820801581395 0 -0.020851820226541286 0.0032981227978864792 0 -0.020990864922873106 0.0034560150919015513 0 -0.019482039431101657 0.002871110020822422 0 -0.019757913745304424 0.002874328457884399 0 -0.019738111868822465 0.0026829037277209967 0 -0.022041296083873559 0.0038277414756286272 0 -0.021515918275964878 0.0037038971731512128 0 -0.019757913745304424 0.002874328457884399 0 -0.019738111868822465 0.0026829037277209967 0 -0.019927176546734839 0.0026767936671142985 0 -0.019482039431101657 0.002871110020822422 0 -0.019738111868822465 0.0026829037277209967 0 -0.0197470264158911 0.0023057892700735741 0 -0.019738111868822465 0.0026829037277209967 0 -0.0197470264158911 0.0023057892700735741 0 -0.019927176546734839 0.0026767936671142985 0 -0.0197470264158911 0.0023057892700735741 0 -0.020173373342156298 0.0025636592959804435 0 -0.020195649620939369 0.0019522488379678632 0 -0.020173373342156298 0.0025636592959804435 0 -0.020524066666864973 0.0024149382338474264 0 -0.020195649620939369 0.0019522488379678632 0 -0.0197470264158911 0.0023057892700735741 0 -0.020173373342156298 0.0025636592959804435 0 -0.019927176546734839 0.0026767936671142985 0 -0.019757913745304424 0.002874328457884399 0 -0.019927176546734839 0.0026767936671142985 0 -0.02009187744068365 0.0031039596720313545 0 -0.020173373342156298 0.0025636592959804435 0 -0.019927176546734839 0.0026767936671142985 0 -0.02009187744068365 0.0031039596720313545 0 -0.020173373342156298 0.0025636592959804435 0 -0.02009187744068365 0.0031039596720313545 0 -0.020367531577415242 0.0028795684932756069 0 -0.020781995928551657 0.0031406374812024186 0 -0.020367531577415242 0.0028795684932756069 0 -0.020524066666864973 0.0024149382338474264 0 -0.020380759588288066 0.0033320171529969468 0 -0.020781995928551657 0.0031406374812024186 0 -0.020367531577415242 0.0028795684932756069 0 -0.020380759588288066 0.0033320171529969468 0 -0.02009187744068365 0.0031039596720313545 0 -0.020367531577415242 0.0028795684932756069 0 -0.020173373342156298 0.0025636592959804435 0 -0.020367531577415242 0.0028795684932756069 0 -0.020524066666864973 0.0024149382338474264 0 -0.021052315921622846 0.0026839329967784848 0 -0.020524066666864973 0.0024149382338474264 0 -0.020513299815246164 0.00099387398020152513 0 -0.020524066666864973 0.0024149382338474264 0 -0.020513299815246164 0.00099387398020152513 0 -0.020195649620939369 0.0019522488379678632 0 -0.020374904264223264 0.0029845628755581994 0 -0.019242720714932288 0.0027998306296676528 0 -0.020044193952513025 0.002382439646529939 0 -0.020513299815246164 0.00099387398020152513 0 -0.019978668694804299 0.0014799089764560816 0 -0.020195649620939369 0.0019522488379678632 0 -0.0197470264158911 0.0023057892700735741 0 -0.019978668694804299 0.0014799089764560816 0 -0.020195649620939369 0.0019522488379678632 0 -0.022041296083873559 0.0038277414756286272 0 -0.018833405455182306 0.00015234642170448812 0 -0.020513299815246164 0.00099387398020152513 0 -0.019978668694804299 0.0014799089764560816 0 -0.019331710156463146 0.00058657465110020963 0 -0.0197470264158911 0.0023057892700735741 0 -0.019978668694804299 0.0014799089764560816 0 -0.019331710156463146 0.00058657465110020963 0 -0.019482039431101657 0.002871110020822422 0 -0.0197470264158911 0.0023057892700735741 0 -0.019331710156463146 0.00058657465110020963 0 -0.0188596256841701 0.0013775846189006693 0 -0.019884214260335788 0.0023102139258372517 0 -0.019331710156463146 0.00058657465110020963 0 -0.020513299815246164 0.00099387398020152513 0 -0.019331710156463146 0.00058657465110020963 0 -0.019405755235553004 -0.00093758130832045385 0 -0.019820463921763749 0.0018275284311578964 0 -0.018469299099344819 0.00033403406626629831 0 -0.0183477162058109 0.0005298573790476006 0 -0.019331710156463146 0.00058657465110020963 0 -0.019405755235553004 -0.00093758130832045385 0 -0.019242720714932288 0.0027998306296676528 0 -0.01754806008787807 0.0013213191127523659 0 -0.019307771893853892 0.0017015578825685751 0 -0.01754806008787807 0.0013213191127523659 0 -0.019307771893853892 0.0017015578825685751 0 -0.019236711510266777 0.00054886260267364765 0 -0.019307771893853892 0.0017015578825685751 0 -0.020044193952513025 0.002382439646529939 0 -0.020348534067445492 0.0017154442531945389 0 -0.019242720714932288 0.0027998306296676528 0 -0.019307771893853892 0.0017015578825685751 0 -0.020044193952513025 0.002382439646529939 0 -0.019307771893853892 0.0017015578825685751 0 -0.019236711510266777 0.00054886260267364765 0 -0.020348534067445492 0.0017154442531945389 0 -0.019551541168199828 -0.0010657855147917915 0 -0.017734496715650593 -0.0005933913735652668 0 -0.019236711510266777 0.00054886260267364765 0 -0.020507198233004009 -0.00045823697607869437 0 -0.019551541168199828 -0.0010657855147917915 0 -0.019236711510266777 0.00054886260267364765 0 -0.017734496715650593 -0.0005933913735652668 0 -0.01754806008787807 0.0013213191127523659 0 -0.019236711510266777 0.00054886260267364765 0 -0.020600371384623398 0.0021248965216405617 0 -0.02368306111770373 0.00082773667311279513 0 -0.021014978879708705 0.00071231838842550463 0 -0.021190120478906692 -0.0021741632314458393 0 -0.023962987378413205 -0.00087067155652224067 0 -0.020865952477981873 0.0033308645310752699 0 -0.020990864922873106 0.0034560150919015513 0 -0.021041119675174504 0.0033462969399826901 0 -0.021015782265832852 0.0026257605605950938 0 -0.020348534067445492 0.0017154442531945389 0 -0.021255730062915208 0.00055039944590567255 0 -0.020600371384623398 0.0021248965216405617 0 -0.021197241851551172 -0.00065898975464337851 0 -0.021015782265832852 0.0026257605605950938 0 -0.020044193952513025 0.002382439646529939 0 -0.020348534067445492 0.0017154442531945389 0 -0.019236711510266777 0.00054886260267364765 0 -0.020348534067445492 0.0017154442531945389 0 -0.021255730062915208 0.00055039944590567255 0 -0.020507198233004009 -0.00045823697607869437 0 -0.019236711510266777 0.00054886260267364765 0 -0.021255730062915208 0.00055039944590567255 0 -0.023157568182910097 -0.0035909625026489078 0 -0.021190120478906692 -0.0021741632314458393 0 -0.023962987378413205 -0.00087067155652224067 0 -0.025066401571116382 -0.0040799830004976598 0 -0.023962987378413205 -0.00087067155652224067 0 -0.026802907242591427 -0.0024330205125109357 0 -0.025066401571116382 -0.0040799830004976598 0 -0.023157568182910097 -0.0035909625026489078 0 -0.023962987378413205 -0.00087067155652224067 0 -0.020990864922873106 0.0034560150919015513 0 -0.021041119675174504 0.0033462969399826901 0 -0.021102122830032939 0.0034989898383953515 0 -0.021041119675174504 0.0033462969399826901 0 -0.021188564425711792 0.0032473562836303565 0 -0.021102122830032939 0.0034989898383953515 0 -0.018300762656095385 0.001534414807111796 0 -0.014622309739818436 0.0059393485105609699 0 -0.021188564425711792 0.0032473562836303565 0 -0.021247157290487397 0.0035472007236408399 0 -0.021102122830032939 0.0034989898383953515 0 -0.02368306111770373 0.00082773667311279513 0 -0.018300762656095385 0.001534414807111796 0 -0.0074583232691792095 0.0055228484631413312 0 -0.008607358066319442 0.0049051422149613676 0 -0.0087590278142676611 0.00618723119467541 0 -0.018300762656095385 0.001534414807111796 0 -0.006797510165331081 0.0029063066195935973 0 -0.008723270620730271 0.0048422993015533097 0 -0.008607358066319442 0.0049051422149613676 0 -0.0087590278142676611 0.00618723119467541 0 -0.004888205297875179 0.0041210372950239351 0 -0.0029387763522251615 0.0077243249872619843 0 0.0026695207233766987 0.00663191250335837 0 0.0019570980189289825 0.0090637236133864797 0 0.0025792873829448186 0.0093925275348949889 0 -0.004888205297875179 0.0041210372950239351 0 -0.006797510165331081 0.0029063066195935973 0 0.011710270715955186 0.011277523668124557 0 0.012095141394679525 0.013653590486265303 0 0.010250764532977012 0.011897729890960164 0 0.0014353006290089843 0.0059755203296601323 0 0.0026695207233766987 0.00663191250335837 0 0.0019570980189289825 0.0090637236133864797 0 0.012095141394679525 0.013653590486265303 0 0.010250764532977012 0.011897729890960164 0 0.0091772834945811534 0.013326021650644195 0 0.0049377711745851689 0.0072411247289770383 0 0.0072165329022247935 0.01205491369188136 0 0.012095141394679525 0.013653590486265303 0 0.0091772834945811534 0.013326021650644195 0 0.0101629431003732 0.015450411925716216 0 0.012095141394679525 0.013653590486265303 0 0.012441890422170157 0.016007157972850877 0 0.0101629431003732 0.015450411925716216 0 -0.0074583232691792095 0.0055228484631413312 0 -0.0087590278142676611 0.00618723119467541 0 -0.0078513097389234805 0.0080208768178435461 0 -0.0029387763522251615 0.0077243249872619843 0 0.0041587464652561631 0.012096312952063376 0 0.0019570980189289825 0.0090637236133864797 0 0.0025792873829448186 0.0093925275348949889 0 0.0024982689017256092 0.012145281742682014 0 -0.0087590278142676611 0.00618723119467541 0 -0.0087781140285623747 0.0075464885080332453 0 -0.0078513097389234805 0.0080208768178435461 0 0.0072165329022247935 0.01205491369188136 0 0.0041587464652561631 0.012096312952063376 0 -0.0087781140285623747 0.0075464885080332453 0 -0.0078513097389234805 0.0080208768178435461 0 -0.0085243518426303018 0.0090016589622173345 0 0.0041587464652561631 0.012096312952063376 0 0.0008805747791091811 0.012986737204051886 0 0.0041587464652561631 0.012096312952063376 0 0.011222846449093557 0.017966039708795081 0 0.0092669267723253634 0.012924704626312825 0 0.0098922202847103874 0.015545397334170829 0 0.009385410748923257 0.016215812846089025 0 0.012441890422170157 0.016007157972850877 0 0.010953342035360442 0.017284282021786546 0 0.012100717851458541 0.018923846639128768 0 0.012441890422170157 0.016007157972850877 0 0.010953342035360442 0.017284282021786546 0 0.0101629431003732 0.015450411925716216 0 0.010953342035360442 0.017284282021786546 0 0.010574916407137159 0.018698406392851773 0 0.012100717851458541 0.018923846639128768 0 0.010574916407137159 0.018698406392851773 0 0.012100717851458541 0.018923846639128768 0 0.010644764617588025 0.020137283222215467 0 0.010574916407137159 0.018698406392851773 0 0.0095679763401289031 0.01933405849379417 0 0.010644764617588025 0.020137283222215467 0 -0.014622309739818436 0.0059393485105609699 0 -0.010368570101208322 0.0093735465915895412 0 0.0098922202847103874 0.015545397334170829 0 0.009385410748923257 0.016215812846089025 0 0.010449843657646106 0.018011205865978305 0 0.0008805747791091811 0.012986737204051886 0 -0.010368570101208322 0.0093735465915895412 0 -0.0078513097389234805 0.0080208768178435461 0 -0.0085243518426303018 0.0090016589622173345 0 -0.0082925707574236108 0.010438364620976614 0 -0.021247157290487397 0.0035472007236408399 0 -0.021098223578603095 0.0038241767652854911 0 -0.021272042343491664 0.003972930853489545 0 -0.021073418409881785 0.0037383282765318386 0 -0.021098223578603095 0.0038241767652854911 0 -0.021050690038707558 0.0036505116763054439 0 -0.021098223578603095 0.0038241767652854911 0 -0.021050690038707558 0.0036505116763054439 0 -0.021102122830032939 0.0034989898383953515 0 -0.020990864922873106 0.0034560150919015513 0 -0.021050690038707558 0.0036505116763054439 0 -0.021102122830032939 0.0034989898383953515 0 -0.021247157290487397 0.0035472007236408399 0 -0.021098223578603095 0.0038241767652854911 0 -0.021102122830032939 0.0034989898383953515 0 0.0016221420901706501 0.0085796614444437654 0 0.0016957692168088096 0.013958928081030575 0 0.0056413396993476705 0.013358363484007369 0 0.0052942142897948732 0.0075515504429188437 0 0.0016221420901706501 0.0085796614444437654 0 0.0056413396993476705 0.013358363484007369 0 0.0052942142897948732 0.0075515504429188437 0 0.0056413396993476705 0.013358363484007369 0 0.008604549332148553 0.0094488011432795962 0 0.0050691570385510386 0.014181106936505835 0 0.0075147222886386856 0.01089988138484951 0 0.0045964376207234137 0.014931190786165272 0 0.0074754623809538305 0.01497703186649405 0 0.0059463257955948302 0.016232045815408169 0 0.0045964376207234137 0.014931190786165272 0 0.0074754623809538305 0.01497703186649405 0 0.006440916751877644 0.012463596666280143 0 0.0088121561438848292 0.011572476608929686 0 0.006440916751877644 0.012463596666280143 0 0.0091772834945811534 0.013326021650644195 0 0.0074754623809538305 0.01497703186649405 0 0.006440916751877644 0.012463596666280143 0 0.0091772834945811534 0.013326021650644195 0 0.0088121561438848292 0.011572476608929686 0 0.010250764532977012 0.011897729890960164 0 0.0091772834945811534 0.013326021650644195 0 0.0074754623809538305 0.01497703186649405 0 0.0091772834945811534 0.013326021650644195 0 0.0101629431003732 0.015450411925716216 0 0.0074754623809538305 0.01497703186649405 0 0.0101629431003732 0.015450411925716216 0 0.0089167731087678379 0.017345278439463152 0 0.010953342035360442 0.017284282021786546 0 0.010574916407137159 0.018698406392851773 0 0.0089167731087678379 0.017345278439463152 0 0.010953342035360442 0.017284282021786546 0 0.0101629431003732 0.015450411925716216 0 0.0089167731087678379 0.017345278439463152 0 0.010574916407137159 0.018698406392851773 0 0.0089167731087678379 0.017345278439463152 0 0.0095679763401289031 0.01933405849379417 0 0.0095679763401289031 0.01933405849379417 0 0.0079683736002681641 0.01921813115900892 0 0.0094614857180153958 0.021113162539707526 0 0.0089167731087678379 0.017345278439463152 0 0.0095679763401289031 0.01933405849379417 0 0.0079683736002681641 0.01921813115900892 0 0.0079683736002681641 0.01921813115900892 0 0.0060688923466211348 0.018173589802218015 0 0.0056518474689198914 0.021603942951313352 0 0.0089167731087678379 0.017345278439463152 0 0.0079683736002681641 0.01921813115900892 0 0.0060688923466211348 0.018173589802218015 0 0.0089167731087678379 0.017345278439463152 0 0.0059463257955948302 0.016232045815408169 0 0.0060688923466211348 0.018173589802218015 0 0.0074754623809538305 0.01497703186649405 0 0.0089167731087678379 0.017345278439463152 0 0.0059463257955948302 0.016232045815408169 0 0.0045964376207234137 0.014931190786165272 0 0.0059463257955948302 0.016232045815408169 0 0.0046771038550699655 0.017017091541874925 0 0.0059463257955948302 0.016232045815408169 0 0.0046771038550699655 0.017017091541874925 0 0.0060688923466211348 0.018173589802218015 0 0.0046771038550699655 0.017017091541874925 0 0.0060688923466211348 0.018173589802218015 0 0.0041020991368699343 0.018830477945096083 0 0.0060688923466211348 0.018173589802218015 0 0.0041020991368699343 0.018830477945096083 0 0.0056518474689198914 0.021603942951313352 0 0.0019638412223668225 0.018776415846461419 0 0.0041020991368699343 0.018830477945096083 0 0.0032092758600559095 0.020383892978484475 0 0.0019638412223668225 0.018776415846461419 0 0.0041020991368699343 0.018830477945096083 0 0.0026498508304393402 0.017106689695375779 0 0.0050691570385510386 0.014181106936505835 0 0.0028060181435092613 0.016936848002369283 0 0.0046771038550699655 0.017017091541874925 0 0.0041020991368699343 0.018830477945096083 0 0.0026498508304393402 0.017106689695375779 0 0.0016957692168088096 0.013958928081030575 0 0.0056413396993476705 0.013358363484007369 0 0.0026498508304393402 0.017106689695375779 0 0.0045964376207234137 0.014931190786165272 0 0.0046771038550699655 0.017017091541874925 0 0.0026498508304393402 0.017106689695375779 0 0.0101685363515331 0.0224659613788783 0 0.010226680429635713 0.022452159493679298 0 0.0099535917788987488 0.022249343394901398 0 0.010160443428865316 0.021266073411650193 0 0.0067969634226436497 0.02201553375700829 0 0.0101685363515331 0.0224659613788783 0 0.0097454315285757168 0.022103739495469815 0 0.0099535917788987488 0.022249343394901398 0 0.0021664626455709574 0.022109971852707661 0 0.0032092758600559095 0.020383892978484475 0 0.0056518474689198914 0.021603942951313352 0 0.0041020991368699343 0.018830477945096083 0 0.0032092758600559095 0.020383892978484475 0 0.0056518474689198914 0.021603942951313352 0 0.0097454315285757168 0.022103739495469815 0 0.0097555392127441683 0.022076873461494867 0 0.0099535917788987488 0.022249343394901398 0 0.0097454315285757168 0.022103739495469815 0 0.0096599381997107929 0.021768754639645279 0 0.0097555392127441683 0.022076873461494867 0 0.0079683736002681641 0.01921813115900892 0 0.0056518474689198914 0.021603942951313352 0 0.0094614857180153958 0.021113162539707526 0 0.0097454315285757168 0.022103739495469815 0 0.0096599381997107929 0.021768754639645279 0 0.0094614857180153958 0.021113162539707526 0 0.0067969634226436497 0.02201553375700829 0 0.0098512740852871004 0.021121608252394508 0 0.0095679763401289031 0.01933405849379417 0 0.0094614857180153958 0.021113162539707526 0 0.010644764617588025 0.020137283222215467 0 0.0094614857180153958 0.021113162539707526 0 0.010644764617588025 0.020137283222215467 0 0.010476458516167438 0.021140951718920255 0 0.0094614857180153958 0.021113162539707526 0 0.0099385309990760312 0.021569251817374395 0 0.010476458516167438 0.021140951718920255 0 0.0096599381997107929 0.021768754639645279 0 0.0098981167981730313 0.021885189290868138 0 0.0097555392127441683 0.022076873461494867 0 0.0096599381997107929 0.021768754639645279 0 0.0094614857180153958 0.021113162539707526 0 0.0099385309990760312 0.021569251817374395 0 0.0096599381997107929 0.021768754639645279 0 0.0099385309990760312 0.021569251817374395 0 0.0098981167981730313 0.021885189290868138 0 0.0099385309990760312 0.021569251817374395 0 0.0098981167981730313 0.021885189290868138 0 0.010322921651896681 0.021625286496728714 0 0.0098873815508899107 0.022071849093008411 0 0.0097816958015252229 0.022296995758117128 0 0.0097555392127441683 0.022076873461494867 0 0.0098981167981730313 0.021885189290868138 0 0.0098873815508899107 0.022071849093008411 0 0.0097555392127441683 0.022076873461494867 0 0.0098981167981730313 0.021885189290868138 0 0.0098873815508899107 0.022071849093008411 0 0.01014893387287071 0.021927027830644309 0 0.0098873815508899107 0.022071849093008411 0 0.0097816958015252229 0.022296995758117128 0 0.01006970353280803 0.02216150408743673 0 0.0097816958015252229 0.022296995758117128 0 0.0098784560377892273 0.022266563934518934 0 0.0097555392127441683 0.022076873461494867 0 0.0097816958015252229 0.022296995758117128 0 0.0098784560377892273 0.022266563934518934 0 0.0098047644757222208 0.022160959891880671 0 0.0098784560377892273 0.022266563934518934 0 0.0097555392127441683 0.022076873461494867 0 0.0099325504244775903 0.02223891749112808 0 0.0097555392127441683 0.022076873461494867 0 0.0099325504244775903 0.02223891749112808 0 0.0099535917788987488 0.022249343394901398 0 0.0099325504244775903 0.02223891749112808 0 0.010051335840505608 0.022367288266647065 0 0.010016843431171166 0.022261634972231676 0 0.0099325504244775903 0.02223891749112808 0 0.010016843431171166 0.022261634972231676 0 0.0099535917788987488 0.022249343394901398 0 0.0098784560377892273 0.022266563934518934 0 0.010017518534726761 0.022346114951567735 0 0.0099334448088902929 0.022129535559511301 0 0.0098784560377892273 0.022266563934518934 0 0.0099325504244775903 0.02223891749112808 0 0.010017518534726761 0.022346114951567735 0 0.010017518534726761 0.022346114951567735 0 0.010051335840505608 0.022367288266647065 0 0.010184669274661986 0.022518147236231148 0 0.0099325504244775903 0.02223891749112808 0 0.010017518534726761 0.022346114951567735 0 0.010051335840505608 0.022367288266647065 0 0.01030001235982961 0.022717244128527627 0 0.010051335840505608 0.022367288266647065 0 0.010184669274661986 0.022518147236231148 0 0.010513363779892419 0.02244974348278761 0 0.010123945970296831 0.02237957413892994 0 0.01030001235982961 0.022717244128527627 0 0.010425754723423558 0.022959870987180452 0 0.010051335840505608 0.022367288266647065 0 0.010521701332678993 0.02192553151182337 0 0.010051335840505608 0.022367288266647065 0 0.010133763843915232 0.022242128638533698 0 0.010226680429635713 0.022452159493679298 0 0.010133763843915232 0.022242128638533698 0 0.0099535917788987488 0.022249343394901398 0 0.010051335840505608 0.022367288266647065 0 0.010133763843915232 0.022242128638533698 0 0.010016843431171166 0.022261634972231676 0 0.010133763843915232 0.022242128638533698 0 0.010016843431171166 0.022261634972231676 0 0.0099535917788987488 0.022249343394901398 0 -0.021060466909381754 0.0041519966849470208 0 -0.021072631282700958 0.0042794804972388946 0 -0.021128766929450767 0.0040607505517965938 0 -0.021072631282700958 0.0042794804972388946 0 -0.021128766929450767 0.0040607505517965938 0 -0.021132819776973958 0.0042875385590895312 0 -0.021072631282700958 0.0042794804972388946 0 -0.021132819776973958 0.0042875385590895312 0 -0.021072362240148371 0.0043884911172257617 0 -0.021060466909381754 0.0041519966849470208 0 -0.021072631282700958 0.0042794804972388946 0 -0.020996577992904629 0.0043409301384585205 0 -0.021060466909381754 0.0041519966849470208 0 -0.020968777202436801 0.0042572585275189841 0 -0.020996577992904629 0.0043409301384585205 0 -0.021060466909381754 0.0041519966849470208 0 -0.020968777202436801 0.0042572585275189841 0 -0.021036711058683044 0.0040223531661383724 0 -0.021073418409881785 0.0037383282765318386 0 -0.021098223578603095 0.0038241767652854911 0 -0.021036711058683044 0.0040223531661383724 0 -0.021098223578603095 0.0038241767652854911 0 -0.021060466909381754 0.0041519966849470208 0 -0.021036711058683044 0.0040223531661383724 0 -0.021098223578603095 0.0038241767652854911 0 -0.021128766929450767 0.0040607505517965938 0 -0.021272042343491664 0.003972930853489545 0 -0.021098223578603095 0.0038241767652854911 0 -0.021060466909381754 0.0041519966849470208 0 -0.021128766929450767 0.0040607505517965938 0 0.011222846449093557 0.017966039708795081 0 0.010470935147219567 0.020019881501648507 0 -0.021128766929450767 0.0040607505517965938 0 -0.021272042343491664 0.003972930853489545 0 -0.021132819776973958 0.0042875385590895312 0 0.009385410748923257 0.016215812846089025 0 0.010449843657646106 0.018011205865978305 0 0.0096983346080456237 0.019227106132688139 0 -0.010368570101208322 0.0093735465915895412 0 -0.020998516006551834 0.002027067835624122 0 0.012100717851458541 0.018923846639128768 0 0.011281675284673822 0.021195156903770163 0 0.010644764617588025 0.020137283222215467 0 0.011281675284673822 0.021195156903770163 0 0.010644764617588025 0.020137283222215467 0 0.010476458516167438 0.021140951718920255 0 0.011281675284673822 0.021195156903770163 0 0.010431904787088423 0.021723753686288441 0 0.010322921651896681 0.021625286496728714 0 0.011281675284673822 0.021195156903770163 0 0.010431904787088423 0.021723753686288441 0 0.010383159127412498 0.021776092703053009 0 0.0099385309990760312 0.021569251817374395 0 0.010476458516167438 0.021140951718920255 0 0.010322921651896681 0.021625286496728714 0 0.011281675284673822 0.021195156903770163 0 0.010476458516167438 0.021140951718920255 0 0.010322921651896681 0.021625286496728714 0 0.0098981167981730313 0.021885189290868138 0 0.010322921651896681 0.021625286496728714 0 0.01014893387287071 0.021927027830644309 0 0.010431904787088423 0.021723753686288441 0 0.010322921651896681 0.021625286496728714 0 0.01014893387287071 0.021927027830644309 0 0.010470935147219567 0.020019881501648507 0 0.010405159392963326 0.021611816692599581 0 -0.010368570101208322 0.0093735465915895412 0 -0.0051393939692701875 0.012939199740634412 0 0.010449843657646106 0.018011205865978305 0 0.0096983346080456237 0.019227106132688139 0 0.010508081271890547 0.021466201068288799 0 -0.021006372604076083 0.0043038002407359459 0 -0.021132819776973958 0.0042875385590895312 0 -0.021144302000719074 0.0043688067251279761 0 0.0096983346080456237 0.019227106132688139 0 0.010383159127412498 0.021776092703053009 0 0.010508081271890547 0.021466201068288799 0 -0.021132819776973958 0.0042875385590895312 0 -0.021072362240148371 0.0043884911172257617 0 -0.021144302000719074 0.0043688067251279761 0 0.010383159127412498 0.021776092703053009 0 0.010508081271890547 0.021466201068288799 0 0.01030225887763281 0.022617821015804937 0 -0.021072362240148371 0.0043884911172257617 0 -0.021144302000719074 0.0043688067251279761 0 -0.021055365436886148 0.004536992802302426 0 -0.021144302000719074 0.0043688067251279761 0 -0.021055365436886148 0.004536992802302426 0 -0.021056368063511976 0.0047336527557900613 0 -0.0051393939692701875 0.012939199740634412 0 -0.001874411335899926 0.015322232706357226 0 -0.021072362240148371 0.0043884911172257617 0 -0.021055365436886148 0.004536992802302426 0 -0.02101686988045507 0.0045085002678802409 0 -0.021055365436886148 0.004536992802302426 0 -0.020988672283996181 0.0046536221827175516 0 -0.02101686988045507 0.0045085002678802409 0 0.010383159127412498 0.021776092703053009 0 0.010233680070308726 0.02199816294750271 0 0.01030225887763281 0.022617821015804937 0 0.010431904787088423 0.021723753686288441 0 0.01014893387287071 0.021927027830644309 0 0.010233680070308726 0.02199816294750271 0 0.010431904787088423 0.021723753686288441 0 0.010383159127412498 0.021776092703053009 0 0.010233680070308726 0.02199816294750271 0 0.0098873815508899107 0.022071849093008411 0 0.01014893387287071 0.021927027830644309 0 0.01006970353280803 0.02216150408743673 0 0.01014893387287071 0.021927027830644309 0 0.010233680070308726 0.02199816294750271 0 0.01006970353280803 0.02216150408743673 0 0.0097816958015252229 0.022296995758117128 0 0.0092951106459220004 0.022164995712023135 0 0.009608492199529672 0.022077478322065445 0 0.014504244998998205 0.024100897406157274 0 -0.001874411335899926 0.015322232706357226 0 0.010233680070308726 0.02199816294750271 0 0.01006970353280803 0.02216150408743673 0 0.01030225887763281 0.022617821015804937 0 0.0097816958015252229 0.022296995758117128 0 0.01006970353280803 0.02216150408743673 0 0.01030225887763281 0.022617821015804937 0 0.0097816958015252229 0.022296995758117128 0 0.0091595096240892626 0.022270326143617642 0 0.0092951106459220004 0.022164995712023135 0 0.0091595096240892626 0.022270326143617642 0 0.0092951106459220004 0.022164995712023135 0 0.0091741231202227668 0.022153103757115149 0 -0.001874411335899926 0.015322232706357226 0 -0.00030553198162777001 0.021169870945598357 0 -0.0013023826232116287 0.020021773389601368 0 -0.013586111260347974 0.016770591244570785 0 -0.00069976017658462378 0.016737981893021128 0 -0.021144302000719074 0.0043688067251279761 0 -0.021139719876968974 0.0049029290297283052 0 -0.021056368063511976 0.0047336527557900613 0 -0.021055365436886148 0.004536992802302426 0 -0.021056368063511976 0.0047336527557900613 0 -0.020988672283996181 0.0046536221827175516 0 -0.021056368063511976 0.0047336527557900613 0 -0.020916770904668473 0.004841766831467571 0 -0.020988672283996181 0.0046536221827175516 0 -0.021139719876968974 0.0049029290297283052 0 -0.021056368063511976 0.0047336527557900613 0 -0.020964233857987253 0.0049948255191665999 0 -0.001874411335899926 0.015322232706357226 0 -0.014499799446500232 0.01618607533816294 0 -0.021056368063511976 0.0047336527557900613 0 -0.020916770904668473 0.004841766831467571 0 -0.020964233857987253 0.0049948255191665999 0 -0.020916770904668473 0.004841766831467571 0 -0.020941537935409562 0.0046088025381066204 0 -0.020933549757007616 0.0044620218705111354 0 -0.020916770904668473 0.004841766831467571 0 -0.019991760692155806 0.0053133822095671425 0 -0.020964233857987253 0.0049948255191665999 0 -0.02116082724503238 0.004940233328007599 0 -0.019963827113664557 0.0044057062494218084 0 -0.020941537935409562 0.0046088025381066204 0 -0.020976331217099478 0.0045590514282563208 0 -0.020949737955667059 0.0044921321054629702 0 -0.020941537935409562 0.0046088025381066204 0 -0.020988672283996181 0.0046536221827175516 0 -0.020976331217099478 0.0045590514282563208 0 -0.020916770904668473 0.004841766831467571 0 -0.020941537935409562 0.0046088025381066204 0 -0.020988672283996181 0.0046536221827175516 0 -0.02101686988045507 0.0045085002678802409 0 -0.020976331217099478 0.0045590514282563208 0 -0.021004816666749547 0.00442359048987318 0 -0.020988672283996181 0.0046536221827175516 0 -0.02101686988045507 0.0045085002678802409 0 -0.020976331217099478 0.0045590514282563208 0 -0.020976331217099478 0.0045590514282563208 0 -0.021004816666749547 0.00442359048987318 0 -0.020949737955667059 0.0044921321054629702 0 -0.021004816666749547 0.00442359048987318 0 -0.020996577992904629 0.0043409301384585205 0 -0.020949737955667059 0.0044921321054629702 0 -0.021072631282700958 0.0042794804972388946 0 -0.021004816666749547 0.00442359048987318 0 -0.020996577992904629 0.0043409301384585205 0 -0.021072631282700958 0.0042794804972388946 0 -0.021072362240148371 0.0043884911172257617 0 -0.021004816666749547 0.00442359048987318 0 -0.021072362240148371 0.0043884911172257617 0 -0.02101686988045507 0.0045085002678802409 0 -0.021004816666749547 0.00442359048987318 0 -0.020968777202436801 0.0042572585275189841 0 -0.020996577992904629 0.0043409301384585205 0 -0.020946853147195514 0.0043938756747286829 0 -0.020902143897289893 0.0043512081955965499 0 -0.020968777202436801 0.0042572585275189841 0 -0.020946853147195514 0.0043938756747286829 0 -0.020949737955667059 0.0044921321054629702 0 -0.020946853147195514 0.0043938756747286829 0 -0.020933549757007616 0.0044620218705111354 0 -0.020996577992904629 0.0043409301384585205 0 -0.020949737955667059 0.0044921321054629702 0 -0.020946853147195514 0.0043938756747286829 0 -0.020902143897289893 0.0043512081955965499 0 -0.020946853147195514 0.0043938756747286829 0 -0.020933549757007616 0.0044620218705111354 0 -0.020916770904668473 0.004841766831467571 0 -0.019997025286782332 0.0049584289727780274 0 -0.019991760692155806 0.0053133822095671425 0 -0.020941537935409562 0.0046088025381066204 0 -0.020949737955667059 0.0044921321054629702 0 -0.020933549757007616 0.0044620218705111354 0 -0.01957823774515521 0.0051418743737331836 0 -0.019997025286782332 0.0049584289727780274 0 -0.019991760692155806 0.0053133822095671425 0 -0.014731028899739013 0.017001921912651187 0 -0.014710738567668653 0.017139607516506492 0 -0.015125146243709512 0.016945269195006437 0 -0.0091181686788845522 0.025081699186642058 0 -0.008692066774586683 0.022995852937798371 0 -0.010490915219780354 0.02320789536703401 0 -0.0091181686788845522 0.025081699186642058 0 -0.008692066774586683 0.022995852937798371 0 -0.0071691739213705736 0.024556371883594608 0 -0.0078547639308761442 0.023686738710311708 0 -0.0072579062904040903 0.024418239093854145 0 -0.0073082493450236175 0.023998084346723073 0 -0.0071691739213705736 0.024556371883594608 0 -0.0067672463957839423 0.024192617479616076 0 -0.011147540272616234 0.021680709548017953 0 -0.014499799446500232 0.01618607533816294 0 -0.0091181686788845522 0.025081699186642058 0 -0.0071691739213705736 0.024556371883594608 0 -0.0066243318166327612 0.025484937028007602 0 -0.017818697363104079 0.010128620400468833 0 -0.014499799446500232 0.01618607533816294 0 -0.014499799446500232 0.01618607533816294 0 -0.00030553198162777001 0.021169870945598357 0 -0.0066243318166327612 0.025484937028007602 0 -0.0063201380798845784 0.024698509090999271 0 -0.005766253443816931 0.025378418231088207 0 -0.0071691739213705736 0.024556371883594608 0 -0.0066243318166327612 0.025484937028007602 0 -0.0063201380798845784 0.024698509090999271 0 0.0092951106459220004 0.022164995712023135 0 0.0093299283632169109 0.021734586273411481 0 0.009608492199529672 0.022077478322065445 0 -0.00030553198162777001 0.021169870945598357 0 0.0050533033229128773 0.025600797516989779 0 -0.0063201380798845784 0.024698509090999271 0 -0.005766253443816931 0.025378418231088207 0 -0.0055975745728370644 0.024074249730827044 0 0.0092951106459220004 0.022164995712023135 0 0.0092227600553143173 0.022165996257756254 0 0.0093299283632169109 0.021734586273411481 0 0.0031654048998023738 0.021272141504695783 0 -0.00030553198162777001 0.021169870945598357 0 -0.0063201380798845784 0.024698509090999271 0 -0.0055975745728370644 0.024074249730827044 0 -0.0067672463957839423 0.024192617479616076 0 -0.0055975745728370644 0.024074249730827044 0 -0.0067672463957839423 0.024192617479616076 0 -0.0068394885589234105 0.023765246463754948 0 -0.0071691739213705736 0.024556371883594608 0 -0.0063201380798845784 0.024698509090999271 0 -0.0067672463957839423 0.024192617479616076 0 0.0050533033229128773 0.025600797516989779 0 -0.0025107325230645638 0.028812555091444259 0 0.010516096026983248 0.023279325501747421 0 0.010426355979816518 0.023508126258088059 0 0.010407111437706945 0.023334745062636379 0 0.0066971183394990271 0.034553133630699347 0 0.0074115081978570916 0.031316242759665665 0 0.0035366205373623416 0.033193931807372436 0 0.0050533033229128773 0.025600797516989779 0 0.0093205562283377851 0.028076121914062176 0 0.0074115081978570916 0.031316242759665665 0 0.0046469883551288442 0.030622026804368183 0 0.0035366205373623416 0.033193931807372436 0 0.0046469883551288442 0.030622026804368183 0 0.00023113508574301137 0.031745246102410161 0 0.0035366205373623416 0.033193931807372436 0 0.0046469883551288442 0.030622026804368183 0 0.00023113508574301137 0.031745246102410161 0 0.0013548082633904038 0.028861877240152402 0 -0.0073082493450236175 0.023998084346723073 0 -0.0073214759250691203 0.023747308792323184 0 -0.0073694982339878156 0.023781535692162736 0 -0.0073082493450236175 0.023998084346723073 0 -0.0073214759250691203 0.023747308792323184 0 -0.0068394885589234105 0.023765246463754948 0 -0.0078547639308761442 0.023686738710311708 0 -0.009399256935643854 0.022054368129123085 0 -0.0073082493450236175 0.023998084346723073 0 -0.0067672463957839423 0.024192617479616076 0 -0.0068394885589234105 0.023765246463754948 0 -0.003040591832511375 0.027966742964565462 0 -0.0025107325230645638 0.028812555091444259 0 0.01030913782187649 0.022808031086496799 0 0.010353802417085644 0.022932876217525211 0 0.01040808767112804 0.023042176113373398 0 0.01030001235982961 0.022717244128527627 0 0.010184669274661986 0.022518147236231148 0 0.01030913782187649 0.022808031086496799 0 0.010184669274661986 0.022518147236231148 0 0.01030913782187649 0.022808031086496799 0 0.010353802417085644 0.022932876217525211 0 0.010208024574772984 0.022523080973758172 0 0.010045976289837397 0.022474251857777992 0 0.010184669274661986 0.022518147236231148 0 0.010353802417085644 0.022932876217525211 0 0.010460851836083961 0.022901448101331705 0 0.010017518534726761 0.022346114951567735 0 0.010184669274661986 0.022518147236231148 0 0.0099334448088902929 0.022129535559511301 0 0.010353802417085644 0.022932876217525211 0 0.010396979736067184 0.023173676217919475 0 0.01040808767112804 0.023042176113373398 0 0.010353802417085644 0.022932876217525211 0 0.010460851836083961 0.022901448101331705 0 0.010396979736067184 0.023173676217919475 0 0.010468383465173441 0.023124629327439909 0 0.010407111437706945 0.023334745062636379 0 0.010396979736067184 0.023173676217919475 0 0.010460851836083961 0.022901448101331705 0 0.010468383465173441 0.023124629327439909 0 0.010396979736067184 0.023173676217919475 0 0.0099334448088902929 0.022129535559511301 0 0.0098047644757222208 0.022160959891880671 0 0.009728278044948635 0.021922125850336028 0 0.0098784560377892273 0.022266563934518934 0 0.0099334448088902929 0.022129535559511301 0 0.0098047644757222208 0.022160959891880671 0 0.010045976289837397 0.022474251857777992 0 0.010777038337984535 0.022490602513779902 0 0.0098047644757222208 0.022160959891880671 0 0.009608492199529672 0.022077478322065445 0 0.009728278044948635 0.021922125850336028 0 0.0097816958015252229 0.022296995758117128 0 0.0098047644757222208 0.022160959891880671 0 0.009608492199529672 0.022077478322065445 0 0.010516096026983248 0.023279325501747421 0 0.010468383465173441 0.023124629327439909 0 0.010407111437706945 0.023334745062636379 0 0.0093299283632169109 0.021734586273411481 0 0.009608492199529672 0.022077478322065445 0 0.009728278044948635 0.021922125850336028 0 0.0050533033229128773 0.025600797516989779 0 0.010777038337984535 0.022490602513779902 0 0.010426355979816518 0.023508126258088059 0 0.010407111437706945 0.023334745062636379 0 0.010244235282828798 0.023583947439201079 0 0.010407111437706945 0.023334745062636379 0 0.010328972697468875 0.023453404879554367 0 0.010244235282828798 0.023583947439201079 0 0.010407111437706945 0.023334745062636379 0 0.010328972697468875 0.023453404879554367 0 0.010396979736067184 0.023173676217919475 0 0.010396979736067184 0.023173676217919475 0 0.010439401198446047 0.023338517749600406 0 0.01040808767112804 0.023042176113373398 0 0.010328972697468875 0.023453404879554367 0 0.010396979736067184 0.023173676217919475 0 0.010439401198446047 0.023338517749600406 0 0.010536434017842719 0.023298949577509769 0 0.010439401198446047 0.023338517749600406 0 0.01040808767112804 0.023042176113373398 0 0.010536434017842719 0.023298949577509769 0 0.010439401198446047 0.023338517749600406 0 0.010497606410628123 0.02358155968173193 0 0.010328972697468875 0.023453404879554367 0 0.010497606410628123 0.02358155968173193 0 0.010089559969179093 0.023735343330927985 0 0.010328972697468875 0.023453404879554367 0 0.010439401198446047 0.023338517749600406 0 0.010497606410628123 0.02358155968173193 0 0.010497606410628123 0.02358155968173193 0 0.010089559969179093 0.023735343330927985 0 0.010330111933307375 0.023548048029195537 0 0.010328972697468875 0.023453404879554367 0 0.010089559969179093 0.023735343330927985 0 0.010244235282828798 0.023583947439201079 0 0.010089559969179093 0.023735343330927985 0 0.010244235282828798 0.023583947439201079 0 0.010074199177524971 0.023733498027874864 0 0.010426355979816518 0.023508126258088059 0 0.010244235282828798 0.023583947439201079 0 0.010074199177524971 0.023733498027874864 0 0.010089559969179093 0.023735343330927985 0 0.010074199177524971 0.023733498027874864 0 0.009185629233293368 0.023937953470660144 0 0.010089559969179093 0.023735343330927985 0 0.009185629233293368 0.023937953470660144 0 0.010330111933307375 0.023548048029195537 0 0.009185629233293368 0.023937953470660144 0 0.010023694691572571 0.022848980215356824 0 0.010330111933307375 0.023548048029195537 0 0.0091104997074706109 0.025620784711485635 0 0.0092435449962511886 0.02406172872909788 0 0.0080112916106161985 0.022447526375860595 0 0.0091340842408763022 0.022424191427638577 0 0.009185629233293368 0.023937953470660144 0 0.0091340842408763022 0.022424191427638577 0 0.009185629233293368 0.023937953470660144 0 0.010023694691572571 0.022848980215356824 0 0.010867346215518185 0.023110412392388306 0 0.010023694691572571 0.022848980215356824 0 0.010330111933307375 0.023548048029195537 0 0.010867346215518185 0.023110412392388306 0 0.010330111933307375 0.023548048029195537 0 0.010766562072302557 0.023645253852340526 0 0.010497606410628123 0.02358155968173193 0 0.010330111933307375 0.023548048029195537 0 0.010766562072302557 0.023645253852340526 0 0.0013548082633904038 0.028861877240152402 0 0.0039962459306105615 0.027775033607220837 0 0.0022487729297452348 0.025683770877388202 0 0.0039962459306105615 0.027775033607220837 0 0.0042944553683191044 0.025570789056489757 0 0.0022487729297452348 0.025683770877388202 0 0.0013548082633904038 0.028861877240152402 0 0.0022487729297452348 0.025683770877388202 0 -0.00077255591782016684 0.02734876568671241 0 0.00023113508574301137 0.031745246102410161 0 0.0013548082633904038 0.028861877240152402 0 -0.001504026999291063 0.029160519312407186 0 0.0013548082633904038 0.028861877240152402 0 -0.00077255591782016684 0.02734876568671241 0 -0.001504026999291063 0.029160519312407186 0 0.0046469883551288442 0.030622026804368183 0 0.0013548082633904038 0.028861877240152402 0 0.0039962459306105615 0.027775033607220837 0 0.0046469883551288442 0.030622026804368183 0 0.008265866982596997 0.027948741842106835 0 0.0039962459306105615 0.027775033607220837 0 0.008265866982596997 0.027948741842106835 0 0.0039962459306105615 0.027775033607220837 0 0.0062200532155140004 0.025825994069867603 0 0.0074115081978570916 0.031316242759665665 0 0.0046469883551288442 0.030622026804368183 0 0.008265866982596997 0.027948741842106835 0 0.0093205562283377851 0.028076121914062176 0 0.0091104997074706109 0.025620784711485635 0 0.0039962459306105615 0.027775033607220837 0 0.0042944553683191044 0.025570789056489757 0 0.0062200532155140004 0.025825994069867603 0 0.0062200532155140004 0.025825994069867603 0 0.0067789720021043925 0.02334376217039158 0 0.0047161087984459501 0.023764758639664142 0 0.0042944553683191044 0.025570789056489757 0 0.0062200532155140004 0.025825994069867603 0 0.0047161087984459501 0.023764758639664142 0 0.009185629233293368 0.023937953470660144 0 0.0062200532155140004 0.025825994069867603 0 0.0067789720021043925 0.02334376217039158 0 0.008265866982596997 0.027948741842106835 0 0.009185629233293368 0.023937953470660144 0 0.0062200532155140004 0.025825994069867603 0 0.0080112916106161985 0.022447526375860595 0 0.009185629233293368 0.023937953470660144 0 0.0067789720021043925 0.02334376217039158 0 0.0068136064063738025 0.022220721653319741 0 0.0080112916106161985 0.022447526375860595 0 0.0067789720021043925 0.02334376217039158 0 0.0068136064063738025 0.022220721653319741 0 0.0067789720021043925 0.02334376217039158 0 0.0053003454433902513 0.022504985708533987 0 0.0067789720021043925 0.02334376217039158 0 0.0047161087984459501 0.023764758639664142 0 0.0053003454433902513 0.022504985708533987 0 0.0047161087984459501 0.023764758639664142 0 0.0053003454433902513 0.022504985708533987 0 0.003861757315040985 0.022683636800990389 0 0.0028661700762077102 0.023704035897513444 0 0.0022487729297452348 0.025683770877388202 0 0.00091722575776715667 0.023475120095575078 0 0.0020457814616032053 0.021732516213818852 0 0.003861757315040985 0.022683636800990389 0 0.0028661700762077102 0.023704035897513444 0 0.0020457814616032053 0.021732516213818852 0 0.0028661700762077102 0.023704035897513444 0 0.00091722575776715667 0.023475120095575078 0 0.0047161087984459501 0.023764758639664142 0 0.003861757315040985 0.022683636800990389 0 0.0028661700762077102 0.023704035897513444 0 0.0042944553683191044 0.025570789056489757 0 0.0028661700762077102 0.023704035897513444 0 0.0022487729297452348 0.025683770877388202 0 0.0042944553683191044 0.025570789056489757 0 0.0047161087984459501 0.023764758639664142 0 0.0028661700762077102 0.023704035897513444 0 0.0022487729297452348 0.025683770877388202 0 -0.00051373179595607733 0.025127672628525746 0 -0.00077255591782016684 0.02734876568671241 0 0.0022487729297452348 0.025683770877388202 0 0.00091722575776715667 0.023475120095575078 0 -0.00051373179595607733 0.025127672628525746 0 0.00091722575776715667 0.023475120095575078 0 -0.00063094317407726001 0.023565003738230578 0 -0.00051373179595607733 0.025127672628525746 0 0.00097709922791696692 0.021855276027283321 0 0.00091722575776715667 0.023475120095575078 0 -6.1170544056674643e-05 0.02253526974495406 0 0.00091722575776715667 0.023475120095575078 0 -6.1170544056674643e-05 0.02253526974495406 0 -0.00063094317407726001 0.023565003738230578 0 -0.0010093099770289847 0.021943884955401612 0 -6.1170544056674643e-05 0.02253526974495406 0 -0.00063094317407726001 0.023565003738230578 0 -0.0010093099770289847 0.021943884955401612 0 -0.0023096735375382972 0.024110912266624544 0 -0.00063094317407726001 0.023565003738230578 0 -0.0020057618974313358 0.023158806955751062 0 -0.0033511218959962562 0.023326541068122802 0 -0.0023096735375382972 0.024110912266624544 0 -0.00096874597697122768 0.021702645647657497 0 -0.0023890209713338748 0.024184718920119728 0 -0.0023096735375382972 0.024110912266624544 0 -0.00063094317407726001 0.023565003738230578 0 -0.00051373179595607733 0.025127672628525746 0 -0.0033511218959962562 0.023326541068122802 0 -0.0023096735375382972 0.024110912266624544 0 -0.0041019796000076594 0.024625832713852505 0 -0.0047946507224160368 0.023179412618234314 0 -0.0033511218959962562 0.023326541068122802 0 -0.0041019796000076594 0.024625832713852505 0 -0.0041019796000076594 0.024625832713852505 0 -0.0041285120106868307 0.026429131236370529 0 -0.0024542736878922769 0.025879816648655438 0 -0.0023096735375382972 0.024110912266624544 0 -0.0041019796000076594 0.024625832713852505 0 -0.0024542736878922769 0.025879816648655438 0 -0.00051373179595607733 0.025127672628525746 0 -0.0024542736878922769 0.025879816648655438 0 -0.00077255591782016684 0.02734876568671241 0 -0.0023096735375382972 0.024110912266624544 0 -0.00051373179595607733 0.025127672628525746 0 -0.0024542736878922769 0.025879816648655438 0 -0.0024542736878922769 0.025879816648655438 0 -0.00077255591782016684 0.02734876568671241 0 -0.0028594835164796988 0.027630050049307839 0 -0.00077255591782016684 0.02734876568671241 0 -0.0028594835164796988 0.027630050049307839 0 -0.001504026999291063 0.029160519312407186 0 -0.0041285120106868307 0.026429131236370529 0 -0.0024542736878922769 0.025879816648655438 0 -0.0028594835164796988 0.027630050049307839 0 -0.0041285120106868307 0.026429131236370529 0 -0.0028594835164796988 0.027630050049307839 0 -0.0043209541156826103 0.027900114661353649 0 -0.0028594835164796988 0.027630050049307839 0 -0.0038909820061008419 0.029225880881516338 0 -0.0043209541156826103 0.027900114661353649 0 -0.0066666723714256413 0.025675866199824617 0 -0.008516815871488068 0.024681470111735212 0 -0.0038909820061008419 0.029225880881516338 0 -0.003145540533915977 0.030033281094501117 0 -0.0053065974660582013 0.028953040388278846 0 -0.0028594835164796988 0.027630050049307839 0 -0.0038909820061008419 0.029225880881516338 0 -0.001504026999291063 0.029160519312407186 0 -0.0038909820061008419 0.029225880881516338 0 -0.003043587966440056 0.030185197914829719 0 -0.001504026999291063 0.029160519312407186 0 -0.0032394460157299434 0.029708469144090369 0 -0.0066666723714256413 0.025675866199824617 0 -0.008516815871488068 0.024681470111735212 0 -0.014196257181669902 0.02542221332512053 0 -0.012593088912449471 0.020416895956396616 0 -0.013518296821744109 0.020038698706356332 0 -0.013536713822069221 0.021316233847646901 0 -0.014196257181669902 0.02542221332512053 0 -0.019100652486420566 0.022183733663027169 0 -0.011504331010858675 0.020715054371266618 0 -0.012593088912449471 0.020416895956396616 0 -0.012540562673604261 0.021334922632707636 0 -0.0038909820061008419 0.029225880881516338 0 -0.0053065974660582013 0.028953040388278846 0 -0.0043209541156826103 0.027900114661353649 0 -0.0053065974660582013 0.028953040388278846 0 -0.0053724649814319439 0.027259953011232758 0 -0.0064092187686002793 0.027329371402271527 0 -0.0053065974660582013 0.028953040388278846 0 -0.0043209541156826103 0.027900114661353649 0 -0.0053724649814319439 0.027259953011232758 0 -0.0041285120106868307 0.026429131236370529 0 -0.0043209541156826103 0.027900114661353649 0 -0.0053724649814319439 0.027259953011232758 0 -0.0041285120106868307 0.026429131236370529 0 -0.0053724649814319439 0.027259953011232758 0 -0.0056385867671317792 0.026140851540582613 0 -0.0053724649814319439 0.027259953011232758 0 -0.0064092187686002793 0.027329371402271527 0 -0.0056385867671317792 0.026140851540582613 0 -0.0053065974660582013 0.028953040388278846 0 -0.0064092187686002793 0.027329371402271527 0 -0.0075086975861016836 0.027860412621031998 0 -0.0064092187686002793 0.027329371402271527 0 -0.007481095629970444 0.026628652239292585 0 -0.0056385867671317792 0.026140851540582613 0 -0.014196257181669902 0.02542221332512053 0 -0.018471002444348399 0.027265890433301639 0 -0.014921053376944 0.026322051586555244 0 -0.014914147636022373 0.027419973427287771 0 -0.014388440521763106 0.026586372179112062 0 -0.0064092187686002793 0.027329371402271527 0 -0.0075086975861016836 0.027860412621031998 0 -0.007481095629970444 0.026628652239292585 0 -0.013627687344753992 0.027972991423894637 0 -0.018471002444348399 0.027265890433301639 0 -0.014196257181669902 0.02542221332512053 0 -0.013627687344753992 0.027972991423894637 0 -0.015165797497489026 0.030182609494212649 0 -0.015150035412418283 0.030059829847928047 0 -0.015340901055570875 0.030122513475990754 0 -0.015170516568405939 0.030192077828115213 0 -0.015150035412418283 0.030059829847928047 0 -0.014662329964817471 0.029730619592505971 0 -0.007481095629970444 0.026628652239292585 0 -0.0056385867671317792 0.026140851540582613 0 -0.0060844678440786937 0.024731207507560762 0 -0.013627687344753992 0.027972991423894637 0 -0.010228184904301069 0.027234259588797195 0 -0.013627687344753992 0.027972991423894637 0 -0.013917617653322389 0.029147029415942504 0 -0.015150035412418283 0.030059829847928047 0 -0.015183834115269522 0.029771669518205056 0 -0.015429198454587749 0.029911573188354509 0 -0.015150035412418283 0.030059829847928047 0 -0.015183834115269522 0.029771669518205056 0 -0.014662329964817471 0.029730619592505971 0 -0.0041019796000076594 0.024625832713852505 0 -0.0056385867671317792 0.026140851540582613 0 -0.0060844678440786937 0.024731207507560762 0 -0.0041019796000076594 0.024625832713852505 0 -0.0041285120106868307 0.026429131236370529 0 -0.0056385867671317792 0.026140851540582613 0 -0.0047946507224160368 0.023179412618234314 0 -0.0041019796000076594 0.024625832713852505 0 -0.0060844678440786937 0.024731207507560762 0 -0.014828238204574252 0.029057812808015681 0 -0.013939751279003116 0.028999027618316561 0 -0.014662329964817471 0.029730619592505971 0 -0.0090804456361357026 0.025704898352958586 0 -0.010228184904301069 0.027234259588797195 0 -0.014828238204574252 0.029057812808015681 0 -0.014662329964817471 0.029730619592505971 0 -0.015250591485883917 0.029413968330203641 0 -0.015183834115269522 0.029771669518205056 0 -0.014662329964817471 0.029730619592505971 0 -0.015250591485883917 0.029413968330203641 0 -0.015475334705926836 0.028956803625454323 0 -0.015250591485883917 0.029413968330203641 0 -0.015737304535703652 0.029385108393719942 0 -0.015250591485883917 0.029413968330203641 0 -0.015460258874926228 0.02966514683785354 0 -0.015737304535703652 0.029385108393719942 0 -0.015183834115269522 0.029771669518205056 0 -0.015250591485883917 0.029413968330203641 0 -0.015460258874926228 0.02966514683785354 0 -0.015460258874926228 0.02966514683785354 0 -0.015737304535703652 0.029385108393719942 0 -0.015745992695228334 0.029750759255446492 0 -0.016117180097757738 0.029143907807843955 0 -0.015737304535703652 0.029385108393719942 0 -0.016179500557855428 0.029471304212825896 0 -0.015737304535703652 0.029385108393719942 0 -0.016179500557855428 0.029471304212825896 0 -0.015745992695228334 0.029750759255446492 0 -0.016179500557855428 0.029471304212825896 0 -0.016032298501947814 0.030038659792024386 0 -0.015745992695228334 0.029750759255446492 0 -0.015593293034443706 0.03006160534276054 0 -0.015429198454587749 0.029911573188354509 0 -0.015745992695228334 0.029750759255446492 0 -0.016032298501947814 0.030038659792024386 0 -0.015593293034443706 0.03006160534276054 0 -0.015745992695228334 0.029750759255446492 0 -0.015150035412418283 0.030059829847928047 0 -0.015340901055570875 0.030122513475990754 0 -0.015429198454587749 0.029911573188354509 0 -0.015593293034443706 0.03006160534276054 0 -0.015340901055570875 0.030122513475990754 0 -0.015429198454587749 0.029911573188354509 0 -0.015183834115269522 0.029771669518205056 0 -0.015460258874926228 0.02966514683785354 0 -0.015429198454587749 0.029911573188354509 0 -0.015460258874926228 0.02966514683785354 0 -0.015429198454587749 0.029911573188354509 0 -0.015745992695228334 0.029750759255446492 0 -0.01653939640087106 0.028939140577525543 0 -0.01732790546651003 0.028818885582404686 0 -0.01649208046882265 0.028872338982556287 0 -0.016567419809950343 0.029254955145583367 0 -0.016534576100455393 0.029547208115666343 0 -0.016643693667500428 0.029278947189493056 0 -0.01649208046882265 0.028872338982556287 0 -0.016567419809950343 0.029254955145583367 0 -0.016457393575470058 0.029274862956609801 0 -0.016179500557855428 0.029471304212825896 0 -0.016567419809950343 0.029254955145583367 0 -0.016179500557855428 0.029471304212825896 0 -0.016567419809950343 0.029254955145583367 0 -0.016534576100455393 0.029547208115666343 0 -0.019968151699289022 0.027411450418525288 0 -0.01817168229446444 0.028144183218315074 0 -0.01836432754432071 0.026879329287751347 0 -0.016179500557855428 0.029471304212825896 0 -0.016032298501947814 0.030038659792024386 0 -0.016534576100455393 0.029547208115666343 0 -0.017954530953539157 0.028855128387088081 0 -0.01732790546651003 0.028818885582404686 0 -0.01649208046882265 0.028872338982556287 0 -0.01817168229446444 0.028144183218315074 0 -0.017146760086535418 0.027590772096405813 0 -0.01817168229446444 0.028144183218315074 0 -0.017146760086535418 0.027590772096405813 0 -0.01836432754432071 0.026879329287751347 0 -0.016705808063058308 0.02642898664343038 0 -0.01836432754432071 0.026879329287751347 0 -0.018462168204386935 0.025561054264061508 0 -0.017146760086535418 0.027590772096405813 0 -0.016705808063058308 0.02642898664343038 0 -0.01836432754432071 0.026879329287751347 0 -0.01836432754432071 0.026879329287751347 0 -0.018462168204386935 0.025561054264061508 0 -0.01985693755491507 0.026074547231348146 0 -0.018462168204386935 0.025561054264061508 0 -0.01985693755491507 0.026074547231348146 0 -0.019642225012742501 0.024855685167922761 0 -0.018462168204386935 0.025561054264061508 0 -0.019642225012742501 0.024855685167922761 0 -0.017962058812173429 0.02377870074449014 0 -0.016521367315456371 0.024896719966409197 0 -0.016705808063058308 0.02642898664343038 0 -0.018462168204386935 0.025561054264061508 0 -0.017954530953539157 0.028855128387088081 0 -0.018471002444348399 0.027265890433301639 0 -0.016032298501947814 0.030038659792024386 0 -0.015593293034443706 0.03006160534276054 0 -0.01535714116491638 0.030438476030207152 0 -0.015593293034443706 0.03006160534276054 0 -0.015340901055570875 0.030122513475990754 0 -0.01535714116491638 0.030438476030207152 0 -0.015165797497489026 0.030182609494212649 0 -0.015340901055570875 0.030122513475990754 0 -0.01535714116491638 0.030438476030207152 0 -0.019968151699289022 0.027411450418525288 0 -0.02175958782889862 0.026576739785909315 0 -0.01985693755491507 0.026074547231348146 0 -0.019968151699289022 0.027411450418525288 0 -0.01836432754432071 0.026879329287751347 0 -0.01985693755491507 0.026074547231348146 0 -0.01985693755491507 0.026074547231348146 0 -0.019642225012742501 0.024855685167922761 0 -0.020899204171101419 0.025122952541905233 0 -0.023378761597297106 0.027184117684992955 0 -0.02155774253759889 0.025517868134283379 0 -0.02350198038255924 0.024092277322101889 0 -0.02175958782889862 0.026576739785909315 0 -0.01985693755491507 0.026074547231348146 0 -0.020899204171101419 0.025122952541905233 0 -0.018471002444348399 0.027265890433301639 0 -0.021582606071859647 0.025488574771618935 0 -0.023378761597297106 0.027184117684992955 0 -0.022781465143276045 0.027472638402124751 0 -0.02155774253759889 0.025517868134283379 0 -0.02155774253759889 0.025517868134283379 0 -0.02020378297211909 0.023499726967375758 0 -0.022162412415657886 0.022567147872003521 0 -0.02155774253759889 0.025517868134283379 0 -0.022162412415657886 0.022567147872003521 0 -0.02350198038255924 0.024092277322101889 0 -0.019642225012742501 0.024855685167922761 0 -0.020899204171101419 0.025122952541905233 0 -0.02020378297211909 0.023499726967375758 0 -0.021582606071859647 0.025488574771618935 0 -0.02016187486742943 0.023538580706584222 0 -0.02020378297211909 0.023499726967375758 0 -0.018462747532347345 0.020943184004398579 0 -0.020994870716066337 0.020889855703254839 0 -0.02020378297211909 0.023499726967375758 0 -0.022162412415657886 0.022567147872003521 0 -0.020994870716066337 0.020889855703254839 0 -0.022162412415657886 0.022567147872003521 0 -0.020994870716066337 0.020889855703254839 0 -0.023675248005120005 0.020850152201937054 0 -0.022162412415657886 0.022567147872003521 0 -0.023675248005120005 0.020850152201937054 0 -0.02350198038255924 0.024092277322101889 0 -0.016521367315456371 0.024896719966409197 0 -0.018462168204386935 0.025561054264061508 0 -0.017962058812173429 0.02377870074449014 0 -0.016521367315456371 0.024896719966409197 0 -0.015959344244532603 0.023415798582783368 0 -0.017962058812173429 0.02377870074449014 0 -0.019642225012742501 0.024855685167922761 0 -0.02020378297211909 0.023499726967375758 0 -0.017962058812173429 0.02377870074449014 0 -0.02020378297211909 0.023499726967375758 0 -0.017962058812173429 0.02377870074449014 0 -0.018462747532347345 0.020943184004398579 0 -0.015959344244532603 0.023415798582783368 0 -0.017962058812173429 0.02377870074449014 0 -0.016803209499474784 0.022180819375341793 0 -0.017962058812173429 0.02377870074449014 0 -0.016803209499474784 0.022180819375341793 0 -0.018462747532347345 0.020943184004398579 0 -0.016803209499474784 0.022180819375341793 0 -0.015982308659453683 0.019876397351901567 0 -0.018462747532347345 0.020943184004398579 0 -0.015304569794456135 0.022141077258787837 0 -0.016803209499474784 0.022180819375341793 0 -0.015982308659453683 0.019876397351901567 0 -0.018462747532347345 0.020943184004398579 0 -0.017369808216707309 0.016909679040768108 0 -0.020715721164157066 0.017362666208570975 0 -0.017255696910218565 0.016951214981264177 0 -0.021570196963981155 0.016816212547528613 0 -0.014011082014479289 0.016567931249855613 0 -0.015982308659453683 0.019876397351901567 0 -0.017369808216707309 0.016909679040768108 0 -0.015982308659453683 0.019876397351901567 0 -0.018462747532347345 0.020943184004398579 0 -0.017369808216707309 0.016909679040768108 0 -0.020994870716066337 0.020889855703254839 0 -0.022202819532986313 0.018973767587599069 0 -0.023675248005120005 0.020850152201937054 0 -0.018462747532347345 0.020943184004398579 0 -0.020994870716066337 0.020889855703254839 0 -0.020715721164157066 0.017362666208570975 0 -0.020994870716066337 0.020889855703254839 0 -0.020715721164157066 0.017362666208570975 0 -0.022202819532986313 0.018973767587599069 0 -0.021570196963981155 0.016816212547528613 0 -0.021700860833084132 0.018299987975777088 0 -0.020715721164157066 0.017362666208570975 0 -0.022202819532986313 0.018973767587599069 0 -0.023755412513593466 0.017520451273587749 0 -0.022202819532986313 0.018973767587599069 0 -0.023755412513593466 0.017520451273587749 0 -0.023675248005120005 0.020850152201937054 0 -0.013488457982689758 0.023350009933834404 0 -0.013471888290227763 0.022474484038920876 0 -0.012882131661375704 0.022794735774261308 0 -0.013488457982689758 0.023350009933834404 0 -0.012882131661375704 0.022794735774261308 0 -0.012830123211289193 0.023336383188365267 0 -0.021700860833084132 0.018299987975777088 0 -0.01974143077349249 0.018692703490813596 0 -0.021700860833084132 0.018299987975777088 0 -0.018119780771308835 0.022216717117567834 0 -0.013471888290227763 0.022474484038920876 0 -0.012882131661375704 0.022794735774261308 0 -0.012838615881733682 0.022073812118377459 0 -0.01241281135275016 0.022506614300923666 0 -0.012882131661375704 0.022794735774261308 0 -0.012838615881733682 0.022073812118377459 0 -0.01241281135275016 0.022506614300923666 0 -0.012882131661375704 0.022794735774261308 0 -0.012524326778529601 0.022789435745934946 0 -0.012882131661375704 0.022794735774261308 0 -0.012524326778529601 0.022789435745934946 0 -0.012590305296848871 0.023021921189062201 0 -0.012882131661375704 0.022794735774261308 0 -0.012590305296848871 0.023021921189062201 0 -0.012830123211289193 0.023336383188365267 0 -0.01974143077349249 0.018692703490813596 0 -0.018087287968246334 0.013999673119168573 0 -0.012590305296848871 0.023021921189062201 0 -0.012830123211289193 0.023336383188365267 0 -0.012264804021090814 0.023268032532304844 0 -0.012524326778529601 0.022789435745934946 0 -0.012590305296848871 0.023021921189062201 0 -0.012257517413658289 0.022860121249671989 0 -0.018087287968246334 0.013999673119168573 0 -0.012691918146463111 0.022295710805969451 0 -0.012590305296848871 0.023021921189062201 0 -0.012264804021090814 0.023268032532304844 0 -0.012257517413658289 0.022860121249671989 0 -0.014731028899739013 0.017001921912651187 0 -0.014710738567668653 0.017139607516506492 0 -0.014278449948517544 0.017024741386876957 0 -0.014710738567668653 0.017139607516506492 0 -0.014278449948517544 0.017024741386876957 0 -0.014229641921296242 0.017325164802907762 0 -0.011147540272616234 0.021680709548017953 0 -0.012691918146463111 0.022295710805969451 0 -0.017818697363104079 0.010128620400468833 0 -0.018087287968246334 0.013999673119168573 0 -0.0091181686788845522 0.025081699186642058 0 -0.010490915219780354 0.02320789536703401 0 -0.011863695219241908 0.024332181243653227 0 -0.01241281135275016 0.022506614300923666 0 -0.012257517413658289 0.022860121249671989 0 -0.012028393091517689 0.022121631084697644 0 -0.010490915219780354 0.02320789536703401 0 -0.011863695219241908 0.024332181243653227 0 -0.012028393091517689 0.022121631084697644 0 -0.012691918146463111 0.022295710805969451 0 -0.0119064197263196 0.022741770708406408 0 -0.01241281135275016 0.022506614300923666 0 -0.012524326778529601 0.022789435745934946 0 -0.012257517413658289 0.022860121249671989 0 -0.010490915219780354 0.02320789536703401 0 -0.012028393091517689 0.022121631084697644 0 -0.011030423502889247 0.022126365570044632 0 -0.008692066774586683 0.022995852937798371 0 -0.010490915219780354 0.02320789536703401 0 -0.010251999095891811 0.021627407092288661 0 -0.010490915219780354 0.02320789536703401 0 -0.011030423502889247 0.022126365570044632 0 -0.010251999095891811 0.021627407092288661 0 -0.003040591832511375 0.027966742964565462 0 -0.0066666723714256413 0.025675866199824617 0 -0.0066666723714256413 0.025675866199824617 0 -0.009399256935643854 0.022054368129123085 0 0.00023113508574301137 0.031745246102410161 0 -0.003043587966440056 0.030185197914829719 0 -0.001504026999291063 0.029160519312407186 0 -0.011504331010858675 0.020715054371266618 0 -0.011030423502889247 0.022126365570044632 0 -0.010251999095891811 0.021627407092288661 0 -0.0073214759250691203 0.023747308792323184 0 -0.0073793402567944475 0.023833376659398154 0 -0.0073694982339878156 0.023781535692162736 0 -0.011504331010858675 0.020715054371266618 0 -0.012028393091517689 0.022121631084697644 0 -0.012540562673604261 0.021334922632707636 0 -0.011504331010858675 0.020715054371266618 0 -0.012028393091517689 0.022121631084697644 0 -0.011030423502889247 0.022126365570044632 0 -0.012593088912449471 0.020416895956396616 0 -0.012540562673604261 0.021334922632707636 0 -0.013536713822069221 0.021316233847646901 0 -0.012540562673604261 0.021334922632707636 0 -0.013536713822069221 0.021316233847646901 0 -0.012838615881733682 0.022073812118377459 0 -0.013471888290227763 0.022474484038920876 0 -0.013536713822069221 0.021316233847646901 0 -0.012838615881733682 0.022073812118377459 0 -0.018119780771308835 0.022216717117567834 0 -0.019100652486420566 0.022183733663027169 0 -0.012028393091517689 0.022121631084697644 0 -0.012540562673604261 0.021334922632707636 0 -0.012838615881733682 0.022073812118377459 0 -0.01241281135275016 0.022506614300923666 0 -0.012028393091517689 0.022121631084697644 0 -0.012838615881733682 0.022073812118377459 0 
</DataArray>
</PointData>
<CellData Scalars="region_id,cross_section_updated," Vectors="" Tensors="stress,">
<DataArray type="Float64" Name="region_id" format="ascii">
5 5 5 5 5 5 5 5 6 5 6 5 5 6 5 6 5 5 5 6 5 5 5 5 5 5 5 5 5 5 5 5 5 5 5 5 5 5 5 6 5 5 6 5 5 6 5 5 5 6 5 5 5 6 5 5 5 5 6 5 5 5 5 5 5 5 5 5 6 5 5 5 6 6 5 5 5 5 6 5 5 5 6 6 5 5 5 6 5 5 6 5 5 5 5 5 5 5 6 5 5 5 5 5 5 5 5 6 5 5 5 5 5 6 5 6 5 5 6 5 5 5 5 5 5 5 5 5 6 5 5 5 5 5 5 5 5 5 5 5 5 5 5 5 5 5 5 5 5 6 5 5 5 5 5 5 5 5 5 5 5 6 5 5 5 5 5 5 6 5 5 5 6 5 5 5 5 6 5 5 5 5 5 5 5 6 5 5 5 5 5 5 5 5 5 5 5 5 5 5 5 5 5 5 6 5 5 5 5 5 5 5 5 5 5 5 5 5 6 5 5 5 5 5 5 5 5 6 5 6 6 6 5 5 6 5 5 5 6 5 5 5 5 5 5 5 5 5 5 6 5 5 5 5 6 5 5 5 6 5 5 5 5 5 6 5 5 5 5 6 6 6 6 5 5 5 6 5 5 5 6 5 6 5 5 5 5 5 6 5 6 5 6 6 5 6 5 5 5 5 5 6 5 5 6 5 5 5 5 5 5 5 5 5 5 5 6 5 5 5 5 6 6 5 5 5 5 5 6 5 6 5 5 5 5 5 5 5 5 5 5 5 6 5 5 5 5 6 5 5 5 5 5 5 5 5 5 5 5 5 6 5 5 5 5 5 5 5 5 6 5 5 5 5 6 5 5 5 5 5 6 5 5 6 5 5 5 5 5 5 5 5 6 5 5 5 5 5 5 5 5 5 5 5 5 5 5 6 5 5 5 5 5 5 5 5 5 5 5 6 5 6 6 5 5 5 5 6 5 6 5 6 5 6 5 5 5 5 5 5 5 5 5 5 5 6 5 5 5 5 6 5 5 5 5 5 5 5 5 5 5 5 5 5 5 5 5 5 5 5 5 5 5 5 5 5 5 5 5 5 6 5 5 5 5 5 5 5 5 5 5 5 5 5 6 5 6 5 5 5 5 5 5 5 5 5 5 5 5 5 5 5 5 5 5 5 6 5 5 5 5 6 5 6 6 5 5 5 5 5 5 5 5 5 5 5 5 5 5 5 5 6 5 6 5 5 6 5 5 6 5 5 5 6 6 5 5 5 6 5 5 6 5 6 5 6 5 6 5 5 6 5 5 5 6 6 5 5 5 5 5 5 5 5 5 5 5 5 6 5 5 5 5 5 5 5 5 5 5 5 5 5 6 5 6 6 5 5 5 5 5 5 5 5 5 6 5 5 5 6 5 5 5 5 5 5 5 5 5 5 5 5 5 5 5 5 5 5 5 5 5 5 5 5 5 6 5 6 6 5 5 5 6 5 5 5 5 5 5 5 5 5 6 5 5 6 5 5 5 5 5 5 5 5 5 5 5 6 5 5 6 5 5 5 5 6 5 5 5 5 6 5 6 5 5 5 5 5 5 5 5 6 5 5 5 5 5 5 6 5 6 5 5 5 6 5 5 5 5 5 6 5 5 5 5 6 5 5 5 5 5 5 5 5 5 5 5 5 5 5 6 5 5 5 5 5 5 5 5 5 5 5 5 5 5 5 5 5 5 6 5 5 5 5 5 6 5 5 5 5 5 5 5 5 5 5 5 6 5 5 5 5 5 6 5 5 5 5 5 5 6 5 5 5 6 6 5 5 5 5 5 5 5 6 6 5 5 5 5 6 5 5 5 5 6 5 5 5 6 5 5 5 5 5 5 5 5 5 5 5 5 5 5 5 5 6 6 5 5 5 5 6 5 5 5 5 6 5 6 5 5 5 5 5 5 5 5 5 5 5 5 5 5 5 5 5 5 5 5 5 5 5 5 5 5 5 5 5 5 5 5 5 5 5 5 5 5 5 5 5 5 5 5 5 5 5 5 6 5 5 5 5 5 5 6 5 5 5 5 5 5 5 5 5 6 5 5 5 5 5 5 6 5 5 5 5 5 5 5 5 5 5 5 5 5 5 6 5 5 5 5 5 5 5 5 5 5 5 5 5 5 5 5 5 5 5 5 5 5 5 5 5 5 5 5 5 5 5 6 5 5 5 5 5 5 5 5 5 5 5 5 5 5 5 5 6 5 5 5 5 5 5 6 5 5 5 5 5 5 5 5 5 6 5 5 5 5 5 5 5 5 5 5 5 5 5 5 5 5 5 5 5 5 6 5 5 6 5 6 5 5 5 6 5 6 5 5 6 5 5 5 5 5 5 5 5 5 5 5 5 5 5 5 5 5 6 5 6 5 5 5 5 6 5 6 5 5 5 6 5 5 5 5 5 5 5 5 5 5 5 5 5 5 5 5 5 5 5 5 5 5 5 5 5 5 5 5 5 5 5 5 5 5 5 5 5 5 5 5 5 5 5 5 5 5 5 5 6 5 5 6 5 5 6 5 5 5 6 5 5 5 5 5 5 6 5 5 5 5 5 5 5 5 5 5 5 5 5 5 5 6 5 6 6 5 5 6 5 6 5 5 5 5 6 5 5 5 5 5 5 5 6 5 5 6 5 6 5 6 5 5 5 5 5 5 5 5 5 5 5 5 5 5 6 6 5 6 5 5 5 5 6 5 5 5 5 5 5 5 5 5 5 5 5 5 5 6 5 5 5 5 5 5 5 5 5 5 5 5 5 5 5 6 5 5 5 5 5 5 6 5 5 5 5 5 5 5 5 5 5 6 6 5 5 5 5 5 5 5 5 5 5 5 5 5 6 5 5 5 5 5 5 5 5 5 5 5 5 5 5 5 5 5 5 6 5 5 5 5 5 5 6 5 5 5 6 5 5 5 5 5 5 5 5 5 5 5 5 5 6 5 5 6 5 6 5 5 5 5 5 5 5 5 5 5 5 5 5 5 5 5 6 5 5 5 6 5 5 5 5 5 5 6 5 5 5 5 5 5 5 5 5 5 5 6 5 5 5 5 6 5 5 5 5 5 5 5 5 5 5 5 5 5 5 5 6 5 5 5 6 6 5 5 5 5 6 5 5 5 5 6 5 5 6 5 5 5 6 6 5 5 5 5 5 5 6 5 5 5 5 6 5 5 5 6 5 5 5 5 5 5 5 5 5 5 5 5 5 5 5 5 5 5 5 5 5 5 5 5 5 5 5 5 5 5 5 5 5 6 5 5 5 5 5 5 5 5 5 5 5 5 5 5 5 5 5 5 5 5 6 5 5 6 5 5 5 5 5 5 5 5 5 5 5 5 5 5 5 5 6 5 5 5 5 5 5 6 5 5 6 5 5 5 5 5 5 5 6 6 5 6 5 5 6 5 5 5 6 5 5 5 5 5 5 5 6 5 5 5 5 6 5 6 5 5 6 6 5 6 6 5 6 5 5 5 6 5 6 5 6 5 5 5 5 6 6 5 5 6 6 6 5 5 5 5 5 5 6 5 5 6 5 5 6 5 5 5 5 6 5 5 5 5 5 6 5 5 6 6 5 5 6 5 5 5 5 5 6 5 5 5 6 5 5 5 5 5 5 6 5 5 6 5 5 6 5 5 5 5 5 5 5 5 5 5 5 5 6 5 5 5 5 5 5 5 5 5 5 5 5 5 5 5 5 5 6 5 5 5 5 5 5 5 5 5 5 5 5 5 5 5 5 5 5 5 5 5 6 5 5 6 5 5 5 5 5 5 5 5 5 5 5 6 5 5 5 5 5 5 5 5 5 5 5 6 5 5 5 5 5 5 5 5 5 6 5 5 6 6 5 5 5 5 5 6 5 5 5 5 5 5 5 5 6 5 5 5 5 5 5 5 5 5 5 5 5 5 5 6 5 5 5 5 5 5 5 6 5 5 5 5 5 6 5 5 6 6 5 5 5 5 5 6 5 5 5 6 5 5 5 5 5 5 5 5 5 5 5 5 5 5 5 5 5 5 5 5 5 5 5 5 5 5 5 5 5 5 5 5 5 5 6 5 5 5 6 5 5 6 5 5 5 5 6 5 5 5 5 5 5 6 5 5 5 5 5 5 5 5 6 5 5 5 5 6 5 5 5 5 5 5 5 5 6 6 5 5 5 5 5 5 5 5 5 5 6 5 5 6 5 5 5 5 5 5 5 5 5 5 5 5 5 5 5 5 5 5 5 5 5 5 5 5 5 5 5 5 5 5 5 5 5 5 5 5 5 5 5 5 5 5 5 5 5 5 5 5 5 5 5 5 5 5 5 5 5 5 5 5 5 5 5 5 5 5 5 5 5 5 5 5 5 5 5 6 5 5 5 5 5 5 5 6 5 6 6 5 5 5 5 5 5 5 5 5 5 5 5 5 5 5 5 5 5 5 5 5 6 5 5 5 6 5 5 5 5 5 5 5 5 5 6 5 5 5 5 5 5 5 5 5 5 5 5 5 5 5 5 5 5 5 5 5 5 5 5 5 5 5 5 5 5 5 5 5 5 5 5 5 6 5 5 5 5 5 5 5 5 6 5 5 5 5 5 5 5 5 5 5 5 5 5 5 5 5 5 5 5 6 5 5 5 5 5 6 5 5 6 5 6 5 5 5 5 5 5 5 5 5 5 5 6 5 5 5 5 5 6 5 5 5 6 6 5 6 5 5 6 5 5 5 5 5 5 5 5 5 6 5 5 5 5 5 5 5 5 5 5 6 5 5 6 5 5 5 5 5 6 5 5 5 5 5 5 5 5 5 5 5 5 5 6 5 5 5 5 5 5 5 5 5 5 5 5 5 5 5 6 5 5 5 5 5 5 5 5 5 5 5 6 5 5 5 5 5 5 5 5 5 6 5 5 5 5 5 5 5 5 6 5 5 5 5 5 5 5 5 5 5 5 5 5 6 5 5 5 6 5 5 5 5 5 5 5 5 5 5 5 5 6 5 5 6 5 5 5 5 5 5 5 6 6 5 6 6 5 5 5 5 5 5 5 5 6 5 5 6 5 5 5 6 6 5 5 5 5 6 5 6 6 5 5 5 5 5 5 5 5 5 5 5 5 5 5 5 5 5 5 6 6 5 6 5 6 5 5 5 5 5 5 5 5 5 5 6 6 5 5 5 6 6 5 5 6 6 5 5 6 5 6 5 5 5 5 5 5 6 5 5 5 5 6 5 5 5 6 5 5 5 5 5 5 5 5 5 5 5 5 5 5 5 5 5 5 5 5 5 6 5 5 6 5 5 5 5 5 5 5 5 5 5 5 5 5 5 5 5 5 5 5 5 5 5 5 5 5 5 5 5 5 5 6 6 5 6 5 5 5 5 5 6 5 5 5 5 5 5 5 5 5 6 5 5 5 5 6 5 5 5 5 6 5 5 5 5 6 5 5 5 5 6 5 5 5 5 5 5 6 5 5 5 5 5 5 5 5 5 5 5 5 5 5 5 5 5 5 5 5 5 5 5 5 5 5 5 6 5 5 5 5 5 5 5 5 5 5 5 5 5 5 5 5 5 5 5 5 5 5 6 5 5 5 5 5 5 5 5 5 5 5 5 5 5 5 5 5 5 5 5 5 5 5 5 5 5 5 5 5 5 5 5 5 5 5 5 5 5 5 5 5 5 5 5 5 5 5 5 5 5 5 5 5 6 5 5 5 5 5 5 5 5 5 5 5 5 5 5 5 5 6 5 5 5 5 5 5 5 6 5 5 5 5 5 5 5 5 5 5 6 5 5 5 6 5 5 5 5 6 5 5 5 5 5 6 5 5 5 5 5 5 5 5 5 5 6 5 5 6 5 5 5 5 5 5 5 5 5 5 5 5 5 5 5 5 5 5 5 5 5 5 5 5 5 5 5 5 5 5 5 5 5 5 5 5 5 5 5 5 5 5 5 5 5 5 5 5 5 5 5 5 5 5 5 5 6 5 5 5 5 5 5 5 5 5 5 5 5 5 5 5 5 5 5 5 5 5 5 5 5 5 5 5 5 5 5 5 6 5 5 5 5 5 5 5 5 5 5 5 6 5 6 6 6 5 6 5 5 5 5 6 6 5 5 5 5 5 5 6 5 6 5 5 5 6 5 5 5 5 5 5 5 5 5 5 5 6 5 5 5 6 5 5 5 5 5 6 5 5 5 5 5 6 5 5 5 5 5 5 5 5 5 6 5 5 6 5 5 5 5 5 5 6 5 5 5 5 5 5 6 5 5 5 5 5 5 5 5 5 5 5 5 5 6 5 5 5 5 5 5 5 5 5 5 5 5 5 5 5 5 5 5 5 5 5 5 5 5 5 5 5 5 5 5 5 6 5 5 5 5 5 5 5 5 5 5 5 5 5 5 5 5 5 5 5 5 5 5 6 6 5 5 5 5 5 5 5 6 5 6 5 5 5 5 5 5 5 6 6 5 6 5 5 6 5 6 6 5 5 6 5 5 5 5 5 6 5 5 6 5 6 5 5 6 5 5 5 5 6 5 5 5 6 5 6 5 5 5 5 6 5 5 5 5 5 5 5 5 5 5 6 5 6 5 5 5 6 5 6 5 5 5 5 5 5 5 5 5 5 5 5 5 6 5 6 5 5 5 5 5 5 5 5 5 5 5 5 5 5 5 5 5 5 6 5 5 5 6 5 5 6 5 5 6 5 5 5 5 5 5 5 5 5 5 5 5 5 6 5 5 5 5 5 5 5 5 5 5 5 6 5 5 5 5 5 5 6 5 5 6 5 5 5 5 5 5 5 5 5 5 5 5 5 5 5 5 5 5 6 5 5 5 6 5 5 5 5 6 5 5 5 5 5 5 5 5 5 5 5 5 5 5 5 5 5 5 5 5 5 6 5 5 5 5 6 5 5 5 5 6 5 6 5 6 5 5 6 5 5 5 5 5 5 5 5 5 5 5 5 5 6 5 5 5 5 5 5 5 5 6 5 5 5 5 5 5 5 5 5 5 5 5 5 5 5 5 5 5 5 5 5 5 5 5 5 5 5 5 5 5 6 5 5 6 5 5 5 5 6 6 5 5 6 5 6 5 5 6 5 5 6 5 5 5 5 5 5 5 5 6 5 5 5 5 5 5 5 5 5 5 5 5 5 5 5 5 5 5 5 5 5 5 6 5 5 5 6 5 6 5 5 5 5 5 5 6 5 5 5 5 6 5 5 5 6 5 5 5 5 5 5 5 5 5 5 5 5 5 5 6 5 5 5 5 5 5 6 5 6 5 5 5 5 5 5 6 5 5 5 5 5 5 5 5 5 5 5 5 5 6 5 5 5 5 5 5 5 5 5 5 5 6 5 5 5 5 5 6 5 5 6 5 5 5 5 6 5 5 5 5 5 5 5 5 5 5 5 5 5 5 5 5 5 5 5 5 5 5 5 5 5 6 5 5 6 6 5 5 6 6 5 6 6 6 5 5 5 6 6 5 5 5 6 6 5 5 5 5 6 6 6 5 6 5 6 5 5 6 5 5 5 5 6 5 5 5 5 6 6 5 5 5 5 5 5 5 5 5 5 5 5 5 5 5 5 5 5 5 6 5 5 5 6 6 6 5 5 5 5 5 5 5 6 5 5 5 5 6 6 5 5 6 5 5 5 5 5 5 5 5 5 5 6 5 6 5 5 6 5 6 5 5 5 5 6 5 5 5 6 5 6 5 5 6 5 5 5 6 6 6 5 6 5 6 5 6 6 6 5 5 5 5 5 5 5 6 5 5 5 5 5 5 5 5 5 5 5 5 5 5 5 5 5 5 5 5 5 5 5 5 5 6 5 5 5 5 5 5 6 6 5 5 6 6 5 5 5 5 5 5 5 5 5 6 5 5 5 5 5 5 5 5 5 5 5 5 5 6 5 5 5 5 5 5 5 5 5 5 5 5 5 5 5 5 5 6 5 6 5 5 5 6 5 6 5 6 6 5 6 5 5 5 5 5 6 5 5 5 5 5 5 6 5 5 5 5 5 5 6 5 5 6 5 5 5 5 5 5 5 5 5 5 5 5 5 5 5 5 5 6 5 5 5 5 5 5 5 5 5 5 5 5 5 6 5 5 5 5 6 5 5 5 5 6 5 5 5 5 5 5 5 5 5 5 5 5 5 5 5 5 5 5 6 5 5 5 5 5 5 5 5 5 5 5 5 5 5 5 5 5 5 5 5 6 5 5 5 5 5 5 5 5 5 5 5 5 5 5 6 5 5 5 5 5 5 5 5 5 5 5 5 5 5 5 5 5 5 6 5 5 5 5 5 5 5 5 5 5 5 6 5 5 5 5 5 6 5 6 5 5 5 5 5 5 5 6 5 5 5 5 5 5 5 5 5 6 5 6 5 5 5 5 5 5 6 5 5 5 5 5 5 5 5 5 5 5 5 5 5 5 6 5 5 5 5 5 5 5 5 5 5 5 5 6 5 5 5 5 5 5 5 5 5 5 5 6 6 5 5 5 6 5 6 5 5 5 6 5 5 5 5 6 5 6 5 5 6 5 5 5 5 6 5 5 5 5 5 5 6 5 5 5 6 5 6 5 5 5 5 5 5 5 5 5 5 5 5 5 5 5 6 5 5 5 5 6 5 5 5 5 5 5 5 5 5 6 5 5 5 5 5 5 5 5 5 5 5 5 5 5 5 5 5 5 5 5 6 6 5 5 5 5 5 5 5 5 5 5 5 5 5 5 6 6 5 5 6 5 5 5 5 5 6 5 5 5 5 5 5 5 5 5 5 5 5 5 5 5 5 5 5 5 5 5 5 5 5 5 5 5 5 5 5 5 5 5 5 5 5 5 5 5 5 5 5 5 5 5 5 5 6 5 6 5 5 5 5 5 5 5 5 5 5 5 5 5 5 5 5 5 6 5 5 5 5 5 5 5 5 5 5 5 5 6 5 6 5 6 5 5 5 6 5 6 5 6 5 5 5 5 5 5 5 5 5 5 5 5 5 5 5 5 5 6 6 5 6 5 5 5 5 5 6 5 5 6 6 6 5 6 5 5 5 5 6 6 5 5 5 5 5 6 5 6 5 5 5 5 5 5 5 5 5 5 5 6 5 5 6 5 5 5 5 5 5 6 5 5 5 6 5 5 5 5 5 6 5 6 5 5 5 5 6 5 5 5 5 5 6 6 5 5 6 5 5 5 5 5 5 5 5 5 6 5 5 5 6 5 5 6 5 5 5 5 5 5 5 5 5 5 5 5 5 5 5 5 5 6 5 6 5 5 5 5 5 5 5 5 5 5 5 6 5 5 6 5 6 5 5 5 5 5 5 5 5 5 5 5 5 5 6 5 5 5 5 5 5 5 5 5 5 5 5 5 5 6 5 6 5 5 5 5 5 5 5 5 5 5 5 5 5 6 6 5 5 5 5 6 5 5 5 5 5 5 5 6 5 5 6 5 5 6 5 5 5 5 6 5 5 5 5 5 6 5 5 6 5 5 5 6 5 5 5 5 5 5 5 5 5 5 5 5 5 6 5 5 5 6 5 5 5 5 5 5 5 6 5 5 5 5 5 5 5 5 5 5 5 6 5 5 5 5 5 5 5 5 5 5 5 5 5 5 5 5 5 6 5 5 5 5 6 5 5 5 6 5 5 5 5 5 6 5 5 5 6 5 5 5 5 5 5 5 5 6 5 5 5 5 5 5 5 5 5 5 6 5 5 6 5 5 6 5 5 5 5 5 5 5 5 5 5 5 5 5 5 5 5 5 5 5 5 6 5 5 6 5 5 6 5 5 5 5 5 5 5 5 5 5 5 5 5 5 5 6 5 5 5 5 5 5 6 5 5 5 5 5 5 6 5 5 6 5 5 5 5 5 5 5 5 5 5 5 6 5 5 5 5 5 5 5 5 5 5 5 5 5 5 5 5 5 5 5 6 5 5 6 5 5 5 5 5 5 5 5 6 5 5 5 5 5 5 5 5 5 5 5 5 5 5 5 5 5 5 5 5 5 5 5 5 5 5 5 5 5 5 5 5 5 5 5 5 5 5 5 5 5 6 5 6 5 5 6 5 5 5 5 6 5 5 5 6 5 5 5 5 5 5 5 5 6 6 5 5 6 5 5 5 5 5 5 5 5 5 5 6 5 6 5 5 5 5 5 6 5 5 5 5 6 5 5 5 5 5 5 6 5 5 6 5 5 6 5 5 6 5 5 5 5 5 5 5 6 5 5 5 6 5 5 5 5 5 6 5 5 5 6 5 5 5 5 5 5 5 6 5 5 5 5 5 5 6 5 5 5 5 5 5 5 5 5 5 5 5 6 5 5 6 5 5 5 5 5 5 5 5 5 5 5 5 5 5 5 6 5 5 6 5 5 5 5 6 5 5 5 6 5 5 5 5 5 5 5 5 5 5 5 6 5 5 6 5 5 5 6 5 5 5 6 5 5 5 5 5 6 5 5 5 6 5 5 5 5 5 5 5 5 5 5 5 5 5 5 5 5 5 5 5 5 5 5 5 6 5 6 5 5 5 5 5 5 5 5 5 5 5 5 5 6 5 5 5 6 5 5 5 6 5 5 5 5 5 5 6 5 5 5 5 5 6 5 5 5 5 5 5 5 5 6 5 6 5 5 5 5 5 5 5 5 6 5 5 6 5 5 5 5 5 5 5 5 6 5 5 6 5 5 5 5 5 5 5 5 5 5 5 5 5 5 5 5 5 5 5 5 5 5 5 5 6 5 6 5 5 5 6 5 5 5 6 5 6 6 5 5 5 5 5 5 5 5 5 5 5 6 5 5 5 5 5 5 5 6 5 5 5 5 6 5 5 5 5 5 5 5 5 5 5 5 6 5 5 5 5 5 6 5 5 5 5 5 5 6 5 5 5 5 5 6 5 5 5 5 6 5 6 5 6 6 5 6 5 5 6 5 5 5 5 5 5 5 6 5 5 6 5 5 5 5 5 5 6 5 5 5 5 6 5 5 6 5 5 5 5 5 5 5 5 5 5 5 6 5 6 5 5 5 5 5 5 5 6 5 5 5 5 5 5 5 5 5 5 5 5 5 5 5 5 5 6 5 5 5 5 6 5 5 5 5 5 5 5 5 5 5 5 5 5 5 5 5 5 5 5 5 5 5 5 5 5 5 5 5 5 5 5 5 5 5 5 5 5 5 5 5 5 5 5 6 5 5 5 5 5 5 5 5 5 5 5 5 5 5 6 5 5 5 6 5 5 5 5 5 5 5 5 5 6 5 5 6 5 5 5 5 5 5 5 5 6 5 5 5 5 5 5 6 5 5 5 5 5 5 5 5 5 5 5 5 5 5 5 5 5 5 5 5 5 6 5 5 6 5 5 5 5 5 5 5 5 6 5 6 5 6 6 5 5 5 5 5 5 5 5 5 5 5 5 5 5 5 5 5 5 5 5 5 5 5 5 5 5 5 5 5 5 5 5 5 5 6 5 5 5 5 5 5 5 6 5 5 5 5 5 5 5 5 6 5 6 5 5 5 5 5 5 5 5 5 5 5 5 5 5 5 5 5 5 5 5 5 5 5 5 5 5 5 5 5 5 5 5 5 5 6 5 5 5 5 5 6 5 5 5 5 5 5 6 5 5 5 5 5 5 6 5 5 5 5 5 5 5 5 5 5 5 5 5 5 5 6 5 5 6 5 5 5 5 6 5 5 6 5 5 5 5 5 5 5 5 5 5 5 5 5 5 5 5 5 5 5 5 5 5 5 5 5 5 5 5 5 6 5 6 5 5 5 5 5 5 5 5 5 5 5 5 5 5 5 5 5 5 5 5 5 5 5 5 5 5 5 5 5 5 5 5 5 6 5 6 5 5 5 5 5 5 5 6 5 5 6 5 5 5 5 5 5 6 5 5 5 5 5 5 5 5 5 5 5 5 5 5 5 5 5 5 5 5 5 5 5 5 5 5 5 5 5 6 5 5 5 5 5 5 5 6 5 5 5 5 6 5 6 5 5 5 5 5 5 5 6 5 5 6 5 5 5 5 5 5 5 5 5 5 5 5 6 5 5 5 5 5 5 5 5 5 6 5 5 6 5 5 5 5 5 6 5 5 5 6 5 5 5 5 5 5 5 5 5 5 5 6 5 5 5 5 5 5 6 5 5 5 5 5 6 5 5 5 5 5 5 6 5 5 5 5 6 5 5 5 5 6 5 5 6 5 5 5 5 6 5 6 5 5 5 5 6 5 5 6 6 5 6 5 6 6 5 6 5 5 6 5 5 6 5 5 5 5 5 5 6 5 5 5 5 5 5 6 5 5 5 6 5 5 5 5 6 5 5 6 5 5 5 5 5 5 5 5 5 5 5 5 5 5 5 5 5 5 6 5 6 5 5 5 6 5 5 5 5 5 5 5 5 5 5 5 5 5 5 5 6 6 5 5 5 5 6 5 5 5 5 5 5 6 6 5 5 5 6 5 5 5 5 5 5 6 5 5 5 5 5 5 5 5 5 5 5 5 5 5 5 6 5 5 5 5 6 6 5 6 5 5 6 5 6 5 5 5 5 5 6 5 5 5 5 5 5 5 5 5 6 5 5 6 5 5 6 5 6 5 6 5 5 5 5 5 5 5 5 5 5 5 5 5 5 5 5 5 5 5 5 5 5 5 5 5 5 5 5 5 5 5 5 5 5 5 5 5 6 6 5 5 5 5 5 6 5 5 6 5 5 5 6 6 5 5 5 5 5 5 5 6 6 5 6 5 5 5 5 5 6 5 5 5 6 6 5 5 5 5 5 6 6 5 5 5 5 5 5 6 5 5 5 5 5 5 5 5 5 5 6 5 5 6 5 5 5 5 5 5 5 5 5 5 5 5 5 5 5 5 5 5 5 5 5 5 5 5 6 5 5 5 5 5 5 5 6 6 5 5 5 5 6 5 6 5 5 5 5 5 5 5 5 5 5 5 5 5 5 5 5 5 5 5 5 5 6 5 5 5 5 5 6 5 5 5 5 5 5 5 5 5 5 5 5 5 5 6 5 5 5 5 5 5 5 5 5 5 5 5 5 5 5 6 5 5 5 6 5 6 5 5 5 5 5 5 5 5 5 5 5 6 5 6 5 5 5 5 5 5 5 6 5 5 5 5 5 5 5 5 5 5 5 5 5 5 5 5 5 5 5 5 5 5 5 5 5 5 5 5 5 5 5 5 5 5 5 5 6 5 5 6 5 5 5 5 5 6 5 5 5 5 5 5 5 5 5 5 5 5 5 5 5 6 5 6 5 6 5 5 5 6 5 5 5 6 5 6 5 5 5 5 5 5 5 5 5 5 6 5 5 5 6 5 5 6 5 5 5 5 6 5 5 5 5 5 5 5 5 5 5 6 5 5 5 6 6 6 5 5 5 5 5 5 6 5 5 5 5 5 5 6 5 5 6 5 5 5 5 5 5 6 6 5 5 5 5 5 5 5 5 5 5 6 5 5 5 5 5 5 6 5 5 5 5 5 6 6 6 5 5 5 5 6 5 5 6 5 5 5 5 6 5 5 5 5 6 5 6 5 6 6 5 5 5 5 5 5 5 5 5 5 5 5 5 5 5 5 5 5 5 5 5 5 5 5 5 5 6 5 5 5 5 5 6 6 5 6 5 5 5 5 5 5 5 5 5 5 5 5 6 5 5 5 5 5 5 5 5 6 5 5 5 5 5 5 5 5 5 5 5 5 5 5 5 6 6 5 5 5 5 5 5 5 5 5 5 5 5 5 5 6 6 5 5 5 5 5 5 5 5 5 5 5 5 5 5 5 5 6 5 5 5 5 5 6 5 5 5 5 5 5 5 5 5 5 5 5 5 5 5 5 5 5 6 5 5 5 5 5 5 5 5 6 5 5 5 5 5 5 6 5 5 5 5 5 5 5 5 5 5 5 5 5 5 5 5 5 5 5 5 5 5 5 5 6 5 5 5 5 5 5 5 5 5 5 5 5 5 6 5 5 5 6 5 6 5 5 5 5 6 5 5 6 5 5 5 5 5 5 5 5 5 5 5 5 5 5 5 5 5 5 5 5 6 5 5 5 5 5 5 5 5 5 5 5 5 5 5 5 5 5 5 6 5 5 5 5 5 5 5 5 6 6 5 5 5 5 5 5 5 5 5 5 5 5 5 5 5 5 5 5 5 5 5 5 5 6 5 5 5 5 5 5 5 6 5 5 5 5 5 5 5 5 5 5 5 5 5 5 6 5 5 5 5 5 5 5 5 5 5 5 5 5 5 6 5 5 5 5 5 5 5 5 5 5 6 6 6 5 5 5 5 5 5 5 5 5 5 5 5 5 5 6 5 5 5 5 5 5 5 5 5 5 5 5 5 5 5 5 5 5 5 5 5 5 5 5 5 5 6 5 5 5 5 5 6 5 5 5 5 6 5 5 6 5 5 5 5 5 5 5 5 5 5 5 5 5 5 5 5 5 5 5 5 5 5 5 5 5 5 5 5 5 6 5 6 5 5 5 5 5 5 5 5 5 5 5 5 6 5 5 5 5 5 5 5 5 5 6 5 5 5 5 5 5 5 5 5 5 5 5 5 5 5 5 5 5 5 5 5 5 5 5 5 5 5 5 6 5 5 6 5 5 5 5 5 5 6 5 5 5 5 6 5 5 6 5 5 6 5 5 5 5 5 5 5 6 5 5 6 6 5 5 5 5 6 5 5 5 6 5 5 5 5 5 5 6 5 5 5 5 5 5 5 5 5 6 5 5 5 6 5 6 5 5 5 5 5 5 5 5 5 5 5 5 6 5 6 5 5 5 6 5 5 6 6 5 5 6 6 5 5 5 6 6 5 6 5 6 5 5 6 6 5 5 5 5 5 5 5 5 5 5 5 5 5 5 5 5 5 5 5 5 6 6 5 6 5 5 5 5 5 5 5 5 5 5 5 5 5 5 5 5 5 6 5 5 6 5 5 5 5 5 5 5 5 6 5 5 5 5 5 5 5 5 5 5 5 5 5 5 5 5 5 5 6 5 5 5 6 5 5 5 5 5 5 6 6 5 5 6 5 5 5 5 5 5 5 5 5 5 5 5 5 5 6 5 5 5 5 5 5 5 5 5 5 5 5 5 5 5 5 5 5 5 6 5 5 5 5 5 5 5 5 6 5 5 5 5 5 5 5 5 5 5 5 5 5 5 5 5 5 5 5 5 5 5 6 5 5 5 5 6 5 5 6 5 5 5 5 5 6 5 5 6 5 5 6 5 5 5 5 5 5 5 5 6 5 5 5 5 5 6 5 5 5 5 5 6 5 5 6 5 5 6 5 5 5 5 5 5 5 5 5 5 5 6 6 5 5 6 5 6 5 5 5 5 5 5 5 6 5 5 6 5 5 5 5 5 5 5 5 5 5 5 5 5 5 5 5 5 5 5 5 5 5 5 5 5 5 5 5 5 5 5 5 5 5 5 5 5 5 5 5 5 5 5 5 5 5 5 5 5 6 5 5 5 5 6 6 5 5 5 6 5 5 5 6 6 5 5 5 5 5 5 5 5 5 5 5 5 5 5 6 5 5 5 5 6 5 6 5 5 5 5 5 6 5 5 5 5 6 5 5 5 6 5 5 6 5 6 5 6 5 5 5 5 5 5 5 5 5 5 5 5 5 5 5 5 5 5 5 5 5 6 6 5 6 5 5 5 6 5 5 5 5 5 6 5 5 5 6 5 5 5 5 5 5 5 5 5 5 5 5 5 5 5 6 5 5 6 5 5 5 5 5 5 5 5 5 6 5 5 5 5 6 5 5 5 5 5 5 5 5 5 5 5 6 5 5 5 5 5 5 5 5 5 5 5 5 5 5 5 6 5 5 5 5 5 5 5 5 5 5 5 6 5 5 5 5 5 5 5 5 5 5 5 5 5 5 5 5 5 5 5 5 5 5 6 5 5 5 6 5 5 5 6 5 5 5 6 5 5 5 5 5 5 5 5 5 5 6 5 6 5 5 5 6 5 5 5 5 5 5 6 5 5 5 5 5 5 5 5 5 5 5 5 5 5 5 5 5 5 5 5 5 5 5 5 6 5 5 5 5 5 5 5 5 5 5 5 5 5 5 5 6 5 5 5 5 5 5 5 5 5 5 5 5 5 5 5 5 5 5 5 5 5 5 5 5 5 5 5 5 5 5 5 5 6 5 5 6 5 5 6 5 5 5 5 5 5 5 6 5 5 5 5 5 5 5 6 5 5 5 5 5 5 5 5 5 5 5 5 5 5 5 6 5 5 6 5 5 5 5 5 5 5 5 5 5 5 5 5 5 5 5 5 5 5 5 5 5 5 5 5 5 5 5 5 5 5 5 5 5 6 5 5 6 5 5 5 5 5 5 5 5 5 5 5 5 5 5 5 5 5 5 5 5 5 5 5 5 5 5 5 5 5 5 5 5 5 5 5 5 5 5 5 5 5 5 5 6 5 6 6 5 5 6 5 5 5 5 5 5 5 5 6 5 5 5 5 5 5 5 5 5 5 5 5 5 5 5 5 5 5 5 5 5 5 5 5 5 5 5 5 5 5 5 5 5 5 5 5 5 5 5 5 6 5 5 5 6 5 5 5 6 5 5 5 5 5 5 5 5 6 5 6 5 5 5 5 5 5 5 5 5 5 6 6 5 5 5 5 5 5 5 5 5 6 5 5 5 6 5 5 5 6 5 5 5 5 6 5 5 5 6 6 6 5 5 6 5 5 6 5 5 6 5 5 5 5 6 5 5 5 6 5 5 5 6 5 5 5 5 5 5 5 5 5 5 5 5 5 5 6 5 5 6 5 5 5 5 5 5 5 5 5 5 6 6 5 5 5 5 6 5 5 5 5 5 5 5 5 5 5 5 5 5 5 5 5 5 5 5 5 5 5 5 5 5 5 5 5 5 5 5 5 5 5 6 5 6 5 5 5 6 5 5 6 5 5 5 5 6 5 5 6 5 5 5 6 5 6 5 5 5 5 5 5 5 5 5 5 6 5 5 5 5 5 5 5 5 5 5 5 5 6 5 5 5 5 5 5 5 5 5 5 6 5 5 5 6 5 5 5 5 5 5 5 5 5 5 5 5 5 5 5 5 5 5 5 5 5 5 5 5 5 5 5 5 5 5 5 5 5 5 5 5 5 5 5 5 5 5 5 5 5 5 5 5 5 5 5 5 5 5 5 5 5 5 5 5 5 5 5 5 5 5 6 5 5 5 5 5 5 5 5 5 5 5 6 6 5 5 5 6 5 5 5 5 5 6 5 5 5 6 5 5 5 5 6 5 6 5 5 5 5 5 5 5 5 5 6 5 5 5 5 5 5 5 5 5 6 5 5 5 5 5 5 6 5 5 5 5 5 5 5 5 5 5 5 6 5 5 5 6 5 5 5 5 5 5 5 5 5 5 5 5 5 5 5 5 5 5 5 5 5 5 5 5 5 6 5 5 5 6 5 5 5 5 5 6 5 5 5 6 5 5 5 5 6 5 5 5 5 5 5 6 5 5 5 5 5 5 6 6 5 5 5 5 5 5 5 5 5 5 5 5 5 5 6 5 5 5 6 5 6 5 6 5 5 5 5 5 5 5 5 5 5 5 5 6 5 5 5 5 6 5 6 5 5 5 5 5 5 5 6 5 5 5 5 5 5 5 6 5 5 6 6 5 5 5 5 6 5 5 5 5 5 5 5 6 5 5 5 5 5 5 5 5 5 5 5 5 5 6 5 5 5 5 5 5 5 5 5 6 5 6 5 5 5 5 5 6 5 5 5 5 5 5 5 5 5 5 5 5 5 5 5 5 5 5 5 5 5 5 5 5 5 5 5 5 5 5 5 5 5 5 5 5 5 5 5 5 5 5 5 5 5 5 5 5 5 5 5 6 5 5 5 5 5 6 5 6 5 5 5 5 5 5 5 6 5 6 5 5 5 5 5 5 5 5 5 5 5 5 6 5 6 5 5 5 5 5 5 5 5 5 5 5 5 5 5 5 5 5 5 5 6 5 5 5 5 6 5 6 5 5 5 6 5 5 5 5 5 5 5 5 5 5 5 5 5 5 5 5 5 5 5 6 5 5 5 5 5 5 5 5 6 5 5 5 6 5 5 5 5 5 5 5 5 5 5 5 5 6 5 5 5 5 5 6 5 5 5 5 5 5 5 5 5 6 5 6 5 5 5 5 5 5 5 5 5 5 6 5 5 5 5 5 5 5 5 5 5 5 5 5 5 6 5 5 5 5 5 5 5 6 5 5 5 5 5 5 5 5 5 5 5 5 5 5 5 5 5 5 5 5 5 5 5 5 5 5 5 5 5 5 6 5 6 5 5 5 5 5 5 5 5 5 5 5 5 6 5 5 5 5 5 5 6 6 5 5 5 5 5 5 5 5 5 5 5 5 6 5 5 5 5 5 5 5 5 5 5 5 5 5 5 5 5 5 5 5 5 5 5 5 5 5 5 5 5 5 5 5 5 5 5 5 5 5 5 5 5 5 5 5 5 5 5 5 5 5 5 5 5 5 5 5 5 5 6 5 5 5 5 5 6 5 5 6 5 5 5 5 6 5 5 5 5 5 6 5 5 6 5 5 5 5 5 6 5 6 5 5 5 5 5 5 5 5 5 5 5 5 5 5 5 5 5 5 5 5 5 5 5 5 5 6 5 5 5 6 6 5 5 5 5 5 5 6 5 5 5 5 5 5 5 5 5 5 5 5 5 5 5 6 5 5 5 5 5 5 6 5 5 6 5 5 5 5 5 5 5 6 5 5 5 5 6 5 5 5 5 5 5 5 6 5 6 5 5 5 5 5 5 5 6 5 5 5 6 5 5 5 5 5 5 5 5 5 5 5 5 5 5 5 6 5 6 5 5 5 6 5 5 5 6 5 5 6 5 5 5 5 5 5 6 5 5 5 5 5 5 5 5 5 5 5 5 5 5 5 6 5 5 5 5 5 5 6 5 5 5 5 5 6 5 5 5 5 5 5 5 5 6 5 5 5 5 6 5 5 5 6 5 5 6 5 5 6 5 5 6 5 6 5 6 5 5 5 5 5 6 5 5 5 5 5 5 5 5 5 6 5 5 5 5 5 5 6 5 5 5 5 6 5 6 5 5 6 5 5 5 5 6 6 5 5 5 6 5 6 5 5 6 5 6 6 5 5 5 5 5 5 5 5 5 6 5 5 5 6 5 5 5 5 5 5 6 6 5 5 6 6 6 6 5 5 5 6 5 5 5 5 5 6 5 5 5 5 5 5 5 5 5 5 5 5 5 5 5 5 5 5 5 5 5 5 6 5 5 6 5 5 5 5 5 5 5 5 5 5 5 5 5 5 5 5 5 5 5 5 5 6 5 5 5 5 5 5 5 5 5 5 5 5 6 5 5 6 5 5 5 5 5 5 5 5 5 5 5 5 5 5 5 5 5 5 5 5 6 5 5 5 5 5 5 5 6 5 6 5 6 5 5 6 5 5 5 6 6 5 5 5 5 5 5 5 5 5 5 5 5 5 5 5 5 5 6 5 5 5 5 5 5 5 5 5 5 5 5 5 5 5 5 5 5 5 5 6 5 5 6 5 5 5 5 6 5 5 5 5 5 5 5 5 6 5 5 5 5 5 6 5 5 5 5 5 5 5 6 5 5 5 6 5 6 6 5 5 5 5 5 5 5 5 5 6 5 5 5 5 6 5 5 5 6 5 5 5 5 6 5 5 5 6 5 6 5 5 6 5 6 5 5 5 6 5 5 5 5 5 6 5 5 5 5 5 5 5 5 5 6 5 5 5 5 6 5 5 6 5 5 5 6 5 5 5 5 6 5 6 6 5 5 5 5 5 5 5 5 5 5 5 5 5 5 5 6 5 6 5 5 5 5 5 5 5 5 6 5 5 5 5 5 5 6 5 6 5 5 5 5 5 6 5 5 5 5 5 5 6 5 6 6 5 5 5 5 5 5 5 5 5 5 5 5 5 5 5 5 5 5 5 5 5 5 6 5 5 5 5 5 5 5 5 5 5 5 5 5 5 5 5 5 6 5 5 6 5 5 5 5 5 5 5 5 5 5 6 5 5 5 6 5 5 5 5 5 5 5 6 5 5 5 5 5 5 6 5 5 5 5 5 5 5 5 5 5 5 6 5 5 5 5 5 5 5 5 5 5 5 5 5 5 5 5 6 5 5 5 5 5 5 5 5 5 6 5 5 5 6 5 5 5 5 5 5 5 5 5 5 5 5 5 5 5 5 5 5 5 5 5 5 5 5 5 6 5 5 5 5 5 6 6 5 5 5 5 6 5 5 5 5 5 5 5 5 6 5 5 5 5 6 5 5 5 6 5 5 5 5 5 6 5 6 5 5 5 5 5 5 5 6 5 5 6 5 5 6 5 5 5 6 5 5 5 5 5 6 5 5 5 5 5 5 5 5 6 6 5 5 5 5 5 5 5 5 5 6 5 5 5 5 6 5 5 5 5 5 5 5 5 5 5 5 5 6 5 5 5 5 5 5 5 5 5 5 5 5 5 5 5 5 5 5 5 5 5 5 5 5 5 5 5 6 5 5 5 6 6 5 5 5 5 5 5 6 5 5 5 6 6 5 5 5 5 5 5 5 5 5 5 5 5 5 5 6 6 5 5 5 5 5 6 5 5 5 5 5 5 6 5 5 5 5 6 6 5 5 6 5 5 5 5 5 5 5 5 6 5 5 5 5 5 5 5 5 5 5 5 5 5 5 5 6 5 5 5 5 5 5 5 5 6 5 5 5 5 5 5 5 5 6 5 6 5 5 5 6 5 5 6 5 5 6 5 5 5 5 5 5 5 6 5 5 6 5 6 5 5 6 5 5 5 5 5 5 6 5 6 5 6 5 5 5 5 6 5 5 5 5 5 5 5 5 5 5 5 5 5 5 5 5 6 5 5 5 5 5 5 5 5 5 6 5 5 5 5 5 5 5 5 5 5 5 5 6 5 5 5 5 5 5 5 5 6 5 5 5 5 6 5 5 6 5 5 5 6 5 6 5 5 6 5 6 5 5 5 5 5 5 6 5 5 5 5 5 5 5 5 5 5 5 5 5 5 5 5 5 6 5 5 5 5 5 5 5 5 5 5 5 5 5 5 5 5 5 5 5 5 5 5 5 5 5 5 6 5 5 5 5 6 5 5 6 5 5 5 6 5 5 5 5 5 6 5 5 5 5 5 5 5 6 6 5 5 5 5 5 5 5 5 5 5 5 5 5 5 5 5 5 6 6 6 5 5 5 5 5 6 5 6 6 5 5 5 5 5 5 5 5 6 5 5 5 5 5 5 5 5 5 5 5 5 5 5 5 6 5 6 5 5 5 5 5 5 5 5 5 6 5 5 5 5 6 5 5 6 5 5 5 5 5 5 5 5 5 5 5 5 5 5 5 5 5 5 5 5 5 5 5 5 5 5 5 5 5 5 5 5 5 5 5 5 5 5 5 5 5 5 6 5 5 5 5 6 5 5 6 5 6 5 6 5 5 6 5 6 5 6 6 5 5 5 6 5 5 6 6 5 6 5 6 5 5 5 5 5 6 5 5 5 5 5 5 5 5 5 5 5 5 5 5 5 5 5 5 5 5 5 5 6 5 5 5 6 5 5 6 5 5 5 5 5 5 5 5 5 5 5 6 5 5 5 5 5 5 6 5 6 5 5 6 5 5 6 5 5 5 5 5 5 5 5 5 5 5 5 5 5 5 5 5 5 5 5 5 5 5 5 6 5 5 5 5 5 5 5 5 5 5 5 5 5 5 5 5 5 5 5 5 5 5 5 5 5 5 5 5 5 5 5 5 5 5 5 5 5 5 6 5 5 5 5 5 5 5 6 5 5 5 5 5 6 5 5 5 5 6 5 6 5 5 5 5 5 6 5 5 6 5 5 6 5 5 6 5 6 5 5 5 6 5 6 5 6 5 6 5 6 6 6 5 5 5 5 5 5 6 5 5 5 5 6 5 5 5 5 5 5 5 5 5 5 5 6 6 5 5 5 6 5 5 6 5 6 6 6 5 5 5 5 5 5 5 5 5 5 5 5 5 5 6 5 5 5 5 5 5 5 5 5 5 5 5 5 6 5 5 5 5 5 5 5 5 6 5 5 5 5 5 5 5 5 5 5 5 5 5 5 6 5 5 5 6 5 5 5 5 5 5 5 5 5 5 5 5 5 5 5 5 5 5 5 5 5 5 5 6 5 5 6 5 5 5 6 5 5 5 5 5 5 6 5 5 5 5 6 5 6 6 5 5 5 5 6 6 5 5 5 5 5 6 5 5 5 5 5 6 6 5 5 5 5 5 5 5 5 5 5 5 5 5 5 6 5 5 5 5 5 5 6 5 5 5 6 5 5 5 5 5 5 6 5 5 5 5 5 5 5 5 5 5 6 5 5 5 5 5 5 5 5 5 5 5 5 5 5 5 5 5 5 5 5 5 5 5 5 5 5 5 5 5 5 5 5 5 5 5 5 5 5 5 5 5 5 5 5 5 6 5 5 5 5 5 5 5 5 5 5 6 5 5 5 5 5 5 5 5 5 5 5 5 5 5 6 5 5 5 5 5 5 5 5 5 5 6 5 5 5 5 6 5 5 5 6 5 5 5 6 5 5 5 5 5 6 5 5 5 5 5 5 6 5 5 5 5 5 5 5 6 5 6 5 5 6 6 5 5 5 5 5 6 5 5 5 5 6 5 5 5 5 6 5 5 5 6 5 5 5 6 5 5 5 6 5 5 6 5 5 5 5 5 5 6 5 5 6 5 5 5 6 5 5 5 5 5 6 5 6 5 6 5 6 6 5 5 5 6 6 5 6 5 5 5 5 5 5 5 5 5 5 6 5 5 5 6 5 6 5 5 5 6 5 5 5 5 5 5 5 5 5 6 5 6 5 6 5 5 5 5 5 5 5 5 5 5 5 5 5 5 5 5 5 5 5 5 5 5 5 5 5 5 5 5 5 5 5 5 5 5 5 5 6 5 6 5 5 5 5 5 6 5 6 5 5 5 5 5 5 5 5 6 5 5 5 5 5 5 5 6 5 5 5 6 5 5 6 5 5 5 5 6 5 5 5 5 5 5 5 5 5 5 5 5 5 6 5 5 5 5 5 5 6 5 6 5 5 5 5 5 6 5 5 5 5 5 5 5 5 5 5 5 5 5 5 5 5 5 5 6 5 5 5 5 5 6 5 5 5 5 5 5 5 5 5 6 5 5 5 6 5 5 5 5 5 5 5 5 6 5 6 5 6 5 6 5 6 5 5 5 6 5 5 5 6 5 5 6 5 6 6 5 5 5 5 5 5 6 5 6 5 5 5 5 5 5 5 5 5 6 5 5 5 5 5 5 5 5 5 5 5 5 5 5 5 5 5 5 5 5 5 5 6 5 5 5 5 6 5 5 5 5 5 5 5 6 5 5 5 5 5 5 5 5 5 5 5 5 5 5 5 5 5 5 5 5 5 5 6 5 5 5 5 5 5 5 5 5 5 5 5 5 5 5 6 5 5 6 5 5 5 5 5 5 5 5 6 6 5 5 5 5 5 5 5 6 5 5 5 5 5 5 5 5 6 5 5 5 5 6 5 5 5 5 5 6 5 5 5 6 5 5 5 5 5 5 5 5 5 5 5 5 5 5 5 5 5 5 5 5 5 6 5 6 5 6 6 5 5 5 6 5 5 6 5 5 5 6 5 5 6 5 5 5 5 5 6 5 6 5 5 5 6 5 5 5 5 5 5 5 5 6 5 5 5 5 6 5 5 5 5 5 5 5 5 5 5 5 5 5 5 5 5 6 5 5 5 5 5 5 5 5 5 5 5 5 5 5 6 5 5 5 5 5 5 5 5 5 5 5 5 5 5 5 5 5 5 5 5 5 5 5 5 6 5 5 5 5 5 5 5 5 5 5 5 5 6 5 5 5 6 6 5 6 5 5 5 5 5 5 5 5 5 6 5 5 6 6 5 5 5 6 6 5 5 5 5 5 5 6 5 5 5 5 5 5 5 5 5 5 5 5 5 5 5 6 5 5 5 5 5 5 6 5 5 5 5 5 5 5 5 6 5 5 5 5 5 5 5 5 6 5 5 5 5 6 5 5 5 5 5 5 5 5 5 5 5 5 5 6 5 5 5 5 5 6 5 5 5 5 6 6 5 5 5 5 5 6 5 5 6 5 5 5 6 6 5 5 5 6 5 5 5 5 6 6 5 5 5 5 5 5 5 5 6 5 5 
</DataArray>
<DataArray type="Float64" Name="stress" NumberOfComponents="9" format="ascii">
-2324.3755748277908 2932.1593375248849 0 2932.1593375248849 1.2016970238328213 0 0 0 0 -1.7773754700756399 2363.7341728053107 0 2363.7341728053107 -1082.8296878857946 0 0 0 0 -5052.8634539813793 1342.6661235818428 0 1342.6661235818428 395.90778480346489 0 0 0 0 -1444.2258844172011 1041.9655936073914 0 1041.9655936073914 -183.97607008420164 0 0 0 0 -958.07088690668752 1420.0668459133958 0 1420.0668459133958 -697.41319813665359 0 0 0 0 -1556.5610156720941 1740.3050641797381 0 1740.3050641797381 -649.83130974708183 0 0 0 0 -422.744715488152 884.91773316418767 0 884.91773316418767 -695.52264902061142 0 0 0 0 -954.01108130165812 1359.8834359103203 0 1359.8834359103203 -891.5854517173284 0 0 0 0 -7.5181165480442473 3.8312760408585689 0 3.8312760408585689 -2.0054939814021964 0 0 0 0 15.468943625470274 -103.87233335361816 0 -103.87233335361816 -884.60160753074774 0 0 0 0 11.350335736154193 32.523062027102668 0 32.523062027102668 -18.836357899672706 0 0 0 0 64.498123314857366 -13.617362209508428 0 -13.617362209508428 -184.7603006688114 0 0 0 0 30.827811644994654 71.121305018095882 0 71.121305018095882 36.39266499054429 0 0 0 0 7.0265856720220086 13.523787960324398 0 13.523787960324398 -15.930444826008262 0 0 0 0 -11.028408875841706 77.09176444350669 0 77.09176444350669 51.958916530493298 0 0 0 0 -2.0055710234804849 24.626711809636475 0 24.626711809636475 -50.00571457991748 0 0 0 0 -772.42114758944081 241.0142802554692 0 241.0142802554692 -110.92371951619316 0 0 0 0 1.5305279236781644 38.873692131754069 0 38.873692131754069 115.85503469451214 0 0 0 0 340.26363635267626 275.26579507596034 0 275.26579507596034 47.359195797384018 0 0 0 0 -6.8522456696679797 8.7351588386546553 0 8.7351588386546553 -16.270101658324847 0 0 0 0 290.77886089419007 226.62650136686989 0 226.62650136686989 0.38471880599536235 0 0 0 0 324.28760403909109 453.4463563514546 0 453.4463563514546 192.92526922605612 0 0 0 0 753.09576157449919 344.04433160967164 0 344.04433160967164 -0.12235653554584033 0 0 0 0 781.85467598117975 694.07046927067131 0 694.07046927067131 295.97721008901863 0 0 0 0 344.9279530898857 43.558606423594028 0 43.558606423594028 -56.911056202894542 0 0 0 0 723.35114132520903 313.99538833194674 0 313.99538833194674 -13.753272160800407 0 0 0 0 684.81511594274343 334.55361502225423 0 334.55361502225423 -0.18614504618744832 0 0 0 0 1082.0646519855509 322.46907319921593 0 322.46907319921593 -20.227895358251772 0 0 0 0 42.238569349043246 336.03668095496687 0 336.03668095496687 223.32851408634451 0 0 0 0 786.65145666413628 75.4202711501257 0 75.4202711501257 27.187378468021052 0 0 0 0 1449.3969340195581 822.54553425987979 0 822.54553425987979 277.3833525650407 0 0 0 0 707.98956149068363 379.96988285626685 0 379.96988285626685 381.24594861094374 0 0 0 0 743.67238421882212 942.11038309125433 0 942.11038309125433 640.25323842308717 0 0 0 0 1369.8043850451795 1583.9989100945313 0 1583.9989100945313 1292.2075292160298 0 0 0 0 2434.726718065318 332.29418086196893 0 332.29418086196893 -18.327528089925181 0 0 0 0 810.89233831111414 23.604060283530998 0 23.604060283530998 101.11727022314153 0 0 0 0 250.51566047630331 178.27341635861376 0 178.27341635861376 64.718909497125424 0 0 0 0 -37.400099898455665 343.86786903488974 0 343.86786903488974 566.95075186155736 0 0 0 0 -67.056529111068812 58.431884346638981 0 58.431884346638981 300.57486586106825 0 0 0 0 4.3400403425926157 5.5859445811223338 0 5.5859445811223338 3.9228573049379065 0 0 0 0 1092.3327516761783 237.61530012963703 0 237.61530012963703 32.650614207013859 0 0 0 0 -59.929734571196605 60.033992302105617 0 60.033992302105617 101.19651371659711 0 0 0 0 2.7467575759137617 33.815355614266792 0 33.815355614266792 -10.096376043959907 0 0 0 0 109.7041295409872 11.223889936547494 0 11.223889936547494 -191.70876150236654 0 0 0 0 7.10907995319576 43.498344950909086 0 43.498344950909086 -50.273294900753172 0 0 0 0 31.3830181874837 23.409646641683281 0 23.409646641683281 -34.372069689808882 0 0 0 0 8.2638065194332739 36.69766455305944 0 36.69766455305944 -27.661563876987202 0 0 0 0 20.756636104943027 107.31626244190556 0 107.31626244190556 1.0840864805359161 0 0 0 0 132.71088627220888 22.914201937051985 0 22.914201937051985 -152.55378549298621 0 0 0 0 37.9901712202699 3.914892678364879 0 3.914892678364879 -7.8406095080075104 0 0 0 0 116.51266338309506 -37.502464732708177 0 -37.502464732708177 -46.733486598859599 0 0 0 0 218.05119534057303 77.174232061719522 0 77.174232061719522 -43.185333490022458 0 0 0 0 -36.108065835673187 80.421829654736939 0 80.421829654736939 -8.1641161583247595 0 0 0 0 23.129413045234713 34.586349493930584 0 34.586349493930584 -18.913619327104698 0 0 0 0 32.612753254499694 40.090700530829054 0 40.090700530829054 -35.717332491985871 0 0 0 0 2273.9962774943488 -13.484321783114865 0 -13.484321783114865 -458.70852321913117 0 0 0 0 538.41783803148428 1046.2678493216772 0 1046.2678493216772 1331.7665010466735 0 0 0 0 591.59467725646391 -587.31151746820251 0 -587.31151746820251 251.04227508668555 0 0 0 0 13.224590544275372 -2.2629740958462889 0 -2.2629740958462889 0.97785464841221881 0 0 0 0 45.439577022902085 1.2884895438037347 0 1.2884895438037347 78.057245349118602 0 0 0 0 872.00522972186445 261.61227718199916 0 261.61227718199916 -493.1028700061579 0 0 0 0 618.93430060590617 -212.74467423595343 0 -212.74467423595343 -7.6719876052266045 0 0 0 0 458.05187638859934 379.97480717128201 0 379.97480717128201 -287.89244480453635 0 0 0 0 576.04966985446299 635.72656656325125 0 635.72656656325125 13.48934929605457 0 0 0 0 359.9256381254454 260.36236661300427 0 260.36236661300427 10.018084057657688 0 0 0 0 173.05475637516793 277.55126437588478 0 277.55126437588478 54.968243948973395 0 0 0 0 76.817035898959148 542.76396284619477 0 542.76396284619477 0.0011877054566866718 0 0 0 0 199.88390423623059 358.32309950708441 0 358.32309950708441 275.43747592181171 0 0 0 0 -22.50655017163794 29.041714278203465 0 29.041714278203465 -21.291058373065027 0 0 0 0 128.10876524142805 79.235080924067006 0 79.235080924067006 -23.738546292577666 0 0 0 0 146.31390759519127 36.127416328898107 0 36.127416328898107 -55.025309503875178 0 0 0 0 22.415405980667856 38.82774322188925 0 38.82774322188925 -30.705774151218066 0 0 0 0 2.4508795464353312 32.400805474552783 0 32.400805474552783 -17.086056405366094 0 0 0 0 8.0971749996978133 39.603200759795641 0 39.603200759795641 -12.805086702008794 0 0 0 0 17.766314682892698 53.528316022133367 0 53.528316022133367 -14.372555281675886 0 0 0 0 -17.398856881874963 58.909749905156787 0 58.909749905156787 -13.392231408808584 0 0 0 0 180.48204876761883 2.543662941952789 0 2.543662941952789 -74.818298718622827 0 0 0 0 38.605342872513575 37.634767891810043 0 37.634767891810043 -42.082648217867245 0 0 0 0 -11.111541347851208 33.943269211575569 0 33.943269211575569 -18.927354086317052 0 0 0 0 260.83258829086844 62.982753932468768 0 62.982753932468768 -97.447004346176982 0 0 0 0 15.970289326112834 74.676908591398387 0 74.676908591398387 56.440329175442457 0 0 0 0 24.891966038037936 -127.72485962783639 0 -127.72485962783639 -123.83109179486928 0 0 0 0 -3.437868586222578 2.0733082012359461 0 2.0733082012359461 -1.7476805679782217 0 0 0 0 5.1238515639915931 16.46158795472175 0 16.46158795472175 -12.178976447220862 0 0 0 0 323.99785739043728 55.002554205952038 0 55.002554205952038 -196.91785846908169 0 0 0 0 -477.18230329552898 22.555857446852315 0 22.555857446852315 373.15573900725576 0 0 0 0 62.80416741110821 83.130639509559842 0 83.130639509559842 -10.139351059799083 0 0 0 0 19.962038972966752 7.6314497771080383 0 7.6314497771080383 -5.9867232794923666 0 0 0 0 80.465839653246803 52.80801682335732 0 52.80801682335732 -6.9367605519364588 0 0 0 0 37.747437459649518 149.52685886123072 0 149.52685886123072 138.90669617755339 0 0 0 0 -7.4769331721392405 0.84689612517994561 0 0.84689612517994561 1.1150602668578529 0 0 0 0 66.086927643264062 141.77529131097253 0 141.77529131097253 67.862786439232877 0 0 0 0 51.449750172585482 69.856292114229291 0 69.856292114229291 113.07392786654236 0 0 0 0 140.77170469539124 -202.68240757911553 0 -202.68240757911553 -202.57802279278985 0 0 0 0 77.42734571362962 86.087823201043648 0 86.087823201043648 -28.016547643812373 0 0 0 0 48.542688870234997 53.261076427392254 0 53.261076427392254 80.84983183179429 0 0 0 0 -0.24118540385097731 155.3394544157054 0 155.3394544157054 -27.927808601627476 0 0 0 0 -109.52760841496638 -93.172029266876052 0 -93.172029266876052 -452.54537482607702 0 0 0 0 -2.7192547761723063 -0.21807220611698597 0 -0.21807220611698597 1.0867604803542861 0 0 0 0 0.15711633729913424 127.44536637498607 0 127.44536637498607 176.66870248042687 0 0 0 0 243.63787946730736 251.89759026639513 0 251.89759026639513 37.337972040368186 0 0 0 0 372.91454909200547 -7.2012866302247858 0 -7.2012866302247858 -270.19910628006255 0 0 0 0 -199.13324067408394 -60.286518853870803 0 -60.286518853870803 262.44275278528221 0 0 0 0 -361.0343557627275 253.18087995977839 0 253.18087995977839 -138.42621333216084 0 0 0 0 -166.58053853192541 -256.64935161254107 0 -256.64935161254107 -265.62672107623075 0 0 0 0 351.2899276164535 54.250301796659187 0 54.250301796659187 -416.83187476529565 0 0 0 0 -1.0201471710024634 839.86057124258332 0 839.86057124258332 -1119.4975081217053 0 0 0 0 -1.8811267692578895 1.2875624746169905 0 1.2875624746169905 -0.32898120034272438 0 0 0 0 -48.451472360349726 446.06609174770711 0 446.06609174770711 4.1965480471226329 0 0 0 0 -25.226558863796527 342.49298442406871 0 342.49298442406871 -364.94274185805261 0 0 0 0 -381.6583250754029 357.60627231368017 0 357.60627231368017 319.80776840675389 0 0 0 0 51.634522065643978 69.963469316269766 0 69.963469316269766 -52.389802281191805 0 0 0 0 43.6203844906413 32.790611505137349 0 32.790611505137349 -79.552123785510048 0 0 0 0 -11.022477790909079 31.053840411790432 0 31.053840411790432 -19.560835306534841 0 0 0 0 25.380358819573303 43.819642091861169 0 43.819642091861169 -51.305834206272266 0 0 0 0 -3.4965281196878095 14.60249117819513 0 14.60249117819513 -14.630083044307469 0 0 0 0 13.486246796164778 49.059167945371883 0 49.059167945371883 -21.619978084969262 0 0 0 0 21.860676730793784 47.806332080144784 0 47.806332080144784 -30.061388900387101 0 0 0 0 6.7248308385269411 26.999838927936189 0 26.999838927936189 -27.832769641060423 0 0 0 0 25.648553807499411 52.816908066617543 0 52.816908066617543 -23.870091503951699 0 0 0 0 208.7208335526193 361.01448731726668 0 361.01448731726668 34.952214584103785 0 0 0 0 127.18755826199776 72.643706294096773 0 72.643706294096773 -132.34620419143221 0 0 0 0 122.47319403485744 18.084059962853644 0 18.084059962853644 55.519022752647288 0 0 0 0 66.350135054381099 283.26609894858848 0 283.26609894858848 479.86694914932013 0 0 0 0 -19.59661184118886 52.891316453227773 0 52.891316453227773 351.68057240486087 0 0 0 0 -21.572813713768937 100.12141938752939 0 100.12141938752939 685.01967666705605 0 0 0 0 114.60668889631052 218.64384861850704 0 218.64384861850704 243.13486917664704 0 0 0 0 43.087816710911284 60.111387633252889 0 60.111387633252889 124.7002834041964 0 0 0 0 15.357976498249229 34.978233070359124 0 34.978233070359124 12.677262901351725 0 0 0 0 126.94896119347686 137.84579454865161 0 137.84579454865161 112.47910691831203 0 0 0 0 220.06779804322196 326.01082138968877 0 326.01082138968877 363.6803000124055 0 0 0 0 35.996715183966444 215.63041645090561 0 215.63041645090561 331.04347032718943 0 0 0 0 153.17062989989063 364.63738069958345 0 364.63738069958345 315.25305099808611 0 0 0 0 230.32057721981982 454.62804194037017 0 454.62804194037017 417.4285531485657 0 0 0 0 76.685045900347177 435.89881137612974 0 435.89881137612974 482.01316088483145 0 0 0 0 75.462636263888271 443.30766256662901 0 443.30766256662901 480.51133904763265 0 0 0 0 40.113383779957076 435.95024222013308 0 435.95024222013308 529.74582937700325 0 0 0 0 -9.1406457384291571 310.79280751309125 0 310.79280751309125 508.10794256284134 0 0 0 0 63.36655406528007 465.82022937663714 0 465.82022937663714 420.38941482745577 0 0 0 0 -1.5331832300798851 339.40843674042844 0 339.40843674042844 432.11658745628665 0 0 0 0 140.35285169912095 464.27173856543959 0 464.27173856543959 476.30399048022809 0 0 0 0 6.8617355749811395 196.62207237007533 0 196.62207237007533 974.22648901198409 0 0 0 0 22.277209221429075 100.44345068470284 0 100.44345068470284 517.36743921631933 0 0 0 0 40.08723254056531 419.74430817332177 0 419.74430817332177 584.95059795962879 0 0 0 0 84.037458858860191 92.646177839968004 0 92.646177839968004 123.41948500310536 0 0 0 0 -12.477804939400812 105.95549617987399 0 105.95549617987399 -21.700695288614952 0 0 0 0 249.37128822602972 715.24179431865923 0 715.24179431865923 -0.97946162503649248 0 0 0 0 -1.6595170098657945 69.852426424175064 0 69.852426424175064 -451.79973683245771 0 0 0 0 25.832879525201861 530.40850593762298 0 530.40850593762298 1293.8611656407302 0 0 0 0 1.9350320488168222 5.8450391160430115 0 5.8450391160430115 0.15301633417056948 0 0 0 0 254.95581369198567 418.94385246157822 0 418.94385246157822 635.63188806522521 0 0 0 0 465.08240002299135 767.22976258784183 0 767.22976258784183 844.68919224018464 0 0 0 0 258.23198559838056 530.91807306488045 0 530.91807306488045 655.270358998343 0 0 0 0 134.20791723956336 404.05579443628085 0 404.05579443628085 565.30798273402615 0 0 0 0 409.83802451408701 518.64910216644057 0 518.64910216644057 508.48140073886316 0 0 0 0 405.26224528288003 252.25108533272578 0 252.25108533272578 324.27124171176183 0 0 0 0 654.91932807548801 510.72029535677211 0 510.72029535677211 367.54193240097084 0 0 0 0 720.45747249091801 475.01741267081525 0 475.01741267081525 199.93157710983724 0 0 0 0 318.98080207048042 553.81545896190801 0 553.81545896190801 184.63830867256183 0 0 0 0 -54.691391734377248 416.1616132868221 0 416.1616132868221 0.56701023730420275 0 0 0 0 772.77553063107189 652.86794437412755 0 652.86794437412755 80.664248897373909 0 0 0 0 0.8651690551039195 -0.27511410241837808 0 -0.27511410241837808 -0.011889579942419459 0 0 0 0 615.0581429506783 700.9936884800627 0 700.9936884800627 72.254142417907133 0 0 0 0 -744.43776005436666 227.61576429149136 0 227.61576429149136 -96.427302800177131 0 0 0 0 -181.22425721617037 0.57299760259047616 0 0.57299760259047616 -7.716750502891955 0 0 0 0 -117.33246222477464 10.97075165086062 0 10.97075165086062 -43.304442833599751 0 0 0 0 -95.228782284961198 -52.292160457305727 0 -52.292160457305727 2.2669405178530724 0 0 0 0 -179.13792280052439 26.993431745475391 0 26.993431745475391 135.3394326549751 0 0 0 0 0.5679324381110149 -0.75447894842003649 0 -0.75447894842003649 1.8642623865917471 0 0 0 0 280.39942922259797 278.85714462796022 0 278.85714462796022 335.53113041746838 0 0 0 0 363.26913529109879 332.36788139504642 0 332.36788139504642 140.2839196829882 0 0 0 0 -56.987927188438334 15.913113372887892 0 15.913113372887892 51.854830285810749 0 0 0 0 -2.7246014101070273 4.2211168818846261 0 4.2211168818846261 9.371308641865653 0 0 0 0 -55.594816395510861 18.358188743106439 0 18.358188743106439 56.103810408065328 0 0 0 0 -18.674868793168571 116.34433732708567 0 116.34433732708567 115.01747191148024 0 0 0 0 -51.437079305862426 20.182959205492807 0 20.182959205492807 50.874515952600632 0 0 0 0 -93.517849939420557 86.022945095664909 0 86.022945095664909 -56.676186608587159 0 0 0 0 -16.200934955875724 7.9779813515091789 0 7.9779813515091789 -10.415155589488677 0 0 0 0 -172.7539796904457 -28.761783954378188 0 -28.761783954378188 -62.837165460630786 0 0 0 0 -359.78427356440807 -8.8567412745105685 0 -8.8567412745105685 1.6996590897470014 0 0 0 0 -364.24716822957271 451.34828261170333 0 451.34828261170333 -549.98816259019077 0 0 0 0 -1154.360375717436 568.5967984946019 0 568.5967984946019 161.4182596879109 0 0 0 0 -611.00019349242939 505.07720619702741 0 505.07720619702741 -445.4239762554862 0 0 0 0 -1270.1439212013138 -16.958129821745388 0 -16.958129821745388 65.221318763469753 0 0 0 0 174.02093699538091 175.67760657031613 0 175.67760657031613 -189.42529525629652 0 0 0 0 -0.1120775568005854 2.7901401783040782 0 2.7901401783040782 -7.4637989678346344 0 0 0 0 -503.40633266600707 520.66633541467672 0 520.66633541467672 -311.75691789652046 0 0 0 0 -1078.0338477598416 459.0392446636688 0 459.0392446636688 -17.122754296338826 0 0 0 0 -644.60884540319967 355.85294951438118 0 355.85294951438118 64.435184344183654 0 0 0 0 -650.54892596281024 384.62431777604343 0 384.62431777604343 -4.1712621601182036 0 0 0 0 -851.29317429147341 289.9571988512871 0 289.9571988512871 0.12810029898537323 0 0 0 0 -566.55346291547175 189.00300508696819 0 189.00300508696819 -55.864890884309716 0 0 0 0 -1037.2771659273394 64.265064727701883 0 64.265064727701883 -49.249462686246261 0 0 0 0 -578.87602496269483 96.780396216841837 0 96.780396216841837 55.813144647472654 0 0 0 0 -95.896421066398034 293.68671180521051 0 293.68671180521051 0.026183039569318646 0 0 0 0 95.7858088320354 287.86991417085665 0 287.86991417085665 62.646098619497934 0 0 0 0 58.068175413660356 180.55735911288502 0 180.55735911288502 -172.38318841818545 0 0 0 0 7.7630924198165303 198.92277999355429 0 198.92277999355429 87.245758236145775 0 0 0 0 -621.56978068278841 254.74443497962056 0 254.74443497962056 207.21112788304163 0 0 0 0 -875.63472616817035 375.86197891645952 0 375.86197891645952 434.17560705935466 0 0 0 0 -931.15333728480618 716.54358417719777 0 716.54358417719777 -10.034694290392508 0 0 0 0 197.9079968592232 200.42276019225392 0 200.42276019225392 -680.97623179631773 0 0 0 0 -1333.2910517589771 1198.2763698616691 0 1198.2763698616691 96.704423843078985 0 0 0 0 -399.25010892513092 989.09791417496308 0 989.09791417496308 -1204.9917271857121 0 0 0 0 -15.632246128808958 -0.38685884185142072 0 -0.38685884185142072 -0.1510458453843313 0 0 0 0 -138.03067609138088 -158.42688332071702 0 -158.42688332071702 639.94224124402535 0 0 0 0 -716.58864478268333 362.78169165729923 0 362.78169165729923 327.30858170655847 0 0 0 0 -393.43109162108885 55.107179610833555 0 55.107179610833555 513.84033015600289 0 0 0 0 -324.5861071241161 1208.4506281827053 0 1208.4506281827053 131.71295861244653 0 0 0 0 42.337456591565569 448.13957993956501 0 448.13957993956501 165.23286784558877 0 0 0 0 199.6801038270205 592.55410355571803 0 592.55410355571803 -20.616757703492112 0 0 0 0 50.932834440638544 383.26197120173674 0 383.26197120173674 308.9371117525734 0 0 0 0 -102.59275684125896 117.05372803990394 0 117.05372803990394 -103.8495898344845 0 0 0 0 -164.65830123279011 98.401325625396566 0 98.401325625396566 159.00973727773817 0 0 0 0 -62.019080030440819 86.360871556120401 0 86.360871556120401 -151.636389610263 0 0 0 0 -228.20797868454247 232.29256179431104 0 232.29256179431104 -107.76169421219311 0 0 0 0 104.38301470704755 301.74198290860295 0 301.74198290860295 -792.07294068027841 0 0 0 0 -50.955713480405393 352.35336978729902 0 352.35336978729902 -631.91451474863425 0 0 0 0 16.496029139461456 13.300452932989685 0 13.300452932989685 7.3066570128717956 0 0 0 0 -58.816230587937753 62.576064168126322 0 62.576064168126322 194.26855626191536 0 0 0 0 -181.43485404375679 174.97800794690556 0 174.97800794690556 143.16835393947258 0 0 0 0 -59.108751186777226 245.04225591533213 0 245.04225591533213 379.35861552035203 0 0 0 0 -117.87377923240638 84.255301184226482 0 84.255301184226482 305.34591381295468 0 0 0 0 -21.217993030397338 89.353077339852462 0 89.353077339852462 157.47945937288205 0 0 0 0 -65.120794531278079 143.03940725784923 0 143.03940725784923 347.86663583747577 0 0 0 0 -124.30760816690599 197.77548094907979 0 197.77548094907979 299.54017078561446 0 0 0 0 -213.89652298191504 54.694901313174341 0 54.694901313174341 -13.79287158526131 0 0 0 0 -44.480814334750846 2.6916037428584616 0 2.6916037428584616 0.23448678761165098 0 0 0 0 23.727382675773697 19.724522337201051 0 19.724522337201051 -26.546958814193204 0 0 0 0 0.4244466565098719 0.70447160776836881 0 0.70447160776836881 0.60697755075379689 0 0 0 0 -46.353696020432039 9.722097758414165 0 9.722097758414165 11.015601089929703 0 0 0 0 -37.562293855465754 24.782519592523101 0 24.782519592523101 8.5035187658653584 0 0 0 0 -44.975092163207592 27.117325290368171 0 27.117325290368171 38.08273461094177 0 0 0 0 -46.199457824073761 23.399350523202884 0 23.399350523202884 33.873910664777213 0 0 0 0 -61.007151769529145 13.934439879353192 0 13.934439879353192 9.7187081939008415 0 0 0 0 -52.786972142763261 18.565733581985114 0 18.565733581985114 49.081119399997988 0 0 0 0 -74.957944300113013 0.84441905358107761 0 0.84441905358107761 9.3417776914939168 0 0 0 0 -105.58179763772932 -49.178022955893539 0 -49.178022955893539 68.858367163455114 0 0 0 0 -4.4014995265949892 -0.8339495321534045 0 -0.8339495321534045 6.7204016548529353 0 0 0 0 -135.89534308498696 -46.861181662519812 0 -46.861181662519812 265.48183369892649 0 0 0 0 165.72423590675317 411.81698613764183 0 411.81698613764183 435.25362711481284 0 0 0 0 -108.78295301890466 136.85673520837736 0 136.85673520837736 594.99273170669039 0 0 0 0 126.5824056152378 138.68232508078108 0 138.68232508078108 398.91520239281817 0 0 0 0 -124.5331112886488 239.60464515953208 0 239.60464515953208 360.58362052236043 0 0 0 0 -187.0971079798619 204.18474956408318 0 204.18474956408318 -38.246846946392907 0 0 0 0 35.727107384693227 69.855317564761208 0 69.855317564761208 30.618596309228451 0 0 0 0 -62.105513914182666 38.496891464004875 0 38.496891464004875 -313.8037680740963 0 0 0 0 -49.96350384161633 -110.93650694697862 0 -110.93650694697862 330.34723133021907 0 0 0 0 122.03150009902311 371.70271401810896 0 371.70271401810896 -556.52469499144354 0 0 0 0 26.316852738288787 15.840599691411938 0 15.840599691411938 8.006727858804922 0 0 0 0 183.37526751478435 -16.065374782629078 0 -16.065374782629078 -242.01047503020527 0 0 0 0 -153.86457146632893 281.85491836766596 0 281.85491836766596 346.90787292466848 0 0 0 0 -97.561491941385611 142.45723230300791 0 142.45723230300791 500.42052174947457 0 0 0 0 -51.562889296445064 -13.172664310201071 0 -13.172664310201071 114.50613378104754 0 0 0 0 17.348137065255742 36.91145981069775 0 36.91145981069775 20.880006471729487 0 0 0 0 -123.66957116982667 271.06277100359148 0 271.06277100359148 -88.545871586255089 0 0 0 0 -200.62643205392669 113.57435337518837 0 113.57435337518837 197.59031245750521 0 0 0 0 98.301952536814497 18.313077368729864 0 18.313077368729864 -34.588456437806599 0 0 0 0 19.68830459223085 68.008010177852157 0 68.008010177852157 85.634804215174057 0 0 0 0 -745.77267137699528 129.90438731871836 0 129.90438731871836 -531.82726179897145 0 0 0 0 -284.18179332998625 134.89801812816586 0 134.89801812816586 -51.062994884377986 0 0 0 0 -451.18837974163034 844.09194148671304 0 844.09194148671304 1818.7182537265398 0 0 0 0 76.831896691641305 1554.3012301475828 0 1554.3012301475828 954.23118648051604 0 0 0 0 -290.79355927358029 -301.46185370086368 0 -301.46185370086368 578.54219058116723 0 0 0 0 -7.7296076903372466 59.86147314913962 0 59.86147314913962 -60.392167689678246 0 0 0 0 2208.7196918197151 438.00596568788751 0 438.00596568788751 -539.20125873059442 0 0 0 0 67.6267366395914 -22.455705897853477 0 -22.455705897853477 9.2517063874402083 0 0 0 0 -248.79911771088518 195.81630595447496 0 195.81630595447496 -68.904159627069021 0 0 0 0 -74.125167420948856 85.197292214666959 0 85.197292214666959 25.75900622777408 0 0 0 0 -79.122927633544123 84.392340246091493 0 84.392340246091493 70.247553251961989 0 0 0 0 -33.628806125651721 85.693083502236973 0 85.693083502236973 6.1079159386475794 0 0 0 0 75.877249978227397 133.95334683557786 0 133.95334683557786 60.661171949516984 0 0 0 0 21.977375411406172 42.005501964077979 0 42.005501964077979 19.580627728462389 0 0 0 0 -19.031515210721409 66.275305696955911 0 66.275305696955911 41.303673066169722 0 0 0 0 -2.0529760925492155 61.651928231320198 0 61.651928231320198 6.5064657264410926 0 0 0 0 -18.859188939649357 65.075575282012323 0 65.075575282012323 -15.041286788531579 0 0 0 0 -44.974578300029492 48.477382648185873 0 48.477382648185873 33.789009701863506 0 0 0 0 -117.44736569419911 78.508210659791075 0 78.508210659791075 115.78742423644144 0 0 0 0 -140.42910543502512 29.939544906002993 0 29.939544906002993 102.39654576269095 0 0 0 0 -9.9478620890586171 100.32819201773964 0 100.32819201773964 -25.017538624859299 0 0 0 0 -40.895517762004602 22.175699322181217 0 22.175699322181217 27.089113713729319 0 0 0 0 -69.528541375111672 164.04901988667552 0 164.04901988667552 119.88641875400208 0 0 0 0 -23.664568588361561 40.009716206335725 0 40.009716206335725 12.151730189575559 0 0 0 0 -112.4140625041282 -113.98077489366369 0 -113.98077489366369 142.2198699490109 0 0 0 0 -106.02032388936277 48.111860719174729 0 48.111860719174729 31.837714855748345 0 0 0 0 -105.15724229062107 49.052545581493177 0 49.052545581493177 -21.038719053263776 0 0 0 0 -24.97362460828117 63.781978608539248 0 63.781978608539248 -31.718959702353459 0 0 0 0 -6.4972796094371006 27.076883001805982 0 27.076883001805982 -13.854275909339776 0 0 0 0 -12.338451246423261 6.7873917644020594 0 6.7873917644020594 -1.0234891947175413 0 0 0 0 -147.98442036779306 64.422275033452024 0 64.422275033452024 19.839293093151355 0 0 0 0 -36.123577926189 25.746415706821892 0 25.746415706821892 41.282179334953014 0 0 0 0 -593.47465685356292 909.29527398117716 0 909.29527398117716 -808.22519038146856 0 0 0 0 -21.292094246192551 2.9162603515917027 0 2.9162603515917027 33.120743392100621 0 0 0 0 -50.349721115591706 45.284590089540984 0 45.284590089540984 -11.980868943960843 0 0 0 0 -39.515283351138351 21.433283795042371 0 21.433283795042371 17.908553111257788 0 0 0 0 -52.84850593161994 16.052603330122281 0 16.052603330122281 24.509711059155663 0 0 0 0 -74.543762954330305 83.832480052628853 0 83.832480052628853 10.091776297296747 0 0 0 0 -118.43643879202136 -38.50049668327847 0 -38.50049668327847 194.31405292438285 0 0 0 0 -87.7622231542191 34.752657793440449 0 34.752657793440449 5.988384562151623 0 0 0 0 954.67534032496042 -177.13677908966201 0 -177.13677908966201 56.341621921630576 0 0 0 0 755.64730242236692 -93.015732572515844 0 -93.015732572515844 51.994014153754506 0 0 0 0 -0.10330940510985442 19.281397559462448 0 19.281397559462448 4.6470297012804167 0 0 0 0 1.5393406176262943 126.4621103625359 0 126.4621103625359 849.52019663374813 0 0 0 0 -13.60913566997624 193.54804633506865 0 193.54804633506865 377.13136546267197 0 0 0 0 -14.380985786827935 20.698895530168627 0 20.698895530168627 9.6606912652117956 0 0 0 0 -197.98741721835177 -224.88557319706524 0 -224.88557319706524 303.41174300799321 0 0 0 0 243.23639567494683 98.854674672838883 0 98.854674672838883 14.843578400177648 0 0 0 0 292.15836504425988 312.66177770966533 0 312.66177770966533 49.408816005510744 0 0 0 0 389.03231066514127 425.81762269948376 0 425.81762269948376 174.6421285175602 0 0 0 0 334.40494786977069 606.37284664128674 0 606.37284664128674 253.49827938144153 0 0 0 0 335.80907870807209 714.72172680721121 0 714.72172680721121 496.80882566742366 0 0 0 0 266.40943214120853 522.04440092001369 0 522.04440092001369 448.34156246250495 0 0 0 0 478.80849802214652 976.17126341024414 0 976.17126341024414 239.5611390976992 0 0 0 0 537.14638128889055 963.33278917858115 0 963.33278917858115 -138.98519423458492 0 0 0 0 650.24338381784764 733.48013079746306 0 733.48013079746306 303.85067420240375 0 0 0 0 468.90960741927847 423.83625215652501 0 423.83625215652501 20.488921776472125 0 0 0 0 -0.87131647453229988 -4.7198312254599415 0 -4.7198312254599415 8.9812667898123379 0 0 0 0 1298.8040576885433 71.473463414758953 0 71.473463414758953 42.700508039153647 0 0 0 0 1121.3270311644083 665.53247293499589 0 665.53247293499589 -686.84932693366136 0 0 0 0 -1023.9080240619078 38.339018511200265 0 38.339018511200265 258.16251188168826 0 0 0 0 -949.82544943388439 -686.86883784476731 0 -686.86883784476731 363.98630255476746 0 0 0 0 14.447127990598716 30.366978043950326 0 30.366978043950326 62.824525486136849 0 0 0 0 -7.0837088794292278 -2.4199377169450855 0 -2.4199377169450855 26.846951493066541 0 0 0 0 -1287.4392672840841 508.99663459641306 0 508.99663459641306 471.61901038634824 0 0 0 0 -318.78496949453256 660.40521172541048 0 660.40521172541048 -32.485435265480191 0 0 0 0 -1356.3661023900768 443.44757051410943 0 443.44757051410943 690.18657526824973 0 0 0 0 -2547.323203510663 -559.26800384846138 0 -559.26800384846138 133.64194516968564 0 0 0 0 -444.98479197516281 297.44846143152245 0 297.44846143152245 -147.78291355419788 0 0 0 0 1.5981277208370557 3.1699447630924453 0 3.1699447630924453 -1.2129281274040977 0 0 0 0 -1095.1506238926086 -41.015139524519327 0 -41.015139524519327 55.723209702391614 0 0 0 0 3.0760385622529611 8.7125922650920131 0 8.7125922650920131 21.039755201137893 0 0 0 0 839.17696816121315 -845.60700814718439 0 -845.60700814718439 510.63925204607949 0 0 0 0 420.58497440941574 361.02084465821827 0 361.02084465821827 -177.32140036517012 0 0 0 0 -194.22569888809448 -113.03575333845947 0 -113.03575333845947 188.02404607870267 0 0 0 0 -330.39375446333725 286.41635119265266 0 286.41635119265266 81.182591913457145 0 0 0 0 109.69216188990322 66.689936018483422 0 66.689936018483422 162.92600463234703 0 0 0 0 114.59816475880507 63.742432696177275 0 63.742432696177275 140.05065068295517 0 0 0 0 440.90409834367165 726.22356588668481 0 726.22356588668481 556.97073558658303 0 0 0 0 -66.349983107968001 779.30125456950918 0 779.30125456950918 1314.1844637547474 0 0 0 0 1674.9980409037089 -191.67893375781568 0 -191.67893375781568 -1384.5743093030324 0 0 0 0 119.50420209471486 -453.12488128765108 0 -453.12488128765108 1161.2488237422949 0 0 0 0 -1051.4977330666297 941.76884663679084 0 941.76884663679084 1734.6131401302518 0 0 0 0 -30.091821798644418 23.526640044221097 0 23.526640044221097 32.519859749138803 0 0 0 0 526.89412140089553 1160.068110486558 0 1160.068110486558 -1998.3468948089467 0 0 0 0 -81.05333908436296 43.906119518120249 0 43.906119518120249 -5.6947949173263623 0 0 0 0 65.042065827576153 52.945805291143188 0 52.945805291143188 -516.76239702131716 0 0 0 0 192.85649697213375 390.61765590065261 0 390.61765590065261 -1489.2875775993016 0 0 0 0 -8.0270130425212756 9.0768835454783314 0 9.0768835454783314 -11.645893061152918 0 0 0 0 -398.08869861699532 -69.472216334415862 0 -69.472216334415862 -144.66068497179367 0 0 0 0 -572.01174676899973 543.96023974069976 0 543.96023974069976 -254.62431110430043 0 0 0 0 -313.72608911724819 286.02856697040988 0 286.02856697040988 477.73001280598692 0 0 0 0 128.41482666193042 72.322403198031679 0 72.322403198031679 -135.40501647368365 0 0 0 0 -92.283389148229617 189.62283770428621 0 189.62283770428621 -82.043565951760684 0 0 0 0 67.675282959186006 180.14601571006642 0 180.14601571006642 -494.91610672797106 0 0 0 0 -332.53260657003557 275.53989500562238 0 275.53989500562238 696.87356611598807 0 0 0 0 -88.039810097441659 475.44057881248591 0 475.44057881248591 580.14673133255565 0 0 0 0 -155.36611297115451 580.49014630187594 0 580.49014630187594 878.11020557738084 0 0 0 0 107.37085166525139 131.59335434998684 0 131.59335434998684 602.85673030400358 0 0 0 0 -21.829196110753401 83.490386500860041 0 83.490386500860041 861.53438071267738 0 0 0 0 -183.04111328461295 -27.744303178238624 0 -27.744303178238624 2012.7118395784637 0 0 0 0 6.966413478423533 3.7889689657422139 0 3.7889689657422139 2.4355391186378199 0 0 0 0 70.460648201420554 273.34428398547607 0 273.34428398547607 467.30327648244929 0 0 0 0 113.34621572040487 673.75391567865518 0 673.75391567865518 1289.4742216731174 0 0 0 0 500.00024849815236 214.78785252330272 0 214.78785252330272 279.17068650062356 0 0 0 0 198.90449491923209 -14.21212150700012 0 -14.21212150700012 582.6752550615056 0 0 0 0 84.802236639869079 692.60096838399113 0 692.60096838399113 523.01072070395458 0 0 0 0 -73.586362988209657 315.76402005469117 0 315.76402005469117 530.69755396284745 0 0 0 0 -77.597853676241357 218.6899398262467 0 218.6899398262467 833.71666503245069 0 0 0 0 140.37818327729474 197.79059739678632 0 197.79059739678632 101.02858766454483 0 0 0 0 -26.203220678844616 24.117107623283317 0 24.117107623283317 -21.821930984615591 0 0 0 0 -225.25270947480453 1564.1683916245238 0 1564.1683916245238 -1628.88562444743 0 0 0 0 38.065275264787488 -197.81610035720951 0 -197.81610035720951 38.828968657395308 0 0 0 0 -89.708120975003112 141.42088371363207 0 141.42088371363207 403.88840888597042 0 0 0 0 -161.48258129617898 -695.56501666658733 0 -695.56501666658733 -1307.9178318189806 0 0 0 0 -17.381197529485831 12.464070235764197 0 12.464070235764197 -12.108280832985145 0 0 0 0 -67.808924561162712 -42.692527007049648 0 -42.692527007049648 31.267503207240225 0 0 0 0 82.239247680874541 -1558.2348705689146 0 -1558.2348705689146 -1348.5044131857003 0 0 0 0 -476.99976234204951 155.77413209888618 0 155.77413209888618 120.34960821828281 0 0 0 0 -24.236800030921586 51.217678856512066 0 51.217678856512066 -303.26995576565969 0 0 0 0 -263.80429799928243 111.18576824919001 0 111.18576824919001 -84.988071899220813 0 0 0 0 1.8517436708312971 -2.9698341809879025 0 -2.9698341809879025 0.4661182570132496 0 0 0 0 186.47203292681661 34.480104837581166 0 34.480104837581166 -123.48976990731899 0 0 0 0 115.50334947092051 78.556860872115067 0 78.556860872115067 -148.00889292848296 0 0 0 0 5.2850546818868906 1.4113138151895726 0 1.4113138151895726 -2.4310735720365315 0 0 0 0 -39.056965320982272 39.796017412249057 0 39.796017412249057 -113.42918410655693 0 0 0 0 23.120399089588318 123.16118077003921 0 123.16118077003921 748.68659566176939 0 0 0 0 99.943254803256423 64.181797559120241 0 64.181797559120241 579.55557924331515 0 0 0 0 -45.818882958876202 -4.9415190202489612 0 -4.9415190202489612 955.76858231656661 0 0 0 0 -64.151208508439595 106.41903295458178 0 106.41903295458178 1229.0614158466065 0 0 0 0 63.3541300772049 302.39225656919734 0 302.39225656919734 557.81282411591383 0 0 0 0 0.015518239837547299 120.9780201983267 0 120.9780201983267 593.02755261192215 0 0 0 0 140.46528544355533 207.9642437528837 0 207.9642437528837 192.73702219565166 0 0 0 0 -19.728676897887624 11.282172402932105 0 11.282172402932105 -5.6799347020476603 0 0 0 0 -49.257076709152898 110.34954140325863 0 110.34954140325863 99.705392906274938 0 0 0 0 33.172581563179847 3.3069540848264296 0 3.3069540848264296 -75.883397363017139 0 0 0 0 84.012840018462157 188.83298784795443 0 188.83298784795443 96.96330829377257 0 0 0 0 134.31400125275832 86.746327063374338 0 86.746327063374338 155.18401660337258 0 0 0 0 95.208285218526726 63.242764363929382 0 63.242764363929382 160.53541683659569 0 0 0 0 59.570815507730003 110.18410075869906 0 110.18410075869906 569.26726072485144 0 0 0 0 -61.001549965789309 180.02349067527393 0 180.02349067527393 306.00063472311012 0 0 0 0 -44.727322928563808 37.949624598171795 0 37.949624598171795 434.86240733136947 0 0 0 0 -255.23611982932925 68.262615063864359 0 68.262615063864359 179.96198440303851 0 0 0 0 -575.63660870052991 636.52855617419846 0 636.52855617419846 -93.148139677581639 0 0 0 0 -216.76774691250466 483.97689110319698 0 483.97689110319698 -47.21426658245764 0 0 0 0 -22.839789332618238 69.130030561784224 0 69.130030561784224 -84.784164437164691 0 0 0 0 -307.60870477648859 -68.776618127587426 0 -68.776618127587426 318.63626234808908 0 0 0 0 -514.6968579796885 248.5191757559769 0 248.5191757559769 699.50567413854878 0 0 0 0 9.6947427014072787 -14.203897091774525 0 -14.203897091774525 20.177737960378323 0 0 0 0 -98.459136501816829 447.56454851527815 0 447.56454851527815 761.805613106073 0 0 0 0 84.339142659213394 69.868550152357784 0 69.868550152357784 644.80134327986161 0 0 0 0 -175.2530239392072 160.54503837021912 0 160.54503837021912 614.33423277297697 0 0 0 0 -13.039595179891876 84.99307768286053 0 84.99307768286053 661.02218451324734 0 0 0 0 -44.370187182998052 -16.679461863124743 0 -16.679461863124743 467.0702978989284 0 0 0 0 90.194116013677558 37.485931342031108 0 37.485931342031108 433.93293379855641 0 0 0 0 -7.7074479582952335 -4.6671615909581305 0 -4.6671615909581305 672.24412046305952 0 0 0 0 45.934056661848444 11.952503414242528 0 11.952503414242528 675.81489684236294 0 0 0 0 22.307557154097594 38.892919077385159 0 38.892919077385159 1143.4380747207906 0 0 0 0 -61.547639977718063 59.015617449353158 0 59.015617449353158 778.57098112495441 0 0 0 0 23.438846160686808 0.53700718887557741 0 0.53700718887557741 711.87128422886599 0 0 0 0 -50.316985571047667 40.367829528645842 0 40.367829528645842 -24.882190605463563 0 0 0 0 -801.03860169841209 982.73960254988924 0 982.73960254988924 -1932.2803913899079 0 0 0 0 -11.564662223793221 3.924123527684074 0 3.924123527684074 5.8232244263863802 0 0 0 0 4.6859697349405565 21.260264029815971 0 21.260264029815971 -23.26362805050934 0 0 0 0 -62.111888192652259 20.645061182309291 0 20.645061182309291 13.099493070443714 0 0 0 0 73.531137282610871 153.41097100573461 0 153.41097100573461 -20.318168263402185 0 0 0 0 -26.539521543803858 7.5180586010101251 0 7.5180586010101251 35.452845761974459 0 0 0 0 -0.20694702351465821 30.613073204585817 0 30.613073204585817 954.10227699409734 0 0 0 0 1.3000089377776476 -0.037200543344454218 0 -0.037200543344454218 -3.8736838153103008 0 0 0 0 -55.55078809754923 28.984308809507638 0 28.984308809507638 -13.47771388082765 0 0 0 0 -42.650214252218177 20.413058040008082 0 20.413058040008082 15.428433508649874 0 0 0 0 645.97136796324048 -978.4099853279331 0 -978.4099853279331 -1450.5163791965774 0 0 0 0 -30.00832576491706 8.3518381122226799 0 8.3518381122226799 23.369640977308677 0 0 0 0 -39.392833336583863 33.373434816312511 0 33.373434816312511 -22.402918980020331 0 0 0 0 -60.810647722824285 37.00589936687831 0 37.00589936687831 2.3999447392488609 0 0 0 0 -273.59164842357859 56.97984954187632 0 56.97984954187632 457.5396272848302 0 0 0 0 -71.3811749771412 68.844265515734151 0 68.844265515734151 30.008823943324387 0 0 0 0 -14.795479613530915 85.101764478939003 0 85.101764478939003 9.447720579453744 0 0 0 0 -176.35961558585404 -331.52014332117687 0 -331.52014332117687 -140.07304169363738 0 0 0 0 14.737249481255276 164.29372629391582 0 164.29372629391582 141.26104208262404 0 0 0 0 -251.92765068315202 -5.5751364514871966 0 -5.5751364514871966 71.295871156566136 0 0 0 0 -142.84760056927917 77.596275323310692 0 77.596275323310692 35.865783458051737 0 0 0 0 -378.21848013583804 92.812577071847045 0 92.812577071847045 479.08816778036999 0 0 0 0 -221.56433901458513 221.6300832163106 0 221.6300832163106 97.4044276257614 0 0 0 0 -313.7530037262768 144.55238124998141 0 144.55238124998141 33.311873984144768 0 0 0 0 -448.79883954388788 -56.390816357685253 0 -56.390816357685253 199.79773023561575 0 0 0 0 6.5397207864166376 -2.8450977379003319 0 -2.8450977379003319 1.1741283771413151 0 0 0 0 -140.23172751063248 -84.169511636973766 0 -84.169511636973766 235.31573536797077 0 0 0 0 85.467809795558424 -136.78567945951727 0 -136.78567945951727 -132.21660593568231 0 0 0 0 -103.26857181507512 -153.32069482271618 0 -153.32069482271618 765.3863544761698 0 0 0 0 149.75982268634834 927.98467871090179 0 927.98467871090179 -267.38886702757009 0 0 0 0 -4.5927726472303902 -3.2979093471819567 0 -3.2979093471819567 -1.1561424357076717 0 0 0 0 -192.68283830163637 611.02002001634582 0 611.02002001634582 86.604802894020395 0 0 0 0 -122.7359699785593 195.03655532709672 0 195.03655532709672 645.51652138902864 0 0 0 0 196.55446946251323 207.78741534319124 0 207.78741534319124 -116.66860358274062 0 0 0 0 21.976705169829074 264.10275186745275 0 264.10275186745275 -247.31864904014583 0 0 0 0 -49.228128419490531 69.886400132760173 0 69.886400132760173 -203.05202844351152 0 0 0 0 5.4890428837388754 190.58819843485253 0 190.58819843485253 -471.29835614265176 0 0 0 0 69.604876191078802 219.09589829173638 0 219.09589829173638 -248.24830542711425 0 0 0 0 85.051711047708523 271.36699729689281 0 271.36699729689281 -167.43421477780794 0 0 0 0 28.617002969665918 244.14947476625093 0 244.14947476625093 -58.908252882949455 0 0 0 0 93.78126581030665 143.31429166147427 0 143.31429166147427 -75.368011086226034 0 0 0 0 -7.9662147598573938 132.82754595077131 0 132.82754595077131 121.90190944890492 0 0 0 0 40.234209627029486 -52.884117730849539 0 -52.884117730849539 192.69986838963086 0 0 0 0 16.33379094520933 97.029160455960664 0 97.029160455960664 -191.97265942738159 0 0 0 0 -126.60678284798632 148.69214307951188 0 148.69214307951188 67.122193216549931 0 0 0 0 -79.090651958846138 131.06896245509415 0 131.06896245509415 -154.00885867059696 0 0 0 0 -226.52095628791722 -0.18196953652659431 0 -0.18196953652659431 -154.70015557733132 0 0 0 0 28.275916923419572 164.87864977557911 0 164.87864977557911 94.593091611401178 0 0 0 0 -105.17313117615413 88.521530099096708 0 88.521530099096708 60.838260997217731 0 0 0 0 -272.41220868451637 190.76081487278861 0 190.76081487278861 177.28115027898457 0 0 0 0 -113.27294175807037 201.63458463429561 0 201.63458463429561 168.15747404162539 0 0 0 0 -108.58230423682835 233.41311102945474 0 233.41311102945474 213.48079646646511 0 0 0 0 367.65276860806625 -383.96061696193647 0 -383.96061696193647 -1472.2509901349331 0 0 0 0 -144.78789372599567 152.63360823539551 0 152.63360823539551 181.33834978623781 0 0 0 0 162.78746654401766 182.04371275559242 0 182.04371275559242 158.33013717696304 0 0 0 0 303.48797701636795 -88.766035513544921 0 -88.766035513544921 116.73443658313772 0 0 0 0 -331.61253308897722 1190.8384654247275 0 1190.8384654247275 -198.03278330172179 0 0 0 0 -540.48504025686998 1392.4399914214155 0 1392.4399914214155 751.48249953743652 0 0 0 0 -517.6174415020505 400.30096543821855 0 400.30096543821855 896.60575913789216 0 0 0 0 -530.78172393162095 540.19532940850331 0 540.19532940850331 87.503457282902673 0 0 0 0 -32.810359347337851 14.702032083910026 0 14.702032083910026 3.1406116062338683 0 0 0 0 -226.18364907859359 126.45821393615915 0 126.45821393615915 237.48157815357081 0 0 0 0 69.82302638218971 494.15220155280258 0 494.15220155280258 -917.4830879115616 0 0 0 0 -232.6802051027189 474.56164755127975 0 474.56164755127975 -221.98452178036678 0 0 0 0 -77.085834020574111 862.85139887733385 0 862.85139887733385 -635.69165066670394 0 0 0 0 -40.701413245056756 330.82186729490058 0 330.82186729490058 -728.72469611816632 0 0 0 0 -176.47591762352386 416.89234297282383 0 416.89234297282383 -163.2448063007032 0 0 0 0 -0.88109235517913476 -117.75640073610703 0 -117.75640073610703 -36.358196092216531 0 0 0 0 -268.55179280945595 280.53360079606682 0 280.53360079606682 117.2507152709004 0 0 0 0 -308.45418221794534 204.81228502136946 0 204.81228502136946 220.14687746914569 0 0 0 0 -265.51246530236676 236.92334757128265 0 236.92334757128265 236.79445666153333 0 0 0 0 -456.1956884105457 66.044835149063147 0 66.044835149063147 6.6467449001793284 0 0 0 0 -344.8658908521611 272.54684937207639 0 272.54684937207639 145.46776657337614 0 0 0 0 -604.38758758191034 656.36956849187118 0 656.36956849187118 -384.11921461675956 0 0 0 0 4.3267525977815353 31.17351405675447 0 31.17351405675447 19.828090183619338 0 0 0 0 -338.73975674185203 196.92845532885985 0 196.92845532885985 149.35099674243247 0 0 0 0 87.902768029215764 41.259088359539021 0 41.259088359539021 -20.803346636951375 0 0 0 0 125.26331288347137 28.882180976659583 0 28.882180976659583 -24.273680981248617 0 0 0 0 -216.41092457826016 225.1133556611021 0 225.1133556611021 154.42353615368484 0 0 0 0 142.26793684673612 56.13331400458992 0 56.13331400458992 -22.895940486327163 0 0 0 0 125.55330157221761 41.911476830136962 0 41.911476830136962 -34.537082885573909 0 0 0 0 111.67534203487321 47.383044346871884 0 47.383044346871884 -58.829257168341428 0 0 0 0 111.41982600734173 50.870759651981643 0 50.870759651981643 -38.665320727654034 0 0 0 0 120.78189857519465 43.080275041764253 0 43.080275041764253 -58.453859473855118 0 0 0 0 36.246270454372279 80.480271321284818 0 80.480271321284818 -27.76652815125999 0 0 0 0 72.396371729642851 33.84738672907406 0 33.84738672907406 -3.9346366851823404 0 0 0 0 -229.5435231711017 -62.106078424592852 0 -62.106078424592852 -378.25117779683205 0 0 0 0 82.144905998269678 35.388427515614239 0 35.388427515614239 4.6636392714208341 0 0 0 0 125.58296856979632 19.733970370081352 0 19.733970370081352 6.3499856143898796 0 0 0 0 123.55835326990928 46.184449816457345 0 46.184449816457345 -41.068349234643392 0 0 0 0 122.41984495898942 56.62982519895013 0 56.62982519895013 -54.870713304204401 0 0 0 0 127.0906345292351 62.512623646204702 0 62.512623646204702 -20.491191587527283 0 0 0 0 133.66463993664365 61.733695244984119 0 61.733695244984119 -20.669856552092824 0 0 0 0 -49.785169136666809 70.408667603551294 0 70.408667603551294 -53.178033815929666 0 0 0 0 123.05011212515819 70.310601796903939 0 70.310601796903939 -2.3198493420495652 0 0 0 0 81.70392547789379 74.314905888139037 0 74.314905888139037 7.8146165830185055 0 0 0 0 32.630796311174663 50.840368313437324 0 50.840368313437324 5.1371401353918884 0 0 0 0 130.39868422997824 58.161660014498921 0 58.161660014498921 -5.4336941312467388 0 0 0 0 131.57637960699503 50.687966146426334 0 50.687966146426334 39.257788304239511 0 0 0 0 140.04621278017294 70.444091144738195 0 70.444091144738195 -8.8372627228091005 0 0 0 0 -148.79173132491997 -91.059116052492755 0 -91.059116052492755 -726.27193069044733 0 0 0 0 92.152532263160893 84.825029874105638 0 84.825029874105638 -8.5878335517070354 0 0 0 0 -484.91331532239565 -13.944714490746264 0 -13.944714490746264 -163.35430929475115 0 0 0 0 42.866765052976376 28.299181849641116 0 28.299181849641116 -32.463981154678663 0 0 0 0 40.009243850209003 25.530797406413285 0 25.530797406413285 -9.0027469369602784 0 0 0 0 -161.52399885782506 236.97307664756954 0 236.97307664756954 -146.68219837921788 0 0 0 0 -49.106070788708166 114.79344785212743 0 114.79344785212743 -48.958691587351495 0 0 0 0 -99.91157996020047 315.29549884710286 0 315.29549884710286 -94.775521535848384 0 0 0 0 -85.369596865652056 159.75203620942284 0 159.75203620942284 -196.36046470157453 0 0 0 0 -139.80294144888467 163.17019647820416 0 163.17019647820416 -311.24974066135474 0 0 0 0 -263.28533776660333 129.35636326875829 0 129.35636326875829 -201.53556936053792 0 0 0 0 -97.95161872706376 132.13658060788293 0 132.13658060788293 -530.11521610108321 0 0 0 0 -115.55377960769692 -117.07408357362874 0 -117.07408357362874 172.98088116410327 0 0 0 0 -115.23904147188296 160.89175774503383 0 160.89175774503383 -334.65353167621652 0 0 0 0 -65.707114040502347 196.59253549206187 0 196.59253549206187 -316.83695557937608 0 0 0 0 -226.98289704020135 179.15064575029101 0 179.15064575029101 68.243732597358758 0 0 0 0 -183.00666690981598 81.642496080326964 0 81.642496080326964 -55.785534826187359 0 0 0 0 -227.59099442163824 312.90114678275722 0 312.90114678275722 -223.74974355878658 0 0 0 0 -208.59306873296737 138.48888316666125 0 138.48888316666125 -74.252931235561846 0 0 0 0 113.75885855051456 124.28299971457454 0 124.28299971457454 -103.31824127455911 0 0 0 0 -22.980405856971629 46.509659950534115 0 46.509659950534115 -4.0122054957682849 0 0 0 0 -70.77871076290586 36.392387265286104 0 36.392387265286104 3.8710161951014417 0 0 0 0 94.882456204606569 54.24847098664759 0 54.24847098664759 -21.834367924995604 0 0 0 0 -1.814456754134941 -5.0108093117265753 0 -5.0108093117265753 1.3334779618277253 0 0 0 0 -229.60713073058287 37.694515463794232 0 37.694515463794232 37.501823454542318 0 0 0 0 -91.625005566369509 55.528966443154786 0 55.528966443154786 1.1538980752229691 0 0 0 0 -76.379309394228073 49.085270879276948 0 49.085270879276948 5.8180168939869645 0 0 0 0 -109.02680833472186 58.034197233728264 0 58.034197233728264 53.536821148321906 0 0 0 0 -158.10603343084222 228.32644736555449 0 228.32644736555449 138.36900783317105 0 0 0 0 18.229760499669879 22.930164856638385 0 22.930164856638385 -16.261626803713312 0 0 0 0 -30.517392675232259 42.974017757012916 0 42.974017757012916 -14.934875529303099 0 0 0 0 28.216331132091 14.489515660432517 0 14.489515660432517 -16.325044323875773 0 0 0 0 28.760802260338096 18.726574480744603 0 18.726574480744603 -7.5026586713647703 0 0 0 0 8.2682333747829944 3.8901928653797881 0 3.8901928653797881 -6.313463539702667 0 0 0 0 -25.896246296813004 48.295204846394824 0 48.295204846394824 -15.751865977553024 0 0 0 0 -9.4263117246009642 46.453926726419013 0 46.453926726419013 -16.791127593220153 0 0 0 0 -10.691018713376252 49.51152429123249 0 49.51152429123249 3.5247253092384199 0 0 0 0 -74.446802068108809 103.88972991015908 0 103.88972991015908 60.034578665072331 0 0 0 0 -25.830878118521753 31.12948574649586 0 31.12948574649586 -14.186466520742059 0 0 0 0 -79.162975946921506 -0.19735037345890305 0 -0.19735037345890305 32.602429688966367 0 0 0 0 -48.10517615271965 -19.296255749024567 0 -19.296255749024567 1.4155171448728652 0 0 0 0 -32.173716360547417 24.717206202370022 0 24.717206202370022 -9.6054696883821435 0 0 0 0 -36.852701380150393 34.956397954330896 0 34.956397954330896 55.028889588313177 0 0 0 0 -0.072314789555036896 14.507002720531801 0 14.507002720531801 4.4788132242053109 0 0 0 0 -10.355579575669253 10.241785855410853 0 10.241785855410853 11.02913990066736 0 0 0 0 2.8796402588934029 8.4460425292494676 0 8.4460425292494676 0.74775205089497376 0 0 0 0 2.7283899204339832 8.1801545577473007 0 8.1801545577473007 5.4234636412584223 0 0 0 0 -2.5425483976722489 6.0506147970692297 0 6.0506147970692297 7.0515184500632131 0 0 0 0 2.0558739955013152 9.5938783032361243 0 9.5938783032361243 10.640081286837813 0 0 0 0 10.75417083746288 13.128059262642637 0 13.128059262642637 -0.089689439118956216 0 0 0 0 1.788040575280661 4.289218113104873 0 4.289218113104873 1.1750805866139586 0 0 0 0 9.954055798240006 16.148295815190068 0 16.148295815190068 -4.5607683609705418 0 0 0 0 0.003226968547096476 9.4259001200116472 0 9.4259001200116472 11.706340013246518 0 0 0 0 0.095508051330398303 8.8410456092169625 0 8.8410456092169625 13.552398715131858 0 0 0 0 -2.4832284775516484 3.9256797808980082 0 3.9256797808980082 -0.36616560266267584 0 0 0 0 -2.7205734409322986 -1.1040748051129832 0 -1.1040748051129832 3.0393786765055069 0 0 0 0 10.118911991914501 3.60680043452885 0 3.60680043452885 -13.833554725213617 0 0 0 0 26.928981793054845 16.964918244506407 0 16.964918244506407 -21.559617660663207 0 0 0 0 5.0458614832568855 -2.4191214619795574 0 -2.4191214619795574 -18.613125099524041 0 0 0 0 7.4740593738097232 8.7824602755645174 0 8.7824602755645174 -2.3964801215333864 0 0 0 0 10.433721687993966 6.2902240606345003 0 6.2902240606345003 -5.4443038612662349 0 0 0 0 9.6245218225521967 10.199537501204759 0 10.199537501204759 -2.2731767393415794 0 0 0 0 15.151533590978943 7.6762746202512062 0 7.6762746202512062 -5.0977411751227919 0 0 0 0 -6.050126067653764 -26.393256517454574 0 -26.393256517454574 -54.919288580844295 0 0 0 0 21.842032625587308 9.4921384348344873 0 9.4921384348344873 -29.519691643552505 0 0 0 0 73.304929316102061 9.211481243793969 0 9.211481243793969 -149.22282874440134 0 0 0 0 0.0037849688742426224 11.849631921282707 0 11.849631921282707 7.071470100665465 0 0 0 0 -40.872864987060893 -96.859124652499304 0 -96.859124652499304 -150.56423264311161 0 0 0 0 -2.6883991026504077 2.3166552882012184 0 2.3166552882012184 1.1701790131252494 0 0 0 0 71.063114744116319 23.29551244059985 0 23.29551244059985 -240.80698329151346 0 0 0 0 60.7395520750797 35.638907555046899 0 35.638907555046899 -69.091731497872388 0 0 0 0 76.261874968296979 73.459293083406919 0 73.459293083406919 -78.91739761873032 0 0 0 0 61.067015874490608 59.992399397124245 0 59.992399397124245 -23.202272449998418 0 0 0 0 84.770544770814013 70.706455306881253 0 70.706455306881253 -72.202551715148729 0 0 0 0 67.383959743805462 79.145463814515097 0 79.145463814515097 -27.648151942485129 0 0 0 0 5.6367289723966678 85.534902498076463 0 85.534902498076463 -15.522948619909585 0 0 0 0 59.737210224498995 70.426397129973338 0 70.426397129973338 -3.7316588236535608 0 0 0 0 6.6867415945016546 56.545872886650614 0 56.545872886650614 -36.062729199893511 0 0 0 0 22.676776667474769 92.946638417546637 0 92.946638417546637 -12.30248750327155 0 0 0 0 36.528095311063225 8.1929911691568122 0 8.1929911691568122 -52.142148118684418 0 0 0 0 52.401653531589545 34.179650372389005 0 34.179650372389005 -50.357726981441374 0 0 0 0 -9.3791061550728045 43.496706056685071 0 43.496706056685071 -25.748775508203835 0 0 0 0 0.25331537592036568 43.585974175510074 0 43.585974175510074 -21.325740137391108 0 0 0 0 294.74445522704627 4.8545489753087168 0 4.8545489753087168 -162.13348089571809 0 0 0 0 7.0621966588290093 28.583677161688115 0 28.583677161688115 -17.906015394924793 0 0 0 0 24.750679900322012 9.1991044713397159 0 9.1991044713397159 -5.0177357980977604 0 0 0 0 71.858385621540947 35.60333937125688 0 35.60333937125688 -58.329689283084008 0 0 0 0 63.096736613530084 94.63575205901725 0 94.63575205901725 -8.861093117981909 0 0 0 0 -14.653949367135283 -3.5620331071827422 0 -3.5620331071827422 13.654849455037038 0 0 0 0 -10.17277838888549 43.890192040147667 0 43.890192040147667 -14.942876937537221 0 0 0 0 53.545914464026282 -38.862867603340419 0 -38.862867603340419 -129.34716075241158 0 0 0 0 43.494676505797543 82.173155004667933 0 82.173155004667933 111.06510335073108 0 0 0 0 51.838318357331445 13.625179010618012 0 13.625179010618012 -94.964117509247444 0 0 0 0 77.140793260281498 4.0731957032767241 0 4.0731957032767241 -93.643448069953592 0 0 0 0 -84.672825145696152 243.35184259501739 0 243.35184259501739 233.05930140953569 0 0 0 0 -34.668579698220896 25.847723717655839 0 25.847723717655839 -19.719811850029089 0 0 0 0 17.033257394534303 -54.097707320026529 0 -54.097707320026529 -12.839606263929454 0 0 0 0 -81.779708384819969 -151.62368961451284 0 -151.62368961451284 -90.557379914607736 0 0 0 0 -513.72959342596005 -978.09485553442209 0 -978.09485553442209 241.8094975359636 0 0 0 0 -35.19966800319861 28.484197890189634 0 28.484197890189634 -21.6179827396127 0 0 0 0 -165.2204493782483 56.309443721023854 0 56.309443721023854 769.93844923884899 0 0 0 0 -365.02556442099649 -1255.617259846676 0 -1255.617259846676 -591.08584030874772 0 0 0 0 238.46486978929897 -809.07269143878511 0 -809.07269143878511 -1800.0478869629296 0 0 0 0 202.46481997352384 -308.64211819659977 0 -308.64211819659977 -685.58347432495066 0 0 0 0 142.88971603104437 -133.35813605077419 0 -133.35813605077419 -111.75054168000133 0 0 0 0 302.0564037944423 178.35610104584339 0 178.35610104584339 -745.71371336957964 0 0 0 0 212.45846654112756 -353.24694537007508 0 -353.24694537007508 -524.52989325732051 0 0 0 0 203.89103493708535 333.51295154844411 0 333.51295154844411 -352.43288500767812 0 0 0 0 213.15823554125382 262.71793054532463 0 262.71793054532463 -93.364841868620715 0 0 0 0 119.23554250931193 330.32380093201937 0 330.32380093201937 -338.04417105889297 0 0 0 0 281.12605476504541 389.80747338129731 0 389.80747338129731 -94.411408050189493 0 0 0 0 36.196884360237163 663.92877078222227 0 663.92877078222227 -1629.3060346577395 0 0 0 0 -696.63911045627174 556.65483544697781 0 556.65483544697781 -119.82343911795761 0 0 0 0 277.85838986069939 193.42140948991619 0 193.42140948991619 -85.56891244459257 0 0 0 0 147.51769506174605 -8.9948368823097553 0 -8.9948368823097553 -123.95492042269871 0 0 0 0 80.459108979281154 36.101792750232562 0 36.101792750232562 -81.521990063178237 0 0 0 0 109.7125442895267 -66.242913336431229 0 -66.242913336431229 -208.84436675391044 0 0 0 0 207.66131047242379 81.07764611269522 0 81.07764611269522 -282.03159922346822 0 0 0 0 218.3139448055299 185.95300405839953 0 185.95300405839953 -58.18891747190537 0 0 0 0 336.5923919085908 279.76608644419321 0 279.76608644419321 -260.14451457423274 0 0 0 0 233.77374064819014 368.20221363702149 0 368.20221363702149 75.447733304856229 0 0 0 0 281.70698822160557 162.86854376950214 0 162.86854376950214 -205.73792731996218 0 0 0 0 150.73704130121041 12.084376913582673 0 12.084376913582673 -230.69636942422949 0 0 0 0 107.48422523542831 208.75090708320931 0 208.75090708320931 -26.003906563099008 0 0 0 0 -378.97061338716594 330.89753409339755 0 330.89753409339755 333.35693823455222 0 0 0 0 -20.048637918719493 30.501435453479388 0 30.501435453479388 16.517744123838838 0 0 0 0 -140.6800250043525 50.791409328259761 0 50.791409328259761 80.761807909471827 0 0 0 0 -53.518383453088632 52.407241151291004 0 52.407241151291004 -28.777903012027281 0 0 0 0 -16.464869692840296 5.1552932547479529 0 5.1552932547479529 8.9441062511331211 0 0 0 0 -209.83204403511263 -116.0783781224527 0 -116.0783781224527 81.084985706489533 0 0 0 0 415.0034897007863 438.23324917080754 0 438.23324917080754 -18.541400741050893 0 0 0 0 418.55604665636702 236.42757886419997 0 236.42757886419997 76.720170247193892 0 0 0 0 -58.713623262682916 42.775063678227149 0 42.775063678227149 -29.065959440920594 0 0 0 0 -25.938278289075242 67.757289602610399 0 67.757289602610399 158.89707526573329 0 0 0 0 135.5107496303317 127.91849894480765 0 127.91849894480765 90.425553556036903 0 0 0 0 -58.148260293084604 133.87842642718897 0 133.87842642718897 52.697872492331953 0 0 0 0 -100.29642586339833 345.80641691480014 0 345.80641691480014 -83.539569406260853 0 0 0 0 -247.08043987354904 382.35050119521475 0 382.35050119521475 353.08622333990934 0 0 0 0 13.237652054915088 539.45281301474461 0 539.45281301474461 -130.80191544175614 0 0 0 0 29.882534459109593 454.74654697428559 0 454.74654697428559 201.52750475115317 0 0 0 0 144.41729050331924 258.65851102761371 0 258.65851102761371 528.68661399801204 0 0 0 0 122.15929855039576 335.38288918607577 0 335.38288918607577 269.27521225860983 0 0 0 0 -31.915131452844292 22.147583812986454 0 22.147583812986454 -8.9995653348940721 0 0 0 0 -113.71790038581821 32.620508863677969 0 32.620508863677969 91.164953429128218 0 0 0 0 25.083147196564823 291.24525084792185 0 291.24525084792185 -30.562210140982643 0 0 0 0 -32.745476495133232 24.299380346838241 0 24.299380346838241 -16.201170011936838 0 0 0 0 68.850868811554392 434.32437165145529 0 434.32437165145529 506.56925000366482 0 0 0 0 -34.203994492825586 455.09568716450303 0 455.09568716450303 436.15529830944433 0 0 0 0 106.21212282305351 442.19221380860836 0 442.19221380860836 428.65686187410029 0 0 0 0 22.801046379870968 231.17341182469681 0 231.17341182469681 415.33510689917603 0 0 0 0 -72.782603081173875 311.10629967074055 0 311.10629967074055 441.85991965347785 0 0 0 0 72.305751558888005 237.12469348008017 0 237.12469348008017 451.17523485892161 0 0 0 0 147.64034137939962 296.50088875750953 0 296.50088875750953 437.39263188891346 0 0 0 0 50.650770756590646 256.52795019049518 0 256.52795019049518 434.23273613383208 0 0 0 0 40.566354222159134 111.11747666399606 0 111.11747666399606 409.60166165378905 0 0 0 0 -120.94603905043914 -79.048726649580203 0 -79.048726649580203 11.324943988176528 0 0 0 0 -40.800857344816905 111.18317346098775 0 111.18317346098775 89.38915174525755 0 0 0 0 -29.145444686840762 17.047397038125325 0 17.047397038125325 -8.9350080059596309 0 0 0 0 282.46893172388445 85.27609083437801 0 85.27609083437801 -157.02799295234581 0 0 0 0 93.818362358797458 19.105962180663482 0 19.105962180663482 -135.59030635164527 0 0 0 0 -16.027297151978388 19.2739754930098 0 19.2739754930098 -17.903704143523612 0 0 0 0 399.25663088975307 486.46747866225269 0 486.46747866225269 120.50725386216072 0 0 0 0 0.89783456255827332 291.68899642591623 0 291.68899642591623 401.77942402925692 0 0 0 0 -274.81736301309866 -135.28020276884854 0 -135.28020276884854 93.48055707878666 0 0 0 0 -130.17864207860839 13.641278274015349 0 13.641278274015349 101.99996282968004 0 0 0 0 -6.346796127649398 24.495933309822334 0 24.495933309822334 12.218956783792095 0 0 0 0 -141.56791479865205 -8.8417201886077237 0 -8.8417201886077237 37.871624534232978 0 0 0 0 1.5915763661760138 -51.750689209544362 0 -51.750689209544362 -3.1397037768783775 0 0 0 0 82.85447160064723 63.991328781276025 0 63.991328781276025 -124.18138590766466 0 0 0 0 -22.844243492043461 -22.043097997651785 0 -22.043097997651785 125.87360228615034 0 0 0 0 0.51833267780554593 1.4459325022341432 0 1.4459325022341432 -1.4041592452007592 0 0 0 0 -452.73754447276588 396.67582947923984 0 396.67582947923984 344.15289751496312 0 0 0 0 -0.40902394063343195 -1.2271372404914302 0 -1.2271372404914302 -4.0267749192300357 0 0 0 0 -17.429116758794407 -20.941802296798414 0 -20.941802296798414 -27.466669532863307 0 0 0 0 -532.76942596119625 63.010789406314871 0 63.010789406314871 147.62114655046753 0 0 0 0 18.100500843618647 -3.8078471535409335 0 -3.8078471535409335 41.597739547008132 0 0 0 0 -179.32842719610198 -2.5457049517062842 0 -2.5457049517062842 91.009109809128859 0 0 0 0 -3.6375749843136873 -22.148357291855064 0 -22.148357291855064 -161.07397112518083 0 0 0 0 11.165577830804978 33.462364328643162 0 33.462364328643162 47.382820678895769 0 0 0 0 -125.06662405461248 181.3687713499894 0 181.3687713499894 249.32057947747671 0 0 0 0 20.903964244760573 70.400857653276034 0 70.400857653276034 -40.047744864945344 0 0 0 0 -2.9176527092902802 2.6320467128249732 0 2.6320467128249732 -0.058178333530634063 0 0 0 0 28.036358025892696 19.668926547328738 0 19.668926547328738 -12.583327184336667 0 0 0 0 -146.17278607909975 133.82599738999852 0 133.82599738999852 -60.25993403931534 0 0 0 0 -50.865296233358094 -28.134560350301399 0 -28.134560350301399 90.936469435466279 0 0 0 0 -218.70838714132333 -33.427618773595896 0 -33.427618773595896 27.643627596320584 0 0 0 0 -85.292397201672429 48.132030117252725 0 48.132030117252725 52.341718159788797 0 0 0 0 5.1139010765764397 0.9018654822211829 0 0.9018654822211829 -10.451262711081654 0 0 0 0 -2.8471990684367654 6.7350729168504273 0 6.7350729168504273 -2.3119224700221253 0 0 0 0 -44.237942990890588 52.23589106343934 0 52.23589106343934 -26.269886505768227 0 0 0 0 -2.2721672042439423 0.5892866730404549 0 0.5892866730404549 4.1979268406665113 0 0 0 0 -65.053191265687929 12.965289333453256 0 12.965289333453256 -58.523206264275359 0 0 0 0 -6.110064131411491 92.849097959592655 0 92.849097959592655 -3.7653008813795168 0 0 0 0 -0.34288683171325829 7.8578039050080406 0 7.8578039050080406 10.191162876773888 0 0 0 0 3.1607875222034636 7.9575332555199623 0 7.9575332555199623 10.237512134719623 0 0 0 0 -1.1681442066183081 9.8582416526769521 0 9.8582416526769521 10.722184265445321 0 0 0 0 5.8452401592076058 5.2583694330642174 0 5.2583694330642174 2.4620841847258816 0 0 0 0 1.8961253235902404 30.640804831076821 0 30.640804831076821 0.94589577564329375 0 0 0 0 -0.0022124520255601965 9.1645043816952239 0 9.1645043816952239 7.1608151102191187 0 0 0 0 -2.7709439712343737 6.8125387161526305 0 6.8125387161526305 5.2456315011731931 0 0 0 0 3.5678312072481333 5.5211760004503674 0 5.5211760004503674 6.6286971256744494 0 0 0 0 -31.797082181379665 31.212717865239028 0 31.212717865239028 25.974608644391992 0 0 0 0 22.916246432097978 92.071728779494151 0 92.071728779494151 51.428896019122476 0 0 0 0 -0.0042537457411526702 6.8116763857415208 0 6.8116763857415208 2.3514392495417269 0 0 0 0 -96.536124647271208 -97.339123505129464 0 -97.339123505129464 604.55007954373286 0 0 0 0 2.4543131640978118 3.1439632042255994 0 3.1439632042255994 1.426204821990865 0 0 0 0 -37.83207900718844 507.76816203989802 0 507.76816203989802 708.92925789408037 0 0 0 0 -54.218803195806686 415.98464989894455 0 415.98464989894455 375.52461717387632 0 0 0 0 112.8074340091116 572.92052800278543 0 572.92052800278543 277.73617423184623 0 0 0 0 0.1365020966695738 622.68628443886155 0 622.68628443886155 444.86412531709357 0 0 0 0 100.98603950436518 621.57100450899816 0 621.57100450899816 401.27784263514332 0 0 0 0 1.577755217504091 143.56056907191646 0 143.56056907191646 207.83956348642823 0 0 0 0 84.670721381990006 313.414512809999 0 313.414512809999 214.82449329786095 0 0 0 0 35.005317225557519 196.99274975361186 0 196.99274975361186 116.666348927738 0 0 0 0 198.03593290244044 50.404868452817254 0 50.404868452817254 -13.389742808518349 0 0 0 0 171.57122693849669 272.02458231366836 0 272.02458231366836 150.00873647974367 0 0 0 0 495.38957187601773 361.98454891352594 0 361.98454891352594 79.470800870894891 0 0 0 0 333.02950539496669 133.74235491019317 0 133.74235491019317 -48.492123171177809 0 0 0 0 316.89053152549081 652.26311459291776 0 652.26311459291776 259.98235552431288 0 0 0 0 311.28987719155703 494.94987034642691 0 494.94987034642691 122.16814111206622 0 0 0 0 4.6880330557993091 5.999610598820027 0 5.999610598820027 10.248907192021946 0 0 0 0 1546.7779012539177 54.829094060053649 0 54.829094060053649 -55.378896171103406 0 0 0 0 1187.5280343968334 758.28361860593577 0 758.28361860593577 107.71134200598317 0 0 0 0 -0.028757030093402136 683.79523308081662 0 683.79523308081662 363.57610271381782 0 0 0 0 120.14839883330569 675.95881192860179 0 675.95881192860179 325.96423439538921 0 0 0 0 122.44568999134208 657.09106094420167 0 657.09106094420167 215.336633774863 0 0 0 0 0.30265761431564669 776.14508024351312 0 776.14508024351312 116.10623716388363 0 0 0 0 90.15342380128277 473.94597318270826 0 473.94597318270826 -371.28886466582844 0 0 0 0 209.72811332649144 745.08456112379281 0 745.08456112379281 -368.79628335092275 0 0 0 0 530.42320187380756 938.83654707427206 0 938.83654707427206 413.79870265996578 0 0 0 0 546.22370549444167 801.18379682206432 0 801.18379682206432 86.165646379733516 0 0 0 0 350.20232887445309 450.75547162979638 0 450.75547162979638 118.90328698460326 0 0 0 0 1386.1717453399033 261.5501844352948 0 261.5501844352948 -546.98388584082204 0 0 0 0 373.88847193430411 615.90646393024508 0 615.90646393024508 487.49521209786053 0 0 0 0 681.67676968988962 651.71976830155563 0 651.71976830155563 -876.02283475154036 0 0 0 0 582.3895817414159 651.54079640928467 0 651.54079640928467 -660.01088805946711 0 0 0 0 514.47517842601519 503.21431654283879 0 503.21431654283879 -440.57337129995722 0 0 0 0 409.23109728319105 269.04181402382164 0 269.04181402382164 -931.88501022748233 0 0 0 0 -54.176624551604618 -612.83286225356824 0 -612.83286225356824 -1988.1222867055808 0 0 0 0 -5.3057623424953704 4.2266750946791944 0 4.2266750946791944 -5.918205816674849 0 0 0 0 -1.3467156993429863 837.18699550442852 0 837.18699550442852 -832.403481909736 0 0 0 0 412.50377179999487 661.48072518732079 0 661.48072518732079 -1763.1690492716643 0 0 0 0 358.84505782793713 272.58402725452652 0 272.58402725452652 -745.26804465621535 0 0 0 0 382.53988116551773 -34.875197470360945 0 -34.875197470360945 -500.30506935020458 0 0 0 0 249.65537997127831 242.88717591478871 0 242.88717591478871 -1181.6574686879976 0 0 0 0 -2.5484442595123937 1.0201868552022475 0 1.0201868552022475 -0.67483517114603098 0 0 0 0 -128.70033511440852 177.23794687787449 0 177.23794687787449 -588.19609898924864 0 0 0 0 -174.70291242999883 213.42099956736001 0 213.42099956736001 -270.6954066965518 0 0 0 0 604.48528761274065 487.33651544723398 0 487.33651544723398 -532.53117787903102 0 0 0 0 -166.05640968676744 1179.0878280214047 0 1179.0878280214047 -541.22290564156719 0 0 0 0 595.49234260561934 678.82808113196916 0 678.82808113196916 -611.20522741594505 0 0 0 0 -410.14028639295429 121.76419851296305 0 121.76419851296305 -281.00062970198087 0 0 0 0 886.2447902884378 1082.772102653631 0 1082.772102653631 -739.71612808671489 0 0 0 0 -234.187196421306 199.99893682898255 0 199.99893682898255 161.02660814254523 0 0 0 0 414.24411281190987 312.54015239784349 0 312.54015239784349 146.74510298194764 0 0 0 0 -1890.5871846254013 691.7999094735892 0 691.7999094735892 258.59481268054515 0 0 0 0 -563.94527580907743 618.23976148247311 0 618.23976148247311 205.94290232587809 0 0 0 0 -2.0235383602283434 5.4544249672443357 0 5.4544249672443357 -10.142929006229807 0 0 0 0 -423.94294682236796 688.04489315360661 0 688.04489315360661 -956.59920961853823 0 0 0 0 -361.39132387463633 255.42415049860051 0 255.42415049860051 340.33929694629842 0 0 0 0 470.33797621734266 360.02836009785096 0 360.02836009785096 -142.90321318603674 0 0 0 0 -917.43702136116917 710.94929604021445 0 710.94929604021445 298.80214426253588 0 0 0 0 -302.22191745389136 -723.48485032051394 0 -723.48485032051394 -1407.1668670531071 0 0 0 0 -11.012877456952367 10.186081087965462 0 10.186081087965462 -13.486594251883091 0 0 0 0 -859.39147568861881 993.17761068903928 0 993.17761068903928 -225.14601711392606 0 0 0 0 -96.895385195733979 193.85465384588679 0 193.85465384588679 -1616.0663999822245 0 0 0 0 -879.30328762662248 -482.46714209818856 0 -482.46714209818856 -73.118082795670489 0 0 0 0 449.86669890501071 255.81127381439001 0 255.81127381439001 -1858.3392723115812 0 0 0 0 -953.06145177062717 990.22403607133492 0 990.22403607133492 -895.70628849592322 0 0 0 0 313.39854904546519 20.205282765584343 0 20.205282765584343 -195.01509332182468 0 0 0 0 -2.3381858131042819 10.37123189138174 0 10.37123189138174 -29.524834175504253 0 0 0 0 17.099347601353657 633.48860721243364 0 633.48860721243364 -654.19961116246122 0 0 0 0 515.05219291787944 -51.006303328145805 0 -51.006303328145805 -487.39406899340247 0 0 0 0 -83.310954337401199 30.98409014495769 0 30.98409014495769 217.22141856500093 0 0 0 0 -0.25204391816129146 13.570140053089432 0 13.570140053089432 -40.703753299285154 0 0 0 0 0.97118670430687359 18.535302202049934 0 18.535302202049934 27.36895800963525 0 0 0 0 -78.905756131047383 202.18859600759242 0 202.18859600759242 14.641357029828214 0 0 0 0 289.53233855124563 147.81795105883793 0 147.81795105883793 61.940668716153596 0 0 0 0 -284.32264791295165 -224.04949352033509 0 -224.04949352033509 113.45833379816759 0 0 0 0 -107.74591396062169 -200.17246250222888 0 -200.17246250222888 96.367632753535872 0 0 0 0 -201.96802203402331 -120.08459319348185 0 -120.08459319348185 61.283655497640211 0 0 0 0 -101.051531875808 -3.812353627237826 0 -3.812353627237826 10.980104257614585 0 0 0 0 38.058423063172086 20.574913027776347 0 20.574913027776347 71.291901092361513 0 0 0 0 -8.944037535916749 -0.36750392673212673 0 -0.36750392673212673 -11.911986888896138 0 0 0 0 -6.5289174671902401 26.919981808527126 0 26.919981808527126 10.57469091082541 0 0 0 0 96.303882862397586 -68.973845348748 0 -68.973845348748 156.17349777055279 0 0 0 0 -296.75698968092274 -101.20605989357159 0 -101.20605989357159 131.32766776286735 0 0 0 0 -283.88629656177363 -43.896144769398234 0 -43.896144769398234 299.57181927968031 0 0 0 0 -200.70744199164619 -104.02570291967641 0 -104.02570291967641 126.66982440613356 0 0 0 0 -13.546684880169749 15.912792574845085 0 15.912792574845085 -14.929240243447651 0 0 0 0 385.24084491150279 595.11516718236817 0 595.11516718236817 244.80066662474565 0 0 0 0 -125.7864889078046 -62.963992790668271 0 -62.963992790668271 -16.139963763973356 0 0 0 0 -39.50804212679941 11.532362647583795 0 11.532362647583795 -129.43473599341087 0 0 0 0 789.4183242153631 712.99285084095027 0 712.99285084095027 -1218.8501672906204 0 0 0 0 -4.7850893495902369 6.5186651305288024 0 6.5186651305288024 -7.3368220745251165 0 0 0 0 -979.72347007096687 466.16939996700603 0 466.16939996700603 -249.74084953077363 0 0 0 0 -55.07786524524272 -34.737398336648766 0 -34.737398336648766 -19.51996536623119 0 0 0 0 -208.81969847835899 557.27369093372545 0 557.27369093372545 -748.37894647406938 0 0 0 0 -8.7611931307665714 3.7697977801456481 0 3.7697977801456481 -0.96243408099911676 0 0 0 0 56.061584561190102 624.97308975351552 0 624.97308975351552 -690.49503278709744 0 0 0 0 109.22030209904187 70.160910537859309 0 70.160910537859309 -651.91647900598036 0 0 0 0 -640.37396237328358 156.3063362390385 0 156.3063362390385 -102.05279534414876 0 0 0 0 -124.7479706039594 83.043967179546598 0 83.043967179546598 -177.93931507345405 0 0 0 0 -317.51827410617261 70.470753570371016 0 70.470753570371016 -29.035385216418945 0 0 0 0 -48.957730936002918 298.60405935475683 0 298.60405935475683 422.01152952216216 0 0 0 0 -604.29516977697494 710.56261316462769 0 710.56261316462769 -431.08160274555121 0 0 0 0 -188.38757349984371 421.69118876154243 0 421.69118876154243 -348.62957448482666 0 0 0 0 -93.132088597805705 407.68943829559794 0 407.68943829559794 -415.73093114715448 0 0 0 0 47.580558041576296 -107.42310973500207 0 -107.42310973500207 -171.45883987599518 0 0 0 0 186.32978656076011 77.852728322344774 0 77.852728322344774 -709.41518908939543 0 0 0 0 230.789335943271 -177.84562534304405 0 -177.84562534304405 -204.4796575470682 0 0 0 0 -85.901218109785987 -223.84770762858534 0 -223.84770762858534 333.39624055211607 0 0 0 0 -101.50998138371506 -78.472458347132488 0 -78.472458347132488 -270.85262629863428 0 0 0 0 196.79578593929182 -141.67798200526158 0 -141.67798200526158 -262.12529829985579 0 0 0 0 94.94044982707419 -217.60098451602607 0 -217.60098451602607 -209.48003186089045 0 0 0 0 74.368492217359204 39.732004719228144 0 39.732004719228144 -29.839831253968754 0 0 0 0 -53.052453022495712 29.46741031875986 0 29.46741031875986 -4.4416619984959773 0 0 0 0 2.0828333867248148 61.850453896433464 0 61.850453896433464 -461.98012187224595 0 0 0 0 -156.40569149678049 157.78952467744966 0 157.78952467744966 34.451564302740735 0 0 0 0 291.45176080056262 -6.7674703919274179 0 -6.7674703919274179 -135.91609653977503 0 0 0 0 -72.532892096001888 137.00196882801538 0 137.00196882801538 -547.71488140664587 0 0 0 0 0.18792613757040044 3.2737899386428353 0 3.2737899386428353 -5.516427000133092 0 0 0 0 -0.79774244601139799 -36.868318916996941 0 -36.868318916996941 -203.27066644426122 0 0 0 0 16.08104131318396 104.01379215090856 0 104.01379215090856 -297.06714139234828 0 0 0 0 -82.482816108968109 -39.56377878782223 0 -39.56377878782223 463.65657268418727 0 0 0 0 66.827790796014597 -337.51681397399443 0 -337.51681397399443 -11.420180480257841 0 0 0 0 39.951009176983916 6.5930207549877622 0 6.5930207549877622 -8.9008055386646792 0 0 0 0 -48.902558751637116 121.15598724220763 0 121.15598724220763 48.936960356906638 0 0 0 0 11.118224541730626 0.32685004798531736 0 0.32685004798531736 0.91827414109020289 0 0 0 0 -23.679197195306187 -56.415500345057808 0 -56.415500345057808 332.53444962133653 0 0 0 0 366.17729601004248 381.7218482285225 0 381.7218482285225 -679.79347014171799 0 0 0 0 -575.71709724367247 -129.25866204912018 0 -129.25866204912018 1113.5127658620768 0 0 0 0 411.28708670259221 384.06261284600987 0 384.06261284600987 -1408.7588262229037 0 0 0 0 667.9987924562447 452.589757837668 0 452.589757837668 -1155.0498214946856 0 0 0 0 467.40448911477961 590.62898711528601 0 590.62898711528601 -1244.6564478576183 0 0 0 0 -184.73882366825637 827.55435369264251 0 827.55435369264251 -1187.0768707052921 0 0 0 0 193.87370393773017 -206.2811699060112 0 -206.2811699060112 -807.75712144310819 0 0 0 0 -757.37644986409578 746.93746722950527 0 746.93746722950527 -419.83810595604155 0 0 0 0 190.45912548305932 470.57080743320694 0 470.57080743320694 -240.86168235170771 0 0 0 0 40.271142752462765 288.16689257495455 0 288.16689257495455 -309.80537063792508 0 0 0 0 115.77770037843584 195.93315784010156 0 195.93315784010156 -200.18201529035287 0 0 0 0 181.48140291862364 143.41519130436063 0 143.41519130436063 -364.53246408790437 0 0 0 0 271.1486391978724 29.472508306085729 0 29.472508306085729 -236.28636560754967 0 0 0 0 179.76060018717544 33.582796993676311 0 33.582796993676311 -165.61706381803378 0 0 0 0 136.80163547905977 45.522418254338845 0 45.522418254338845 -132.34777234410285 0 0 0 0 139.85470021638321 24.813911446442944 0 24.813911446442944 -69.41152731711918 0 0 0 0 147.16163881578541 52.780899872252121 0 52.780899872252121 -135.43313071966986 0 0 0 0 166.62836878794769 80.172240801992302 0 80.172240801992302 -221.84155209522578 0 0 0 0 131.26706696380279 93.74533340142807 0 93.74533340142807 -185.30560578087898 0 0 0 0 138.07181103601761 71.534734109904093 0 71.534734109904093 -172.34123319125501 0 0 0 0 100.12881245397148 70.901325270417146 0 70.901325270417146 -104.31914450989279 0 0 0 0 107.63037821542821 48.357676164567238 0 48.357676164567238 -57.657702037962736 0 0 0 0 95.46926771471044 75.376979161534109 0 75.376979161534109 -104.45121231989469 0 0 0 0 108.11247972946148 60.450255682531861 0 60.450255682531861 -74.68490447071963 0 0 0 0 24.779281216106028 100.43627177290909 0 100.43627177290909 -58.919029302982381 0 0 0 0 72.353755314950831 65.676775777916191 0 65.676775777916191 -53.41102939133998 0 0 0 0 53.312324340935447 98.737898546074575 0 98.737898546074575 -106.22802904155105 0 0 0 0 59.593604615278309 94.596692143066321 0 94.596692143066321 -109.93748133155168 0 0 0 0 86.138369690190302 96.945227602398518 0 96.945227602398518 -148.55336238794553 0 0 0 0 100.31350395969639 98.010465385159478 0 98.010465385159478 -148.47340953382081 0 0 0 0 134.58179189471412 114.0841534362844 0 114.0841534362844 -189.9679644962398 0 0 0 0 111.90684569790028 134.37910136035134 0 134.37910136035134 -178.22657539210923 0 0 0 0 123.93987101878156 103.43768538010045 0 103.43768538010045 -188.72028840477287 0 0 0 0 170.88595659498424 88.024746760822381 0 88.024746760822381 -207.23332286553341 0 0 0 0 148.59793707249628 115.65915309442789 0 115.65915309442789 -239.56412917134003 0 0 0 0 114.3153200338711 190.89811437203025 0 190.89811437203025 -215.53204706304314 0 0 0 0 105.45320836274186 137.66340902628144 0 137.66340902628144 -179.34959179988437 0 0 0 0 67.689716244407464 175.18200886809063 0 175.18200886809063 -120.49314631999005 0 0 0 0 35.292280722555006 138.42410866825958 0 138.42410866825958 -149.66346236689787 0 0 0 0 -1.4479119059396908 146.32817031460581 0 146.32817031460581 -147.32873608962836 0 0 0 0 -15.57324574951781 215.48563363889116 0 215.48563363889116 -115.36214534597821 0 0 0 0 -123.71723878980993 168.76335331106384 0 168.76335331106384 -93.753562712459825 0 0 0 0 -3.5577970038284548 101.76041303254897 0 101.76041303254897 -150.96704699707334 0 0 0 0 -50.078985710744746 101.66559670149582 0 101.66559670149582 -131.32796857549693 0 0 0 0 67.093707484804327 134.64961206674343 0 134.64961206674343 -165.37772163296177 0 0 0 0 72.970146331907017 120.40548298538488 0 120.40548298538488 -166.5410453138029 0 0 0 0 79.105401250038994 123.91934912788565 0 123.91934912788565 -167.14538085452841 0 0 0 0 75.615909759328986 45.812582862616154 0 45.812582862616154 -19.477243226463941 0 0 0 0 58.433607611223124 111.71496114270121 0 111.71496114270121 -146.15682506983285 0 0 0 0 46.886063617828768 103.8001357759349 0 103.8001357759349 -151.06806079165608 0 0 0 0 -682.55849786993713 443.08536835059476 0 443.08536835059476 -500.23839278572996 0 0 0 0 39.700066947028972 118.96363646694226 0 118.96363646694226 -118.54694906240911 0 0 0 0 -444.85463345487369 722.32205244879879 0 722.32205244879879 -178.39189811807591 0 0 0 0 -34.254010451724753 357.98101852919353 0 357.98101852919353 -281.09301193599822 0 0 0 0 17.776878126844451 14.562330739314461 0 14.562330739314461 9.7464843874333837 0 0 0 0 -104.38346030330285 247.8282944218372 0 247.8282944218372 -102.55730439612671 0 0 0 0 -80.02577504114015 353.17603091955971 0 353.17603091955971 -161.89615336309362 0 0 0 0 393.68601880752249 -149.98169085889822 0 -149.98169085889822 -85.211667267896701 0 0 0 0 253.33596907078754 -0.97560360972420312 0 -0.97560360972420312 -77.806017967230218 0 0 0 0 158.09116199309938 148.37797132991182 0 148.37797132991182 -168.23752599769796 0 0 0 0 -60.734698393840517 155.38907480863418 0 155.38907480863418 -132.05062105465913 0 0 0 0 176.671905229392 320.72890573360928 0 320.72890573360928 -233.76711604198499 0 0 0 0 668.25111789107905 35.913266533360002 0 35.913266533360002 -374.04355787934037 0 0 0 0 367.40126668370795 243.54266489825022 0 243.54266489825022 -413.55841564667935 0 0 0 0 5.919794292461404 5.0149790952564501 0 5.0149790952564501 2.5576871667015553 0 0 0 0 -89.525653409835286 275.15541228337497 0 275.15541228337497 -137.14851845987141 0 0 0 0 878.72926948871464 337.98458593207761 0 337.98458593207761 -267.36507938028808 0 0 0 0 315.06863907477236 883.51194474368822 0 883.51194474368822 53.630496427314938 0 0 0 0 256.65333162499883 313.40177104500253 0 313.40177104500253 -251.63923113851342 0 0 0 0 791.14865919123986 -204.77190816159418 0 -204.77190816159418 -236.14634306335211 0 0 0 0 -677.69624233004652 80.06815009280399 0 80.06815009280399 -596.2355605445191 0 0 0 0 79.322605123896523 44.931193121944233 0 44.931193121944233 -23.954543191614164 0 0 0 0 -235.67726757162018 -554.56026855725941 0 -554.56026855725941 -96.555128305742983 0 0 0 0 -21.266885839693714 225.25926459697803 0 225.25926459697803 -85.200472697848454 0 0 0 0 1.97190388533636 215.05782024005021 0 215.05782024005021 -220.34701952409523 0 0 0 0 5.7907632361529977 131.27169491165114 0 131.27169491165114 -105.20332224213053 0 0 0 0 -43.576282498921501 95.59139190139831 0 95.59139190139831 -18.947888632910008 0 0 0 0 -35.402037240775826 167.63934676089411 0 167.63934676089411 -19.379968592227669 0 0 0 0 -73.357908605132252 84.819895013424684 0 84.819895013424684 -167.55501950793769 0 0 0 0 -170.3247923875897 110.29237537829977 0 110.29237537829977 3.4735863230307586 0 0 0 0 -123.44220744246559 156.9278294520991 0 156.9278294520991 49.790703992097406 0 0 0 0 -110.16932184476173 147.40817595364933 0 147.40817595364933 14.292572982281854 0 0 0 0 -28.395992516947445 104.05209464101063 0 104.05209464101063 36.241043053742032 0 0 0 0 14.953081757892505 17.220675025273522 0 17.220675025273522 95.70785641533439 0 0 0 0 -35.558507390960585 136.08365148198209 0 136.08365148198209 89.124411835276987 0 0 0 0 16.59946712164674 93.304816780626425 0 93.304816780626425 37.106700542441104 0 0 0 0 -32.85874733446596 16.263976762867983 0 16.263976762867983 -2.6409491101867708 0 0 0 0 13.024075878609437 159.56138800476037 0 159.56138800476037 170.65181255494826 0 0 0 0 -30.920684040145716 6.9764123071363429 0 6.9764123071363429 265.74716200762487 0 0 0 0 105.63712477582158 7.2345744562480832 0 7.2345744562480832 -840.88983959698271 0 0 0 0 -30.005940067057963 139.43531713396078 0 139.43531713396078 400.75015303684631 0 0 0 0 44.047718408997753 177.02952859390643 0 177.02952859390643 246.603528773383 0 0 0 0 52.972036741644843 127.45142986057181 0 127.45142986057181 93.98888247202558 0 0 0 0 58.279459904537362 192.53066516022227 0 192.53066516022227 79.89364890937577 0 0 0 0 107.41096727130207 155.62852693663081 0 155.62852693663081 -30.368764065759024 0 0 0 0 12.972971113485983 183.82817050426092 0 183.82817050426092 15.579869810382661 0 0 0 0 54.765924511579215 143.22764126817492 0 143.22764126817492 -45.078129386005457 0 0 0 0 36.000163703254657 202.92131175522809 0 202.92131175522809 -56.652185541724975 0 0 0 0 23.827426502743037 175.85209588706857 0 175.85209588706857 -108.23106005802401 0 0 0 0 83.920045471917547 152.69222795993483 0 152.69222795993483 -114.76925042405492 0 0 0 0 90.769496213222737 185.45920023784856 0 185.45920023784856 -39.061785593250534 0 0 0 0 102.12239880632842 174.51913641452848 0 174.51913641452848 -24.60538967436878 0 0 0 0 120.75324901862768 171.95928261267545 0 171.95928261267545 -127.43076800656854 0 0 0 0 125.11261684348574 154.29692481280654 0 154.29692481280654 -116.59471041970392 0 0 0 0 57.044232533182367 191.12518787338922 0 191.12518787338922 -22.837991497450275 0 0 0 0 113.52515440399293 203.20325304455764 0 203.20325304455764 -131.47562113596723 0 0 0 0 122.10432859847924 148.96671250619011 0 148.96671250619011 -148.29904568304482 0 0 0 0 48.878790440227021 218.57362724419363 0 218.57362724419363 -19.626977648615139 0 0 0 0 56.947284453795874 167.99696196543664 0 167.99696196543664 135.80042686546221 0 0 0 0 91.505230133756413 192.94458533435682 0 192.94458533435682 97.861334468063433 0 0 0 0 140.30632122172392 173.39049014229386 0 173.39049014229386 -24.578613950790896 0 0 0 0 151.88004320248729 166.67849637741165 0 166.67849637741165 102.79109168969444 0 0 0 0 84.708306203596294 171.62336073249753 0 171.62336073249753 237.70344418060267 0 0 0 0 151.17028685573314 205.51432818579633 0 205.51432818579633 251.19839031982519 0 0 0 0 251.48881999430159 76.794009189332428 0 76.794009189332428 257.00675837689778 0 0 0 0 89.812443935668853 -61.090824051789241 0 -61.090824051789241 511.66163056589721 0 0 0 0 157.95834686703165 138.41330989763082 0 138.41330989763082 136.81000823702152 0 0 0 0 -79.181797918558004 160.06368637848936 0 160.06368637848936 442.85068494615552 0 0 0 0 -10.95084438161183 8.9239742295247169 0 8.9239742295247169 -2.8479325008159666 0 0 0 0 -352.12953169753018 210.24553668873705 0 210.24553668873705 888.35054426099668 0 0 0 0 -132.31709405189031 281.79082849131373 0 281.79082849131373 189.89577688622376 0 0 0 0 -393.51111511308409 503.07295786650502 0 503.07295786650502 515.4668274541109 0 0 0 0 -261.92846095032291 187.51983269441916 0 187.51983269441916 375.41191672274726 0 0 0 0 -484.68782170106715 338.53210183159536 0 338.53210183159536 274.25917732241214 0 0 0 0 -145.77591952553485 332.54539833932358 0 332.54539833932358 -38.695269331350573 0 0 0 0 -63.316885022970382 193.83122025144985 0 193.83122025144985 179.19291407267519 0 0 0 0 2.3658245004116907 279.42742649829233 0 279.42742649829233 -165.25557335415215 0 0 0 0 -55.397539281504578 273.41143032465334 0 273.41143032465334 -29.569822417139221 0 0 0 0 -285.90860435316426 539.59327723419119 0 539.59327723419119 -201.73687066984712 0 0 0 0 -843.65479262090957 1093.5342707653472 0 1093.5342707653472 308.68218305467599 0 0 0 0 -458.1121990922984 139.60490598450269 0 139.60490598450269 -925.18185539129627 0 0 0 0 -785.98082013266685 815.08085351657064 0 815.08085351657064 -1554.697485480232 0 0 0 0 442.30576740804827 1677.8494439646602 0 1677.8494439646602 -3680.2977634004965 0 0 0 0 -785.27304681033274 1376.4093493275823 0 1376.4093493275823 -3754.3181124047405 0 0 0 0 -845.161733478104 36.41930082286126 0 36.41930082286126 -2273.1794137743345 0 0 0 0 -14.255345298502249 9.524511267796484 0 9.524511267796484 -0.72002520802382719 0 0 0 0 -385.91123702905315 -478.57066993471017 0 -478.57066993471017 -1268.2431513091469 0 0 0 0 1258.4613044164653 1907.7179923312051 0 1907.7179923312051 -3494.5446746622183 0 0 0 0 -1077.0379418477969 863.14462652492693 0 863.14462652492693 -1483.0498388338019 0 0 0 0 489.57996083567559 283.47931990684083 0 283.47931990684083 423.83106417964154 0 0 0 0 184.262804789847 1103.5690697173777 0 1103.5690697173777 -1440.0257660525658 0 0 0 0 2854.5362669250826 624.28009041255245 0 624.28009041255245 -2677.4740569816495 0 0 0 0 -5.4823093867960466 12.290018333359825 0 12.290018333359825 -27.014947770631352 0 0 0 0 -3593.5286260145804 979.28106985300838 0 979.28106985300838 -238.95513466541888 0 0 0 0 -1982.055783177304 774.10317368231335 0 774.10317368231335 -520.46923314990636 0 0 0 0 -2585.8390042307583 123.70967870175809 0 123.70967870175809 482.45418369999243 0 0 0 0 -2099.6602525702328 1210.2447699952536 0 1210.2447699952536 -976.75799250102136 0 0 0 0 -1920.6296636138868 814.04507611774898 0 814.04507611774898 -518.25407751747116 0 0 0 0 -3647.9944343965699 2981.3929702219984 0 2981.3929702219984 -1827.2808639577415 0 0 0 0 34.289213530428242 55.233309221279342 0 55.233309221279342 -818.13653478928245 0 0 0 0 -1029.4121406123741 1175.2018973017693 0 1175.2018973017693 -3716.1616904265247 0 0 0 0 2088.3141502919025 3540.0511840280087 0 3540.0511840280087 -7154.1153175263316 0 0 0 0 -4.8198073361285765 11.719162018535641 0 11.719162018535641 3.7669106817257259 0 0 0 0 -376.61558688689547 436.60202079864757 0 436.60202079864757 -1758.9097698317637 0 0 0 0 -126.35331506184593 62.907360690587666 0 62.907360690587666 -252.04443341845035 0 0 0 0 379.41566685344878 165.89901345057478 0 165.89901345057478 -2489.5842922579759 0 0 0 0 66.900093940195802 262.21217113882403 0 262.21217113882403 -394.72766946384218 0 0 0 0 -223.88028998495429 -28.191380191405187 0 -28.191380191405187 -516.84810979518807 0 0 0 0 -82.759805455250898 117.74790461557859 0 117.74790461557859 -386.44742735731415 0 0 0 0 -751.06178407760308 487.16285510708622 0 487.16285510708622 -1099.1395391944388 0 0 0 0 -1210.0918914851791 1060.3281099445012 0 1060.3281099445012 -1719.7123841267094 0 0 0 0 -1453.633338040323 1507.9562695397908 0 1507.9562695397908 -2016.414041467222 0 0 0 0 -1721.8796596976754 317.80440918971362 0 317.80440918971362 -341.87731457146583 0 0 0 0 -533.36781880025228 293.46405440314629 0 293.46405440314629 -504.84368624353374 0 0 0 0 -812.4618321089074 694.0640163462449 0 694.0640163462449 -1079.8478805392806 0 0 0 0 -1146.1065518820833 715.30148441516576 0 715.30148441516576 341.95215356098197 0 0 0 0 -590.45066126041638 823.92825173679012 0 823.92825173679012 -351.65943526953924 0 0 0 0 -704.1913860593213 155.43487531375013 0 155.43487531375013 -404.86810095499095 0 0 0 0 -718.73130120315182 230.4152371062155 0 230.4152371062155 891.1772907605191 0 0 0 0 -884.01061988480797 528.92933633995199 0 528.92933633995199 85.509288180401199 0 0 0 0 -881.40687997965142 1300.8312787437462 0 1300.8312787437462 876.07182484885561 0 0 0 0 -868.82724936476734 409.28009325545281 0 409.28009325545281 55.68333432406871 0 0 0 0 -242.65098465044866 25.369844071185071 0 25.369844071185071 290.21975920721889 0 0 0 0 2.5259359707582121 9.4486260596445817 0 9.4486260596445817 -6.3633299165032753 0 0 0 0 -1302.9891741759802 76.560727886771019 0 76.560727886771019 330.92164221694111 0 0 0 0 82.336935312399874 98.279618554399349 0 98.279618554399349 -310.58779030902588 0 0 0 0 -16.96701780492063 42.671233272241366 0 42.671233272241366 -51.907368282362313 0 0 0 0 1238.2262258642659 1737.4095278611494 0 1737.4095278611494 524.69143225252969 0 0 0 0 12.499419763760159 42.888441396642989 0 42.888441396642989 -55.110809778543455 0 0 0 0 215.28762505980558 182.76312323290404 0 182.76312323290404 -271.69281640362169 0 0 0 0 224.98171573926084 922.7185141843147 0 922.7185141843147 956.58934551088169 0 0 0 0 126.67116337542757 470.25170418515881 0 470.25170418515881 687.89789513892174 0 0 0 0 -67.537010937477191 52.184323327804698 0 52.184323327804698 -24.652107818089604 0 0 0 0 -146.20369509785087 542.72569697478502 0 542.72569697478502 287.43058664249747 0 0 0 0 3.8487143140225157 13.971487857768608 0 13.971487857768608 -13.450322400451078 0 0 0 0 44.909926504973555 -188.71079887656379 0 -188.71079887656379 -486.82208747162076 0 0 0 0 440.28809476344031 106.82434471101624 0 106.82434471101624 -76.689297887264729 0 0 0 0 -25.010318497500521 40.503423518067393 0 40.503423518067393 -36.925588160454836 0 0 0 0 111.44336157772341 -0.90393547319763456 0 -0.90393547319763456 -271.16602508708456 0 0 0 0 -99.169838472829724 33.251185822437037 0 33.251185822437037 -268.92177769410773 0 0 0 0 38.726628686505137 95.587813543381344 0 95.587813543381344 -299.24022117246932 0 0 0 0 2.3560744515561964 89.950556317391602 0 89.950556317391602 -249.62049888341426 0 0 0 0 0.73767021371168084 125.21879288502532 0 125.21879288502532 -271.12545532206786 0 0 0 0 -39.972487010934856 73.592266321917123 0 73.592266321917123 -303.55465430031472 0 0 0 0 31.646115037146956 137.96407023765641 0 137.96407023765641 -314.03115479039479 0 0 0 0 -12.198116641739034 0.23593051033822121 0 0.23593051033822121 -338.55036285166352 0 0 0 0 47.218443555902923 -4.5627292287244927 0 -4.5627292287244927 -407.08051632064235 0 0 0 0 -8.0042182805482298 32.565483450263855 0 32.565483450263855 -413.71724874604843 0 0 0 0 80.884235630597686 81.996958347364853 0 81.996958347364853 -378.87722105974535 0 0 0 0 11.624546322564129 1.8612470780208241 0 1.8612470780208241 -452.70792293509294 0 0 0 0 -129.09891036443878 457.75635000665352 0 457.75635000665352 -1766.6272136718489 0 0 0 0 -212.91477479995228 0.51208178718297859 0 0.51208178718297859 -895.35459767466091 0 0 0 0 -52.762786867824616 794.43550051171769 0 794.43550051171769 -748.27404978838422 0 0 0 0 558.543307988788 492.90418649488856 0 492.90418649488856 -789.42742563816137 0 0 0 0 260.27355707880633 617.49570816543564 0 617.49570816543564 -833.00579770561126 0 0 0 0 28.481412423716222 31.763666039566715 0 31.763666039566715 -5.6122734959918787 0 0 0 0 -23.026765217451612 1235.3629659652943 0 1235.3629659652943 398.985161596338 0 0 0 0 -75.227260014663898 46.722149935808673 0 46.722149935808673 -24.356593528355376 0 0 0 0 303.77032530968427 1374.463157611608 0 1374.463157611608 266.97086015667082 0 0 0 0 -91.413382333324989 214.56252707518797 0 214.56252707518797 110.72501394505525 0 0 0 0 645.67590330967505 695.16982740809908 0 695.16982740809908 2.1223783852983615 0 0 0 0 -371.49185351768392 503.38753897573042 0 503.38753897573042 80.411820157052716 0 0 0 0 -17.612986532404705 9.0406971633162101 0 9.0406971633162101 -4.8418675244571512 0 0 0 0 25.841659239071305 42.326996408306513 0 42.326996408306513 -129.73855672666468 0 0 0 0 -94.371336746472053 34.081493541517069 0 34.081493541517069 -8.8388542725229939 0 0 0 0 -127.04000843686663 215.63816845035308 0 215.63816845035308 -325.00100565773755 0 0 0 0 -135.45987541148497 153.83527351842349 0 153.83527351842349 -31.47427080849593 0 0 0 0 -10.495506394829135 373.42569606362849 0 373.42569606362849 -400.62082325266601 0 0 0 0 -9.2195611695267417 1.986119786937401 0 1.986119786937401 -0.11987999371129643 0 0 0 0 12.345136577438097 279.10294684136716 0 279.10294684136716 -573.49033043454256 0 0 0 0 -147.39772926512524 302.40583718114794 0 302.40583718114794 -135.64148097523866 0 0 0 0 -204.15446529632027 378.42115381419353 0 378.42115381419353 -117.91481733111868 0 0 0 0 448.09776615663486 611.86971872823392 0 611.86971872823392 -362.34948074217391 0 0 0 0 -74.726753382958123 165.21234508927955 0 165.21234508927955 -603.46355208368368 0 0 0 0 -29.587513312610099 156.70839463614175 0 156.70839463614175 336.98927091600342 0 0 0 0 7.3055715713926475 161.29408831719411 0 161.29408831719411 -89.592990042561723 0 0 0 0 7.9738424332172144 305.41435270755665 0 305.41435270755665 133.38508323836868 0 0 0 0 -7.6086280266172253 360.54348145139193 0 360.54348145139193 -58.51323747895367 0 0 0 0 -40.780964374993346 278.37794346272494 0 278.37794346272494 10.171337855050297 0 0 0 0 -42.637541422707727 187.4009809079289 0 187.4009809079289 -97.479317685111255 0 0 0 0 -56.220675723161548 153.01140941035919 0 153.01140941035919 -156.81364233715794 0 0 0 0 -89.614224418211961 283.38137812283821 0 283.38137812283821 -641.16302398514745 0 0 0 0 -261.34600683741155 467.10831377243812 0 467.10831377243812 -808.67223390838035 0 0 0 0 -675.12464906708919 416.9830590232159 0 416.9830590232159 -509.53105152156786 0 0 0 0 -407.45296543146105 356.87452994426985 0 356.87452994426985 -234.95456781212852 0 0 0 0 -391.22234115179162 392.11962771957042 0 392.11962771957042 -508.26702609539643 0 0 0 0 -327.97443490207661 454.7000700079825 0 454.7000700079825 -236.45818684608093 0 0 0 0 -451.64044961282343 328.37697259881134 0 328.37697259881134 -79.236536445336242 0 0 0 0 -204.06928048552072 425.44683210490803 0 425.44683210490803 -96.97299511617166 0 0 0 0 -224.51075326076534 344.55149487501149 0 344.55149487501149 -122.00842597710289 0 0 0 0 -43.868462688593354 310.60238347301765 0 310.60238347301765 -297.58466513660824 0 0 0 0 -82.351196967822034 380.34015330646616 0 380.34015330646616 -86.878163927338392 0 0 0 0 -177.36406649327546 359.2631476115439 0 359.2631476115439 -29.335299407157436 0 0 0 0 -165.40621580433617 437.93795342723161 0 437.93795342723161 32.074682467813545 0 0 0 0 -396.44885307105142 371.5379367703008 0 371.5379367703008 -65.021251457794278 0 0 0 0 -338.3488636360853 320.84166265141266 0 320.84166265141266 -24.301861174113583 0 0 0 0 -295.85210093538626 426.35930071906841 0 426.35930071906841 -57.951365423954485 0 0 0 0 -366.81208831766708 288.04620626011638 0 288.04620626011638 -25.906801984820049 0 0 0 0 -326.72536833779304 363.80701962685998 0 363.80701962685998 2.7740976495424547 0 0 0 0 -255.99038581291097 341.36225238359657 0 341.36225238359657 -21.636752676466131 0 0 0 0 -263.92189505320857 438.95082987032947 0 438.95082987032947 73.878933434098144 0 0 0 0 -235.36974882229697 408.43140618556026 0 408.43140618556026 106.42426845709633 0 0 0 0 -250.39118481974583 540.05547186989861 0 540.05547186989861 38.060071719726693 0 0 0 0 -283.18827864291961 379.34121614329251 0 379.34121614329251 -109.60257402110437 0 0 0 0 -50.532148251426406 420.16210721649622 0 420.16210721649622 26.163584860278206 0 0 0 0 -135.73338669730583 379.04013684918755 0 379.04013684918755 64.784355403673544 0 0 0 0 -238.27034764045675 421.308152674133 0 421.308152674133 51.837667072752083 0 0 0 0 -207.50467948752339 461.00189392923494 0 461.00189392923494 144.63442861190924 0 0 0 0 -135.86584029856033 439.01656595791007 0 439.01656595791007 133.31750676700176 0 0 0 0 -8.2370198637072463 440.21753398267902 0 440.21753398267902 132.00274935004336 0 0 0 0 -72.103196906042285 484.31836121404194 0 484.31836121404194 131.88301582436361 0 0 0 0 -33.58175611642946 420.33643608929015 0 420.33643608929015 150.71062130395603 0 0 0 0 -50.738042015110295 428.1657241278773 0 428.1657241278773 153.39050952746038 0 0 0 0 -103.58355862916505 464.03356889965835 0 464.03356889965835 142.17121267804032 0 0 0 0 -81.015096051909495 413.32533567013888 0 413.32533567013888 59.501995836271817 0 0 0 0 -51.424499310665851 436.87710672911157 0 436.87710672911157 42.870358242209477 0 0 0 0 370.1850188925755 217.07241334925413 0 217.07241334925413 -173.64779557301517 0 0 0 0 -15.161574321522991 56.941008237812625 0 56.941008237812625 -39.06082395519266 0 0 0 0 40.11568504749448 69.749692229197535 0 69.749692229197535 -14.734991597419139 0 0 0 0 49.678350282949395 75.689290523687305 0 75.689290523687305 -20.467912394778978 0 0 0 0 -35.869175862486316 44.194212814354927 0 44.194212814354927 -4.102814128718336 0 0 0 0 147.57869440197828 503.12939949671636 0 503.12939949671636 -151.43219073074579 0 0 0 0 51.51675734273158 95.923351074710808 0 95.923351074710808 39.579671334890008 0 0 0 0 -12.989951346034815 7.4744143664685225 0 7.4744143664685225 -5.3166952945479125 0 0 0 0 -307.90533313296328 32.556528348068241 0 32.556528348068241 429.55652268240374 0 0 0 0 343.04890681547749 -102.23048695357375 0 -102.23048695357375 -98.585145973600447 0 0 0 0 152.57842208133661 -81.026732585472928 0 -81.026732585472928 -85.885014321112976 0 0 0 0 -76.09069268008335 49.411755075493375 0 49.411755075493375 -12.468610872276741 0 0 0 0 -176.21512306728982 13.796947295883001 0 13.796947295883001 -7.6849495192291215 0 0 0 0 -605.93147382893949 139.69227200916794 0 139.69227200916794 -10.448022385557124 0 0 0 0 -564.64999756761244 121.43492112524291 0 121.43492112524291 33.465044829208637 0 0 0 0 -13.020849922890193 329.13229478792528 0 329.13229478792528 -338.69765846421433 0 0 0 0 -73.708224925241666 9.1038998576350423 0 9.1038998576350423 -259.62096255629876 0 0 0 0 -509.24103197673685 344.71520701173358 0 344.71520701173358 -587.00933934379282 0 0 0 0 -79.806259997275077 50.215653888935684 0 50.215653888935684 -14.260470499972726 0 0 0 0 -673.86634294284158 155.40294051058663 0 155.40294051058663 -634.30223501565342 0 0 0 0 -601.56063545893994 379.53418912315828 0 379.53418912315828 -249.91039568277483 0 0 0 0 -618.47558370041952 423.37807928522125 0 423.37807928522125 -272.84412399036955 0 0 0 0 -475.83508277026704 406.30710063308288 0 406.30710063308288 -248.17772695924054 0 0 0 0 -424.03186616449966 264.47288231894709 0 264.47288231894709 -46.707567782428669 0 0 0 0 -595.28117371775443 261.76515955995274 0 261.76515955995274 -35.511967589114647 0 0 0 0 -479.78198766798596 268.36455848745481 0 268.36455848745481 5.9635243644297589 0 0 0 0 -404.18581603985513 236.87618024087533 0 236.87618024087533 -10.618236055284797 0 0 0 0 -370.90659128534026 278.13528489604141 0 278.13528489604141 2.3399068307371635 0 0 0 0 -185.53018616964982 408.50208098487019 0 408.50208098487019 -368.02911708726697 0 0 0 0 -299.71230591004132 328.94912234380899 0 328.94912234380899 -6.9772791364230216 0 0 0 0 -312.29277127541718 277.62225306614164 0 277.62225306614164 -194.85408387669304 0 0 0 0 -265.44357104561641 477.8501525678148 0 477.8501525678148 -156.19289604525193 0 0 0 0 -284.04585036690696 200.51547948191364 0 200.51547948191364 -19.544266391064411 0 0 0 0 -210.75430740733282 210.7011627781194 0 210.7011627781194 -235.84935592149122 0 0 0 0 113.49423551410737 68.786329076669034 0 68.786329076669034 -7.2805758627189689 0 0 0 0 -122.02514806763793 78.041717392081409 0 78.041717392081409 -91.307238652738306 0 0 0 0 47.232418418773335 42.584210643940111 0 42.584210643940111 -30.99067566426325 0 0 0 0 39.4645972317131 30.376731647848601 0 30.376731647848601 -3.4487765765155842 0 0 0 0 -20.660858085379004 90.384009692481413 0 90.384009692481413 26.507186125934822 0 0 0 0 -26.254704690072685 190.55508191093395 0 190.55508191093395 -322.91365276800934 0 0 0 0 149.14686309443175 49.553289512387153 0 49.553289512387153 -59.099970204537129 0 0 0 0 -69.283095318765845 -14.784739584731142 0 -14.784739584731142 -99.637369253727229 0 0 0 0 20.543514781732938 48.985737339959172 0 48.985737339959172 -24.683868077939181 0 0 0 0 -186.35917103372049 199.99375664810213 0 199.99375664810213 7.5745454140633228 0 0 0 0 -284.8377181875403 115.43500563785346 0 115.43500563785346 -3.0651932643013424 0 0 0 0 34.108917921563261 32.189217913950415 0 32.189217913950415 -90.526030187611468 0 0 0 0 60.223045706246921 -12.961439685647747 0 -12.961439685647747 -150.49818318178586 0 0 0 0 7.9780309544433976 3.9851199519669791 0 3.9851199519669791 -6.0050667784023091 0 0 0 0 112.26169820900031 56.607449908940907 0 56.607449908940907 -137.0239068458759 0 0 0 0 86.765813581718248 105.32165338970663 0 105.32165338970663 -49.685846879376186 0 0 0 0 -20.924680587040712 23.612598170800084 0 23.612598170800084 -368.53734714962047 0 0 0 0 57.721653142594732 343.48288807728386 0 343.48288807728386 -244.66955471738038 0 0 0 0 88.867167544784024 184.5791988759338 0 184.5791988759338 -349.24682513041989 0 0 0 0 77.334316144875629 199.57470656863461 0 199.57470656863461 -153.80519671106231 0 0 0 0 55.736314883910381 105.71300619257818 0 105.71300619257818 -264.98418427488468 0 0 0 0 93.504050107090762 9.8427362247055754 0 9.8427362247055754 -14.584162814692448 0 0 0 0 -81.737211648149241 259.58016168303948 0 259.58016168303948 -343.76795460154244 0 0 0 0 149.40095617523184 107.39774629719977 0 107.39774629719977 -584.64226047272678 0 0 0 0 29.160297794569516 5.4623435533866598 0 5.4623435533866598 -1.3352074303672055 0 0 0 0 8.3528485806891695 158.29647532168019 0 158.29647532168019 -285.90965558270545 0 0 0 0 81.232584398757751 44.681578994317533 0 44.681578994317533 -3.4550973927355599 0 0 0 0 -92.804838860989548 1.2783979296254984 0 1.2783979296254984 222.64201055119338 0 0 0 0 173.14692153786422 68.346031904646082 0 68.346031904646082 -33.121432016578126 0 0 0 0 42.363258371886332 383.33402273441607 0 383.33402273441607 -150.4855722154316 0 0 0 0 54.898010448068817 361.70625912801552 0 361.70625912801552 -286.17585065394451 0 0 0 0 -62.296337903975655 275.22928369178226 0 275.22928369178226 -262.44141512685019 0 0 0 0 24.570198355240791 249.71754138859433 0 249.71754138859433 -304.01669638509338 0 0 0 0 -19.729588509984751 320.32530152967229 0 320.32530152967229 -389.96067845353537 0 0 0 0 57.425993686472793 289.14253470149379 0 289.14253470149379 -260.33589811126149 0 0 0 0 73.762728155339573 260.48861969077461 0 260.48861969077461 -212.17858554905979 0 0 0 0 45.672736235166667 340.77262062185036 0 340.77262062185036 -188.77072525332551 0 0 0 0 43.365678176971414 332.58318514911844 0 332.58318514911844 -207.31097818403214 0 0 0 0 59.678900802521639 292.66725732113446 0 292.66725732113446 -114.55883551562147 0 0 0 0 -71.055624226588407 313.73532999612144 0 313.73532999612144 -117.93864370935626 0 0 0 0 83.031719216782221 278.59273211574327 0 278.59273211574327 -181.77699160453267 0 0 0 0 101.07759765072478 258.89704455230458 0 258.89704455230458 -173.50665875069171 0 0 0 0 -369.20059708546614 -68.349300242549361 0 -68.349300242549361 -352.58053183565062 0 0 0 0 129.84172720412124 143.37642923254776 0 143.37642923254776 -28.70930714436453 0 0 0 0 -7.9917884873723892 18.034835774224149 0 18.034835774224149 -7.4854998758671201 0 0 0 0 -179.84527305219672 303.84597296406537 0 303.84597296406537 111.18956793289635 0 0 0 0 -39.506839003442224 37.836339189131166 0 37.836339189131166 0.96331487653258208 0 0 0 0 20.2709419741077 183.03228177226356 0 183.03228177226356 -191.14508286698765 0 0 0 0 -122.56031092138437 201.75299214475035 0 201.75299214475035 173.43737590198361 0 0 0 0 163.94211008044658 490.93708838661951 0 490.93708838661951 -18.724322303506597 0 0 0 0 -66.340362189948792 373.79431205162109 0 373.79431205162109 -79.655549315265489 0 0 0 0 114.62630455950097 151.13477261030343 0 151.13477261030343 -19.515621218400206 0 0 0 0 355.60106433085457 216.3660302852395 0 216.3660302852395 -402.16393497904937 0 0 0 0 -182.01105976883991 373.15178590771757 0 373.15178590771757 -51.028564189302415 0 0 0 0 -220.77248952090667 207.28441266421032 0 207.28441266421032 27.258493210964843 0 0 0 0 -300.80785391234895 298.12910638947005 0 298.12910638947005 40.285725392539462 0 0 0 0 -128.7643481699597 303.11534876705628 0 303.11534876705628 126.72486542195838 0 0 0 0 -92.028937362229044 221.42147378974369 0 221.42147378974369 161.8914870728704 0 0 0 0 30.466462615979253 392.19061865109143 0 392.19061865109143 -67.196453371238022 0 0 0 0 -58.238433848389377 320.73884096329459 0 320.73884096329459 -53.482372180169477 0 0 0 0 15.315046829076891 416.46230202555853 0 416.46230202555853 -50.90761351819674 0 0 0 0 29.664208496663917 333.86041467635192 0 333.86041467635192 -15.754012862424133 0 0 0 0 67.840155978497933 382.62500835745595 0 382.62500835745595 -189.7796245217034 0 0 0 0 31.001345899967419 446.38959597076064 0 446.38959597076064 97.198409801401795 0 0 0 0 15.551121052256349 627.05538400207934 0 627.05538400207934 369.38553697049338 0 0 0 0 71.545223913253722 385.42437382071648 0 385.42437382071648 -260.58684277537759 0 0 0 0 -6.6028315492116576 5.6122498900885986 0 5.6122498900885986 1.6865020930590227 0 0 0 0 -17.974809198502044 350.46822706549392 0 350.46822706549392 75.103101467191664 0 0 0 0 -50.337954751321377 462.15594358271437 0 462.15594358271437 96.609427975599829 0 0 0 0 -109.45913117269811 338.5392029977138 0 338.5392029977138 165.43979913827934 0 0 0 0 92.306968810094986 189.14632341281686 0 189.14632341281686 284.36665294770501 0 0 0 0 -74.633069979521679 492.71772765753485 0 492.71772765753485 353.21780335895528 0 0 0 0 -130.95944686108851 125.781040375261 0 125.781040375261 913.0398919823856 0 0 0 0 -147.96225908189081 565.10441243342211 0 565.10441243342211 416.91691281039311 0 0 0 0 -120.27222743503808 361.49728797093667 0 361.49728797093667 254.66281363147573 0 0 0 0 -312.96665479702642 607.09604867788585 0 607.09604867788585 133.12700657726964 0 0 0 0 -206.88493523896614 419.61900188933305 0 419.61900188933305 238.94940496151685 0 0 0 0 -401.32644028775394 513.21689263633016 0 513.21689263633016 228.67854054890995 0 0 0 0 -156.73902955785161 793.23762547541264 0 793.23762547541264 538.18541141018886 0 0 0 0 -597.85773754536058 540.14804178296617 0 540.14804178296617 599.48040937002588 0 0 0 0 -857.1404959486681 983.20885679935964 0 983.20885679935964 98.542919979076942 0 0 0 0 209.96961470041424 1649.8080368255178 0 1649.8080368255178 -248.48650129644511 0 0 0 0 3.9284315540260195 -3.5640479241546927 0 -3.5640479241546927 -6.2780547770178536 0 0 0 0 -272.87793254025746 322.83380685747943 0 322.83380685747943 1272.2112399519483 0 0 0 0 -364.99627427011728 539.12925020645707 0 539.12925020645707 11.098857243985094 0 0 0 0 4.5837589892325923 875.62398538100024 0 875.62398538100024 -38.582948086928809 0 0 0 0 -658.08843250836071 1007.831470965175 0 1007.831470965175 -474.1403637758558 0 0 0 0 -18.937209150200943 495.41984923006203 0 495.41984923006203 -713.14144312155531 0 0 0 0 165.87515964376507 487.43154951892393 0 487.43154951892393 -530.38728390393226 0 0 0 0 -3.5875784833991133 1.8257401656242394 0 1.8257401656242394 0.36360069041756837 0 0 0 0 -265.61628733668476 1003.4294267522819 0 1003.4294267522819 -1468.7087550444294 0 0 0 0 -493.02206147435936 458.15483198238326 0 458.15483198238326 1501.1797774790612 0 0 0 0 -338.50408695323858 1259.4905187393188 0 1259.4905187393188 -1064.7105890587409 0 0 0 0 211.67264403499212 267.23359200851996 0 267.23359200851996 -1175.2695857559702 0 0 0 0 -442.87455195323855 865.37397477196646 0 865.37397477196646 -997.5046291059698 0 0 0 0 -14.373087074054638 824.39812708323552 0 824.39812708323552 -1175.4764504695609 0 0 0 0 279.61905206098891 392.53792579947094 0 392.53792579947094 -581.11278357517949 0 0 0 0 -42.616496361966711 11.318184819060662 0 11.318184819060662 35.932073942080933 0 0 0 0 -136.28971770190401 505.29624914849592 0 505.29624914849592 -406.61083660089207 0 0 0 0 268.89832214433409 46.220349243253622 0 46.220349243253622 22.243814126926281 0 0 0 0 97.628345478116643 158.24043879803588 0 158.24043879803588 -9.1224732711916161 0 0 0 0 -13.073188530204163 4.386606006786451 0 4.386606006786451 1.0973123815867076 0 0 0 0 -577.72323575796327 397.94991346749521 0 397.94991346749521 123.90345444872946 0 0 0 0 88.497461709121126 98.521016718351348 0 98.521016718351348 210.22121621918495 0 0 0 0 -301.44073920331721 689.36886381837257 0 689.36886381837257 110.90704865260864 0 0 0 0 -163.14731332547672 472.98719714059735 0 472.98719714059735 -92.7574225735043 0 0 0 0 -596.53239816456221 1132.7441303695975 0 1132.7441303695975 -904.74618799397467 0 0 0 0 -218.38308654112916 -53.449833756431644 0 -53.449833756431644 -1118.046933787733 0 0 0 0 -601.87312976937392 694.51417574896368 0 694.51417574896368 -1180.7984969762865 0 0 0 0 -30.171700738472282 404.95136165193344 0 404.95136165193344 -610.90894133130496 0 0 0 0 -107.74161157855269 267.76244641454105 0 267.76244641454105 -378.36226198171244 0 0 0 0 -184.26324119392848 694.99082184128338 0 694.99082184128338 -231.50370172231032 0 0 0 0 -60.125339687321684 509.87930142616369 0 509.87930142616369 -93.802345805301229 0 0 0 0 -200.05679289318505 517.82740470581757 0 517.82740470581757 -76.482542078139431 0 0 0 0 -86.333581072482048 307.10721255189947 0 307.10721255189947 245.01094477781589 0 0 0 0 -4.4388479532483416 4.8939296317952667 0 4.8939296317952667 1.3019392844622075 0 0 0 0 -117.82396796329704 236.05697839184359 0 236.05697839184359 -187.35158490839785 0 0 0 0 15.26520258243545 421.38605406951501 0 421.38605406951501 -655.26559114388192 0 0 0 0 -240.47125474698259 276.36704474137332 0 276.36704474137332 -299.3444012588734 0 0 0 0 111.51201847437187 459.9617512162913 0 459.9617512162913 -231.06010833167966 0 0 0 0 -83.179175249897526 296.075363733431 0 296.075363733431 138.48169064920512 0 0 0 0 -105.01925268583 485.59313162648323 0 485.59313162648323 108.08884288699483 0 0 0 0 -161.75352716373163 83.207766361165341 0 83.207766361165341 -35.374639333160303 0 0 0 0 -16.195308489142917 -67.184873411939407 0 -67.184873411939407 1.4668201228355429 0 0 0 0 -45.664467065391364 99.827702909880827 0 99.827702909880827 -155.81741784884525 0 0 0 0 -53.611351559695322 258.54329982040508 0 258.54329982040508 -427.94492242749402 0 0 0 0 69.704406170916627 68.532857945776414 0 68.532857945776414 -176.97124121807701 0 0 0 0 -67.89625337743928 17.329035228940029 0 17.329035228940029 -527.06925753020187 0 0 0 0 -399.47133107501577 265.23244464798108 0 265.23244464798108 11.083035158306302 0 0 0 0 180.36710373169626 -20.366079057133902 0 -20.366079057133902 -234.02510101045846 0 0 0 0 17.958841081795981 169.5075437779642 0 169.5075437779642 -120.40469324718106 0 0 0 0 -224.2402709848684 206.26508855053726 0 206.26508855053726 -31.062414355944384 0 0 0 0 -69.248167248821119 573.84807988536431 0 573.84807988536431 -1212.4458796717618 0 0 0 0 -570.67789650059422 74.959619383673271 0 74.959619383673271 1271.3460136465869 0 0 0 0 -0.99977502702273569 -0.046590577083144069 0 -0.046590577083144069 -0.19775762065447822 0 0 0 0 -67.544010651051053 19.294283525519056 0 19.294283525519056 443.51725799656742 0 0 0 0 -661.95896872889716 -43.145920326474879 0 -43.145920326474879 282.61445939627799 0 0 0 0 -563.5125382214901 608.85815055238663 0 608.85815055238663 -71.651584890319555 0 0 0 0 -224.01405311384588 -25.156097829405553 0 -25.156097829405553 63.777115288783079 0 0 0 0 -192.70433721903828 334.84348433251853 0 334.84348433251853 400.41463774964905 0 0 0 0 527.8732395993211 669.41801949699766 0 669.41801949699766 752.89648078477774 0 0 0 0 -17.161029877218795 24.035761293186809 0 24.035761293186809 -17.893252128792028 0 0 0 0 -105.68906203434744 80.300541984121082 0 80.300541984121082 32.986633699556478 0 0 0 0 388.94998520830995 456.04175467141772 0 456.04175467141772 755.71471948215822 0 0 0 0 925.08918396764784 577.36039242473043 0 577.36039242473043 340.56414831385928 0 0 0 0 -1.0521192186643589 7.8938964906735123 0 7.8938964906735123 -1.1419339236624753 0 0 0 0 1428.5415068285656 890.88572584070175 0 890.88572584070175 533.97926155537834 0 0 0 0 630.82525590475416 743.29059454309458 0 743.29059454309458 987.54113489244014 0 0 0 0 793.7961280993477 275.74174338387905 0 275.74174338387905 580.81604780657585 0 0 0 0 212.91928123511025 218.70649024510266 0 218.70649024510266 559.32702151247952 0 0 0 0 406.10732537618605 477.22474900242923 0 477.22474900242923 507.71767546021704 0 0 0 0 272.36065454548225 334.72412850311321 0 334.72412850311321 409.85766630965645 0 0 0 0 78.924169643898495 140.75978912964445 0 140.75978912964445 349.91997242358423 0 0 0 0 172.95138284927816 191.64199126278868 0 191.64199126278868 317.02337282966437 0 0 0 0 272.87686500759446 346.41504952304786 0 346.41504952304786 410.39964391397007 0 0 0 0 274.86257909085543 330.70711395408011 0 330.70711395408011 415.5410666022608 0 0 0 0 581.39239538619586 524.55645473256436 0 524.55645473256436 358.99336852585895 0 0 0 0 540.63267053340314 315.54762486518808 0 315.54762486518808 253.59606149294814 0 0 0 0 584.02034620531776 521.79004867022286 0 521.79004867022286 351.290750927408 0 0 0 0 6.8396473951903545 -0.4784720775455753 0 -0.4784720775455753 -2.4418908927878817 0 0 0 0 72.420498058520025 90.085623841387132 0 90.085623841387132 -117.676047988356 0 0 0 0 60.452719118256937 -27.930791523968765 0 -27.930791523968765 -42.158284460467257 0 0 0 0 4.8938622004205286 29.208230908417249 0 29.208230908417249 -29.683418809628304 0 0 0 0 -37.056183776119724 55.21319205238035 0 55.21319205238035 186.29767507303791 0 0 0 0 -1.1122107957773579 3.2246279992945119 0 3.2246279992945119 -0.75096333579522323 0 0 0 0 0.12615884716598108 11.447787497871181 0 11.447787497871181 1.0131386633348143 0 0 0 0 19.773245997508639 88.006469484334616 0 88.006469484334616 -3.2139016396281477 0 0 0 0 27.023793524160283 53.728295344571393 0 53.728295344571393 123.18980545896147 0 0 0 0 73.962629836809356 11.235618915977511 0 11.235618915977511 155.56325318417134 0 0 0 0 154.25673627515789 101.15625459692137 0 101.15625459692137 172.62270762215121 0 0 0 0 28.023288556578336 -42.876700962669531 0 -42.876700962669531 153.56693304748285 0 0 0 0 28.94476258935174 58.554552050726898 0 58.554552050726898 274.06693895911496 0 0 0 0 191.47964030716685 185.07084396730124 0 185.07084396730124 264.12824884532267 0 0 0 0 272.19000009304727 215.34503599283562 0 215.34503599283562 204.00049314585749 0 0 0 0 120.98986965743825 126.3945394035336 0 126.3945394035336 292.27122383052847 0 0 0 0 343.81783760542748 216.34788214555965 0 216.34788214555965 305.76100814071964 0 0 0 0 227.1421044421586 216.39237122191935 0 216.39237122191935 169.15407541887117 0 0 0 0 203.18017311526637 271.69231615566719 0 271.69231615566719 356.95993721955165 0 0 0 0 114.23199386805936 57.920791443732242 0 57.920791443732242 -26.29205175127845 0 0 0 0 0.19573004481935641 343.52109806958288 0 343.52109806958288 185.04191419245262 0 0 0 0 312.01954933815796 238.43376128393436 0 238.43376128393436 47.425908867347061 0 0 0 0 -2.205669998627684 0.73454477887378289 0 0.73454477887378289 2.6530954764000398 0 0 0 0 420.72932860572473 550.05903371660679 0 550.05903371660679 300.40703616669282 0 0 0 0 86.982019323913846 199.85643497741421 0 199.85643497741421 53.73118109684674 0 0 0 0 29.641318062218488 22.052044210886379 0 22.052044210886379 -18.752604709356547 0 0 0 0 9.4029649250620935 25.763226630257549 0 25.763226630257549 -34.571752801479576 0 0 0 0 -22.909121361823054 -86.249210220838449 0 -86.249210220838449 -143.86920754968014 0 0 0 0 75.203854423685698 48.13712030206716 0 48.13712030206716 -154.35031540447204 0 0 0 0 119.93373862814042 16.257112737843727 0 16.257112737843727 -107.16131800641051 0 0 0 0 64.016931586811552 66.326850038649354 0 66.326850038649354 -37.639020525989508 0 0 0 0 34.891014963664929 64.909317563307013 0 64.909317563307013 -23.788830988361951 0 0 0 0 36.127550053148298 69.868314072771682 0 69.868314072771682 16.05248367353488 0 0 0 0 -19.872641689354623 25.767002420698518 0 25.767002420698518 -24.125612928193561 0 0 0 0 35.649373327340072 65.452351860852445 0 65.452351860852445 -23.481372341435417 0 0 0 0 0.11776418066438055 139.69345376540878 0 139.69345376540878 19.892910877018949 0 0 0 0 117.65747007564642 120.4451332640956 0 120.4451332640956 -36.843589506019271 0 0 0 0 65.296580494803493 85.288347586163582 0 85.288347586163582 -41.940763622681288 0 0 0 0 69.341629656827536 118.67455808940423 0 118.67455808940423 25.08977658052936 0 0 0 0 0.010651895325281657 104.73371095863968 0 104.73371095863968 31.68561952447817 0 0 0 0 40.751226345048053 71.619904361975387 0 71.619904361975387 58.517894446382343 0 0 0 0 42.217663145037022 90.677938928523531 0 90.677938928523531 31.033931689227757 0 0 0 0 0.090383112091028187 79.573243065495703 0 79.573243065495703 75.030743474086194 0 0 0 0 -30.792550761660095 47.527696593488145 0 47.527696593488145 36.859484668279038 0 0 0 0 100.83141829233227 280.9440354168978 0 280.9440354168978 142.77779275544162 0 0 0 0 -13.877760858123338 14.347936639881553 0 14.347936639881553 -15.178513917398774 0 0 0 0 269.71230828049374 131.67804862933735 0 131.67804862933735 -532.56843240798116 0 0 0 0 59.476090298470808 -1.0359047523252229 0 -1.0359047523252229 -566.09611286087238 0 0 0 0 591.53189998466405 574.70973032547408 0 574.70973032547408 -414.89062557094348 0 0 0 0 620.56834891266772 527.13441547931689 0 527.13441547931689 -496.25508140495913 0 0 0 0 -2.1693574002935065 7.2964785700938819 0 7.2964785700938819 4.126794667295357 0 0 0 0 133.80385028751334 443.17065423260283 0 443.17065423260283 267.59299402597026 0 0 0 0 541.40030518929416 497.28017725497375 0 497.28017725497375 179.83914223437932 0 0 0 0 193.26845778863208 183.39043311032492 0 183.39043311032492 54.176336475240532 0 0 0 0 -30.715896939698723 441.69742538229912 0 441.69742538229912 -36.472853010562176 0 0 0 0 257.27631295419997 268.69264364733317 0 268.69264364733317 -318.67794397172656 0 0 0 0 -60.943986229453003 282.59865144498326 0 282.59865144498326 124.6483484184937 0 0 0 0 3.9840648780664196 299.62576152365546 0 299.62576152365546 125.61062326360354 0 0 0 0 172.42628932883963 279.68454586403823 0 279.68454586403823 83.695808407988807 0 0 0 0 -31.019943679741118 322.94549780312991 0 322.94549780312991 217.25322497833076 0 0 0 0 143.40581416815985 355.48333382575038 0 355.48333382575038 179.2629251655635 0 0 0 0 -28.637052255682647 399.89482480739025 0 399.89482480739025 101.22360865831797 0 0 0 0 -12.177877853264363 340.56594586513461 0 340.56594586513461 239.99845913824902 0 0 0 0 -51.632448694515915 394.10620023745469 0 394.10620023745469 156.63942086439056 0 0 0 0 0.36826196656329557 444.18408022846779 0 444.18408022846779 204.15684741042151 0 0 0 0 203.95540721806174 312.51495907685512 0 312.51495907685512 121.0567195680087 0 0 0 0 -1.5138066026083834 -1.284502479325937 0 -1.284502479325937 3.858439248108759 0 0 0 0 301.3323493289281 524.44524021778534 0 524.44524021778534 347.37248384607301 0 0 0 0 394.01700630578853 349.5410986432089 0 349.5410986432089 224.31367964992569 0 0 0 0 88.530571811716072 -40.003127917061647 0 -40.003127917061647 -9.7880145936251211 0 0 0 0 6.2461462474546892 27.751866927629749 0 27.751866927629749 -36.772368963975531 0 0 0 0 9.1873590454669625 -1.3009477415354525 0 -1.3009477415354525 -1.4325321077887736 0 0 0 0 827.3950381852701 292.79840552898986 0 292.79840552898986 72.659557355149445 0 0 0 0 384.04094671622443 264.22668994685409 0 264.22668994685409 87.508258331828984 0 0 0 0 126.31158858502022 399.15535410794973 0 399.15535410794973 243.98504185703496 0 0 0 0 266.3901080557107 86.528414436618732 0 86.528414436618732 -16.808186208276311 0 0 0 0 -6.7577569122752301 24.383675839340526 0 24.383675839340526 36.063343303858431 0 0 0 0 125.24494894619147 202.46009208585565 0 202.46009208585565 -17.490877960757643 0 0 0 0 -44.801705047862924 153.42620853640619 0 153.42620853640619 57.91291343202829 0 0 0 0 137.99366931429904 130.83638054298717 0 130.83638054298717 29.595251863596786 0 0 0 0 133.81118785564831 118.49292154517752 0 118.49292154517752 48.714221551730589 0 0 0 0 -36.874758093798434 31.548114180842532 0 31.548114180842532 0.63120638218080671 0 0 0 0 107.92861312448076 180.93585728517792 0 180.93585728517792 -39.399737061175983 0 0 0 0 33.16151575033291 -35.075516277844144 0 -35.075516277844144 27.641817540865304 0 0 0 0 -30.633951525773696 38.786626366993815 0 38.786626366993815 -28.77594516479769 0 0 0 0 295.87107465854206 56.125401704217438 0 56.125401704217438 -34.594453512327163 0 0 0 0 236.82656944270275 184.69655368494568 0 184.69655368494568 32.782351370216929 0 0 0 0 -20.68254309277836 109.96379090944174 0 109.96379090944174 86.868190560438961 0 0 0 0 -54.041324428599154 77.872497941759079 0 77.872497941759079 36.662920858196486 0 0 0 0 -11.661373611949678 37.827967320477583 0 37.827967320477583 -29.688032103777701 0 0 0 0 -90.500808097315712 123.1897117665585 0 123.1897117665585 45.046915735139919 0 0 0 0 21.385609942347401 136.01422029419155 0 136.01422029419155 38.017352551447402 0 0 0 0 -25.704666588713735 43.210960748179787 0 43.210960748179787 -22.362564861363353 0 0 0 0 76.713931030837557 99.059831209058757 0 99.059831209058757 4.849503068926424 0 0 0 0 3.33577590596542 156.87891284848956 0 156.87891284848956 101.57616631078781 0 0 0 0 165.96309205855505 173.10918886675427 0 173.10918886675427 15.289734516554745 0 0 0 0 -31.039088476798831 2.5254516829126334 0 2.5254516829126334 2.7910836968355852 0 0 0 0 -261.6745089849519 113.92581269985294 0 113.92581269985294 50.12373774695152 0 0 0 0 -104.56380909588006 89.692743458756013 0 89.692743458756013 93.228122678348882 0 0 0 0 -104.67134440962764 66.453899269985413 0 66.453899269985413 16.292342056927737 0 0 0 0 -210.54715997918538 114.86063920687411 0 114.86063920687411 68.16360072133466 0 0 0 0 6.3043361761070038 11.101038361863409 0 11.101038361863409 22.249385782737448 0 0 0 0 533.97732909048364 98.737819936395681 0 98.737819936395681 -74.098088307404396 0 0 0 0 -227.71420052202666 250.72024070781117 0 250.72024070781117 115.00180580771121 0 0 0 0 263.69770086410063 85.706321960453351 0 85.706321960453351 -2.8963757263391017 0 0 0 0 33.285590360552547 98.520713214014961 0 98.520713214014961 30.244940887803324 0 0 0 0 131.23818609535556 95.875191505619114 0 95.875191505619114 21.61704690796978 0 0 0 0 161.61465479310209 136.36744868455207 0 136.36744868455207 40.105660785673535 0 0 0 0 131.79843666108718 96.551040822487266 0 96.551040822487266 38.18896714798484 0 0 0 0 -261.90729381066285 66.295482274654205 0 66.295482274654205 -28.927857395719911 0 0 0 0 -217.08645553788915 213.40449816696218 0 213.40449816696218 -50.454768678770051 0 0 0 0 -165.17070114656599 80.975354300964682 0 80.975354300964682 12.481388270478419 0 0 0 0 -100.54849032116908 176.09078610550205 0 176.09078610550205 -26.773420206704031 0 0 0 0 37.961924208495475 94.40764796006988 0 94.40764796006988 39.613388957071038 0 0 0 0 29.408789020599215 180.13948264048304 0 180.13948264048304 25.658684950887164 0 0 0 0 -17.220503005456521 113.62059707432672 0 113.62059707432672 -27.462271383097686 0 0 0 0 56.816839349878137 176.83955699913531 0 176.83955699913531 -4.4134554252887028 0 0 0 0 28.018913027073722 142.25219917888353 0 142.25219917888353 1.4382877090465627 0 0 0 0 -115.91104113331079 128.99752694346626 0 128.99752694346626 -45.9767952210168 0 0 0 0 -174.90900383776579 169.57644812247963 0 169.57644812247963 32.41351846667385 0 0 0 0 -110.49166639391115 170.78966310614487 0 170.78966310614487 20.895710012691779 0 0 0 0 -103.25342346607431 99.241488464864233 0 99.241488464864233 57.992382774711587 0 0 0 0 -103.88781253733032 97.858589213345113 0 97.858589213345113 59.496202469807031 0 0 0 0 -98.865859909194114 93.268436267684592 0 93.268436267684592 33.038354639938916 0 0 0 0 -92.031146208581958 153.64963426076406 0 153.64963426076406 25.861663835112267 0 0 0 0 -1.2402397850601119 141.51476171746799 0 141.51476171746799 25.599607203110281 0 0 0 0 65.81587100804245 114.09233641702212 0 114.09233641702212 -3.0874098469957971 0 0 0 0 30.055225975173926 126.22006952725019 0 126.22006952725019 3.4551864245113393 0 0 0 0 102.07133417297882 116.64250209470993 0 116.64250209470993 -13.674466387110442 0 0 0 0 109.26585333101684 139.20695389196499 0 139.20695389196499 -4.5786698959545902 0 0 0 0 14.196401857944693 78.689881849502854 0 78.689881849502854 1.6554443467830424 0 0 0 0 -92.084883444058505 65.006980380058849 0 65.006980380058849 15.252548667187511 0 0 0 0 -55.956462583231769 101.85295975118061 0 101.85295975118061 31.402938414426899 0 0 0 0 -77.494239079958788 88.124288095247721 0 88.124288095247721 20.191258205817576 0 0 0 0 -56.891364619696105 68.010562062614554 0 68.010562062614554 7.9698482906624122 0 0 0 0 -148.96768989680641 31.064020755826277 0 31.064020755826277 8.6789624115567676 0 0 0 0 100.52981955685027 410.69961839404641 0 410.69961839404641 90.436307014468184 0 0 0 0 -161.41438522054159 77.637088351148122 0 77.637088351148122 52.388095147642161 0 0 0 0 163.1399597049558 129.37217195026733 0 129.37217195026733 -0.78768607659367262 0 0 0 0 34.276456652538229 103.06966583974869 0 103.06966583974869 50.862499072841679 0 0 0 0 76.972797318507219 141.9069936251999 0 141.9069936251999 12.439379693161754 0 0 0 0 133.33886863305088 151.30520995832558 0 151.30520995832558 6.6532924365237704 0 0 0 0 123.08274290603003 153.05206610272853 0 153.05206610272853 -2.9672122542988291 0 0 0 0 99.327671015343867 151.9089014080659 0 151.9089014080659 7.0597534581556829 0 0 0 0 150.08832748120039 161.90885879002326 0 161.90885879002326 2.207388506839834 0 0 0 0 104.57358911517804 149.94631596168392 0 149.94631596168392 21.890866089713654 0 0 0 0 128.7344019262564 137.87071336357531 0 137.87071336357531 25.306140806527765 0 0 0 0 -13.712428220696893 196.19195124868685 0 196.19195124868685 150.27275791001875 0 0 0 0 9.7053302508211345 161.38097617874604 0 161.38097617874604 92.537390889487597 0 0 0 0 111.47877551161127 230.65372851205055 0 230.65372851205055 135.67407455582793 0 0 0 0 116.36929859611155 173.42384378092243 0 173.42384378092243 38.164785300341464 0 0 0 0 111.96039932949861 131.76769867494932 0 131.76769867494932 9.0819176342611172 0 0 0 0 164.32489949472301 151.18881374695582 0 151.18881374695582 43.731441205543888 0 0 0 0 120.11445747682501 190.47201269506991 0 190.47201269506991 141.307449399245 0 0 0 0 176.21325178140978 216.5456015259706 0 216.5456015259706 53.773521190681393 0 0 0 0 144.27291176205836 267.66919458207121 0 267.66919458207121 235.41360349756042 0 0 0 0 277.52248889752082 245.04645817753999 0 245.04645817753999 83.656166794475894 0 0 0 0 156.66164136290899 145.79439022827319 0 145.79439022827319 283.31962216956117 0 0 0 0 122.26419433409319 211.20749363658797 0 211.20749363658797 205.25984706005693 0 0 0 0 31.193303175336041 199.85062635111444 0 199.85062635111444 271.94302857002731 0 0 0 0 9.8200971972103872 3.302062684163654 0 3.302062684163654 2.6605085098496009 0 0 0 0 16.863737870706245 52.174580880215899 0 52.174580880215899 137.30922742119492 0 0 0 0 53.818324366886372 231.72624255996749 0 231.72624255996749 34.989395966512802 0 0 0 0 -29.76679059584572 31.9857842562825 0 31.9857842562825 26.994654787686493 0 0 0 0 64.552518194133881 185.83270856179274 0 185.83270856179274 196.02129738447019 0 0 0 0 -42.462590934254877 45.019733071582095 0 45.019733071582095 -52.451862667690875 0 0 0 0 -82.651372935415566 73.029956287114146 0 73.029956287114146 1.4088307431399016 0 0 0 0 -229.10380239240658 -37.927997929087041 0 -37.927997929087041 -25.664835288035647 0 0 0 0 31.218477786482254 95.423211885010005 0 95.423211885010005 -14.623666601790774 0 0 0 0 -59.38547738483976 37.794440201044836 0 37.794440201044836 -13.449928518549314 0 0 0 0 28.2285093033679 133.89247080506334 0 133.89247080506334 -5.9436096207297453 0 0 0 0 144.55154770457011 93.289229901818999 0 93.289229901818999 -2.4959326774564943 0 0 0 0 27.061544692296593 124.15628204212067 0 124.15628204212067 71.069269193657192 0 0 0 0 31.885413588708616 89.775905535312177 0 89.775905535312177 13.952373742238706 0 0 0 0 150.34359042752476 171.06384405468225 0 171.06384405468225 21.153471548776679 0 0 0 0 164.1007466570527 90.196155771955318 0 90.196155771955318 71.906258038107353 0 0 0 0 341.06117831991651 371.47147457862593 0 371.47147457862593 191.59653717112542 0 0 0 0 -366.17602675366425 95.174803921377134 0 95.174803921377134 149.40440965767584 0 0 0 0 76.602652216381784 -25.794750485089935 0 -25.794750485089935 21.590331135940687 0 0 0 0 82.691185065870627 326.44039897796938 0 326.44039897796938 139.66089019873016 0 0 0 0 -1.9271982510856702 -8.6664472730831008 0 -8.6664472730831008 4.6740160418229308 0 0 0 0 74.15595293143997 354.7552338524506 0 354.7552338524506 712.78421951352175 0 0 0 0 176.80552080878988 -41.663587276221733 0 -41.663587276221733 -355.30338519548422 0 0 0 0 203.66048868880171 131.04992286165316 0 131.04992286165316 -86.020871452412393 0 0 0 0 163.72438773270915 82.789082814913854 0 82.789082814913854 -29.564443082621437 0 0 0 0 -227.67850544319845 137.13675600531769 0 137.13675600531769 98.779847448069631 0 0 0 0 133.81689625866056 135.17563032348335 0 135.17563032348335 -108.53335871657964 0 0 0 0 -20.938702107594906 38.440258617049089 0 38.440258617049089 -21.259533030614278 0 0 0 0 117.31486779486295 102.31251988427357 0 102.31251988427357 51.435694627431076 0 0 0 0 -47.665432214820612 -20.581454225989546 0 -20.581454225989546 74.041555971365597 0 0 0 0 -24.597490198070723 22.599068064546337 0 22.599068064546337 -21.102318149238002 0 0 0 0 98.301009638346841 199.61896849882169 0 199.61896849882169 87.667181408756733 0 0 0 0 178.44731612213218 217.29820291922624 0 217.29820291922624 20.605391503115243 0 0 0 0 90.451199285875191 200.84203893277663 0 200.84203893277663 199.94882257049903 0 0 0 0 215.01436482862482 31.300187221819215 0 31.300187221819215 92.979197991055116 0 0 0 0 169.76165167890576 221.2482233783885 0 221.2482233783885 63.546064952461165 0 0 0 0 126.67502319637424 116.22297333147071 0 116.22297333147071 1.2841112762580451 0 0 0 0 20.996431334388035 135.25402853882224 0 135.25402853882224 86.536684839720692 0 0 0 0 -20.125347523640912 14.888192775587328 0 14.888192775587328 24.22166385000267 0 0 0 0 38.079114114732192 90.700557338425838 0 90.700557338425838 84.814518127870912 0 0 0 0 -163.17412566201529 98.457121941859441 0 98.457121941859441 318.98196869636377 0 0 0 0 12.495358862016996 88.949733263961974 0 88.949733263961974 62.101615272315108 0 0 0 0 42.121446510107489 143.15392893050216 0 143.15392893050216 119.03407142756623 0 0 0 0 28.840753985294214 152.96244470164606 0 152.96244470164606 111.83603055079584 0 0 0 0 -20.921314553868001 43.450320870361253 0 43.450320870361253 13.990713011457993 0 0 0 0 29.195948081338429 121.07320340808019 0 121.07320340808019 111.00344820495729 0 0 0 0 -41.141796868499114 35.662487726734071 0 35.662487726734071 99.086980734658027 0 0 0 0 45.532850952964509 154.40778403296201 0 154.40778403296201 121.98873182307682 0 0 0 0 2.1592764014498531 17.444656877899288 0 17.444656877899288 1.1958820751365415 0 0 0 0 41.687471404986354 142.03355252942583 0 142.03355252942583 79.177539723719747 0 0 0 0 32.230506557443732 122.02816589312624 0 122.02816589312624 58.778733670967995 0 0 0 0 28.77657214723331 123.02959041393592 0 123.02959041393592 110.36539246144821 0 0 0 0 14.640628230754373 139.52134988658599 0 139.52134988658599 91.940128522170198 0 0 0 0 29.692054176848615 131.78977772687631 0 131.78977772687631 59.817951837821965 0 0 0 0 0.80888217649408034 106.45619652921414 0 106.45619652921414 61.232015403096341 0 0 0 0 -44.861770469156909 114.52346985247459 0 114.52346985247459 61.313983115001975 0 0 0 0 25.633081625083143 90.079565686875981 0 90.079565686875981 44.333394706241386 0 0 0 0 -12.972003449831391 147.1077424720097 0 147.1077424720097 53.033761076294468 0 0 0 0 197.54644385967458 165.8238356313916 0 165.8238356313916 10.373142909957096 0 0 0 0 16.953451435031184 112.18283384303186 0 112.18283384303186 45.386777445710322 0 0 0 0 73.256806102290284 216.58688586323296 0 216.58688586323296 12.946011225888583 0 0 0 0 80.478181213947281 77.616359222925425 0 77.616359222925425 -33.141907160257091 0 0 0 0 -26.089731639163801 112.71771373613956 0 112.71771373613956 62.704060247337111 0 0 0 0 8.6686675674353104 74.571023683334602 0 74.571023683334602 10.197963077143985 0 0 0 0 77.270614090797608 99.112975486261348 0 99.112975486261348 13.444286746570469 0 0 0 0 27.44303603762819 61.081010889225581 0 61.081010889225581 -10.408952704176045 0 0 0 0 22.92019302575855 82.774678922174346 0 82.774678922174346 29.270654203429846 0 0 0 0 -22.783484990404261 81.756053115044011 0 81.756053115044011 40.121286226315206 0 0 0 0 -23.474553832580568 61.077529263049655 0 61.077529263049655 26.182051399140619 0 0 0 0 98.369133335018972 111.00944732035488 0 111.00944732035488 29.712463888167708 0 0 0 0 10.346518331214689 123.44120860976277 0 123.44120860976277 54.841800932995227 0 0 0 0 178.363401236953 120.12010588062185 0 120.12010588062185 51.433536917300444 0 0 0 0 54.591817149466401 96.443766929013094 0 96.443766929013094 16.688054205808491 0 0 0 0 75.418756698127254 89.744424190561404 0 89.744424190561404 147.8266914476153 0 0 0 0 2.3634216433929396 105.42820500826565 0 105.42820500826565 -7.1178926091342873 0 0 0 0 21.989174022340876 88.024199385241985 0 88.024199385241985 12.380157468020116 0 0 0 0 -14.932970442951472 91.036882857638389 0 91.036882857638389 36.623500760190247 0 0 0 0 9.9131021092034644 77.271548234019065 0 77.271548234019065 42.404396649279988 0 0 0 0 24.224646715860317 68.864105199800392 0 68.864105199800392 40.511236541228087 0 0 0 0 -313.01035668591794 301.29688412646283 0 301.29688412646283 44.173027604643721 0 0 0 0 7.915108213142986 44.40696437461181 0 44.40696437461181 16.29277098498752 0 0 0 0 7.0485087684937753 224.28320265515504 0 224.28320265515504 -93.884224824214471 0 0 0 0 -64.829468724568869 64.300400911947236 0 64.300400911947236 153.92779786585015 0 0 0 0 8.3071507174099679 90.031832539887546 0 90.031832539887546 162.56819070716301 0 0 0 0 98.116647394806932 147.99859927502666 0 147.99859927502666 80.125034350821807 0 0 0 0 36.050610691808167 108.66462312984426 0 108.66462312984426 69.010262343805806 0 0 0 0 3.4041145542043765 39.278040037336098 0 39.278040037336098 24.994157952336309 0 0 0 0 88.594275533025211 245.42197587425471 0 245.42197587425471 39.206793209308671 0 0 0 0 285.13455586087366 47.94848234318215 0 47.94848234318215 5.5866570999860414 0 0 0 0 -29.227837634808726 83.366740402087956 0 83.366740402087956 15.278142992580555 0 0 0 0 16.174854533397195 27.532567900461981 0 27.532567900461981 2.4899874884733748 0 0 0 0 -11.072674260901934 8.9423692461794673 0 8.9423692461794673 5.798036735471257 0 0 0 0 510.03282556634804 96.392982228364417 0 96.392982228364417 -126.7236454224585 0 0 0 0 -13.736925661305577 -97.965403468011573 0 -97.965403468011573 182.83371354100382 0 0 0 0 -296.28097483185775 156.332977889424 0 156.332977889424 208.44223167117889 0 0 0 0 66.139297574445663 872.67851827172581 0 872.67851827172581 -70.084444520034594 0 0 0 0 -2.834322375820193 82.190828974578835 0 82.190828974578835 74.738543210568423 0 0 0 0 42.754098788820556 131.71800909928606 0 131.71800909928606 67.537336046225391 0 0 0 0 -4.5864483853197981 68.878100245094842 0 68.878100245094842 42.253115421773856 0 0 0 0 1514.8016000929929 -333.13847342143708 0 -333.13847342143708 -117.30363958967791 0 0 0 0 -557.98590040837007 -151.68884055710532 0 -151.68884055710532 319.31234465497255 0 0 0 0 -17.694864986678468 61.96147166031804 0 61.96147166031804 -2.4554118892127335 0 0 0 0 139.59891392735153 -2.1143771117858705 0 -2.1143771117858705 -37.776704987802077 0 0 0 0 24.248793276579818 127.18992136211818 0 127.18992136211818 73.147316401024 0 0 0 0 1.2829839561970573 5.1799638228012483 0 5.1799638228012483 7.6375725395728367 0 0 0 0 37.942640488239704 120.86132767574418 0 120.86132767574418 73.342869055632036 0 0 0 0 28.585718610745971 -121.36869752362327 0 -121.36869752362327 19.180819664445153 0 0 0 0 179.58192030565988 248.4275672749427 0 248.4275672749427 188.12614357594066 0 0 0 0 372.14535158422223 70.186519105636762 0 70.186519105636762 -87.384024995742948 0 0 0 0 3.3710517470612729 0.25168347100385802 0 0.25168347100385802 2.5807148270821898 0 0 0 0 310.49503871158231 150.83370434076278 0 150.83370434076278 391.7949702664846 0 0 0 0 154.86948759440565 -44.851645880804426 0 -44.851645880804426 -45.233220972353593 0 0 0 0 339.38249380298657 87.921734610175918 0 87.921734610175918 -35.462485281022964 0 0 0 0 -266.66306144729606 31.363432993981405 0 31.363432993981405 565.90344501805521 0 0 0 0 26.891462576561025 138.81555409738485 0 138.81555409738485 66.906125030902331 0 0 0 0 27.880378901604729 75.595181915095594 0 75.595181915095594 45.79865802760412 0 0 0 0 -0.23924711521249264 61.448599146464403 0 61.448599146464403 44.705913280130517 0 0 0 0 -264.69101806770777 -207.95721174990467 0 -207.95721174990467 57.177475951866654 0 0 0 0 -29.709262226610882 45.472519502660653 0 45.472519502660653 65.362984695693598 0 0 0 0 -13.642409433419942 46.317364199910294 0 46.317364199910294 36.599923849453788 0 0 0 0 65.695085605591885 102.52191650984696 0 102.52191650984696 65.296176480177337 0 0 0 0 3.2550159836482635 82.64017990423784 0 82.64017990423784 42.120897220290317 0 0 0 0 -26.251789403829072 61.823461952688874 0 61.823461952688874 48.87096969849658 0 0 0 0 -78.173522707300435 143.4110191625407 0 143.4110191625407 103.50499805716299 0 0 0 0 -7.4159369509434327 199.40530281907195 0 199.40530281907195 134.59603369459273 0 0 0 0 405.16333364357706 200.02372873752483 0 200.02372873752483 3.861433216063233 0 0 0 0 18.814290509399143 401.41792454339338 0 401.41792454339338 374.36073158109775 0 0 0 0 647.30205826170277 461.80361267339322 0 461.80361267339322 465.86105781414517 0 0 0 0 5.4524715273646507 -2.5582390449183947 0 -2.5582390449183947 -5.3195262822799485 0 0 0 0 -3.2170700393398874 5.8255922902785642 0 5.8255922902785642 10.135976124678564 0 0 0 0 191.02736979726978 -56.501621790531317 0 -56.501621790531317 -19.998668495700258 0 0 0 0 232.28208942036144 427.28631331602992 0 427.28631331602992 307.98631256107183 0 0 0 0 1.2996346907856484 8.7635425647185343 0 8.7635425647185343 3.0787922802312409 0 0 0 0 580.97295882734034 346.62537872818484 0 346.62537872818484 85.182899553677998 0 0 0 0 373.55703080372768 669.66357942079776 0 669.66357942079776 713.3797240189997 0 0 0 0 329.47902937245817 331.72320588340699 0 331.72320588340699 88.464631908362207 0 0 0 0 315.69709080281609 117.66687709343205 0 117.66687709343205 54.403889621629787 0 0 0 0 226.86475117164082 215.45056989687509 0 215.45056989687509 100.21807979693494 0 0 0 0 74.608831329373061 -41.741569756011813 0 -41.741569756011813 50.372982193815915 0 0 0 0 9.4993606323039046 19.109630707813771 0 19.109630707813771 5.6707082776681288 0 0 0 0 66.544007382435666 53.016556060618541 0 53.016556060618541 -39.165212668121967 0 0 0 0 29.927384834059922 -21.069688608443357 0 -21.069688608443357 51.359588615490793 0 0 0 0 3.536425896133867 8.079714888108299 0 8.079714888108299 -32.191927407044837 0 0 0 0 55.162864764461119 42.112754846234111 0 42.112754846234111 -48.818532718786628 0 0 0 0 -80.378780678140174 -27.913704181515641 0 -27.913704181515641 120.9367247136106 0 0 0 0 9.5118806567958245 19.516699098268592 0 19.516699098268592 9.6710129518849257 0 0 0 0 51.160466030538373 134.78292473639203 0 134.78292473639203 -254.66164076022324 0 0 0 0 -397.75011760716734 388.30887304225689 0 388.30887304225689 -146.36136254702433 0 0 0 0 -366.73024289251771 301.71441233061159 0 301.71441233061159 -72.091280292808733 0 0 0 0 46.399884900825782 -10.900306912670658 0 -10.900306912670658 -45.468639923783485 0 0 0 0 -177.19108510072692 118.35329626376551 0 118.35329626376551 16.134192550787702 0 0 0 0 -293.65714390882204 281.04258386272159 0 281.04258386272159 -101.02711928680583 0 0 0 0 -279.683529826219 109.86633991819826 0 109.86633991819826 189.00101853835076 0 0 0 0 7.3754098832287127 62.016662491125317 0 62.016662491125317 -13.808668840192695 0 0 0 0 -207.0880305705723 96.092049627548477 0 96.092049627548477 25.584015382359212 0 0 0 0 -703.09221813025215 224.57810496125603 0 224.57810496125603 74.564807417016709 0 0 0 0 87.704978943715105 57.406526735561783 0 57.406526735561783 20.365354225290503 0 0 0 0 -350.63920190995123 402.04774101402472 0 402.04774101402472 267.8416496887894 0 0 0 0 -4.1816401560586201 -0.61018972749408107 0 -0.61018972749408107 2.9686612258569198 0 0 0 0 104.50437558325939 171.31748034424891 0 171.31748034424891 97.650147725027637 0 0 0 0 66.276674434542656 48.405344699691341 0 48.405344699691341 -67.09260612179969 0 0 0 0 -40.417939424063661 -74.181696732583077 0 -74.181696732583077 12.94482332203188 0 0 0 0 -106.62160052357649 30.137034274037433 0 30.137034274037433 229.13844433326085 0 0 0 0 461.97618164103187 124.63153422256983 0 124.63153422256983 15.140817213879927 0 0 0 0 -112.41589000992826 41.044022361595125 0 41.044022361595125 168.88566952274414 0 0 0 0 -7.9165493915243133 317.91692397231509 0 317.91692397231509 276.12383834168577 0 0 0 0 4.9831991227765684 79.406229231108227 0 79.406229231108227 272.08118579989241 0 0 0 0 301.79130497328515 299.23509433241543 0 299.23509433241543 86.844090059734299 0 0 0 0 -231.1125169214065 288.40177682627836 0 288.40177682627836 -94.132090711772435 0 0 0 0 -581.78090259319288 643.82271047928134 0 643.82271047928134 738.59985352359627 0 0 0 0 153.16024212802586 416.31767926797147 0 416.31767926797147 -165.02117511134065 0 0 0 0 -667.48673259329371 1116.5865164904658 0 1116.5865164904658 -588.97153022138059 0 0 0 0 -274.5654059676308 378.75133703578013 0 378.75133703578013 -259.92337677249816 0 0 0 0 -788.81528592672112 77.34438864614367 0 77.34438864614367 -191.60799523788774 0 0 0 0 -729.59899873718314 888.2328762791476 0 888.2328762791476 -515.93694185708773 0 0 0 0 -1224.090652260842 568.88045501475972 0 568.88045501475972 -60.991881825784887 0 0 0 0 -8.6173098175773646 7.9619967887197163 0 7.9619967887197163 7.7719981620117657 0 0 0 0 84.456353262496123 242.32741818278646 0 242.32741818278646 -794.21770119446091 0 0 0 0 -187.60773287399934 27.553164402012044 0 27.553164402012044 122.55780360660174 0 0 0 0 -268.01628908108978 419.82320888636787 0 419.82320888636787 -158.14869582122992 0 0 0 0 -481.20715255502364 358.8527160837375 0 358.8527160837375 0.087819022875919472 0 0 0 0 -723.39070766313671 635.05038888363379 0 635.05038888363379 -197.91061338529062 0 0 0 0 -748.38736088213045 604.56725030854705 0 604.56725030854705 -308.49246310378658 0 0 0 0 -811.49510962339264 626.41226412283504 0 626.41226412283504 -130.86621907934295 0 0 0 0 -622.43119384151578 708.35035877245355 0 708.35035877245355 -405.46104830058175 0 0 0 0 -797.19004078243233 635.59072889188701 0 635.59072889188701 -125.63866947165297 0 0 0 0 -707.92486229626957 513.37864348427502 0 513.37864348427502 -61.69821886613974 0 0 0 0 -769.99104581270876 583.90900973859698 0 583.90900973859698 -123.12698095925953 0 0 0 0 -649.36756132453593 522.18560053190231 0 522.18560053190231 -214.34423325603711 0 0 0 0 -536.81678631794784 313.39189552411653 0 313.39189552411653 -201.87371704864927 0 0 0 0 -440.09011649527019 486.25866729970403 0 486.25866729970403 -387.75812732757913 0 0 0 0 -113.70488380870665 408.28916345880862 0 408.28916345880862 -445.0870872027408 0 0 0 0 -444.91156547446735 509.47938072136822 0 509.47938072136822 -220.84157700402557 0 0 0 0 -171.19286060099694 362.27695099071207 0 362.27695099071207 -308.92575617353668 0 0 0 0 -61.107392306534166 262.24710471328308 0 262.24710471328308 -379.40673758691992 0 0 0 0 -111.15463556908071 290.48653063760139 0 290.48653063760139 -395.2106233122031 0 0 0 0 -193.3718419794277 321.11883124435735 0 321.11883124435735 -309.06646546096817 0 0 0 0 -1.2551116713802912 58.356333447721227 0 58.356333447721227 -88.110763004082401 0 0 0 0 42.331959672910273 20.847074924704614 0 20.847074924704614 -2.5521641964104376 0 0 0 0 90.744429742691864 193.40552918335561 0 193.40552918335561 -458.25855946241063 0 0 0 0 -40.017200591253641 116.95280510312296 0 116.95280510312296 -146.08573247409367 0 0 0 0 18.672429608657382 31.362042131393537 0 31.362042131393537 7.6609486980832813 0 0 0 0 45.786619649094064 76.192573697986518 0 76.192573697986518 -63.348734224982763 0 0 0 0 3.4283475494594313 216.81678110458597 0 216.81678110458597 -549.56391727218579 0 0 0 0 -149.5075865965664 356.72253544994601 0 356.72253544994601 -477.06681932255015 0 0 0 0 -96.632940367257106 394.41584458824764 0 394.41584458824764 -383.69744525563874 0 0 0 0 -91.572962673262737 200.48102611123159 0 200.48102611123159 -473.23636020521371 0 0 0 0 3.4397498027478957 343.31971284648023 0 343.31971284648023 -544.71663769931183 0 0 0 0 66.070574027879047 293.06096867561428 0 293.06096867561428 -700.15956852836825 0 0 0 0 -339.0296751536589 622.78744976737653 0 622.78744976737653 -604.30025938859035 0 0 0 0 -128.03853280292969 -109.56236151429403 0 -109.56236151429403 -132.67513874845281 0 0 0 0 26.112312067703897 367.2238942490676 0 367.2238942490676 -452.58314406610589 0 0 0 0 95.664285557839321 28.571151905769511 0 28.571151905769511 -1271.7674521074446 0 0 0 0 -8.4124678695380339 14.875130565182934 0 14.875130565182934 5.9685652988099491 0 0 0 0 -206.79463691696401 759.08300245925693 0 759.08300245925693 -1336.963202264571 0 0 0 0 -376.9377918578175 620.202946741294 0 620.202946741294 -448.74487409737048 0 0 0 0 -830.19982249867826 1072.7042226448029 0 1072.7042226448029 -893.31687605592015 0 0 0 0 -1409.1477232783473 711.49654090276636 0 711.49654090276636 -281.34109839273879 0 0 0 0 -1028.8690844248758 273.37211622245832 0 273.37211622245832 85.735278255146113 0 0 0 0 -1581.7726432553827 1165.2230091175479 0 1165.2230091175479 -465.83149439861882 0 0 0 0 -570.45516921524541 -262.39430338497914 0 -262.39430338497914 138.7132698002315 0 0 0 0 -554.83818405052443 711.35185932130116 0 711.35185932130116 -395.9725416051806 0 0 0 0 -1037.9600668184939 515.39179685210183 0 515.39179685210183 -316.16973487565701 0 0 0 0 422.17612457810901 157.4297561298954 0 157.4297561298954 -462.92764912817802 0 0 0 0 -669.26021402679908 1133.1412743454275 0 1133.1412743454275 597.27617756038671 0 0 0 0 31.15933959954188 26.031006558908643 0 26.031006558908643 22.034987247390816 0 0 0 0 397.78809185564751 -269.84242147819896 0 -269.84242147819896 1300.4074857408414 0 0 0 0 -245.91066764594871 558.62029766383057 0 558.62029766383057 1334.7263920761093 0 0 0 0 159.84920986671932 106.60070993836416 0 106.60070993836416 705.04221401643008 0 0 0 0 -223.78509381707408 -428.22908162690874 0 -428.22908162690874 840.93045295479533 0 0 0 0 14.648267397013115 106.90797057221971 0 106.90797057221971 630.90265210386133 0 0 0 0 62.445273842240567 142.82139444976201 0 142.82139444976201 627.63839243850089 0 0 0 0 52.055181930998515 60.550800533583242 0 60.550800533583242 852.44584560256044 0 0 0 0 51.21519614585668 105.58728079382126 0 105.58728079382126 619.53727324742067 0 0 0 0 -643.89575103807874 -117.04155313417868 0 -117.04155313417868 183.61691766494187 0 0 0 0 52.635908339067896 40.058185925549836 0 40.058185925549836 11.80895918747278 0 0 0 0 157.71135060936649 147.02923353343795 0 147.02923353343795 511.17726287927871 0 0 0 0 24.811532182211522 131.95294655338512 0 131.95294655338512 627.26901445152635 0 0 0 0 17.085402600355451 38.079725953191101 0 38.079725953191101 -30.603612009790254 0 0 0 0 47.91531832400986 26.699948626729366 0 26.699948626729366 0.57234929376852506 0 0 0 0 29.911545737413689 78.310495734313008 0 78.310495734313008 -24.910081986783553 0 0 0 0 33.559821078757523 114.41095377424972 0 114.41095377424972 481.85260375516373 0 0 0 0 -26.189095665555215 243.2012444068896 0 243.2012444068896 611.0676415617927 0 0 0 0 -33.869848096961505 232.85790944196924 0 232.85790944196924 722.72030738654939 0 0 0 0 77.575878754141741 425.8316244420821 0 425.8316244420821 882.34176508099699 0 0 0 0 2.6674160897891852 32.500778395604492 0 32.500778395604492 -42.731684657895741 0 0 0 0 35.732686662151536 89.124588138354738 0 89.124588138354738 29.16767818219887 0 0 0 0 31.811317596527715 54.177418337381596 0 54.177418337381596 -11.139276059569966 0 0 0 0 -326.76704343365418 596.36702259601952 0 596.36702259601952 -422.1081052734844 0 0 0 0 11.593286280221946 268.44801480048591 0 268.44801480048591 -126.86453770496882 0 0 0 0 94.874052772720461 355.40575812887619 0 355.40575812887619 -170.82917910107972 0 0 0 0 97.2223366338294 47.310082234365836 0 47.310082234365836 -5.4023397712298902 0 0 0 0 -5.761943021301704 119.7143207303825 0 119.7143207303825 3.3815950404896284 0 0 0 0 42.375733571285309 96.5618072135685 0 96.5618072135685 -679.55527679619627 0 0 0 0 -5.0895456235898564 0.26550388290786486 0 0.26550388290786486 4.1168143946206186 0 0 0 0 -862.49500753501343 436.73926732299515 0 436.73926732299515 -347.59246579491082 0 0 0 0 -887.943437513135 216.46704088431761 0 216.46704088431761 -1419.2521830331243 0 0 0 0 -346.76666588005958 493.3563860581495 0 493.3563860581495 -453.98255810607589 0 0 0 0 -712.9397472965793 872.0189745354437 0 872.0189745354437 -634.55524671090825 0 0 0 0 -891.05966633856588 1264.229374012677 0 1264.229374012677 -1461.7832243991663 0 0 0 0 -538.83135396556099 471.4498038509837 0 471.4498038509837 -312.27508662113542 0 0 0 0 -611.39793006304535 801.32577562008737 0 801.32577562008737 -1158.611215840785 0 0 0 0 -714.59103786325431 1053.8918787373368 0 1053.8918787373368 -503.22946388976561 0 0 0 0 -881.45978113634555 1026.1174740510123 0 1026.1174740510123 -333.6934400192622 0 0 0 0 -1123.2089293067547 1151.6425581175354 0 1151.6425581175354 -584.96676598416525 0 0 0 0 -1154.2834176946781 1108.0762612108592 0 1108.0762612108592 -538.56061256141402 0 0 0 0 -1055.1704765545146 1328.2603851423773 0 1328.2603851423773 -779.62344785968889 0 0 0 0 -664.42404048363176 441.05072514061624 0 441.05072514061624 -773.96901659267314 0 0 0 0 -726.10770665516611 972.82269503623684 0 972.82269503623684 -1525.6771895150014 0 0 0 0 15.63573620643453 12.079686704428838 0 12.079686704428838 8.5486261145927784 0 0 0 0 -483.79712089489476 -420.75012802482888 0 -420.75012802482888 3108.3584333170074 0 0 0 0 -777.67829710815568 1891.8524225036381 0 1891.8524225036381 -1592.8930896205252 0 0 0 0 -418.39125680932193 1099.5682802487863 0 1099.5682802487863 2945.294676712324 0 0 0 0 -1335.5196411182405 2067.3925311522471 0 2067.3925311522471 -377.48624532771987 0 0 0 0 -1266.5825633483946 1606.5878207106562 0 1606.5878207106562 1593.4795216963248 0 0 0 0 -2728.2124842075573 1.2303684823637013 0 1.2303684823637013 1546.1395802273755 0 0 0 0 -738.05886823061883 584.69658984318085 0 584.69658984318085 160.77450788951683 0 0 0 0 -23.004694406144154 13.609335065529251 0 13.609335065529251 0.97409113419894311 0 0 0 0 -1386.4860152207548 1142.0866977544356 0 1142.0866977544356 472.29909558717918 0 0 0 0 -457.10629341533058 571.29600078137446 0 571.29600078137446 400.5298992756816 0 0 0 0 -303.43837100321616 642.60636222924586 0 642.60636222924586 -60.448675031489984 0 0 0 0 -94.327715597566566 341.26516078113127 0 341.26516078113127 110.30255706632033 0 0 0 0 -88.60113560823811 221.3769000322427 0 221.3769000322427 595.92972478787851 0 0 0 0 -100.74440398615809 79.097386049818283 0 79.097386049818283 28.307916955952123 0 0 0 0 -104.92731214748073 -67.831741234818764 0 -67.831741234818764 -30.965883810175001 0 0 0 0 -19.654481901619874 279.85879436779305 0 279.85879436779305 231.40501930906612 0 0 0 0 46.231090357460204 82.17520588452021 0 82.17520588452021 70.593642351822126 0 0 0 0 -29.170442538819984 51.950827717559157 0 51.950827717559157 -23.160129993017222 0 0 0 0 -8.2086609391444654 239.59088151054584 0 239.59088151054584 -746.77282247276162 0 0 0 0 -137.62327077504597 590.46692172513576 0 590.46692172513576 -1075.7827284656596 0 0 0 0 -5400.5274533361226 331.76161095133284 0 331.76161095133284 -228.7999494760079 0 0 0 0 -978.20380080461473 1688.9294074604986 0 1688.9294074604986 -1696.6462369877322 0 0 0 0 -9.580657090205932 -207.29760683656787 0 -207.29760683656787 -288.86663098870486 0 0 0 0 -14.788934689981616 12.962940680450487 0 12.962940680450487 -14.134857751711451 0 0 0 0 276.08146065601613 532.34624788217388 0 532.34624788217388 -1621.6919027123658 0 0 0 0 -1356.2385095788632 -19.413346919522155 0 -19.413346919522155 114.76498359771631 0 0 0 0 -1311.2614281840652 46.325671594895539 0 46.325671594895539 175.31207969410752 0 0 0 0 -8.0466223650892914 7.5410990638647917 0 7.5410990638647917 -4.5208670760557084 0 0 0 0 -2003.8158039119735 2432.3122890916129 0 2432.3122890916129 226.17081984857214 0 0 0 0 -879.09147441096138 -418.80821654355532 0 -418.80821654355532 -291.07210928893619 0 0 0 0 200.04920009204216 2878.3207152632822 0 2878.3207152632822 -131.18372777134937 0 0 0 0 446.87093543043738 129.4741664259418 0 129.4741664259418 -268.90648565846709 0 0 0 0 20.708638513206097 424.68653322388127 0 424.68653322388127 774.69563333307724 0 0 0 0 156.68918426062737 281.06620773425311 0 281.06620773425311 742.01531509851338 0 0 0 0 -1229.0563356287312 463.51963904805598 0 463.51963904805598 1089.0829831150913 0 0 0 0 -529.25284872285556 -1069.9399837331657 0 -1069.9399837331657 378.06152786907842 0 0 0 0 -1714.3854544833812 1991.9541977366389 0 1991.9541977366389 -1631.1896870580094 0 0 0 0 -579.25302338163601 -738.61026234706515 0 -738.61026234706515 -1748.0805698140739 0 0 0 0 -2262.4736561331811 -853.92520468098155 0 -853.92520468098155 -398.14565355575178 0 0 0 0 -511.35436294489773 -228.98670918606877 0 -228.98670918606877 -614.61163026018039 0 0 0 0 1154.0729676163101 -362.02525325599709 0 -362.02525325599709 -829.67634184121562 0 0 0 0 -505.52383737275522 -514.90529214246271 0 -514.90529214246271 -648.10624815997289 0 0 0 0 287.73654789243301 -158.06329600714162 0 -158.06329600714162 -924.01900161369122 0 0 0 0 -38.907943211917882 -92.986784222113783 0 -92.986784222113783 -895.71712599649618 0 0 0 0 -1021.4142169306288 -43.959910645135096 0 -43.959910645135096 -553.44708853312477 0 0 0 0 -686.29693149978993 331.26703739132063 0 331.26703739132063 -495.03257658804796 0 0 0 0 -951.59651808324179 348.05636964778842 0 348.05636964778842 -457.10801363451174 0 0 0 0 -569.01773199377931 637.51367922093777 0 637.51367922093777 -565.22607485739354 0 0 0 0 -369.68825964526332 720.45451005238647 0 720.45451005238647 -623.84779577977315 0 0 0 0 -579.38356214279179 739.18525591350851 0 739.18525591350851 -606.68857842162834 0 0 0 0 -576.82450842224353 646.98857481023879 0 646.98857481023879 -561.49862278588989 0 0 0 0 -379.07947175303309 588.83102333466911 0 588.83102333466911 -558.29154998957529 0 0 0 0 -249.36842461489869 729.64937393858781 0 729.64937393858781 -769.3189710962688 0 0 0 0 -372.39959815173779 771.34171271534501 0 771.34171271534501 -1041.8213385129638 0 0 0 0 -1080.8219721217538 398.72787976020481 0 398.72787976020481 -321.55251026865153 0 0 0 0 -497.52532754666026 601.43478454207798 0 601.43478454207798 -832.60285290861066 0 0 0 0 -1151.5982029564475 908.54509227654489 0 908.54509227654489 -638.77973815549922 0 0 0 0 -2807.550150146255 1014.7789732599094 0 1014.7789732599094 -400.17603729511029 0 0 0 0 -569.01042161814075 -163.79294024606361 0 -163.79294024606361 324.13323019308882 0 0 0 0 -16.34093817746907 275.46676437750284 0 275.46676437750284 589.00007541330342 0 0 0 0 -109.45478382805413 153.26910142604993 0 153.26910142604993 769.7165540974238 0 0 0 0 13.325013347220192 165.66539245288277 0 165.66539245288277 595.4623537751977 0 0 0 0 -4.7056826250417032 3.482094602131653 0 3.482094602131653 -0.8322352231324146 0 0 0 0 138.76951661611383 278.0419234858673 0 278.0419234858673 438.71887614957086 0 0 0 0 67.454554270749213 253.45628409284836 0 253.45628409284836 669.96976125709625 0 0 0 0 95.520868062027148 354.73116015398045 0 354.73116015398045 854.05897526058584 0 0 0 0 -1.3609444942401296 1.8112970479024995 0 1.8112970479024995 0.076386472918173354 0 0 0 0 5.4507545487649622 349.59028517418437 0 349.59028517418437 443.73174828828633 0 0 0 0 109.36944595411478 311.44499049818842 0 311.44499049818842 962.48900900776789 0 0 0 0 -7.8914337274604804 13.197403167576205 0 13.197403167576205 -14.219150061422283 0 0 0 0 97.959997353929793 144.95351884615957 0 144.95351884615957 341.06465011371074 0 0 0 0 856.24797230721379 598.88443879046463 0 598.88443879046463 -288.69761180826026 0 0 0 0 30.779960326599394 9.3771637913450832 0 9.3771637913450832 -369.78213053155923 0 0 0 0 190.64682799976435 -176.78840697977648 0 -176.78840697977648 -972.60234616677189 0 0 0 0 -1.264601906265483 5.2924150235983234 0 5.2924150235983234 -8.3299405659810475 0 0 0 0 163.72618509313907 19.641354032690288 0 19.641354032690288 -2390.0298293869564 0 0 0 0 -335.36351039490546 874.60214471934887 0 874.60214471934887 -270.68784827928175 0 0 0 0 319.82394779010065 -202.88015067764718 0 -202.88015067764718 20.294226757043361 0 0 0 0 -300.89602889733214 857.31844799312967 0 857.31844799312967 -1558.9026664143312 0 0 0 0 260.39415651647141 562.04006904030393 0 562.04006904030393 -2296.0247818786656 0 0 0 0 -1090.8971039450371 506.13722289693396 0 506.13722289693396 -1685.9477246816969 0 0 0 0 -1.8129908661078389 2.7557421549207035 0 2.7557421549207035 -2.0174700162140908 0 0 0 0 -372.30491213193454 1057.3008433843279 0 1057.3008433843279 -577.69378114506253 0 0 0 0 -986.16646294492784 237.46326292230242 0 237.46326292230242 -796.19057618918305 0 0 0 0 -483.83626811264548 480.79528789064352 0 480.79528789064352 37.089579929071988 0 0 0 0 -470.91757322114427 462.56691336713266 0 462.56691336713266 34.470580660519772 0 0 0 0 -564.56224870067126 604.458751707798 0 604.458751707798 -5.6440332699712599 0 0 0 0 -117.96297448527184 422.48386755635147 0 422.48386755635147 -607.59568393124209 0 0 0 0 -184.51609151491721 192.52924812339688 0 192.52924812339688 -102.47579616679286 0 0 0 0 -432.04894573869251 1378.9551704872863 0 1378.9551704872863 -3220.2283937814937 0 0 0 0 0.26781479062290714 0.6796889840221354 0 0.6796889840221354 -3.9312160752903651 0 0 0 0 -683.45230153121793 1034.9941419779834 0 1034.9941419779834 -1390.1509707549631 0 0 0 0 -696.18205625910196 923.81975389934814 0 923.81975389934814 -2333.7875980926824 0 0 0 0 -504.97278427566926 379.41561535611254 0 379.41561535611254 -149.88051352173352 0 0 0 0 -207.59853025367192 113.54932815261418 0 113.54932815261418 -141.94236043711135 0 0 0 0 6.3553985604087728 0.88498902811636526 0 0.88498902811636526 -7.058316087810681 0 0 0 0 -314.40574704232858 470.35977745360651 0 470.35977745360651 -752.79651118545098 0 0 0 0 -323.5297873172749 519.56456657876697 0 519.56456657876697 -744.89474067343144 0 0 0 0 179.13392673922499 282.43236931120191 0 282.43236931120191 -1556.336727067428 0 0 0 0 -267.95353607963443 608.79375475955203 0 608.79375475955203 -1135.482646544755 0 0 0 0 230.24323860133518 18.456210777726483 0 18.456210777726483 -1046.5019387969369 0 0 0 0 -317.3364628758136 501.31927147782335 0 501.31927147782335 -619.52543075178983 0 0 0 0 -155.51071359133493 378.15441894004471 0 378.15441894004471 -810.81254421839549 0 0 0 0 -303.31395848128159 317.13096186860639 0 317.13096186860639 -305.40610991759604 0 0 0 0 2.1763235557389038 7.3953766168809238 0 7.3953766168809238 -4.3783881299420955 0 0 0 0 -41.956171613332998 0.44206185734697101 0 0.44206185734697101 0.19822622885804719 0 0 0 0 -44.660326434355738 124.80073402466678 0 124.80073402466678 61.513244504472823 0 0 0 0 -138.023298672073 139.09749182730593 0 139.09749182730593 -364.84135622597569 0 0 0 0 -3921.0448586679704 -349.41413669381291 0 -349.41413669381291 -1261.9577180850611 0 0 0 0 1619.0501268121807 -341.0247761585415 0 -341.0247761585415 -2233.0753710690879 0 0 0 0 796.76426827610703 695.45150810483028 0 695.45150810483028 -969.75219759625179 0 0 0 0 78.211584701799438 -5.2186600814620761 0 -5.2186600814620761 -97.46728451322997 0 0 0 0 -230.35500081953069 29.218868123603897 0 29.218868123603897 -100.21653086535662 0 0 0 0 -937.15920107878628 4.8561960890256159 0 4.8561960890256159 175.60411725939775 0 0 0 0 -89.378951063685236 1309.8844778989478 0 1309.8844778989478 -1369.360648835278 0 0 0 0 -389.6454179353459 -171.08642736256661 0 -171.08642736256661 229.30124156212696 0 0 0 0 -18.56971734522358 0.37686473276045263 0 0.37686473276045263 0.39155950856122956 0 0 0 0 -935.82052149792435 900.72719112305458 0 900.72719112305458 -551.97006235516164 0 0 0 0 -457.19453952908225 -525.86583913089635 0 -525.86583913089635 -530.74038250163903 0 0 0 0 -0.22524424446939406 0.53735106932282406 0 0.53735106932282406 8.0735993411215645 0 0 0 0 212.11387595618362 -27.181763672606394 0 -27.181763672606394 -65.516704378685972 0 0 0 0 504.42699814065418 738.63585365082417 0 738.63585365082417 -981.13270133650803 0 0 0 0 -577.13638430240098 979.29045066723484 0 979.29045066723484 -547.45183210473624 0 0 0 0 -1192.5785265115846 636.47952514583449 0 636.47952514583449 16.357789299509022 0 0 0 0 -416.09645472140255 393.1455676247715 0 393.1455676247715 -571.91096882591955 0 0 0 0 -436.25911672927759 392.10035023834644 0 392.10035023834644 -551.56009256406105 0 0 0 0 -307.0524279821766 408.20893307480583 0 408.20893307480583 -611.14728376477433 0 0 0 0 -293.55164743152272 444.73010083465488 0 444.73010083465488 -777.95944808944478 0 0 0 0 -409.74741047351563 470.10306260444486 0 470.10306260444486 -634.74632034327078 0 0 0 0 -352.50392217988701 597.21879226440433 0 597.21879226440433 -649.96130674588494 0 0 0 0 -484.39720019682863 501.58060695138556 0 501.58060695138556 -614.54247393006517 0 0 0 0 -343.85967858830736 604.42096912380657 0 604.42096912380657 -797.79085349541856 0 0 0 0 -516.31788325824891 610.38951564460876 0 610.38951564460876 -650.88249576123781 0 0 0 0 -774.74479812398931 486.93491914722108 0 486.93491914722108 -546.36013296386227 0 0 0 0 -485.5852158072048 488.26401879582045 0 488.26401879582045 -546.48826566291973 0 0 0 0 -563.01317922855378 425.98150852165418 0 425.98150852165418 -578.7653147068304 0 0 0 0 -509.75290438156662 40.626758807120495 0 40.626758807120495 -545.57151650794549 0 0 0 0 -367.38296153474221 145.31799822210814 0 145.31799822210814 -700.79695489995356 0 0 0 0 -668.46839012244163 311.29006073712662 0 311.29006073712662 -562.29698872896552 0 0 0 0 -507.56489510154643 299.49197732943139 0 299.49197732943139 -594.47228075805469 0 0 0 0 -244.29153338785545 -34.185442530841101 0 -34.185442530841101 -886.8019106816937 0 0 0 0 -53.51662817284523 132.01273143901199 0 132.01273143901199 -1063.3434142813858 0 0 0 0 -250.53496969814478 325.88574954005003 0 325.88574954005003 -653.61902614428254 0 0 0 0 -152.79799224480303 380.11421398896528 0 380.11421398896528 -896.42528592296003 0 0 0 0 -251.71371123949939 310.81535091987098 0 310.81535091987098 -664.95661917921825 0 0 0 0 -420.85306692696031 337.89352692494867 0 337.89352692494867 -590.77750169929641 0 0 0 0 -367.58802949295205 234.22846607243264 0 234.22846607243264 -725.30066249424453 0 0 0 0 -357.43477924767649 313.57981457920687 0 313.57981457920687 -595.28414591619367 0 0 0 0 -416.30321888453909 333.4051966480547 0 333.4051966480547 -587.85823608902137 0 0 0 0 -356.11826172145084 371.99897546070133 0 371.99897546070133 -563.48746042902349 0 0 0 0 -401.44067313866981 355.86859899152478 0 355.86859899152478 -528.88679629810213 0 0 0 0 -343.77465042011045 327.71789567500673 0 327.71789567500673 -483.29749065892247 0 0 0 0 -259.42887629551115 356.34256641937827 0 356.34256641937827 -478.65012353740167 0 0 0 0 -405.4870680563472 377.54626145126531 0 377.54626145126531 -496.39262850636442 0 0 0 0 -336.89250463500775 379.40955189476153 0 379.40955189476153 -523.04021697440476 0 0 0 0 -239.66976466013148 382.55461011383159 0 382.55461011383159 -623.39250492847714 0 0 0 0 -287.38573478071521 350.5470108714544 0 350.5470108714544 -457.50394969609624 0 0 0 0 -275.28836530589615 375.02375429310632 0 375.02375429310632 -557.33128479852894 0 0 0 0 -264.45635311865772 278.09629681788647 0 278.09629681788647 -436.73099824602832 0 0 0 0 -254.56742100002884 338.00300078935106 0 338.00300078935106 -379.03666705280193 0 0 0 0 -135.86489079525199 310.6490535984376 0 310.6490535984376 -452.57117694662884 0 0 0 0 -259.97730447577487 174.79340586269245 0 174.79340586269245 -680.20452461894456 0 0 0 0 -310.69470631376316 184.96041601133766 0 184.96041601133766 -298.99737200101663 0 0 0 0 -309.7856290454688 334.0017424690127 0 334.0017424690127 -533.37285059786518 0 0 0 0 -315.70922415099631 282.38785294943955 0 282.38785294943955 -423.63637550273415 0 0 0 0 -392.64508799635223 395.84286062406318 0 395.84286062406318 -574.17056210235751 0 0 0 0 -390.11187204300222 361.94150978436664 0 361.94150978436664 -557.31976001759176 0 0 0 0 -417.33381254824053 564.78364959705505 0 564.78364959705505 -560.97802431320338 0 0 0 0 -438.28939935023664 363.0120224135535 0 363.0120224135535 -509.20142447626858 0 0 0 0 -405.67207671224605 359.7516799592704 0 359.7516799592704 -510.49575307650593 0 0 0 0 -410.70939298097801 365.75880693384534 0 365.75880693384534 -516.86804860668781 0 0 0 0 -404.80508230662235 365.48076518357266 0 365.48076518357266 -517.51207048552169 0 0 0 0 -405.36782144333029 368.44402537395035 0 368.44402537395035 -523.26404787186766 0 0 0 0 -396.93186843159492 382.52442338768014 0 382.52442338768014 -552.61919425899487 0 0 0 0 -327.30896159245458 292.58599119276187 0 292.58599119276187 -500.49275352912082 0 0 0 0 -361.39939195809711 357.57105377413973 0 357.57105377413973 -624.33761304754989 0 0 0 0 -400.3257419458896 361.99143286605249 0 361.99143286605249 -520.96968576844665 0 0 0 0 -396.53842676962086 343.71438845439116 0 343.71438845439116 -501.37420419401315 0 0 0 0 -396.61821292813693 347.97380157137741 0 347.97380157137741 -486.09683776154998 0 0 0 0 -346.36023586307419 416.94575542632083 0 416.94575542632083 -488.23424054974203 0 0 0 0 -431.86552770458366 460.69905123375065 0 460.69905123375065 -446.8937258451042 0 0 0 0 -185.88013261374726 20.976514250920445 0 20.976514250920445 -191.83627061119478 0 0 0 0 -381.05160203280684 257.22899711288483 0 257.22899711288483 -219.40765724617449 0 0 0 0 -370.95222201083379 262.71682026393319 0 262.71682026393319 -306.38278910114605 0 0 0 0 -530.69442362279733 379.75863392009705 0 379.75863392009705 -353.97850171491154 0 0 0 0 -348.55608957655204 263.97533175948774 0 263.97533175948774 -368.8909462426991 0 0 0 0 128.10589734672976 426.60615063874502 0 426.60615063874502 355.69440146085253 0 0 0 0 392.06434970238115 559.65193170140628 0 559.65193170140628 -1609.1061531965024 0 0 0 0 319.75773048232077 -46.085793813308555 0 -46.085793813308555 -681.68528316805168 0 0 0 0 62.35183716393658 276.8417161552552 0 276.8417161552552 -1084.8678060873062 0 0 0 0 -223.9134549011651 295.11662699687076 0 295.11662699687076 -727.27201523668191 0 0 0 0 -107.41291383438511 131.05205651193683 0 131.05205651193683 -506.25803331617999 0 0 0 0 -328.56743320005626 243.2447448765779 0 243.2447448765779 -506.58734816442302 0 0 0 0 -449.92510767764907 597.50866331668658 0 597.50866331668658 -125.35424299761507 0 0 0 0 1336.9343062590597 -336.16732887063336 0 -336.16732887063336 -760.09927249879183 0 0 0 0 -0.77780302722961814 5.0862859394014492 0 5.0862859394014492 -17.667413743397788 0 0 0 0 -1722.7162059907037 1449.4635323357816 0 1449.4635323357816 -653.53616424545908 0 0 0 0 -264.50418640752832 1137.7555894988982 0 1137.7555894988982 -1874.0009329035165 0 0 0 0 -352.75621146689082 688.20709952285324 0 688.20709952285324 -893.41284998752235 0 0 0 0 -475.71263880739571 280.2026813738994 0 280.2026813738994 -1642.6655035947679 0 0 0 0 -776.45848807556649 1243.5455573746385 0 1243.5455573746385 -1313.2338565211612 0 0 0 0 -1258.0811507907929 577.03495918124099 0 577.03495918124099 -856.65168366995931 0 0 0 0 -683.08259890448608 830.11401715575994 0 830.11401715575994 -847.38471710070735 0 0 0 0 -1.1464989323534809 1.9036026725773922 0 1.9036026725773922 1.0438666942256702 0 0 0 0 -396.60370088594937 712.69183627384336 0 712.69183627384336 -843.517551850171 0 0 0 0 42.233255631012625 44.100411177150249 0 44.100411177150249 40.359223106573111 0 0 0 0 -6.051044621122216 9.8374017437142527 0 9.8374017437142527 14.226016573191671 0 0 0 0 -530.15063051558809 159.5277807959128 0 159.5277807959128 -457.36534671562549 0 0 0 0 -61.425887882707684 167.45178135151127 0 167.45178135151127 72.51510878247791 0 0 0 0 -121.91606321764266 513.00113910710934 0 513.00113910710934 -772.37283994020618 0 0 0 0 -117.79222479241025 592.69090196882598 0 592.69090196882598 -1141.6903526147798 0 0 0 0 -177.96643465723173 805.98545689908497 0 805.98545689908497 -1007.5458404988167 0 0 0 0 -166.8138881631894 703.59489539277274 0 703.59489539277274 -902.29990111803636 0 0 0 0 -594.14834082639572 1021.2774229247734 0 1021.2774229247734 -851.01506839429567 0 0 0 0 -400.69393543589467 770.28637223948681 0 770.28637223948681 -534.68454309841036 0 0 0 0 -240.69560926927443 703.31922175505679 0 703.31922175505679 -704.38587276918406 0 0 0 0 -238.81384046883613 753.16922150329628 0 753.16922150329628 -925.81457499307362 0 0 0 0 -305.28608884605637 720.44933116110769 0 720.44933116110769 -640.60177456336532 0 0 0 0 -333.10662030587264 679.15807960642996 0 679.15807960642996 -687.30051440844181 0 0 0 0 -139.20193852675766 487.7864058026662 0 487.7864058026662 -543.49982436810387 0 0 0 0 -260.57025033902755 517.40766124183574 0 517.40766124183574 -297.39346119460879 0 0 0 0 -231.67821061526411 539.57638808859883 0 539.57638808859883 -447.81996784402872 0 0 0 0 -182.41961898148656 538.00319318585753 0 538.00319318585753 -474.48316822406923 0 0 0 0 -237.33776545069668 410.25216819290381 0 410.25216819290381 9.8212460857466795 0 0 0 0 -194.88850754286977 -221.95167526932346 0 -221.95167526932346 286.63101834441477 0 0 0 0 -26.154705767761698 61.849586753818585 0 61.849586753818585 -111.64712905190754 0 0 0 0 126.32178646703233 56.408237749968976 0 56.408237749968976 -130.70548047707416 0 0 0 0 21.617155362857375 309.41293841803781 0 309.41293841803781 -208.61882900459022 0 0 0 0 49.156424648398342 53.522004807265077 0 53.522004807265077 56.156151092084841 0 0 0 0 431.09095691149741 449.8482411617988 0 449.8482411617988 48.913896861111425 0 0 0 0 -9.640697886396083 136.57130523251544 0 136.57130523251544 -168.44124209351685 0 0 0 0 367.20597076542583 -132.30249874997401 0 -132.30249874997401 -115.87421698366234 0 0 0 0 2.6449948074249416 4.8096604349315371 0 4.8096604349315371 6.4452231558257438 0 0 0 0 1128.9633157319558 210.79306199730399 0 210.79306199730399 -168.74702999946385 0 0 0 0 -165.30567706236616 193.85503933702421 0 193.85503933702421 370.50366902338101 0 0 0 0 -188.04163808834483 -40.282050010192506 0 -40.282050010192506 176.22393058946909 0 0 0 0 -144.45897274722302 136.65579231712127 0 136.65579231712127 -1.9224941939828568 0 0 0 0 -105.50313052328056 232.61125751094369 0 232.61125751094369 31.414841937041274 0 0 0 0 -175.89700273588096 105.4901280238264 0 105.4901280238264 88.330760170907524 0 0 0 0 -0.18537894498876994 134.02839350931754 0 134.02839350931754 -323.63584168267062 0 0 0 0 -88.4616815295376 434.66470781126191 0 434.66470781126191 -137.08791890526481 0 0 0 0 -207.32198493156238 433.90073440396463 0 433.90073440396463 37.661643555737101 0 0 0 0 61.252927643518447 60.488580620232 0 60.488580620232 64.137179631018597 0 0 0 0 -71.332177843440149 4.8332075930084102 0 4.8332075930084102 123.08210132366366 0 0 0 0 -77.541441700028372 9.9075931569896056 0 9.9075931569896056 140.41374941034883 0 0 0 0 -72.083460244859452 -13.692071042270982 0 -13.692071042270982 159.59849047969328 0 0 0 0 -83.90357288341329 50.052669175769552 0 50.052669175769552 231.10477913609793 0 0 0 0 -23.306248163156852 70.173181151527388 0 70.173181151527388 166.54930963239167 0 0 0 0 -201.42470426227374 -9.8761811308359029 0 -9.8761811308359029 212.56220172105895 0 0 0 0 -85.253524719184497 -53.384082869291888 0 -53.384082869291888 188.88364331843331 0 0 0 0 -231.40906625740899 -239.42217198919388 0 -239.42217198919388 64.115367726510158 0 0 0 0 -113.86242126623983 -121.93269108733512 0 -121.93269108733512 168.79759311067755 0 0 0 0 -12.367615434006439 -96.737231441456743 0 -96.737231441456743 60.0617626720923 0 0 0 0 -13.304361766626243 -37.218431998320739 0 -37.218431998320739 125.17364787631959 0 0 0 0 -78.050687820010353 -36.530642221589005 0 -36.530642221589005 140.20214825496078 0 0 0 0 -74.212304451940327 -1.4891433051343483 0 -1.4891433051343483 120.22168482272536 0 0 0 0 -48.754927308238621 -18.366597647158414 0 -18.366597647158414 123.02727067351225 0 0 0 0 -51.069721039268188 -39.335337796394015 0 -39.335337796394015 127.55199073613039 0 0 0 0 -61.477005872628069 -16.663416846589826 0 -16.663416846589826 137.79574582286295 0 0 0 0 -55.902413524534495 -7.9840986937560956 0 -7.9840986937560956 105.5570885530351 0 0 0 0 -21.273393057890644 16.516388244403061 0 16.516388244403061 71.218754272267688 0 0 0 0 -119.05564897469321 66.481305191628053 0 66.481305191628053 82.425799549106159 0 0 0 0 -75.109055778761103 24.690730393867852 0 24.690730393867852 79.10735720791854 0 0 0 0 -87.26520238145531 24.706273774485453 0 24.706273774485453 109.39518230042358 0 0 0 0 -79.071775961139792 1.6574401413090527 0 1.6574401413090527 132.97242327246931 0 0 0 0 -80.396355190758186 51.555863868474262 0 51.555863868474262 59.444386647286592 0 0 0 0 -135.17877583506561 64.913883707260538 0 64.913883707260538 87.993296088374336 0 0 0 0 -120.69052052130428 60.981804871265922 0 60.981804871265922 36.448206441098591 0 0 0 0 -151.5938914263173 122.98368674960386 0 122.98368674960386 24.809760355652543 0 0 0 0 -59.897903533477802 106.5991126095214 0 106.5991126095214 1.0340411536235479 0 0 0 0 -150.20645014245116 70.966248899969059 0 70.966248899969059 78.104338983655907 0 0 0 0 -57.36896371630246 123.014660761085 0 123.014660761085 107.35680817442335 0 0 0 0 -33.095986725460534 54.362126173829893 0 54.362126173829893 92.99652504860569 0 0 0 0 -82.609869888619869 61.048019552645201 0 61.048019552645201 131.20993281278061 0 0 0 0 4.5379684810322942 118.59094510467548 0 118.59094510467548 183.0334695456404 0 0 0 0 274.90880689539517 70.460558180854605 0 70.460558180854605 66.139266722719185 0 0 0 0 148.77565652061458 209.89737347516348 0 209.89737347516348 124.90362450321845 0 0 0 0 -22.108892221782298 127.35953846507618 0 127.35953846507618 231.72146014079044 0 0 0 0 -581.22612994990959 -20.412904230171989 0 -20.412904230171989 485.20575234149146 0 0 0 0 670.08240619619755 196.26567300469833 0 196.26567300469833 0.051675385959242703 0 0 0 0 31.509492048170948 90.376109023891019 0 90.376109023891019 3.8311063082693124 0 0 0 0 28.146581284501735 123.18342198983009 0 123.18342198983009 214.12753129527846 0 0 0 0 190.73715462306063 572.18537575798109 0 572.18537575798109 428.73360366758425 0 0 0 0 -24.084803533230797 94.980827017615184 0 94.980827017615184 217.60367264729575 0 0 0 0 -402.63069836079376 -22.702695192274405 0 -22.702695192274405 384.52651527147827 0 0 0 0 -93.279173982231441 143.97018800530714 0 143.97018800530714 359.6375363112893 0 0 0 0 543.98242408216902 -637.73379075507546 0 -637.73379075507546 -811.83741893303522 0 0 0 0 1361.8813756358941 -128.56319372686266 0 -128.56319372686266 -982.72569073431077 0 0 0 0 -700.07819773358642 -234.74657731047046 0 -234.74657731047046 234.09419831630657 0 0 0 0 29.136036545330999 80.033405127739996 0 80.033405127739996 -20.727950315620404 0 0 0 0 -394.20846189661825 248.41492603692313 0 248.41492603692313 446.77819259228181 0 0 0 0 -230.84987251449638 110.23889888694976 0 110.23889888694976 -408.49837084971659 0 0 0 0 -495.23264654870218 702.80311497347429 0 702.80311497347429 -756.79944989093929 0 0 0 0 -191.34638564471607 46.077205827512444 0 46.077205827512444 -53.451617306302069 0 0 0 0 -48.194492863502091 -52.946075164771173 0 -52.946075164771173 -131.0164209312843 0 0 0 0 -23.152821758716527 84.609012654385879 0 84.609012654385879 -52.836499392096812 0 0 0 0 -197.19079766034702 206.28074830938567 0 206.28074830938567 385.87614631727592 0 0 0 0 390.22172648795095 558.11667004700212 0 558.11667004700212 -97.107144654917647 0 0 0 0 240.6313751084308 -297.1389855974121 0 -297.1389855974121 267.39989232168773 0 0 0 0 -51.424568498252484 210.38499767603207 0 210.38499767603207 -105.5403018247307 0 0 0 0 -172.68265758885536 484.91257166267314 0 484.91257166267314 -358.40667155891424 0 0 0 0 -0.15072418429917889 253.94506870602345 0 253.94506870602345 -269.13952541277104 0 0 0 0 -359.23007422921364 546.95368191397574 0 546.95368191397574 -390.29602626128326 0 0 0 0 -240.34910388776916 180.05233780445269 0 180.05233780445269 -1090.650448658962 0 0 0 0 -180.02813278378744 534.97900057512561 0 534.97900057512561 -777.92832175787771 0 0 0 0 -333.94902310881298 283.69468287791096 0 283.69468287791096 -712.25934425549349 0 0 0 0 -24.663638818445179 0.74864876861101948 0 0.74864876861101948 145.39465884117817 0 0 0 0 35.584670207172167 -24.442439501610352 0 -24.442439501610352 98.191309351532254 0 0 0 0 -27.778302472419455 -123.67982390568068 0 -123.67982390568068 -30.590223825711291 0 0 0 0 -5.6575184184321756 -4.4501385619956437 0 -4.4501385619956437 -2.5259467503124737 0 0 0 0 -11.705983344596461 -47.170210108000902 0 -47.170210108000902 93.541522514773533 0 0 0 0 42.498565272151609 -98.230992739583598 0 -98.230992739583598 141.62741130695213 0 0 0 0 -12.398627719318029 -39.455831120430958 0 -39.455831120430958 -240.2492215076627 0 0 0 0 12.66747266686798 490.68727827641123 0 490.68727827641123 -1798.3147425401257 0 0 0 0 -206.70712963210099 -289.47658420963126 0 -289.47658420963126 -153.85784646221146 0 0 0 0 0.50919881856486171 0.27627682686670596 0 0.27627682686670596 -2.00344350824885 0 0 0 0 -26.317874199950893 -6.8347780302865431 0 -6.8347780302865431 -8.5940338691034412 0 0 0 0 -175.93938860925482 534.26906574383611 0 534.26906574383611 -603.35000022598251 0 0 0 0 -13.355987244145823 -1.5032736335778338 0 -1.5032736335778338 -0.50092709893080478 0 0 0 0 -60.496046156251396 -9.5449429156578844 0 -9.5449429156578844 161.05815133122906 0 0 0 0 -7.2486574961738626 -1.2223268936298126 0 -1.2223268936298126 -1.3472574738559899 0 0 0 0 -59.479577433372469 -24.60151887216125 0 -24.60151887216125 146.51715999400767 0 0 0 0 -182.77513283575172 274.72663841008034 0 274.72663841008034 -585.57435690002603 0 0 0 0 -53.253580146239983 467.75765614517877 0 467.75765614517877 -635.6349238992625 0 0 0 0 -48.92550087122072 375.27283796372649 0 375.27283796372649 -511.22260933392681 0 0 0 0 -343.19923289530198 244.42966419449294 0 244.42966419449294 -456.56177608112193 0 0 0 0 -247.13251841249803 344.9088713948513 0 344.9088713948513 -355.1831938084797 0 0 0 0 -672.27451957877565 443.18891981786146 0 443.18891981786146 -196.0825217680831 0 0 0 0 72.338946167044924 99.92969622900273 0 99.92969622900273 -392.35436022181239 0 0 0 0 65.844222269486636 151.73656548493454 0 151.73656548493454 -213.10248341260012 0 0 0 0 22.588667905969487 -80.594849937930121 0 -80.594849937930121 42.210073044669116 0 0 0 0 319.59428590488733 -81.556014151052295 0 -81.556014151052295 -38.827299047872657 0 0 0 0 6.07883523011823 28.351668026012902 0 28.351668026012902 -1.4432033848731578 0 0 0 0 335.78639469803784 -270.39032439037328 0 -270.39032439037328 66.742551060568076 0 0 0 0 287.21396257267588 -312.31074752686072 0 -312.31074752686072 305.25641755033575 0 0 0 0 291.6805091028782 -140.14880180782802 0 -140.14880180782802 228.7171766593674 0 0 0 0 611.55665720369143 39.457019802717696 0 39.457019802717696 -280.07806558342418 0 0 0 0 -25.349932703098602 -20.662768949914607 0 -20.662768949914607 235.77750402998936 0 0 0 0 30.22588050541356 74.720625780781688 0 74.720625780781688 -31.466645783064564 0 0 0 0 -92.549976030559264 107.37090007379084 0 107.37090007379084 -1.096259949998057 0 0 0 0 672.09984220055048 -265.10311346671006 0 -265.10311346671006 10.504286808100005 0 0 0 0 -102.79612989738598 77.420834474578442 0 77.420834474578442 101.34592130922829 0 0 0 0 52.554962757020959 53.378477853725286 0 53.378477853725286 -8.610714471840879 0 0 0 0 22.941769231098704 41.36068775167837 0 41.36068775167837 29.678399953107544 0 0 0 0 13.299869439902977 95.088427553069778 0 95.088427553069778 -33.275461900582741 0 0 0 0 -20.412088629407549 39.124768281765085 0 39.124768281765085 27.824362992542945 0 0 0 0 -129.59447549860852 353.02274731225225 0 353.02274731225225 -791.79300361880451 0 0 0 0 -39.442848691018298 77.570032656702097 0 77.570032656702097 -22.314033055503387 0 0 0 0 32.401777424299468 28.156003058969901 0 28.156003058969901 6.470064010210649 0 0 0 0 -306.15999369122437 1015.7246441632669 0 1015.7246441632669 -1024.7013566927635 0 0 0 0 -368.88581567428628 922.07347208265855 0 922.07347208265855 -1131.8249335137698 0 0 0 0 -458.96124769556718 1051.9117573597214 0 1051.9117573597214 -991.22769557734136 0 0 0 0 -374.80832281176481 908.17506314187631 0 908.17506314187631 -963.00043088474195 0 0 0 0 -462.75706288258516 1017.4654655789636 0 1017.4654655789636 -886.37080160179175 0 0 0 0 -540.36337815289153 939.55486766765534 0 939.55486766765534 -963.46150664042216 0 0 0 0 -562.77756517669695 983.22289729865224 0 983.22289729865224 -831.89570315918536 0 0 0 0 -486.73767722235789 764.33641378378525 0 764.33641378378525 -743.67956006826716 0 0 0 0 -1022.2709645441209 1179.051455134846 0 1179.051455134846 -1047.6767593055265 0 0 0 0 23.379411091178021 13.534533813658953 0 13.534533813658953 -5.7227086059638737 0 0 0 0 -783.9737069526127 973.45533136166341 0 973.45533136166341 -755.09491871955106 0 0 0 0 -680.74031298267073 840.2678835648112 0 840.2678835648112 -992.74942801532234 0 0 0 0 -763.80385434497657 956.71196876793692 0 956.71196876793692 -538.25831025390653 0 0 0 0 -683.66482128735515 1068.4451999693993 0 1068.4451999693993 -668.4820900154009 0 0 0 0 -585.55733802032228 997.64599634232945 0 997.64599634232945 -822.89141526498133 0 0 0 0 -589.56735482079239 983.73460413181601 0 983.73460413181601 -831.86085524601913 0 0 0 0 -785.62556976924316 1165.4696852337875 0 1165.4696852337875 -379.59740867734945 0 0 0 0 -596.67900678332808 1147.6281317012981 0 1147.6281317012981 -587.61972847652214 0 0 0 0 -587.43230592984764 1201.1571419128486 0 1201.1571419128486 -901.79940047161654 0 0 0 0 781.60713386956922 -598.94167804250174 0 -598.94167804250174 485.36686582781476 0 0 0 0 9.7684063968040533 0.50552065428378512 0 0.50552065428378512 0.072138207688524858 0 0 0 0 -102.45047553582845 185.12988970749211 0 185.12988970749211 476.30225060903467 0 0 0 0 -67.22000578267216 268.24418584561136 0 268.24418584561136 -39.489594360027695 0 0 0 0 108.18629804804311 79.336618032006839 0 79.336618032006839 30.789177867326998 0 0 0 0 -639.66108537194577 939.75806282800932 0 939.75806282800932 -934.41364393934782 0 0 0 0 -750.56011788775504 1033.1576225803874 0 1033.1576225803874 -685.99150334109436 0 0 0 0 -768.13155624077626 927.67502807229903 0 927.67502807229903 -729.05943054720774 0 0 0 0 806.79516891084859 -108.47255208664865 0 -108.47255208664865 -86.619368901381677 0 0 0 0 170.48724647935887 188.03921205576262 0 188.03921205576262 -172.69728107172705 0 0 0 0 118.44820922027026 80.286693746011565 0 80.286693746011565 41.5283216410958 0 0 0 0 -1106.0245704875597 864.39642995524991 0 864.39642995524991 -191.118081540204 0 0 0 0 -785.65688957149723 771.22547943167956 0 771.22547943167956 -218.66624490968388 0 0 0 0 -847.17572266678144 1068.7350664792357 0 1068.7350664792357 -189.69701782651828 0 0 0 0 -483.42763383577767 484.47344876916031 0 484.47344876916031 -23.356499146408169 0 0 0 0 -2101.7793350344691 662.65978582832759 0 662.65978582832759 96.027278233741526 0 0 0 0 -1253.0052154581135 1113.3617392920205 0 1113.3617392920205 -303.96769627183676 0 0 0 0 -581.26922851288691 -216.5509941890632 0 -216.5509941890632 65.168238244674285 0 0 0 0 -3055.6643984846291 63.844499270719325 0 63.844499270719325 291.5301806141797 0 0 0 0 -2888.4271680417114 2186.0522978453664 0 2186.0522978453664 -962.89007879990822 0 0 0 0 -1293.0063823440241 1166.8469006067553 0 1166.8469006067553 -203.75689507972129 0 0 0 0 -671.68502430065655 1083.3406967997807 0 1083.3406967997807 -2602.3960012668831 0 0 0 0 -562.62132709019306 497.01063543702776 0 497.01063543702776 -756.8691955000395 0 0 0 0 -2336.1587938443299 96.16353403134417 0 96.16353403134417 -882.73506768563675 0 0 0 0 -13.520206509777175 11.038064526354489 0 11.038064526354489 -9.4841545675995462 0 0 0 0 -115.08044532649365 308.52624439016654 0 308.52624439016654 -265.97178899860592 0 0 0 0 209.41563147422858 553.84335200337955 0 553.84335200337955 -540.86072687281558 0 0 0 0 181.57468978667021 455.73613244393709 0 455.73613244393709 -237.10903462047281 0 0 0 0 -234.6412247014523 633.45461249786604 0 633.45461249786604 -755.01805872305704 0 0 0 0 -421.55697236470223 1152.1938134371667 0 1152.1938134371667 -933.77101166533794 0 0 0 0 -397.16671029669305 815.25271046828857 0 815.25271046828857 -217.06138645592 0 0 0 0 36.189268102963979 744.02446736603451 0 744.02446736603451 -297.45601747727051 0 0 0 0 -584.19389319462243 1014.2478953985665 0 1014.2478953985665 -159.59105194881704 0 0 0 0 -712.35834451748451 1100.1433043050747 0 1100.1433043050747 -325.55396464752994 0 0 0 0 -649.29165427543012 925.58278812965364 0 925.58278812965364 -271.80751648893784 0 0 0 0 -690.07549707953694 852.20862898241649 0 852.20862898241649 -147.96183660504175 0 0 0 0 -550.36307861949172 993.28496057157463 0 993.28496057157463 -516.98877725730563 0 0 0 0 -3.0179372273305489 849.65731343279913 0 849.65731343279913 -304.43430531688864 0 0 0 0 422.73145861829471 500.89795200833396 0 500.89795200833396 -287.64992446652104 0 0 0 0 1489.5604744896382 216.48389351321339 0 216.48389351321339 -476.40199969073001 0 0 0 0 -0.48212032486825862 13.187300881378576 0 13.187300881378576 -40.462566269619884 0 0 0 0 -75.231878499209415 590.15067388080206 0 590.15067388080206 19.132787752299919 0 0 0 0 691.49431879585609 177.71990047881263 0 177.71990047881263 26.387873473452942 0 0 0 0 -700.1346866372478 10.078670618237084 0 10.078670618237084 13.689744133604108 0 0 0 0 -805.82026095790934 956.31721118407586 0 956.31721118407586 -814.52555752068292 0 0 0 0 -809.55840036130758 361.2619410157713 0 361.2619410157713 -180.22785164530796 0 0 0 0 -1111.0821489497357 683.84718327305382 0 683.84718327305382 -387.7147773088509 0 0 0 0 123.01029667528564 76.546629408476292 0 76.546629408476292 -419.49231217250781 0 0 0 0 -216.93532320912345 2.077986831398448 0 2.077986831398448 468.99470775074587 0 0 0 0 -411.72492699274881 746.82571718558393 0 746.82571718558393 -172.46854934344992 0 0 0 0 -1846.6480757530499 1262.1852564388937 0 1262.1852564388937 -28.919532862841152 0 0 0 0 -1326.6569839488102 31.983891343479627 0 31.983891343479627 -448.56160229938541 0 0 0 0 10.09485348398546 17.742373194321701 0 17.742373194321701 10.490424466267768 0 0 0 0 -128.07555647387562 600.39311805696707 0 600.39311805696707 -410.40549712593202 0 0 0 0 -1499.3639772488677 1115.3133421657731 0 1115.3133421657731 8.4964207723460277 0 0 0 0 -611.88621333061383 -115.68587288888921 0 -115.68587288888921 -73.157744661686593 0 0 0 0 730.04749476943107 622.6687083441102 0 622.6687083441102 -532.03318234658946 0 0 0 0 -983.87426206547389 878.84358583247376 0 878.84358583247376 -251.91868590687955 0 0 0 0 615.36710723452416 52.897981701782555 0 52.897981701782555 -586.1012460894799 0 0 0 0 -22.420262448094945 701.5053316999074 0 701.5053316999074 -18.171706365304999 0 0 0 0 682.02287796645396 322.38198487609043 0 322.38198487609043 -136.17660918255024 0 0 0 0 1416.6217104698007 458.99952453258811 0 458.99952453258811 -223.88216146258492 0 0 0 0 -0.38758106955016558 14.336400471477646 0 14.336400471477646 -39.808416902228316 0 0 0 0 1205.9698173619181 -53.462704311823472 0 -53.462704311823472 30.424960216631007 0 0 0 0 725.14181968603225 456.51772855166928 0 456.51772855166928 175.76148851716425 0 0 0 0 489.54710865140078 190.55651035607298 0 190.55651035607298 -166.31307994700364 0 0 0 0 185.09371729236136 545.49145575752846 0 545.49145575752846 -91.815082977671409 0 0 0 0 855.88685761277156 286.09230067957833 0 286.09230067957833 -256.05291433587263 0 0 0 0 773.16471137436019 405.78511818073093 0 405.78511818073093 -268.01043456007028 0 0 0 0 371.57621221978479 437.89570174401888 0 437.89570174401888 -126.80168493767269 0 0 0 0 1855.3484795614277 260.09533458683654 0 260.09533458683654 -634.02667788506369 0 0 0 0 -0.47803654201689127 6.892764187852201 0 6.892764187852201 -16.87480818162453 0 0 0 0 1361.7764743812531 558.66992704143195 0 558.66992704143195 -810.91034952385235 0 0 0 0 1377.5856546852374 480.80639884056291 0 480.80639884056291 -432.45159010504722 0 0 0 0 1222.070393369504 923.52927460094361 0 923.52927460094361 -215.7469156455918 0 0 0 0 1507.2354108180953 934.84285776901379 0 934.84285776901379 -763.56071655769483 0 0 0 0 1407.801601706873 1340.6992922869322 0 1340.6992922869322 205.02081366147468 0 0 0 0 829.28834406623355 847.41021246338642 0 847.41021246338642 -147.61162051276187 0 0 0 0 785.78183682405506 825.10690134142351 0 825.10690134142351 172.40607585622638 0 0 0 0 384.40233037456346 499.64157394770882 0 499.64157394770882 -70.699376739401487 0 0 0 0 845.61675550238579 569.77897733410646 0 569.77897733410646 -129.08671749409405 0 0 0 0 849.83389259591058 616.26316783002403 0 616.26316783002403 -467.09101462634135 0 0 0 0 -693.34172605228105 628.51394443981553 0 628.51394443981553 -134.35081230934884 0 0 0 0 -845.03381518675451 942.96686393829441 0 942.96686393829441 -244.62555503315525 0 0 0 0 -1335.1678860830179 999.50781269209983 0 999.50781269209983 19.488526851142524 0 0 0 0 10.554150833777292 18.111624370395973 0 18.111624370395973 7.934899150474962 0 0 0 0 -852.62426384609444 1335.9640439270552 0 1335.9640439270552 -647.85236676383647 0 0 0 0 -963.05537124131297 1548.1765332104205 0 1548.1765332104205 417.9620086059731 0 0 0 0 1911.7854016074343 135.12446840373741 0 135.12446840373741 -681.21752784709679 0 0 0 0 3.0191892185058933 5.9893053107002885 0 5.9893053107002885 3.2649511009450691 0 0 0 0 -2471.0343830750098 1082.8746779272951 0 1082.8746779272951 724.40904106064409 0 0 0 0 -430.71036460004689 -1183.6019692360569 0 -1183.6019692360569 -984.87748173109139 0 0 0 0 -939.2832326717471 -40.64226241713186 0 -40.64226241713186 -549.69854066162179 0 0 0 0 46.227303677176678 911.93809686795066 0 911.93809686795066 -3.2704534749209415 0 0 0 0 -624.21549019368831 381.17919088396593 0 381.17919088396593 290.09704906012121 0 0 0 0 28.939947296072205 920.37810316478135 0 920.37810316478135 1888.3495940932044 0 0 0 0 206.94016389150056 429.87959889714375 0 429.87959889714375 761.09746451432875 0 0 0 0 256.8762421128522 812.73624212790855 0 812.73624212790855 486.53457000972412 0 0 0 0 -411.10357693687547 298.57967045786791 0 298.57967045786791 1091.384783575355 0 0 0 0 -1207.8642948098568 1421.4357398405882 0 1421.4357398405882 521.10526904531434 0 0 0 0 -413.96418493157671 986.70434154522968 0 986.70434154522968 423.97723690529529 0 0 0 0 6.5597594772043522 421.74985715455841 0 421.74985715455841 997.62269061456755 0 0 0 0 -38.483757277093702 36.013984683309573 0 36.013984683309573 -3.6060139845654646 0 0 0 0 -251.4522958547459 157.02927971115423 0 157.02927971115423 751.32620228136511 0 0 0 0 42.882701428337896 672.9694924571013 0 672.9694924571013 593.43567317150882 0 0 0 0 -9.8450150537422161 13.146390375712144 0 13.146390375712144 -3.3031843732100015 0 0 0 0 44.483175670044147 -473.57607054041364 0 -473.57607054041364 2011.8044173194357 0 0 0 0 77.67193146303498 41.935940861611016 0 41.935940861611016 107.14669241251249 0 0 0 0 273.78256204448189 423.80948028988496 0 423.80948028988496 217.79618413784192 0 0 0 0 195.24272519123042 490.85843065231165 0 490.85843065231165 188.6422287271821 0 0 0 0 577.02905884425127 984.88642253265425 0 984.88642253265425 792.02377415663796 0 0 0 0 91.100650562519149 386.73256004482391 0 386.73256004482391 618.603859960509 0 0 0 0 71.277173033238796 307.19487132761424 0 307.19487132761424 463.87172867113986 0 0 0 0 -33.615774791353999 35.500733353531132 0 35.500733353531132 -7.7395853681640219 0 0 0 0 -29.796327599968066 37.01493861811683 0 37.01493861811683 -8.7983549698905215 0 0 0 0 -61.145657880617364 66.060890148102771 0 66.060890148102771 69.159917607077659 0 0 0 0 -51.96510408643352 25.538567035521027 0 25.538567035521027 -5.3002480443024638 0 0 0 0 -47.270833040211734 9.3388281969262579 0 9.3388281969262579 22.979318960726715 0 0 0 0 -21.813505325371807 64.409690294996835 0 64.409690294996835 70.75659431580425 0 0 0 0 53.625314785553201 64.343627401722188 0 64.343627401722188 87.293250164155324 0 0 0 0 -81.208686557939473 114.63938546720146 0 114.63938546720146 102.71285249300126 0 0 0 0 -36.880954750718956 -50.107774355641595 0 -50.107774355641595 -54.202119159352151 0 0 0 0 67.484257907490246 327.1640698718038 0 327.1640698718038 -273.70302639508736 0 0 0 0 110.17615556137753 220.66498345477157 0 220.66498345477157 -24.914881223681732 0 0 0 0 -59.990737499923853 61.17679829573899 0 61.17679829573899 -548.5262710951647 0 0 0 0 -256.33270633429493 603.97247793192219 0 603.97247793192219 -737.82788739931857 0 0 0 0 -10.294524246696724 8.5445792352672498 0 8.5445792352672498 0.98699160403646147 0 0 0 0 -308.42407018258018 -185.90976629911165 0 -185.90976629911165 -50.694374795246404 0 0 0 0 -32.657052283964731 2.1732921493676258 0 2.1732921493676258 -38.037219592151814 0 0 0 0 -28.832508971462183 42.625541366334261 0 42.625541366334261 -31.274162065476759 0 0 0 0 -583.51536762740443 -243.41206592721574 0 -243.41206592721574 -25.535732635240493 0 0 0 0 -1205.8560855987982 133.16714673445313 0 133.16714673445313 225.10767522493552 0 0 0 0 -1307.4911889192144 1312.2660921805655 0 1312.2660921805655 -316.23120424426452 0 0 0 0 -8.9713624181355502 11.256211366132817 0 11.256211366132817 -12.122782610854188 0 0 0 0 0.3105076305215686 28.738825469290177 0 28.738825469290177 8.1984782054816492 0 0 0 0 69.223649791352273 84.436848646546423 0 84.436848646546423 -38.903001021455566 0 0 0 0 -799.95947609644384 645.18355353199877 0 645.18355353199877 -73.61609977138869 0 0 0 0 406.20071180388607 -91.681096009531757 0 -91.681096009531757 -1089.4534983104459 0 0 0 0 40.818953572864757 228.77659539780143 0 228.77659539780143 31.788059449536377 0 0 0 0 -75.760514448010241 45.156859614990566 0 45.156859614990566 -16.591173710747768 0 0 0 0 -1526.2046357699001 823.72231549440767 0 823.72231549440767 304.9734086660028 0 0 0 0 -70.149201916746691 49.530923788391874 0 49.530923788391874 -22.023337582759567 0 0 0 0 -15.778160619871556 14.897886714794851 0 14.897886714794851 1.0962859948517121 0 0 0 0 -1304.3154759311874 -152.58200129243778 0 -152.58200129243778 -418.19566772033431 0 0 0 0 -131.87603106669008 -490.42326491136259 0 -490.42326491136259 227.13031717427657 0 0 0 0 -258.44509758297306 513.09418180003013 0 513.09418180003013 159.87452249258058 0 0 0 0 -1008.5706186864008 268.81077283930426 0 268.81077283930426 104.82423471076618 0 0 0 0 -421.77386763219874 413.34323329270774 0 413.34323329270774 -869.24191075241833 0 0 0 0 -1003.4507646133552 217.4994506639232 0 217.4994506639232 309.3957051706966 0 0 0 0 -193.43154649023745 220.423338053728 0 220.423338053728 245.6920252685959 0 0 0 0 -196.9330811281834 -84.925785747080226 0 -84.925785747080226 -604.54749717542836 0 0 0 0 -93.173463619597896 178.62668002895953 0 178.62668002895953 -172.12195545082068 0 0 0 0 371.29897459972938 432.5557939427315 0 432.5557939427315 -80.429220799109316 0 0 0 0 -6.6141713792239898 352.17054266912601 0 352.17054266912601 -44.144902885967895 0 0 0 0 363.2330426977951 527.6079104471246 0 527.6079104471246 -74.748024246888235 0 0 0 0 -100.98481116811854 540.24912398137531 0 540.24912398137531 -236.07472621364286 0 0 0 0 -64.294055143211153 279.04159747853555 0 279.04159747853555 -189.37837977628806 0 0 0 0 -552.51031436798803 476.06623339423095 0 476.06623339423095 258.17366049483826 0 0 0 0 -847.17831975175068 854.03368437840982 0 854.03368437840982 -193.49055686308566 0 0 0 0 -2.8560257178978645 62.01082563194359 0 62.01082563194359 54.717750982723373 0 0 0 0 -2.4708846464636736 52.635721164646384 0 52.635721164646384 -18.2979509273855 0 0 0 0 -106.6537472181831 103.17056079317379 0 103.17056079317379 13.854330073606519 0 0 0 0 -31.077007647232563 88.227937016527861 0 88.227937016527861 6.0764249963681909 0 0 0 0 -44.825250437483191 60.125881129235495 0 60.125881129235495 26.279687758200453 0 0 0 0 -41.474559590137488 54.847839920572625 0 54.847839920572625 11.012689618397303 0 0 0 0 -121.25167767470703 167.22814535160433 0 167.22814535160433 3.2265136094210902 0 0 0 0 -36.917997032725964 21.585257645267319 0 21.585257645267319 -1.1660237210943194 0 0 0 0 -99.278600568970433 81.463645825642743 0 81.463645825642743 22.813295722313342 0 0 0 0 -142.61849753410206 121.09338571788976 0 121.09338571788976 51.206150965823326 0 0 0 0 -22.041457318155153 22.371018943409581 0 22.371018943409581 -131.35826710388937 0 0 0 0 -12.26568689623673 31.905598506556998 0 31.905598506556998 -1.403266216715565 0 0 0 0 -87.495992967364145 116.52905483916402 0 116.52905483916402 43.455417834891705 0 0 0 0 -187.75802543325699 138.11611712593003 0 138.11611712593003 76.715700869855937 0 0 0 0 -106.77870495588286 164.46108065012959 0 164.46108065012959 189.24587453331333 0 0 0 0 12.786643551720772 -99.103057954460382 0 -99.103057954460382 189.75736895794398 0 0 0 0 0.88277208984072786 76.525292319558503 0 76.525292319558503 -17.712340826255968 0 0 0 0 -48.662123411908397 34.433957281944458 0 34.433957281944458 -69.38740777374187 0 0 0 0 -2.864771129201273 20.361236564920716 0 20.361236564920716 -10.338868015725183 0 0 0 0 -13.030692484148801 25.721139550389069 0 25.721139550389069 -13.032230644504523 0 0 0 0 -102.18507759341446 23.719724288544967 0 23.719724288544967 -41.988204898952972 0 0 0 0 -19.03193133896275 75.800208998967719 0 75.800208998967719 -18.936000240762951 0 0 0 0 -53.349510985630332 57.886199053900782 0 57.886199053900782 8.7996776638537995 0 0 0 0 -10.334965717184133 41.2078605134447 0 41.2078605134447 -8.0027438326417837 0 0 0 0 -5.5893804017306223 15.204695709335923 0 15.204695709335923 -2.445366696293874 0 0 0 0 34.166502651714836 33.048406773250463 0 33.048406773250463 11.089200845002779 0 0 0 0 -9.0088435570214642 26.239212472966756 0 26.239212472966756 -3.0304947611002717 0 0 0 0 -15.129503762150861 35.312316509985436 0 35.312316509985436 5.7114700708153805 0 0 0 0 -13.335702410639044 43.545886168098676 0 43.545886168098676 -3.3635344948256645 0 0 0 0 -2.0859702567540808 50.812028770335019 0 50.812028770335019 9.7507767619244987 0 0 0 0 -143.11815948062576 100.36773300134519 0 100.36773300134519 8.7729986108679441 0 0 0 0 11.590290196934859 26.262939758934834 0 26.262939758934834 13.891781980538234 0 0 0 0 -19.318749419951928 106.62578428036068 0 106.62578428036068 -42.775326125774882 0 0 0 0 30.439819817343675 45.202797516261967 0 45.202797516261967 -8.3157941272269795 0 0 0 0 24.452079651222448 48.990841520047979 0 48.990841520047979 -57.287112221612915 0 0 0 0 26.684201416850556 36.030066923551203 0 36.030066923551203 -3.4112998337986937 0 0 0 0 22.908067327087338 40.473407043042243 0 40.473407043042243 25.303146841062699 0 0 0 0 -167.19916343461682 595.34860416211905 0 595.34860416211905 -942.94507734013314 0 0 0 0 -272.94103121595253 97.697469716564228 0 97.697469716564228 307.33532179246322 0 0 0 0 32.363735463288322 5.3817675856844289 0 5.3817675856844289 41.898256127838977 0 0 0 0 0.71480950556400558 13.696861279005844 0 13.696861279005844 17.588930391027048 0 0 0 0 -183.44108438440526 -23.757566517666419 0 -23.757566517666419 -66.317428387754262 0 0 0 0 25.218472507939623 239.53050135178682 0 239.53050135178682 7.7741392555763014 0 0 0 0 42.087835660946439 -13.847087859117892 0 -13.847087859117892 73.604021083281623 0 0 0 0 -322.23580140188278 121.59096706316996 0 121.59096706316996 -41.147887668208568 0 0 0 0 -14.634911223377131 32.583519093443982 0 32.583519093443982 -41.365287782659067 0 0 0 0 -314.66057774106594 145.76906598513597 0 145.76906598513597 -122.47168767295807 0 0 0 0 -411.49448082535037 146.07097692987918 0 146.07097692987918 -40.092479581886437 0 0 0 0 -78.761852137249662 -528.49591537407468 0 -528.49591537407468 -1612.1719968750258 0 0 0 0 -7.5166234519064261 8.7478194330750405 0 8.7478194330750405 -17.194979964427176 0 0 0 0 76.159110683067411 70.976928982672689 0 70.976928982672689 167.56964558579784 0 0 0 0 -3026.305622748223 387.03119236736165 0 387.03119236736165 143.96237834497879 0 0 0 0 -1168.1802829666922 592.58478503018341 0 592.58478503018341 55.045975148968864 0 0 0 0 -800.66146410025976 55.011519972686074 0 55.011519972686074 -59.039629544349737 0 0 0 0 -35.02444136376289 1709.6162755428159 0 1709.6162755428159 -917.77837898720463 0 0 0 0 -1050.3870751871291 2009.5672091327651 0 2009.5672091327651 -580.65519383025821 0 0 0 0 -538.86070305969042 412.61609571750887 0 412.61609571750887 -15.009901510144118 0 0 0 0 -446.53638259756553 322.29275660194253 0 322.29275660194253 -172.79190254282003 0 0 0 0 -319.57942546111644 212.59058965164604 0 212.59058965164604 -80.391527686282643 0 0 0 0 -297.22422469249432 188.12534600287472 0 188.12534600287472 -127.90554569735832 0 0 0 0 -261.13683406643395 133.12724357149273 0 133.12724357149273 -92.795376462483546 0 0 0 0 -189.11541104134812 5.8145730033138534 0 5.8145730033138534 7.5740900505479658 0 0 0 0 -284.56418791646138 89.845519317539583 0 89.845519317539583 -15.110469529696275 0 0 0 0 -196.27879811210732 36.856676622250234 0 36.856676622250234 -20.087527591455 0 0 0 0 -126.45101244555553 80.168031857378082 0 80.168031857378082 -37.547455813095439 0 0 0 0 -266.14968069404131 88.908142352745926 0 88.908142352745926 -34.451586047376622 0 0 0 0 -245.69351019855822 105.00989271438448 0 105.00989271438448 -30.249918349203654 0 0 0 0 -208.87728494778275 69.485565867056721 0 69.485565867056721 -34.881621471389735 0 0 0 0 -189.27262425048684 97.403551658950164 0 97.403551658950164 1.2981383537990041 0 0 0 0 -248.84592480471474 63.939005347798229 0 63.939005347798229 6.800518436008133 0 0 0 0 -165.11732175845827 65.170101963245543 0 65.170101963245543 -41.002791008089844 0 0 0 0 -0.36614714605522636 2.1232139378285098 0 2.1232139378285098 -3.2514175518120982 0 0 0 0 -95.529622852787725 122.86074033984187 0 122.86074033984187 -54.214998716925038 0 0 0 0 47.261410553648602 101.73841844304116 0 101.73841844304116 137.32817461312152 0 0 0 0 0.15694929603941432 2.7761145208736906 0 2.7761145208736906 -2.2126614071280812 0 0 0 0 -240.52574069431284 100.49290386949724 0 100.49290386949724 111.12639349955134 0 0 0 0 -220.93080934384489 33.37591686315136 0 33.37591686315136 316.53007312642876 0 0 0 0 -213.31599751808972 -40.279348285657761 0 -40.279348285657761 156.40164724673377 0 0 0 0 -165.23014036132372 4.4920205526141217 0 4.4920205526141217 79.7966462916811 0 0 0 0 83.120226538856514 30.591005061171018 0 30.591005061171018 41.706986287375912 0 0 0 0 -39.981285519752419 -126.32578310908866 0 -126.32578310908866 212.21349283879681 0 0 0 0 -238.52572582231369 8.4314527070528129 0 8.4314527070528129 61.737269654520787 0 0 0 0 -221.25002918660175 66.257158544234699 0 66.257158544234699 29.035718406477827 0 0 0 0 -223.40925821840938 73.415553902639658 0 73.415553902639658 5.5586391991528217 0 0 0 0 -236.39822687106789 8.2416632629538071 0 8.2416632629538071 57.94258340849774 0 0 0 0 -139.99464144377271 34.03878010904009 0 34.03878010904009 -135.72748303073604 0 0 0 0 -269.10735173005378 189.03852868911781 0 189.03852868911781 -202.12719862515223 0 0 0 0 -222.56683401386545 -12.668241877916444 0 -12.668241877916444 -1.4674532974604517 0 0 0 0 -239.90610135926727 20.379219072325213 0 20.379219072325213 -37.284466834214982 0 0 0 0 -222.26851562334923 41.2910000314223 0 41.2910000314223 -77.564740577741759 0 0 0 0 -255.17463095863059 83.72037993685808 0 83.72037993685808 -21.523843553732149 0 0 0 0 -216.62049209467659 91.261040843826777 0 91.261040843826777 -61.190580914371822 0 0 0 0 -202.18530142425152 75.35290250962862 0 75.35290250962862 -87.042089985901839 0 0 0 0 -62.901682679352234 234.24270695419546 0 234.24270695419546 -294.89521372287709 0 0 0 0 -282.52917465624341 190.12445999291594 0 190.12445999291594 -273.28688398941813 0 0 0 0 -307.57301180367358 344.89860008920004 0 344.89860008920004 -423.14724649129494 0 0 0 0 -216.09589700221113 225.6202916026923 0 225.6202916026923 -177.104714118228 0 0 0 0 -246.16572699609969 383.87652126138346 0 383.87652126138346 -402.26958486724834 0 0 0 0 -349.80040462201305 360.04197341935378 0 360.04197341935378 -304.75144282667316 0 0 0 0 -281.58438050182122 423.72698495247096 0 423.72698495247096 -463.80807815963635 0 0 0 0 -273.84512950031785 465.35324524446332 0 465.35324524446332 -241.53101845121273 0 0 0 0 -534.14969092197214 641.34530699881259 0 641.34530699881259 -358.81720022131049 0 0 0 0 524.65420737498789 629.14625487925878 0 629.14625487925878 -660.7975628307322 0 0 0 0 258.84622923137067 120.62975539493891 0 120.62975539493891 -293.89805232117942 0 0 0 0 -165.59858467880258 56.797029626955919 0 56.797029626955919 102.18508426554035 0 0 0 0 8.6803383777945271 14.69765349527114 0 14.69765349527114 -0.41989495705493596 0 0 0 0 -39.680743387842426 -1.2539288162886066 0 -1.2539288162886066 0.19281665204924536 0 0 0 0 57.86033875768635 83.76631513985194 0 83.76631513985194 -151.10092291889305 0 0 0 0 18.779597239524193 10.844144351910444 0 10.844144351910444 -0.74938633263170118 0 0 0 0 -134.76001924115553 280.79875395941781 0 280.79875395941781 -58.481555288581148 0 0 0 0 -349.55255430250509 491.93306308545289 0 491.93306308545289 -421.04860584092239 0 0 0 0 -14.483258887892589 9.0412926103817881 0 9.0412926103817881 -124.80696570733562 0 0 0 0 -194.2256536418281 159.52997845564096 0 159.52997845564096 98.880378875028327 0 0 0 0 -248.12576948631613 399.09996346823755 0 399.09996346823755 -1047.7545766643307 0 0 0 0 -12.965008651143336 -1.429697809358629 0 -1.429697809358629 -0.69424232346997172 0 0 0 0 -194.99029563824297 1146.1569583867677 0 1146.1569583867677 -1215.752924084818 0 0 0 0 -91.102600258709572 -36.242800418523984 0 -36.242800418523984 340.92500730683969 0 0 0 0 35.922909679351505 -59.954958756129599 0 -59.954958756129599 71.607678896631114 0 0 0 0 -309.0432301715482 421.37198541514226 0 421.37198541514226 -462.5834714354678 0 0 0 0 -500.30901676800204 657.16965455055833 0 657.16965455055833 -753.23629156762036 0 0 0 0 -355.36403022140439 1899.2459359160857 0 1899.2459359160857 635.30302777588804 0 0 0 0 -392.48886374849099 367.11588533749455 0 367.11588533749455 -168.34550924997893 0 0 0 0 117.76677219088742 187.92962069312125 0 187.92962069312125 115.60365823758548 0 0 0 0 190.94164895817448 14.545120202114049 0 14.545120202114049 42.874488514149562 0 0 0 0 3.6723928807497188 7.3311683160681298 0 7.3311683160681298 4.1437743025720124 0 0 0 0 977.17443262993766 7.7849034814062179 0 7.7849034814062179 -1549.5028039368044 0 0 0 0 102.49924961637589 172.45574286826013 0 172.45574286826013 -167.36140894712298 0 0 0 0 54.090849730797345 179.1642948807239 0 179.1642948807239 -28.369183916265683 0 0 0 0 -567.01354993325731 617.94208856606201 0 617.94208856606201 -517.50828151241149 0 0 0 0 13.72177229500916 8.84850230363935 0 8.84850230363935 -1.194971387842287 0 0 0 0 89.45698829995672 213.23561797819275 0 213.23561797819275 -130.17268421789038 0 0 0 0 -585.39653974189559 398.64284457633676 0 398.64284457633676 -355.61634342414618 0 0 0 0 -177.25422582956526 404.15407659711491 0 404.15407659711491 -602.56253912131251 0 0 0 0 -654.96389081462985 985.18048406015441 0 985.18048406015441 -798.04908089982928 0 0 0 0 6.0751681357836986 3.6326651709378268 0 3.6326651709378268 -1.735136682831552 0 0 0 0 547.56425583806413 -328.65054418082582 0 -328.65054418082582 -124.10947725219239 0 0 0 0 -8.9429611642408418 556.28188271392719 0 556.28188271392719 -891.53692445580509 0 0 0 0 435.99092637214198 421.95212540084322 0 421.95212540084322 -1017.9877885697642 0 0 0 0 -41.324124021559783 -16.400808006547663 0 -16.400808006547663 -442.8968883290072 0 0 0 0 5.9864207267358438 -0.56986238287782953 0 -0.56986238287782953 -0.1366906972326305 0 0 0 0 -157.13467506610323 261.94258399073442 0 261.94258399073442 217.43043187694457 0 0 0 0 580.17532796178784 -275.38174159725168 0 -275.38174159725168 -328.8814075520495 0 0 0 0 828.35520619359158 756.12180780535709 0 756.12180780535709 123.82676446728146 0 0 0 0 354.58666853213435 577.6740476721734 0 577.6740476721734 56.627377844997682 0 0 0 0 4.0530218088268839 1.1804543061354025 0 1.1804543061354025 -1.1486197219173135 0 0 0 0 584.35044927554191 843.22422182458104 0 843.22422182458104 2631.5248406196042 0 0 0 0 1385.4590003875328 -102.19798148375958 0 -102.19798148375958 849.78623642599268 0 0 0 0 651.88117916469491 514.16200806890993 0 514.16200806890993 756.53328501836222 0 0 0 0 -507.02028819944826 426.62973664871242 0 426.62973664871242 2673.9295683145156 0 0 0 0 -45.778709680889733 47.922799242194742 0 47.922799242194742 -189.223558201571 0 0 0 0 445.83616678891121 40.083235696904012 0 40.083235696904012 -189.12133230365703 0 0 0 0 -12.145917936624157 12.814912727150997 0 12.814912727150997 13.798061747492 0 0 0 0 -415.89483860134305 -498.61232751799662 0 -498.61232751799662 1268.6651766700088 0 0 0 0 -384.44377054844517 -0.37460215549072018 0 -0.37460215549072018 68.749232491012663 0 0 0 0 2716.5583520770015 1239.0181579264317 0 1239.0181579264317 565.66082225824357 0 0 0 0 756.97325488826027 898.22939485128154 0 898.22939485128154 933.18267320920131 0 0 0 0 800.19778886004497 830.65435726571013 0 830.65435726571013 753.89944680023473 0 0 0 0 1800.9096406515746 1651.4862596681633 0 1651.4862596681633 1456.7442135126039 0 0 0 0 1011.1458872965013 1158.3396304394701 0 1158.3396304394701 1151.8566575857694 0 0 0 0 1637.8196363856696 529.77467469679686 0 529.77467469679686 206.3964892506483 0 0 0 0 1951.0013989360887 1082.3499082606431 0 1082.3499082606431 349.82021589876967 0 0 0 0 338.31188377719081 676.00573334073852 0 676.00573334073852 2562.2270370954066 0 0 0 0 271.1772946561714 103.94068982047975 0 103.94068982047975 1043.1357297291979 0 0 0 0 -143.97258316589796 186.17096678413145 0 186.17096678413145 822.07397254223179 0 0 0 0 255.09545713011175 224.97124742432788 0 224.97124742432788 768.82621239091168 0 0 0 0 -285.37128245908389 82.129606387774402 0 82.129606387774402 835.70454180081651 0 0 0 0 -129.88404135003657 192.77282732431922 0 192.77282732431922 975.51577055121015 0 0 0 0 136.6443613916781 468.89975803550624 0 468.89975803550624 910.34743588615675 0 0 0 0 200.63560675652116 365.05968237602792 0 365.05968237602792 800.81782243317139 0 0 0 0 188.62344415392727 546.9962662737089 0 546.9962662737089 1441.9647501095606 0 0 0 0 4.8711856938462006 284.90000824844174 0 284.90000824844174 615.75051490346232 0 0 0 0 -69.835013585796332 50.097830246979356 0 50.097830246979356 598.78683275394724 0 0 0 0 -131.33705595212814 72.705218851420796 0 72.705218851420796 675.13725464218805 0 0 0 0 -109.92500898579601 102.04667613633501 0 102.04667613633501 526.51338212288101 0 0 0 0 -162.60547908536319 -46.315271003473754 0 -46.315271003473754 529.35909457865637 0 0 0 0 -46.987108673296461 -182.86440996919555 0 -182.86440996919555 208.80999499073368 0 0 0 0 -206.64906181751576 -277.84750912102754 0 -277.84750912102754 510.73058029706408 0 0 0 0 -122.57726646795345 26.563473118891125 0 26.563473118891125 631.80986592273985 0 0 0 0 -101.78946750109026 161.34470134995354 0 161.34470134995354 419.83552817027157 0 0 0 0 1.7437314196412217 -2.089230199447897 0 -2.089230199447897 1.3502251899658049 0 0 0 0 -151.98837301307503 9.8344661363662453 0 9.8344661363662453 360.9094648824248 0 0 0 0 73.45415790442712 -0.60106856659331243 0 -0.60106856659331243 -174.28431876414106 0 0 0 0 -39.677657560405351 -109.68318978969364 0 -109.68318978969364 114.29502951131144 0 0 0 0 -75.627752874803264 95.202165787995909 0 95.202165787995909 -92.327697869579424 0 0 0 0 -195.87709405944224 -28.935402499286283 0 -28.935402499286283 -20.422213106314302 0 0 0 0 -198.60484699378139 -26.309364539760281 0 -26.309364539760281 18.441432585468647 0 0 0 0 -100.63775091682874 -32.025707207341839 0 -32.025707207341839 -46.048316822852939 0 0 0 0 -234.18438063393114 -31.899762845321675 0 -31.899762845321675 -17.907527294446481 0 0 0 0 -241.71974374123965 -19.145791742994334 0 -19.145791742994334 7.1642637504264712 0 0 0 0 -214.84821500207181 -58.368413637246704 0 -58.368413637246704 50.598707265400662 0 0 0 0 -215.6012343030161 -36.397421760309953 0 -36.397421760309953 -31.448856772331055 0 0 0 0 -139.58056144783041 72.471690873149782 0 72.471690873149782 34.88580681970052 0 0 0 0 -172.49937812842836 2.0596413420171302 0 2.0596413420171302 -26.011450913967565 0 0 0 0 -121.98330099959276 -60.295750305958791 0 -60.295750305958791 49.765388979001727 0 0 0 0 -240.89634828534327 17.953702987055294 0 17.953702987055294 -27.933808479450818 0 0 0 0 -190.91889270819502 0.84475751876061622 0 0.84475751876061622 -131.31130946346093 0 0 0 0 -193.38397583613641 82.806716941012382 0 82.806716941012382 -112.03499595989706 0 0 0 0 -191.72246286878362 184.98690668673953 0 184.98690668673953 -363.56106841875589 0 0 0 0 -311.24367189103214 157.9362024305301 0 157.9362024305301 -163.39066986890975 0 0 0 0 -267.03163532554754 -31.719905466670753 0 -31.719905466670753 26.94514252548106 0 0 0 0 -258.18868998912512 35.241119066136889 0 35.241119066136889 -96.500699824566254 0 0 0 0 -315.68224400475447 56.816154006912257 0 56.816154006912257 -17.121238991065184 0 0 0 0 3.8780210547128888 0.9649374292756363 0 0.9649374292756363 2.8242251824837581 0 0 0 0 -435.34046411014424 -775.94260354415019 0 -775.94260354415019 483.12911798896675 0 0 0 0 -305.55356528662378 83.788115736264444 0 83.788115736264444 -50.518567068647826 0 0 0 0 -709.52101304166717 197.17757644465746 0 197.17757644465746 245.93855959089706 0 0 0 0 -496.12060729983205 367.70702958469337 0 367.70702958469337 -97.775638663501013 0 0 0 0 -703.88278671863372 -440.59381883130118 0 -440.59381883130118 843.50297070416855 0 0 0 0 48.946759383121389 -36.953510026447475 0 -36.953510026447475 175.02614532884846 0 0 0 0 -477.70992404192657 -185.08561360005115 0 -185.08561360005115 593.94871541233442 0 0 0 0 -261.52219864508879 -60.108834818576725 0 -60.108834818576725 174.95002230905811 0 0 0 0 -345.15677361200505 57.942967285576742 0 57.942967285576742 30.123487016971467 0 0 0 0 -35.409904048297904 -27.931742804023088 0 -27.931742804023088 17.689664134102713 0 0 0 0 -51.852089956068085 -38.728813576781249 0 -38.728813576781249 406.43681307186489 0 0 0 0 -110.82961457285273 31.918982863295241 0 31.918982863295241 431.44268664414994 0 0 0 0 -1.9210209023440257 -154.25983119689045 0 -154.25983119689045 580.28068511807214 0 0 0 0 -129.3596776372724 -16.727394472778542 0 -16.727394472778542 400.84028172504622 0 0 0 0 -130.98818920092162 51.223061666492868 0 51.223061666492868 404.16205933198216 0 0 0 0 -138.4982578548952 25.641663000089466 0 25.641663000089466 452.68058317649411 0 0 0 0 -114.62012318055531 103.64678227863624 0 103.64678227863624 282.29719010695408 0 0 0 0 -204.62094418906781 230.85709237751871 0 230.85709237751871 301.66060322790872 0 0 0 0 -153.84222578860135 173.02080027699412 0 173.02080027699412 327.45375497531495 0 0 0 0 -150.60052038204594 206.98917209532374 0 206.98917209532374 486.28654483139326 0 0 0 0 -461.91604155876848 208.54447993652138 0 208.54447993652138 265.7919560686787 0 0 0 0 -348.2493865199649 283.44077073733206 0 283.44077073733206 235.91139073853265 0 0 0 0 -281.69401584030857 202.95278620207682 0 202.95278620207682 306.34336486311804 0 0 0 0 -237.72685304628885 224.57050164073098 0 224.57050164073098 185.11891301668948 0 0 0 0 -251.00776375629357 118.55245304929849 0 118.55245304929849 354.57116874388157 0 0 0 0 -487.53090840908408 229.72289136120526 0 229.72289136120526 181.10042347820126 0 0 0 0 -403.25716213755368 115.07985533941246 0 115.07985533941246 259.02861398782989 0 0 0 0 -407.22639887590231 20.595737806606849 0 20.595737806606849 135.34568600833882 0 0 0 0 -161.79948389658239 188.11362648697104 0 188.11362648697104 238.95479887934926 0 0 0 0 -73.797218466250342 -13.133905761453207 0 -13.133905761453207 366.09115381572337 0 0 0 0 6.9560878472681225 184.68777833735089 0 184.68777833735089 419.63877771602711 0 0 0 0 -535.35331311236951 13.737726478357217 0 13.737726478357217 822.07627817679804 0 0 0 0 -398.4979918452882 73.130460268337629 0 73.130460268337629 389.72762111216434 0 0 0 0 -660.85061053172831 -265.53588818187563 0 -265.53588818187563 201.89874869133928 0 0 0 0 -1094.1590615291352 -535.86131318187108 0 -535.86131318187108 -16.278847476249211 0 0 0 0 -808.13427725239308 -28.524128251825459 0 -28.524128251825459 -128.09255189912074 0 0 0 0 -734.32765382593789 -113.1872838071431 0 -113.1872838071431 -31.068512244091835 0 0 0 0 -685.72841119245277 78.4452095986926 0 78.4452095986926 273.7987169502012 0 0 0 0 -847.38817751615716 -69.883540890346922 0 -69.883540890346922 -610.78705994348275 0 0 0 0 -866.29176875282428 -585.75424464822572 0 -585.75424464822572 -640.227184300109 0 0 0 0 -914.53605119607528 -135.83764228541986 0 -135.83764228541986 -27.34443490114063 0 0 0 0 -1006.0072848237614 35.133400741797232 0 35.133400741797232 115.13240943147684 0 0 0 0 -780.79284271421784 26.7026643059653 0 26.7026643059653 -144.5130721745154 0 0 0 0 -605.35352218771732 84.9433840782076 0 84.9433840782076 81.937387283978751 0 0 0 0 -770.40988830849528 133.87817219865974 0 133.87817219865974 142.51279428668204 0 0 0 0 -462.66134000590318 191.26172393768798 0 191.26172393768798 148.75517788450816 0 0 0 0 -686.80592246702872 226.68632745047216 0 226.68632745047216 204.25361230066483 0 0 0 0 -714.92569940835619 39.327065224503713 0 39.327065224503713 60.047807034599828 0 0 0 0 -681.48846279102872 151.31204297468503 0 151.31204297468503 166.95769962090708 0 0 0 0 -604.82046098150022 145.45783471982577 0 145.45783471982577 130.40852209237346 0 0 0 0 -534.50755332117842 272.34543264863896 0 272.34543264863896 220.30820844819391 0 0 0 0 -1053.8155605010688 -155.42075778768776 0 -155.42075778768776 70.954642804150353 0 0 0 0 477.82135455247999 945.75574981944783 0 945.75574981944783 478.24982791740331 0 0 0 0 -18.068141511849198 20.410952549310085 0 20.410952549310085 -23.871169947264008 0 0 0 0 -784.98058925897931 -170.60461644460156 0 -170.60461644460156 -38.066204935119458 0 0 0 0 135.57850986931589 497.63577644866746 0 497.63577644866746 967.28453266205906 0 0 0 0 1320.6441112036991 -320.26737464178586 0 -320.26737464178586 1518.7321851952001 0 0 0 0 341.7097693790929 839.81587953975759 0 839.81587953975759 823.15027739587822 0 0 0 0 1398.2058274135343 -382.31162429426331 0 -382.31162429426331 -68.936023791175103 0 0 0 0 -997.21450641856063 87.386447587465227 0 87.386447587465227 -138.82642366085202 0 0 0 0 3229.9162466056077 289.52290436424664 0 289.52290436424664 -1883.4113983106072 0 0 0 0 1448.2922112848246 419.69845655146491 0 419.69845655146491 -111.40276942239143 0 0 0 0 474.96079723838193 533.55708520657572 0 533.55708520657572 -101.54123117827112 0 0 0 0 388.23447258071974 640.19664968417783 0 640.19664968417783 90.60188467752323 0 0 0 0 791.52763561047323 888.40864732730552 0 888.40864732730552 120.97475593895797 0 0 0 0 1063.1684606435865 887.39752665244396 0 887.39752665244396 -310.90931005781749 0 0 0 0 1126.6747695618251 855.12586328091857 0 855.12586328091857 -667.78552307313657 0 0 0 0 1025.8336356492528 1203.2471715596726 0 1203.2471715596726 67.32555669528665 0 0 0 0 -2042.0206556749908 -861.56610174663365 0 -861.56610174663365 547.12512819186668 0 0 0 0 -1470.9203287523269 -945.14704968383012 0 -945.14704968383012 -53.242778047715547 0 0 0 0 -5.3204681756124472 6.225204407162785 0 6.225204407162785 -1.1795325844292393 0 0 0 0 -689.48034113217727 -503.03653552669857 0 -503.03653552669857 192.59849675235455 0 0 0 0 -933.96602926330524 -232.50670133784297 0 -232.50670133784297 372.55894824204734 0 0 0 0 -1263.0979012937314 -358.95642508477613 0 -358.95642508477613 328.98354593475233 0 0 0 0 -303.92591185729543 -455.61476819076051 0 -455.61476819076051 165.60106486442237 0 0 0 0 -218.25247938392567 22.272954097745242 0 22.272954097745242 339.21470011817291 0 0 0 0 -174.42992453710758 150.74981062269944 0 150.74981062269944 7.7727402110758703 0 0 0 0 488.11054126721865 1104.7886693708642 0 1104.7886693708642 751.1987332461722 0 0 0 0 -14.400408276356941 19.379609380960233 0 19.379609380960233 12.072419612751133 0 0 0 0 -64.047905781269947 246.42221692540625 0 246.42221692540625 659.35858120043122 0 0 0 0 -1934.3202087288987 1523.6863508787305 0 1523.6863508787305 363.97451287921285 0 0 0 0 -166.0419488629268 16.439511595322983 0 16.439511595322983 -246.12730962740898 0 0 0 0 -217.41897805086774 60.926539529507863 0 60.926539529507863 -82.751616183115402 0 0 0 0 -192.46041091787629 24.328769333689706 0 24.328769333689706 -41.336511032131966 0 0 0 0 -183.46082093458972 126.27208281043568 0 126.27208281043568 8.8222787524573505 0 0 0 0 -109.16310715183499 64.953981788770761 0 64.953981788770761 -26.206344641570468 0 0 0 0 -116.60287421324756 160.29084711126052 0 160.29084711126052 18.636934984999243 0 0 0 0 -54.808591860135493 -152.56535670192534 0 -152.56535670192534 25.800999735671212 0 0 0 0 -8.2112330790841952 78.125754973094445 0 78.125754973094445 11.419983818705077 0 0 0 0 -46.846369377880322 45.579221825675234 0 45.579221825675234 2.6299277596255592 0 0 0 0 360.04447655188415 652.08311181995305 0 652.08311181995305 111.11768336693058 0 0 0 0 -33.623283529515902 69.920474060192646 0 69.920474060192646 12.365280574695134 0 0 0 0 -194.9892835541541 73.255523912492208 0 73.255523912492208 479.52533613542255 0 0 0 0 -23.788792681017924 25.59579859948505 0 25.59579859948505 7.063206793532359 0 0 0 0 109.14242095320515 -13.49350529377989 0 -13.49350529377989 -312.8869089303189 0 0 0 0 164.62627306662012 -596.16064096495984 0 -596.16064096495984 80.109438134648371 0 0 0 0 105.12095263812807 340.42040867375908 0 340.42040867375908 77.054492421433679 0 0 0 0 515.05714914097916 82.965882915872498 0 82.965882915872498 -224.72096384176984 0 0 0 0 0.016018812756897205 11.229958276176689 0 11.229958276176689 7.5094472261413898 0 0 0 0 -69.391790692709037 241.27259791854885 0 241.27259791854885 157.19786201571696 0 0 0 0 -19.796240050687629 678.94318769705569 0 678.94318769705569 -406.25707781795063 0 0 0 0 244.02329749036289 459.75058584028739 0 459.75058584028739 -399.79058582948392 0 0 0 0 216.50551635302691 405.38936025592557 0 405.38936025592557 -267.74080054953811 0 0 0 0 -113.72530888556503 452.90099562043906 0 452.90099562043906 -273.1312702191135 0 0 0 0 -1.4314673350951637 7.7239174522262886 0 7.7239174522262886 1.3840854135529526 0 0 0 0 -107.2824095954129 370.10694103181595 0 370.10694103181595 -416.78873160002877 0 0 0 0 -277.1560082866381 343.02221578123499 0 343.02221578123499 -127.33370881943847 0 0 0 0 -265.24361516891804 436.09343573503429 0 436.09343573503429 -156.4475306540553 0 0 0 0 -148.12736029426742 484.27613477443811 0 484.27613477443811 -160.00866688531823 0 0 0 0 -257.46870425008819 392.37346491443168 0 392.37346491443168 -17.976279356662417 0 0 0 0 -339.28473703000054 350.03490306966705 0 350.03490306966705 -27.275210206807969 0 0 0 0 -277.37774973692285 292.66269450739492 0 292.66269450739492 -17.516994805147988 0 0 0 0 -292.77330720887403 253.19320580619387 0 253.19320580619387 -115.36992590357113 0 0 0 0 -210.7420074153888 251.38038440444325 0 251.38038440444325 -118.14144926347944 0 0 0 0 -217.44250584137626 282.59251200962171 0 282.59251200962171 -208.43654465925647 0 0 0 0 24.864272505685832 22.197913035871352 0 22.197913035871352 -0.18621809536742262 0 0 0 0 -324.81122439740284 263.74293135284097 0 263.74293135284097 -100.54362612770637 0 0 0 0 -231.08761057006996 111.07272661643947 0 111.07272661643947 144.80636685118952 0 0 0 0 -14.452053104103967 18.706752709046981 0 18.706752709046981 4.743033698539648 0 0 0 0 -333.19444487061992 308.93779164609441 0 308.93779164609441 6.6481711503438419 0 0 0 0 -401.01618710971889 266.75394730971311 0 266.75394730971311 41.900979355385061 0 0 0 0 -382.57986158496351 174.28190869344689 0 174.28190869344689 51.996653063382837 0 0 0 0 -370.20974174967705 237.73163112134353 0 237.73163112134353 13.117136033892166 0 0 0 0 -377.28426880909683 170.88829312047164 0 170.88829312047164 -27.518014448243775 0 0 0 0 -284.62176259361331 133.71353508952234 0 133.71353508952234 -13.811871301702922 0 0 0 0 -468.23670401758864 135.57181134584243 0 135.57181134584243 39.892251727447729 0 0 0 0 -449.55296052685662 188.10594637261602 0 188.10594637261602 146.57398010307224 0 0 0 0 -443.85271312863915 10.109859665535623 0 10.109859665535623 11.710896812772262 0 0 0 0 -632.07206969569961 119.99000888063892 0 119.99000888063892 123.24828699641512 0 0 0 0 -323.84014951489371 75.638335589232156 0 75.638335589232156 21.646554608887527 0 0 0 0 -566.56409435276873 239.11868929170305 0 239.11868929170305 194.34438865193806 0 0 0 0 -503.95457678852836 231.49757652636617 0 231.49757652636617 143.19927522614307 0 0 0 0 -486.38047589734197 304.8197668041139 0 304.8197668041139 241.04549271572614 0 0 0 0 -475.73297482364433 245.3098752662263 0 245.3098752662263 146.55492476875952 0 0 0 0 -416.7412756204867 326.97085498212982 0 326.97085498212982 94.076213911306695 0 0 0 0 -389.64896962176135 299.31183517420141 0 299.31183517420141 116.2404665738577 0 0 0 0 -337.05836712109885 402.37466204926022 0 402.37466204926022 96.950700787216192 0 0 0 0 -352.90379078841943 470.45483239452005 0 470.45483239452005 180.97859816879827 0 0 0 0 -325.18479878594371 419.33076561450434 0 419.33076561450434 264.6052475910692 0 0 0 0 -343.54793995607179 371.40388515306404 0 371.40388515306404 162.37965527896813 0 0 0 0 -386.59162273478796 386.18146950119262 0 386.18146950119262 210.07917660205567 0 0 0 0 -396.73033205102547 300.61287275030918 0 300.61287275030918 185.21738660394476 0 0 0 0 -280.038581329507 297.9212608617454 0 297.9212608617454 271.20180691166024 0 0 0 0 -360.06444847509192 355.38449092318842 0 355.38449092318842 259.52110922573775 0 0 0 0 -364.45721698948182 261.19548309956735 0 261.19548309956735 274.39184415048294 0 0 0 0 -286.43291500716441 296.41939795674261 0 296.41939795674261 278.98906140439794 0 0 0 0 -479.92570192159474 228.02357562636462 0 228.02357562636462 238.81807345405105 0 0 0 0 -404.86669601642643 312.72372965066461 0 312.72372965066461 211.06295505973685 0 0 0 0 -239.57638303575368 218.7010950466356 0 218.7010950466356 404.83675564730947 0 0 0 0 -243.33823331806343 356.69552952545928 0 356.69552952545928 350.0605096490217 0 0 0 0 -140.6133727336819 286.87758431453767 0 286.87758431453767 450.52692208305234 0 0 0 0 -138.47635621634799 296.41120252695691 0 296.41120252695691 322.89310789771844 0 0 0 0 -221.7120158108155 407.832085254704 0 407.832085254704 349.13881381857937 0 0 0 0 -105.07140066760621 344.66984454988415 0 344.66984454988415 288.31604837271152 0 0 0 0 -271.32183139761764 345.74933675368811 0 345.74933675368811 274.52589802493458 0 0 0 0 -196.20216114904906 442.87681900807365 0 442.87681900807365 196.59275140300451 0 0 0 0 -217.78608415359849 414.47663748683772 0 414.47663748683772 314.85622213341412 0 0 0 0 -213.62330796329479 472.64100319811405 0 472.64100319811405 246.18534005389665 0 0 0 0 -175.42913132123795 471.63705986553396 0 471.63705986553396 11.920408474878059 0 0 0 0 -352.94255193169374 441.73571685679053 0 441.73571685679053 239.05734546732856 0 0 0 0 -307.45683715347695 500.99583911728041 0 500.99583911728041 44.491213663277449 0 0 0 0 -264.66436511996289 483.74561902694404 0 483.74561902694404 26.574429730564589 0 0 0 0 -343.53638804434013 435.85799877726095 0 435.85799877726095 12.156233386267559 0 0 0 0 -326.31194142237655 582.33787074995053 0 582.33787074995053 -110.76899707684061 0 0 0 0 -361.4309255036278 515.88367359319818 0 515.88367359319818 62.744618465898384 0 0 0 0 -223.87265000591287 578.93480135615391 0 578.93480135615391 -188.26077694506239 0 0 0 0 -188.20146405182459 561.73367461876114 0 561.73367461876114 -181.83356450728024 0 0 0 0 -273.46570486144628 659.42985644672444 0 659.42985644672444 -318.36277830618201 0 0 0 0 -345.32404963881891 496.58246420618525 0 496.58246420618525 -373.84193744827644 0 0 0 0 -523.86320697753399 407.05596378337941 0 407.05596378337941 -352.31617362420729 0 0 0 0 -476.57812589361311 446.5209350796722 0 446.5209350796722 44.558664785698056 0 0 0 0 -368.50707278072514 649.53075705746596 0 649.53075705746596 -173.35201445422717 0 0 0 0 -67.409274183366506 500.84576645774359 0 500.84576645774359 -598.35923657856256 0 0 0 0 315.37865757747932 562.23293507091876 0 562.23293507091876 -376.92731072173046 0 0 0 0 -113.4681942594907 553.40862848160759 0 553.40862848160759 66.231196319218725 0 0 0 0 -17.604906609391449 23.272543207725093 0 23.272543207725093 -15.379943058171932 0 0 0 0 234.27722432066003 154.8306520291153 0 154.8306520291153 -54.832288698176853 0 0 0 0 349.11679064216878 682.37810092228028 0 682.37810092228028 11.468422082347388 0 0 0 0 214.19525400437033 326.02685295601168 0 326.02685295601168 122.87545807860442 0 0 0 0 206.60110891227669 325.17177468194859 0 325.17177468194859 323.32591854748898 0 0 0 0 751.14695582154309 224.88082302814473 0 224.88082302814473 136.32668416293745 0 0 0 0 898.04832090552372 510.63983023188484 0 510.63983023188484 131.17558222200023 0 0 0 0 269.48053910881572 367.59601942398149 0 367.59601942398149 272.5640694876347 0 0 0 0 269.11136866645393 360.0103767551991 0 360.0103767551991 154.11467563453334 0 0 0 0 173.72716208631027 522.32822980938363 0 522.32822980938363 -42.109510962065542 0 0 0 0 -63.697401345823891 294.79229062424565 0 294.79229062424565 193.61007649828389 0 0 0 0 -32.061135733310948 362.007952806307 0 362.007952806307 181.07956215920422 0 0 0 0 -9.6458413586515235 422.74591584318841 0 422.74591584318841 338.10847812396241 0 0 0 0 244.91726032394217 463.20953019947046 0 463.20953019947046 400.77049963054014 0 0 0 0 81.052437062142417 302.67968072440999 0 302.67968072440999 312.10121337422424 0 0 0 0 -37.626973617210751 428.63214169310959 0 428.63214169310959 370.59635012692888 0 0 0 0 3.1348851327493321 371.87716319154424 0 371.87716319154424 468.37724531340064 0 0 0 0 56.076316485748976 294.06424027796311 0 294.06424027796311 471.13283793526352 0 0 0 0 33.740279549274419 262.8438109130002 0 262.8438109130002 608.98047920147656 0 0 0 0 -115.91959554995992 170.19409743608412 0 170.19409743608412 509.9664495595207 0 0 0 0 505.46134029446421 666.31065080392182 0 666.31065080392182 746.9361940305098 0 0 0 0 492.59548013060703 539.86072389657784 0 539.86072389657784 595.73119328486791 0 0 0 0 245.56084823895071 477.22182562400121 0 477.22182562400121 618.9286645451175 0 0 0 0 271.70327088595513 443.85080721477425 0 443.85080721477425 557.1889061970287 0 0 0 0 571.90598991441948 537.98383005555661 0 537.98383005555661 412.15659750957275 0 0 0 0 610.29726538593968 467.65521688224908 0 467.65521688224908 365.26466576024541 0 0 0 0 309.18062888155691 365.00236819652491 0 365.00236819652491 346.51057628510171 0 0 0 0 652.75904435606208 421.90025498851173 0 421.90025498851173 227.51720700256556 0 0 0 0 642.26525763811333 457.47022279571229 0 457.47022279571229 258.64734026735823 0 0 0 0 -37.254026402079035 152.02409155462374 0 152.02409155462374 73.843955412245123 0 0 0 0 987.7988457383035 555.0330148338835 0 555.0330148338835 237.9186482623918 0 0 0 0 861.80828118574573 467.65369177304092 0 467.65369177304092 254.05194496471086 0 0 0 0 -11.296459186150386 25.927535736183035 0 25.927535736183035 -24.628535228045422 0 0 0 0 800.50432147370884 645.1912029547384 0 645.1912029547384 418.04498084809165 0 0 0 0 1000.3227753931533 501.13481183779913 0 501.13481183779913 233.94250883904169 0 0 0 0 998.06059411622118 639.64879166656465 0 639.64879166656465 355.50002696899173 0 0 0 0 857.78562190788216 546.61430028731411 0 546.61430028731411 293.95325367953046 0 0 0 0 1145.2381411515671 456.75173872300365 0 456.75173872300365 155.96779264471843 0 0 0 0 1539.5272497248079 554.54389128656476 0 554.54389128656476 -121.94063061563065 0 0 0 0 1189.097575098509 629.15478049387457 0 629.15478049387457 119.74907793902094 0 0 0 0 1251.3754087092166 920.30103829490326 0 920.30103829490326 564.10416842819541 0 0 0 0 909.13107247464359 707.66963764021057 0 707.66963764021057 430.97951931834541 0 0 0 0 923.54668759525521 650.15223256296304 0 650.15223256296304 358.58478686731542 0 0 0 0 -46.693906206579413 52.217475691701111 0 52.217475691701111 4.1219454204110662 0 0 0 0 -44.9949644358189 32.292249469018287 0 32.292249469018287 -0.90548612058072564 0 0 0 0 -17.738650144080566 79.88230070766258 0 79.88230070766258 23.493055906961672 0 0 0 0 -12.852859652128583 27.896130538637195 0 27.896130538637195 3.0361516952742704 0 0 0 0 2.2529717435049577 12.303559490075827 0 12.303559490075827 -5.3636516820585811 0 0 0 0 -13.682214305817581 10.39408351009639 0 10.39408351009639 13.507551010794771 0 0 0 0 -115.78466522241069 95.639129115006654 0 95.639129115006654 68.476169396162732 0 0 0 0 -1.2599685513792771 20.952580827823745 0 20.952580827823745 0.23372010060427328 0 0 0 0 91.036913155268849 -6.8977549279879895 0 -6.8977549279879895 -148.18651592273818 0 0 0 0 -111.71717602371791 60.205544347816613 0 60.205544347816613 15.898919849845697 0 0 0 0 -145.97808390416685 -63.882499982762965 0 -63.882499982762965 24.987456605394982 0 0 0 0 26.131149442513561 196.33831969001403 0 196.33831969001403 38.070257032522932 0 0 0 0 -17.919278906749454 24.901422843933691 0 24.901422843933691 -23.140182339081775 0 0 0 0 -7.2277225008520123 23.154528553874727 0 23.154528553874727 -2.536872797617491 0 0 0 0 -338.99336499171477 30.964840923676093 0 30.964840923676093 124.5138855088735 0 0 0 0 -15.413721082433767 -83.146573278267169 0 -83.146573278267169 -26.520856203527728 0 0 0 0 -5.4929339295558748 15.03926477607456 0 15.03926477607456 33.822139690120821 0 0 0 0 23.667855190462433 7.7344286573134013 0 7.7344286573134013 18.768606330238981 0 0 0 0 8.9110596855872473 74.424405023874783 0 74.424405023874783 28.749839653639356 0 0 0 0 32.962248101408477 45.524891637760447 0 45.524891637760447 23.494607820877718 0 0 0 0 -6.2924672395776327 11.921703292585136 0 11.921703292585136 -14.38759448192809 0 0 0 0 -93.2624752550837 23.503520179656334 0 23.503520179656334 -162.14545139190159 0 0 0 0 -4.9553961774222239 3.6486443031290605 0 3.6486443031290605 1.2135260804056429 0 0 0 0 -8.951033606804458 72.08518950454345 0 72.08518950454345 154.18150166171836 0 0 0 0 -261.54051207316661 -289.23667829889746 0 -289.23667829889746 -84.738194442528766 0 0 0 0 -162.5306076770903 -5.5508214591318392 0 -5.5508214591318392 198.54710290429648 0 0 0 0 -16.131148723184381 15.087401990033072 0 15.087401990033072 -9.0781359931266081 0 0 0 0 102.28970916286926 -87.415996597119374 0 -87.415996597119374 -85.726804686106334 0 0 0 0 -4.4729310441762209 132.14738373162982 0 132.14738373162982 60.39295683101227 0 0 0 0 -97.171724976775295 47.48384264082415 0 47.48384264082415 81.098257818404818 0 0 0 0 161.1714312078584 112.92896302323061 0 112.92896302323061 4.3316561497340444 0 0 0 0 -2.760866730579437 1.423513456233195 0 1.423513456233195 22.300226246021339 0 0 0 0 7.2552215664545656 37.914196119920234 0 37.914196119920234 34.853919053664868 0 0 0 0 44.398113673996704 38.862030467200384 0 38.862030467200384 0.099910207543871365 0 0 0 0 4.8991475086622813 56.300291400430069 0 56.300291400430069 -61.850361095537664 0 0 0 0 54.143358179324423 71.072864468616899 0 71.072864468616899 -148.24838497454766 0 0 0 0 -3.3953791888707201 -8.0261320194076688 0 -8.0261320194076688 58.186499574250774 0 0 0 0 68.523175914520834 -25.381582133097254 0 -25.381582133097254 -129.16431087872479 0 0 0 0 -7.7165757820849024 5.6483425248844696 0 5.6483425248844696 -3.8687536958381941 0 0 0 0 32.32676763786003 -42.835401642616489 0 -42.835401642616489 11.865654319553869 0 0 0 0 206.91976756006625 47.472800997435115 0 47.472800997435115 -103.77701258777961 0 0 0 0 -137.42979424399891 161.79344216053141 0 161.79344216053141 -250.60340112884296 0 0 0 0 -0.51078069459961739 3.3949717148962577 0 3.3949717148962577 -3.0198615260392785 0 0 0 0 -201.07273236207402 128.76186893349222 0 128.76186893349222 -0.31111737900937442 0 0 0 0 -496.92283571248845 398.56545577725774 0 398.56545577725774 -195.65131112147355 0 0 0 0 -552.85890723311604 417.92502740939381 0 417.92502740939381 205.84986185538583 0 0 0 0 -687.88993894879241 186.1093594537233 0 186.1093594537233 -159.12529187591281 0 0 0 0 -511.68145234425174 530.38949538398447 0 530.38949538398447 6.3346076843190531 0 0 0 0 -5.036636350302615 3.6009557536346932 0 3.6009557536346932 -3.57833192185808 0 0 0 0 118.01172283986375 1375.268922918211 0 1375.268922918211 -830.33377967949491 0 0 0 0 227.51210643718866 -710.21490790036887 0 -710.21490790036887 86.904471657137037 0 0 0 0 -650.49035269136255 1222.5114875595641 0 1222.5114875595641 1752.8576340434665 0 0 0 0 519.10795848335692 463.81311844257289 0 463.81311844257289 -177.06041132297833 0 0 0 0 -655.44194657446496 -387.66148687480018 0 -387.66148687480018 888.7751501329185 0 0 0 0 -13.817541653566757 15.474496659796948 0 15.474496659796948 -5.3959822031036424 0 0 0 0 108.82484691464197 520.8132370099338 0 520.8132370099338 -9.358089814435516 0 0 0 0 -492.8308642344964 50.810283419159532 0 50.810283419159532 199.77490705846867 0 0 0 0 193.75938307046454 -118.78606557836611 0 -118.78606557836611 330.42567502270686 0 0 0 0 76.186781719952705 89.727691415217123 0 89.727691415217123 -35.184465528844157 0 0 0 0 -121.44841125188395 -28.23199199247756 0 -28.23199199247756 263.37673505433486 0 0 0 0 -346.4475294395088 508.57766562547476 0 508.57766562547476 25.437676154353539 0 0 0 0 -364.24841432365065 1046.0099653561192 0 1046.0099653561192 -360.26588004245059 0 0 0 0 -1115.3450147940166 -187.83655137332971 0 -187.83655137332971 3847.4847849702201 0 0 0 0 -65.843547922027938 626.43170244004068 0 626.43170244004068 -1868.7991030888661 0 0 0 0 6.2765306773391387 5.4049414082892042 0 5.4049414082892042 2.730777378814885 0 0 0 0 -507.04802982087131 573.19326974447176 0 573.19326974447176 -286.9173222354184 0 0 0 0 -119.4307302184352 693.20458770222467 0 693.20458770222467 -549.54213546089886 0 0 0 0 22.422898173113012 20.95780995004435 0 20.95780995004435 6.7286032274564249 0 0 0 0 40.555516754859127 163.28981189346086 0 163.28981189346086 826.65886709361075 0 0 0 0 436.48669818455164 -287.66501108969806 0 -287.66501108969806 1569.4465162882407 0 0 0 0 25.205011954564725 823.57222903754791 0 823.57222903754791 309.22367612482049 0 0 0 0 225.59516744163011 742.78266720417105 0 742.78266720417105 1646.3640394104004 0 0 0 0 -392.42583092263521 683.48421022683033 0 683.48421022683033 1097.9953553805608 0 0 0 0 -191.11400690726441 -254.54355374106672 0 -254.54355374106672 -369.95615929138148 0 0 0 0 -4.5159436505630097 4.0640635569039674 0 4.0640635569039674 -1.5165033785931996 0 0 0 0 -1347.3732868478201 550.10587103062062 0 550.10587103062062 -149.07620900278562 0 0 0 0 -1816.3190402681503 -781.9701073270553 0 -781.9701073270553 -81.21053823110924 0 0 0 0 -821.44690970856027 123.76771075186844 0 123.76771075186844 0.2076440327509772 0 0 0 0 -205.8213612002728 46.205064162000781 0 46.205064162000781 -1184.7434346579976 0 0 0 0 -363.5281800290395 948.83750090219837 0 948.83750090219837 -399.53142667673819 0 0 0 0 158.79298989755625 281.89857695485989 0 281.89857695485989 -1265.1866475233983 0 0 0 0 2.6842108304606995 5.1520970362180378 0 5.1520970362180378 -0.93763679821720913 0 0 0 0 117.8031703500601 312.55073749982694 0 312.55073749982694 -0.11822024350840366 0 0 0 0 -115.78535352454492 308.57232253432448 0 308.57232253432448 525.13473604616593 0 0 0 0 -88.051685004242245 569.67058520918363 0 569.67058520918363 256.60551043206942 0 0 0 0 -66.445164530625334 186.5798623999799 0 186.5798623999799 -373.30798140495608 0 0 0 0 -471.44923017342808 759.09483495821769 0 759.09483495821769 -697.21243878261885 0 0 0 0 -164.20604160267976 42.349639702646527 0 42.349639702646527 -12.008987175504444 0 0 0 0 205.23518544793478 423.22194021227187 0 423.22194021227187 -511.73115431314727 0 0 0 0 -53.41764713644443 393.24135178758297 0 393.24135178758297 428.39655824299552 0 0 0 0 -40.142494490261015 558.50197235582891 0 558.50197235582891 240.82148454012349 0 0 0 0 -253.29235742806486 100.16917264067888 0 100.16917264067888 -119.80558232803014 0 0 0 0 80.320762159026344 406.09341096416756 0 406.09341096416756 -149.86562780136592 0 0 0 0 -4.8115442355483538 -177.66433866719308 0 -177.66433866719308 -700.26157842476459 0 0 0 0 94.820323804553482 36.199267847114243 0 36.199267847114243 271.13980942497437 0 0 0 0 4.4162372059520294 8.4921116063596571 0 8.4921116063596571 -0.7472481775589852 0 0 0 0 29.43001707381336 69.909549183124909 0 69.909549183124909 0.32822389152455561 0 0 0 0 130.56612725307059 248.47818974351685 0 248.47818974351685 -62.830442186506843 0 0 0 0 58.000160914059961 73.339455266279401 0 73.339455266279401 -57.536408962998394 0 0 0 0 95.393790767260953 40.031675939279921 0 40.031675939279921 -34.865603884754819 0 0 0 0 70.523197448070277 379.64945110518602 0 379.64945110518602 257.1822665804284 0 0 0 0 -55.830996020158636 329.999831541194 0 329.999831541194 48.533025884680683 0 0 0 0 96.721165807481157 386.80115540322731 0 386.80115540322731 6.747838160750689 0 0 0 0 82.982176107674604 519.41345239411748 0 519.41345239411748 226.46536628554895 0 0 0 0 -21.517192289647937 435.77605436731392 0 435.77605436731392 222.18559762599762 0 0 0 0 54.714377625830821 480.33947127059218 0 480.33947127059218 299.68624359172054 0 0 0 0 47.426003536609642 373.02652722897619 0 373.02652722897619 303.14877416583477 0 0 0 0 25.021976360505505 460.65676671416441 0 460.65676671416441 491.67052211874397 0 0 0 0 22.489036806524382 462.19073785252112 0 462.19073785252112 491.67975792317941 0 0 0 0 -18.219320214440813 472.6584061133035 0 472.6584061133035 665.75977779520326 0 0 0 0 7.0421927696443163 369.48740236084268 0 369.48740236084268 648.75262745962755 0 0 0 0 11.612173847301165 352.3502117980679 0 352.3502117980679 819.59740453076665 0 0 0 0 -53.164931009916472 386.57605530471483 0 386.57605530471483 868.34604677566676 0 0 0 0 -37.356473066924082 535.73415760468197 0 535.73415760468197 786.57635919476161 0 0 0 0 36.598366699952749 492.77558913251414 0 492.77558913251414 487.40088615726563 0 0 0 0 -5.8487206861027516 489.63774628080864 0 489.63774628080864 487.28877018037019 0 0 0 0 132.04140091419686 465.23689565897803 0 465.23689565897803 445.98457919003704 0 0 0 0 -81.538965649451711 582.21942610920814 0 582.21942610920814 1023.4635760614619 0 0 0 0 -2.2319116202925215 117.18032380625027 0 117.18032380625027 1472.0323016905168 0 0 0 0 -25.434208860307081 415.31262581963711 0 415.31262581963711 964.75478949013632 0 0 0 0 3344.732301078795 502.64160860015545 0 502.64160860015545 -740.4605204280233 0 0 0 0 -307.34915627998271 59.978169304362382 0 59.978169304362382 2289.9427022596574 0 0 0 0 240.58599005878659 106.54415443379276 0 106.54415443379276 942.29055772826541 0 0 0 0 269.93602433952037 -226.55247053380299 0 -226.55247053380299 1351.6432971234099 0 0 0 0 -6342.9359266398242 -1462.4228562252247 0 -1462.4228562252247 807.28761156921973 0 0 0 0 360.4652043828537 247.51873058197089 0 247.51873058197089 -410.46226726643363 0 0 0 0 -16.046148787718266 189.49453097223886 0 189.49453097223886 920.12731316801364 0 0 0 0 28.230760080515864 30.626934003073217 0 30.626934003073217 7.9214750973047856 0 0 0 0 -13.18419498809817 373.2150675667217 0 373.2150675667217 687.47729839978274 0 0 0 0 -74.394415566435782 174.76446648871934 0 174.76446648871934 919.73954253891134 0 0 0 0 19.786345538028399 250.86080634070095 0 250.86080634070095 800.24256352704833 0 0 0 0 -57.602818721905351 261.66988181165652 0 261.66988181165652 1087.1934142048412 0 0 0 0 -87.636495940495024 253.42675669994787 0 253.42675669994787 105.09469847525543 0 0 0 0 -84.524368749184191 123.78449470953638 0 123.78449470953638 53.721172376506729 0 0 0 0 15.598969654876356 157.45777842887583 0 157.45777842887583 63.543770906966529 0 0 0 0 26.339467724466395 196.2344206938069 0 196.2344206938069 -19.504780319577549 0 0 0 0 105.00771619848877 296.43652058168664 0 296.43652058168664 58.237387345783645 0 0 0 0 -57.531236554343785 508.29220636454193 0 508.29220636454193 -17.515739184615086 0 0 0 0 -59.540807371427206 568.27498345819913 0 568.27498345819913 229.41760804821388 0 0 0 0 -368.15187543920513 539.30112959624967 0 539.30112959624967 228.9281983148685 0 0 0 0 -312.84201859182127 414.29394195334135 0 414.29394195334135 404.01752884924645 0 0 0 0 -360.23787273700935 203.00458249018084 0 203.00458249018084 145.97712861021864 0 0 0 0 -305.09012134237321 405.12315909966128 0 405.12315909966128 23.639065807175939 0 0 0 0 -647.69721602621235 220.82950344937126 0 220.82950344937126 320.51310319117692 0 0 0 0 -433.66130265266906 178.44571534728311 0 178.44571534728311 188.19808796985308 0 0 0 0 -499.76011815293521 -17.623617339613702 0 -17.623617339613702 124.50087599754625 0 0 0 0 -161.46907079935892 111.30476389257092 0 111.30476389257092 171.90902420679777 0 0 0 0 -163.43296939974027 89.235666705973927 0 89.235666705973927 78.367704141288414 0 0 0 0 -34.83938576572541 101.56587765563017 0 101.56587765563017 60.74671224955091 0 0 0 0 -30.694393383782426 62.961112704419065 0 62.961112704419065 47.227766035022796 0 0 0 0 -28.503522893714631 31.14055583970179 0 31.14055583970179 -20.38926955118184 0 0 0 0 -50.925650882875161 19.083080264540399 0 19.083080264540399 1.2743218378666938 0 0 0 0 -24.15055731950298 113.32872348898627 0 113.32872348898627 72.662639385249349 0 0 0 0 2.8785610422928585 86.04620043867908 0 86.04620043867908 76.453992607581313 0 0 0 0 -17.046770331566222 47.362196957521519 0 47.362196957521519 34.614477790164528 0 0 0 0 -19.813648888932221 54.155481911744573 0 54.155481911744573 19.170177686111856 0 0 0 0 -38.800347651194897 46.773576689789479 0 46.773576689789479 27.69671905283758 0 0 0 0 10.033707396060436 105.50295504309906 0 105.50295504309906 39.259711035920191 0 0 0 0 -15.461474980556886 57.690073435649538 0 57.690073435649538 33.12497953773709 0 0 0 0 -42.615272858888758 36.605902902605337 0 36.605902902605337 -3.789771528256523 0 0 0 0 2.4411993687549511 68.960380507582158 0 68.960380507582158 54.96291425675372 0 0 0 0 -2.3910377926742541 23.727711571123791 0 23.727711571123791 8.1264346986307885 0 0 0 0 -47.956114049949974 42.917081915962626 0 42.917081915962626 39.636771230841987 0 0 0 0 -37.207138315061457 52.004733447713079 0 52.004733447713079 -3.4515494587249123 0 0 0 0 -48.379789405109477 28.078304272661626 0 28.078304272661626 18.604076471674489 0 0 0 0 -34.046081767213764 49.841819943423616 0 49.841819943423616 -14.384028210470206 0 0 0 0 -32.249465849010448 60.208471922225726 0 60.208471922225726 27.896199885320129 0 0 0 0 -35.727750872778415 40.257330973749049 0 40.257330973749049 14.486850002140272 0 0 0 0 -42.506489173072623 62.156051697413204 0 62.156051697413204 7.1846381451323396 0 0 0 0 0.66267871810348633 12.299982804266826 0 12.299982804266826 -0.36665008574703961 0 0 0 0 -36.777809971597549 30.752484878685806 0 30.752484878685806 -11.08373509845714 0 0 0 0 -20.035134739635396 65.887997531113797 0 65.887997531113797 30.183214568878611 0 0 0 0 -13.927548181877469 34.886091271405945 0 34.886091271405945 3.9863095027008626 0 0 0 0 -24.776310122251743 38.308249129833712 0 38.308249129833712 -3.6651080412557349 0 0 0 0 -0.99903551139868796 20.430620102953981 0 20.430620102953981 -4.4594586322637042 0 0 0 0 4.4557349467605292 23.154616908365611 0 23.154616908365611 3.3223434187399903 0 0 0 0 -12.303324446824263 46.954315528550069 0 46.954315528550069 14.08008642194909 0 0 0 0 3.4500528629599785 39.031020053519697 0 39.031020053519697 3.2980429900030117 0 0 0 0 -23.981037108117008 24.148310670873798 0 24.148310670873798 18.012316686378142 0 0 0 0 40.634883315127809 41.200822247148608 0 41.200822247148608 -128.79788243777875 0 0 0 0 -116.5324371411316 27.925941102604156 0 27.925941102604156 36.544106665765867 0 0 0 0 1.0233811398541661 4.3700207401990241 0 4.3700207401990241 3.5325955258208523 0 0 0 0 -73.527046047573094 1.4469814500771463 0 1.4469814500771463 16.146005593604059 0 0 0 0 9.728860440030644 25.980395600510974 0 25.980395600510974 18.626915003260365 0 0 0 0 43.488221331506793 22.441177287415485 0 22.441177287415485 -78.867321777404868 0 0 0 0 -32.905421449406276 120.27382536462392 0 120.27382536462392 -88.959192670357879 0 0 0 0 -10.96829919701122 65.645691650068329 0 65.645691650068329 11.928697540453868 0 0 0 0 -9.1861251439485443 36.543178365729361 0 36.543178365729361 -10.410053857137541 0 0 0 0 -9.1222976091568171 47.372655752527407 0 47.372655752527407 -2.5104441809817217 0 0 0 0 -24.741369878353908 167.70782724597302 0 167.70782724597302 139.23323013959453 0 0 0 0 2.8981726830654395 45.843547707243687 0 45.843547707243687 -19.843359769812736 0 0 0 0 -89.838221633861394 -56.701855809034896 0 -56.701855809034896 -26.348149196594022 0 0 0 0 -7.6550716693050083 24.652313960889899 0 24.652313960889899 -9.4265223069499484 0 0 0 0 38.086752649782284 119.21855531787151 0 119.21855531787151 -2.2967838073964231 0 0 0 0 90.119917621784225 100.66258819331779 0 100.66258819331779 -104.64503366322606 0 0 0 0 -14.905036519510389 26.264353857550105 0 26.264353857550105 -25.325530994002776 0 0 0 0 -31.040803939884427 106.44092934625405 0 106.44092934625405 1.866917494480731 0 0 0 0 -10.601314006296889 59.5970313032376 0 59.5970313032376 16.439591333066346 0 0 0 0 -36.432856956444965 91.144352181730937 0 91.144352181730937 45.621974707071786 0 0 0 0 -9.2435404251082218 88.567283300115378 0 88.567283300115378 42.839889791044698 0 0 0 0 28.659850541025392 52.317152561357176 0 52.317152561357176 42.244198566933221 0 0 0 0 -8.8765996395341062 94.293813308664539 0 94.293813308664539 36.880421830110208 0 0 0 0 -1.1970531310180377 90.808215712684614 0 90.808215712684614 18.270567760831909 0 0 0 0 122.57309330482349 179.57825717245942 0 179.57825717245942 -268.61415914824465 0 0 0 0 -16.325791411753571 1.1591457391924678 0 1.1591457391924678 12.531122419015446 0 0 0 0 -242.93026209104391 410.28632125681179 0 410.28632125681179 -327.71746030988288 0 0 0 0 39.446724526735011 42.58387295158964 0 42.58387295158964 41.00294251998838 0 0 0 0 -9.530991863143754 96.367017834258149 0 96.367017834258149 15.729994420988078 0 0 0 0 3.9869217249843132 88.399932160515164 0 88.399932160515164 -7.7271214544889517 0 0 0 0 3.3940014980403816 103.42489161571848 0 103.42489161571848 15.256141695965198 0 0 0 0 101.34827919632335 90.523008278127236 0 90.523008278127236 -9.6705462183381314 0 0 0 0 37.209618303566678 35.128890255836453 0 35.128890255836453 30.509819885957825 0 0 0 0 -267.29834213168408 384.1057881824363 0 384.1057881824363 -23.479243785361177 0 0 0 0 -221.78172513456229 -6.0987534188243444 0 -6.0987534188243444 408.37145796956611 0 0 0 0 90.846713358740089 -115.22896447050152 0 -115.22896447050152 16.957207864150405 0 0 0 0 447.7582760793739 99.118552368629025 0 99.118552368629025 -419.03060677809117 0 0 0 0 31.569615908971173 70.36182062530861 0 70.36182062530861 48.819849865685683 0 0 0 0 346.85118261105708 126.96977003138454 0 126.96977003138454 -53.951049436305766 0 0 0 0 31.977924244396377 71.170285042049727 0 71.170285042049727 -97.425475803611334 0 0 0 0 -46.267841319317085 27.524058257142315 0 27.524058257142315 10.192051476391498 0 0 0 0 10.034952246995829 15.318468273858855 0 15.318468273858855 -3.5463381904701237 0 0 0 0 60.362974213036068 -22.819796778843738 0 -22.819796778843738 -1.3805257315252675 0 0 0 0 -1.2388237658290675 15.431015898048948 0 15.431015898048948 -10.145627510450424 0 0 0 0 41.058370520993776 -40.750059870690166 0 -40.750059870690166 93.569415601959918 0 0 0 0 8.2087159593995338 2.0855413072331999 0 2.0855413072331999 -3.4343609091848464 0 0 0 0 105.08767389015702 -83.082384910143446 0 -83.082384910143446 -104.00805144639503 0 0 0 0 294.19456735996391 111.62445481339819 0 111.62445481339819 24.188078291437705 0 0 0 0 262.0536081362925 227.71536542366084 0 227.71536542366084 133.00233403722814 0 0 0 0 -1.9131907216349744 -1.3934173232641882 0 -1.3934173232641882 1.4584984200907911 0 0 0 0 -4.4979596461707843 1.9508728093642276 0 1.9508728093642276 -6.5402977102348814 0 0 0 0 -14.439863218358667 11.494628527165048 0 11.494628527165048 -5.1002356804060582 0 0 0 0 -45.328382341491306 -19.65611374011678 0 -19.65611374011678 -21.598854843745357 0 0 0 0 12.47620452562478 39.561599351274708 0 39.561599351274708 25.306040805095108 0 0 0 0 -21.594873670685047 47.403806323629397 0 47.403806323629397 86.830008045566501 0 0 0 0 -36.769720375395991 12.060641651354672 0 12.060641651354672 40.542361544270534 0 0 0 0 190.32047938885762 62.510669224297089 0 62.510669224297089 -0.08823097655113088 0 0 0 0 160.23155531143129 114.78058059723116 0 114.78058059723116 37.245406039233785 0 0 0 0 -141.48471173309008 48.679134298152348 0 48.679134298152348 23.509276973629312 0 0 0 0 247.94682307184121 149.71585170275648 0 149.71585170275648 4.4740764423913788 0 0 0 0 64.55714537408312 56.117777564875723 0 56.117777564875723 70.024905300200771 0 0 0 0 66.461640814799466 44.290770717834675 0 44.290770717834675 -37.640125393212656 0 0 0 0 -72.120878932668347 89.691427863377612 0 89.691427863377612 0.1016839696385432 0 0 0 0 -93.112954499268199 66.308561739624565 0 66.308561739624565 -19.785494352850947 0 0 0 0 -111.9296391282337 78.562292249675011 0 78.562292249675011 -0.1186287092132261 0 0 0 0 9.691664444489863 6.8373775949228133 0 6.8373775949228133 6.8640608264894922 0 0 0 0 -172.42698590328837 161.11123043169209 0 161.11123043169209 -43.869375961929109 0 0 0 0 24.679424777250489 22.143412558661723 0 22.143412558661723 18.837539700056766 0 0 0 0 339.73079095355934 82.84496566902817 0 82.84496566902817 -62.518225666273793 0 0 0 0 632.18634802512906 77.148170716718596 0 77.148170716718596 -74.727853117932682 0 0 0 0 83.751983482919556 153.24565682591583 0 153.24565682591583 -48.459954706195276 0 0 0 0 100.91448546089896 727.92129691793434 0 727.92129691793434 -72.182179245071893 0 0 0 0 20.42434439769545 563.09326174342277 0 563.09326174342277 -62.459690993811819 0 0 0 0 1114.1062617971181 426.82690643520618 0 426.82690643520618 -242.89413929433431 0 0 0 0 416.25312984616772 543.97479026445808 0 543.97479026445808 -262.01114047010196 0 0 0 0 252.83393369983636 1420.8126899144117 0 1420.8126899144117 46.220743808560655 0 0 0 0 544.42156949628247 168.32812880929123 0 168.32812880929123 -144.23199685003783 0 0 0 0 2847.2205055376062 -438.60182214793895 0 -438.60182214793895 -205.86111540404454 0 0 0 0 -443.82192243965454 869.19361117357766 0 869.19361117357766 69.721231521034497 0 0 0 0 1293.5602329316034 1712.8367445548884 0 1712.8367445548884 2.2844483607332222 0 0 0 0 -416.05887859051018 1742.9691450136088 0 1742.9691450136088 -3.2715223288040205 0 0 0 0 -2379.9746677252642 1261.8153198926193 0 1261.8153198926193 378.58820878874394 0 0 0 0 -3107.0702458258038 55.805626746445341 0 55.805626746445341 413.17330245771154 0 0 0 0 -113.29295697403677 1056.8667325373171 0 1056.8667325373171 89.179042931282311 0 0 0 0 -27.98308121971786 31.65753866484738 0 31.65753866484738 32.038412172172684 0 0 0 0 17.317395528956695 66.533407620183425 0 66.533407620183425 0.11934747677150881 0 0 0 0 -8.1287466885138251 4.330193737112026 0 4.330193737112026 -1.8436135362440496 0 0 0 0 73.168026902232668 123.50454370668012 0 123.50454370668012 81.57797692209715 0 0 0 0 24.237083701897063 90.5476246319231 0 90.5476246319231 61.223582959966734 0 0 0 0 -2132.0022161995967 -901.75428135641414 0 -901.75428135641414 -392.98394063586602 0 0 0 0 -18.248772754283802 6.1066306580992205 0 6.1066306580992205 -1.2967590310211392 0 0 0 0 -59.059643678622024 -11.594398515066132 0 -11.594398515066132 131.3597825117613 0 0 0 0 -687.05928998315153 -417.16774805671594 0 -417.16774805671594 -241.03843325869093 0 0 0 0 -13.900437053930409 1.6243881971293632 0 1.6243881971293632 24.150587979324541 0 0 0 0 -125.41768603284709 -91.893369508834439 0 -91.893369508834439 144.03240927582374 0 0 0 0 -1721.8659064641638 224.21695185702265 0 224.21695185702265 271.86497164503089 0 0 0 0 -3.7689096202889347 -2.9041235029753594 0 -2.9041235029753594 18.785245046059458 0 0 0 0 -1604.8997763034552 365.45867055419149 0 365.45867055419149 366.86060725392599 0 0 0 0 62.716058728392795 -220.12918689936669 0 -220.12918689936669 217.06040870545257 0 0 0 0 -1046.4292996317149 382.32920735621155 0 382.32920735621155 86.633749573884415 0 0 0 0 -883.384784226492 980.53399041067678 0 980.53399041067678 174.93980991673016 0 0 0 0 -1507.6678514223149 602.48722128461668 0 602.48722128461668 597.78575468170675 0 0 0 0 -1312.4055278495771 237.56396908501119 0 237.56396908501119 86.901330764390877 0 0 0 0 -547.43973275161932 813.79084971391785 0 813.79084971391785 328.56300065110554 0 0 0 0 -300.88955716580381 821.12069455732853 0 821.12069455732853 -35.444297443264077 0 0 0 0 -379.59129172563803 522.25064103584737 0 522.25064103584737 568.64750595242367 0 0 0 0 358.26728050434212 80.925745443542837 0 80.925745443542837 462.38250422250712 0 0 0 0 -1195.6771739517885 840.85382278927864 0 840.85382278927864 74.172539519793986 0 0 0 0 -559.00848088794373 245.90780475410793 0 245.90780475410793 538.63205194548937 0 0 0 0 707.5508476733778 -612.38991066919698 0 -612.38991066919698 417.39126489574846 0 0 0 0 -1.4204130265065902 -0.046294430008771315 0 -0.046294430008771315 6.9883345752856485 0 0 0 0 -200.37250091233682 -172.19600565837754 0 -172.19600565837754 238.43646629284194 0 0 0 0 -290.61081924033169 -3.0253214036911231 0 -3.0253214036911231 238.56652905874944 0 0 0 0 -467.30702730851863 -275.55614297645479 0 -275.55614297645479 1011.1952936600574 0 0 0 0 -119.21126506390556 267.65079540237639 0 267.65079540237639 638.60004815347202 0 0 0 0 -171.84319318412554 577.02262929707285 0 577.02262929707285 -88.069325958364061 0 0 0 0 85.460785168434938 -140.86315808430663 0 -140.86315808430663 530.85707304227981 0 0 0 0 -572.25334722244315 141.85645131972706 0 141.85645131972706 638.97105894970446 0 0 0 0 -502.42604704841892 236.27962476269386 0 236.27962476269386 -171.91520006342034 0 0 0 0 -650.68623832149774 857.19154594765496 0 857.19154594765496 -423.05693219485693 0 0 0 0 -422.0244743782622 417.99902689540613 0 417.99902689540613 -188.35320955325733 0 0 0 0 456.39754512340301 233.66364688479916 0 233.66364688479916 -114.29767867153714 0 0 0 0 9.1326402668703786 3.7566601580949168 0 3.7566601580949168 5.2746786056387975 0 0 0 0 -239.27279896353207 199.84470173362934 0 199.84470173362934 633.08578081176529 0 0 0 0 -100.91367328911406 630.98920899098448 0 630.98920899098448 559.76594303573074 0 0 0 0 -280.24133747780468 479.73753448521711 0 479.73753448521711 954.86051024620247 0 0 0 0 -735.23233018015981 999.44875856968429 0 999.44875856968429 -796.33793269478338 0 0 0 0 -618.48533845982138 787.65299761320057 0 787.65299761320057 -649.8549799862958 0 0 0 0 -33.348513600858269 61.222359226604567 0 61.222359226604567 -45.119124219068908 0 0 0 0 45.347289108991369 23.811228488690432 0 23.811228488690432 -4.8234159674326236 0 0 0 0 -26.123549038786678 125.00102333584164 0 125.00102333584164 -85.928469147256692 0 0 0 0 -38.61589193484906 64.878959227571613 0 64.878959227571613 -47.74258776660281 0 0 0 0 35.476770377456077 29.320182084622544 0 29.320182084622544 -14.693846293676472 0 0 0 0 -823.84013425672038 1065.3998882622036 0 1065.3998882622036 -875.63817938764987 0 0 0 0 -235.89791839053851 539.73035228459776 0 539.73035228459776 -1091.0401504906513 0 0 0 0 -935.14538851617363 745.3150236060319 0 745.3150236060319 -458.60262619375862 0 0 0 0 -1799.8432341579719 1423.1541034641486 0 1423.1541034641486 -910.63085789010074 0 0 0 0 -1153.6017494179187 277.2909472766114 0 277.2909472766114 -1062.2872474981268 0 0 0 0 -751.4495011850222 759.19569043467345 0 759.19569043467345 -467.0897812621115 0 0 0 0 -991.60524775966815 456.72627582237692 0 456.72627582237692 256.49749596446054 0 0 0 0 -897.93544100241752 783.74596240712344 0 783.74596240712344 -243.76475362380734 0 0 0 0 -469.77018944620977 353.44900507197235 0 353.44900507197235 -158.5804253918468 0 0 0 0 -197.25263286377231 -154.30384811393742 0 -154.30384811393742 287.23158154837461 0 0 0 0 -702.27604437932041 196.84219938545721 0 196.84219938545721 293.29032615308824 0 0 0 0 -296.60718217884732 209.65616781658173 0 209.65616781658173 -70.610828380700696 0 0 0 0 -540.38270721271783 580.7864103357424 0 580.7864103357424 -594.37868571835861 0 0 0 0 -673.1597036907051 449.437635582035 0 449.437635582035 -36.66601422497115 0 0 0 0 -805.97404384675019 700.2872076659587 0 700.2872076659587 -212.91868676683225 0 0 0 0 -606.23666973643856 263.5353583208489 0 263.5353583208489 -248.04258200292406 0 0 0 0 -262.84204218523809 651.05763126246927 0 651.05763126246927 161.58337836468127 0 0 0 0 -234.50001926183907 34.020005002922289 0 34.020005002922289 235.12862854538253 0 0 0 0 -71.923439503544614 45.60360513216483 0 45.60360513216483 -27.938117580815657 0 0 0 0 -502.52940205701452 276.12861956412962 0 276.12861956412962 290.81536290322401 0 0 0 0 -133.19740135484608 -56.310162983281771 0 -56.310162983281771 288.25694097497035 0 0 0 0 -404.22166294095859 -48.629939076723531 0 -48.629939076723531 309.87616833936772 0 0 0 0 -64.417545177531295 42.194528834839673 0 42.194528834839673 -25.785067200532069 0 0 0 0 -220.09769062365285 205.28033393948499 0 205.28033393948499 491.89942898166919 0 0 0 0 -87.900157854297504 -0.5854653077913099 0 -0.5854653077913099 191.43318130278931 0 0 0 0 47.853686210884916 163.58039514425036 0 163.58039514425036 102.90630900374526 0 0 0 0 -86.095418039236165 3.7149731890422117 0 3.7149731890422117 198.13070307581802 0 0 0 0 -53.159618774537563 35.747161865695716 0 35.747161865695716 -19.263254471374637 0 0 0 0 33.653663157406299 122.17477059099656 0 122.17477059099656 60.001409673292073 0 0 0 0 59.524543480571083 154.01641877876682 0 154.01641877876682 35.022202036372619 0 0 0 0 77.572773328782205 127.0348262226762 0 127.0348262226762 0.075523899359778185 0 0 0 0 38.586236576753436 94.964207851502579 0 94.964207851502579 58.732996694161557 0 0 0 0 28.627037542957623 86.136739757130272 0 86.136739757130272 59.515595332544763 0 0 0 0 -31.597075648739633 125.91656601657633 0 125.91656601657633 0.82865658801165409 0 0 0 0 -20.15412837697113 278.04710853220604 0 278.04710853220604 195.49363667689613 0 0 0 0 -39.883658696502607 190.131503728604 0 190.131503728604 -0.105649420984264 0 0 0 0 -324.20884101224328 59.608923206975305 0 59.608923206975305 62.481989930049167 0 0 0 0 -480.42891163584682 233.47746142339201 0 233.47746142339201 0.3109048058395274 0 0 0 0 -834.03839055794379 370.90697909748997 0 370.90697909748997 73.405706260657098 0 0 0 0 -611.43147671935003 152.34863358842995 0 152.34863358842995 22.23734800060447 0 0 0 0 -629.02246467122995 493.26632380671413 0 493.26632380671413 272.52708296825585 0 0 0 0 -61.118825674726395 391.28296684804809 0 391.28296684804809 0.11390354787817659 0 0 0 0 267.39354415645357 569.66579028902561 0 569.66579028902561 -97.331092794673168 0 0 0 0 1104.3163136627663 422.18710275779449 0 422.18710275779449 -119.91246013654745 0 0 0 0 -220.97650937318031 974.84991343011643 0 974.84991343011643 115.63870599870279 0 0 0 0 -892.40099499235657 275.48104678378149 0 275.48104678378149 146.79649787265225 0 0 0 0 -64.846354025561595 150.2157242368703 0 150.2157242368703 -169.42264099189561 0 0 0 0 59.213393400783389 45.143675013874599 0 45.143675013874599 -87.73832189469249 0 0 0 0 1511.6090474553544 71.512710529244714 0 71.512710529244714 -647.57561032929516 0 0 0 0 4.8420784631206004 4.8444542500902799 0 4.8444542500902799 6.888696431617916 0 0 0 0 1495.9434564575058 -426.54274153787992 0 -426.54274153787992 -105.30589461690397 0 0 0 0 1136.9390345485654 470.04300265282745 0 470.04300265282745 -753.54043190926313 0 0 0 0 1095.1479682103509 351.58538522149502 0 351.58538522149502 -30.496761030954076 0 0 0 0 203.45866132722222 262.64704634733698 0 262.64704634733698 97.051930252491729 0 0 0 0 6.0937935044309341 21.300997719067851 0 21.300997719067851 12.780764591874288 0 0 0 0 271.80160664442519 -50.537655017731595 0 -50.537655017731595 -135.08121365653824 0 0 0 0 204.4951589301927 233.5148007846874 0 233.5148007846874 118.65510074630583 0 0 0 0 -125.67683333411696 -1.4347085438785143 0 -1.4347085438785143 -28.513720478367759 0 0 0 0 -24.137860844377428 2.627394824201474 0 2.627394824201474 -40.577091927494621 0 0 0 0 4.7778781639556751 35.331819816872979 0 35.331819816872979 -21.376958280135966 0 0 0 0 -1046.0316581793231 469.80773131040041 0 469.80773131040041 -341.01296740985708 0 0 0 0 -32.262303388206462 39.259471694517998 0 39.259471694517998 -8.9500500940647498 0 0 0 0 -1101.8658194613636 471.9046012970648 0 471.9046012970648 97.137622318994545 0 0 0 0 -67.429470601109074 50.539812931247042 0 50.539812931247042 -25.345233325299716 0 0 0 0 -360.46484444355565 808.71614716456133 0 808.71614716456133 -389.32378918435279 0 0 0 0 -514.09060188358126 199.59968764503355 0 199.59968764503355 -215.14750680295401 0 0 0 0 -1.7644018017185097 2.7649755124619482 0 2.7649755124619482 -8.6566385277412223 0 0 0 0 -730.08861167323266 469.99766389636716 0 469.99766389636716 -676.06480502299382 0 0 0 0 -1582.5144568962514 648.07916973602914 0 648.07916973602914 60.256719187222188 0 0 0 0 122.67805272173791 367.63833119424817 0 367.63833119424817 -15.408387020521332 0 0 0 0 205.18010672894889 417.06960180496026 0 417.06960180496026 0.20259331817214843 0 0 0 0 222.83817675112368 427.60023202197772 0 427.60023202197772 -40.911635475153162 0 0 0 0 194.02258900749439 449.16812202386063 0 449.16812202386063 58.620268137150561 0 0 0 0 215.34723679678063 409.17247342730843 0 409.17247342730843 5.7430246895746677 0 0 0 0 176.14714698938769 268.70152237560524 0 268.70152237560524 161.37824195258145 0 0 0 0 589.64416823496867 317.32304824728635 0 317.32304824728635 -0.23657333690380122 0 0 0 0 519.86277982577303 27.745348990029015 0 27.745348990029015 330.27918810621486 0 0 0 0 -202.52334701504878 511.14703834872489 0 511.14703834872489 531.13940228741922 0 0 0 0 -23.221733673519338 843.48660828844731 0 843.48660828844731 127.02211568920757 0 0 0 0 -225.95922230719589 426.75676736943569 0 426.75676736943569 316.55789356085006 0 0 0 0 -5.898891627811949 7.4903365999493872 0 7.4903365999493872 -7.492608704829621 0 0 0 0 336.13170504211303 327.64118238000083 0 327.64118238000083 -395.46138345889699 0 0 0 0 250.81317698977364 544.59436700293736 0 544.59436700293736 -15.816801231674617 0 0 0 0 156.32926087116357 730.28803470919956 0 730.28803470919956 -380.74035058933077 0 0 0 0 257.50382749964047 465.7703072633667 0 465.7703072633667 -155.03091502036114 0 0 0 0 343.9729484339332 204.1255619161675 0 204.1255619161675 95.814369868705398 0 0 0 0 327.86910633598745 324.10983905173089 0 324.10983905173089 -14.974426512009813 0 0 0 0 100.22309808032514 386.85709798806056 0 386.85709798806056 -30.499259032454574 0 0 0 0 300.45221754423449 278.36354762564963 0 278.36354762564963 247.91449567191012 0 0 0 0 -18.588633193092051 19.721757045501732 0 19.721757045501732 -18.227436185952683 0 0 0 0 299.84893722620461 478.19279232290762 0 478.19279232290762 318.62993460762664 0 0 0 0 269.86459719190316 373.12619780962268 0 373.12619780962268 188.67178578588209 0 0 0 0 195.29631023656839 265.2990163234208 0 265.2990163234208 164.54959112267716 0 0 0 0 153.68943343884894 229.4907639196972 0 229.4907639196972 111.71954115358676 0 0 0 0 270.64699773146651 263.17972757665837 0 263.17972757665837 99.213486953798565 0 0 0 0 116.65394089976326 302.08109480886924 0 302.08109480886924 309.86616119323207 0 0 0 0 103.52688851373387 375.73461604530166 0 375.73461604530166 -23.331996566179441 0 0 0 0 119.07075159671695 182.29737418174409 0 182.29737418174409 -22.277467998443171 0 0 0 0 160.22237085123379 254.85110462249941 0 254.85110462249941 19.93071307563514 0 0 0 0 115.61055968824076 169.2435937995906 0 169.2435937995906 10.959747881657677 0 0 0 0 96.084717125835596 191.45853355793224 0 191.45853355793224 -12.882390733924694 0 0 0 0 58.936110232694773 124.53472723472805 0 124.53472723472805 -17.466658793797251 0 0 0 0 53.840088604498305 137.13790665230772 0 137.13790665230772 -47.211399737047032 0 0 0 0 105.08444599008362 172.21954218504834 0 172.21954218504834 9.4282248612435069 0 0 0 0 106.98034027190806 168.46041366401187 0 168.46041366401187 16.850267385918414 0 0 0 0 119.02011462532391 161.14986376212619 0 161.14986376212619 29.824761026174201 0 0 0 0 149.15253577499243 199.66992366479826 0 199.66992366479826 31.481353710080839 0 0 0 0 138.50670831204116 211.1282559252395 0 211.1282559252395 67.082056907471269 0 0 0 0 241.04339603866902 257.84100381674943 0 257.84100381674943 41.810044593701605 0 0 0 0 158.92921059425134 226.24717646927456 0 226.24717646927456 48.953194752612035 0 0 0 0 176.79952510724252 220.61705248101498 0 220.61705248101498 14.200309455845854 0 0 0 0 260.1923476316806 263.93859400127985 0 263.93859400127985 55.663387899214285 0 0 0 0 175.96588558464737 317.16009811881668 0 317.16009811881668 28.954530690156389 0 0 0 0 195.67349517816911 241.55606481475843 0 241.55606481475843 42.61020864501188 0 0 0 0 123.48401511491102 198.85034481267212 0 198.85034481267212 57.428173509557382 0 0 0 0 124.64722927943512 212.32984815270174 0 212.32984815270174 195.32197351678042 0 0 0 0 50.470841443137033 318.95866073625803 0 318.95866073625803 89.023227159981616 0 0 0 0 225.59318865457317 590.60547463128751 0 590.60547463128751 262.25020688428413 0 0 0 0 619.65259806429822 421.28535626777739 0 421.28535626777739 -156.97495293976681 0 0 0 0 -153.80710709607229 457.75811174965929 0 457.75811174965929 267.25667157600856 0 0 0 0 -29.343872574587806 28.529389122913017 0 28.529389122913017 -25.059102026113862 0 0 0 0 285.10195379012157 161.67707654317201 0 161.67707654317201 -225.77489231355139 0 0 0 0 -16.77730399840766 55.185472585028037 0 55.185472585028037 -44.062619379037642 0 0 0 0 41.774666905164388 23.905943886234226 0 23.905943886234226 0.15605479148820223 0 0 0 0 -731.87648253952557 1009.5325606037077 0 1009.5325606037077 -858.87525620241649 0 0 0 0 -16.164660951759288 118.63293355935457 0 118.63293355935457 -81.536629177018767 0 0 0 0 -1055.4549993914266 858.8672864284963 0 858.8672864284963 -333.58748463314987 0 0 0 0 16.212444397086074 20.146491849502127 0 20.146491849502127 -19.54163940550643 0 0 0 0 16.312916962660481 25.51295673655131 0 25.51295673655131 -26.812208193272511 0 0 0 0 24.582223628280332 30.600589106602797 0 30.600589106602797 -4.6251631182686594 0 0 0 0 -8.0626962443839147 87.480057929358736 0 87.480057929358736 -64.197883562501374 0 0 0 0 -4.1501582115706697 43.426886543556975 0 43.426886543556975 -48.470215260633267 0 0 0 0 5.7776689588605166 47.342611405427562 0 47.342611405427562 -24.540543735175476 0 0 0 0 -4.1775103481049882 37.464557275787229 0 37.464557275787229 -23.358652143040672 0 0 0 0 -1.8276052439613153 23.151047569393597 0 23.151047569393597 -18.884102038239149 0 0 0 0 -1.8347036409977591 -32.778628283413127 0 -32.778628283413127 -71.197422727505909 0 0 0 0 -19.669193874389748 71.276050745364046 0 71.276050745364046 43.983966747604427 0 0 0 0 2.290018840503194 4.3533872668902234 0 4.3533872668902234 -0.40048280607373954 0 0 0 0 -26.130056460562628 95.755169206720893 0 95.755169206720893 -200.15520680331974 0 0 0 0 -118.9719917748298 40.730525135586504 0 40.730525135586504 4.5407488654454937 0 0 0 0 2.4923356970836039 2.6155770089104067 0 2.6155770089104067 -2.4871056869381221 0 0 0 0 735.71821665706375 629.98527798418945 0 629.98527798418945 27.542319943240727 0 0 0 0 606.42440260946023 -5.8502870485826861 0 -5.8502870485826861 -25.935774486948503 0 0 0 0 562.22071100792527 203.76752784794371 0 203.76752784794371 -279.12626601396187 0 0 0 0 226.51897126116091 454.0460470142134 0 454.0460470142134 -24.269615046869149 0 0 0 0 137.48094224617671 284.31579937595234 0 284.31579937595234 46.433299827636802 0 0 0 0 131.60456701188377 179.44018912434694 0 179.44018912434694 -119.80873880017316 0 0 0 0 16.865300111632678 108.14107359999616 0 108.14107359999616 -162.52530394020141 0 0 0 0 -21.104686615304672 158.32619395710935 0 158.32619395710935 -34.656835655594477 0 0 0 0 11.932746438706403 12.006744333701846 0 12.006744333701846 -16.451593273090339 0 0 0 0 -31.091184404227533 82.111263589875307 0 82.111263589875307 -87.725312111113453 0 0 0 0 -6.6210223201142071 158.51099895618972 0 158.51099895618972 -88.895396919222549 0 0 0 0 -37.156474647345021 121.64074788884318 0 121.64074788884318 -81.542522592255409 0 0 0 0 -62.319258439638361 142.54733613873395 0 142.54733613873395 -62.747440760751488 0 0 0 0 -106.06709308818972 74.609097168126027 0 74.609097168126027 -88.267079862758692 0 0 0 0 -126.69122266620252 96.302419070045289 0 96.302419070045289 -64.042270033380191 0 0 0 0 -144.49838732391072 127.52142910339171 0 127.52142910339171 -35.572170286788605 0 0 0 0 -65.865818467871577 169.04093089849266 0 169.04093089849266 -79.132507043133955 0 0 0 0 -35.545795599166013 117.88350072575849 0 117.88350072575849 -32.514678335151984 0 0 0 0 62.740310411834798 205.35584791509609 0 205.35584791509609 -8.2469429387128912 0 0 0 0 59.691079058706237 149.60096305474872 0 149.60096305474872 -81.929364077484934 0 0 0 0 56.159781345020747 137.44397790900257 0 137.44397790900257 -35.312076172987872 0 0 0 0 24.081482038483955 169.37662556685245 0 169.37662556685245 -55.944198900309857 0 0 0 0 32.953211030762759 104.64161291645723 0 104.64161291645723 -72.081348373991204 0 0 0 0 -8.1339007198257605 109.22592880441516 0 109.22592880441516 -51.602157124492805 0 0 0 0 -9.9996018476158497 122.25338352106337 0 122.25338352106337 -115.46353930456098 0 0 0 0 26.708449551297235 93.740757638412106 0 93.740757638412106 -93.269548141310224 0 0 0 0 26.163734973684768 91.96168892631249 0 91.96168892631249 -15.238185387774138 0 0 0 0 -73.322597574675456 87.807889603674994 0 87.807889603674994 -93.638316335720447 0 0 0 0 -162.08231138776682 172.15118104613794 0 172.15118104613794 -120.39231498190202 0 0 0 0 -312.88442834601301 40.622227738742367 0 40.622227738742367 -108.65412241683725 0 0 0 0 -144.8147401576789 125.10476578226735 0 125.10476578226735 -104.98547419662646 0 0 0 0 45.42819995050634 30.477723052634559 0 30.477723052634559 -6.1043021413577208 0 0 0 0 -172.32579062191508 74.136437176726758 0 74.136437176726758 -40.034900447149994 0 0 0 0 -203.78367713962507 115.70161010384254 0 115.70161010384254 -44.772818974903203 0 0 0 0 150.00994750687914 32.804430381758721 0 32.804430381758721 -78.025366385045345 0 0 0 0 9.6073993620220257 -1.2596887810093094 0 -1.2596887810093094 -25.011217922605397 0 0 0 0 17.132327661682211 165.2618545008736 0 165.2618545008736 -92.494889772002352 0 0 0 0 48.300220416013957 21.946360242807245 0 21.946360242807245 -0.43809047804711554 0 0 0 0 -3.1450924469536403 55.557652614821563 0 55.557652614821563 28.616187381368945 0 0 0 0 125.94239980887505 -57.717510378002771 0 -57.717510378002771 10.656222191779307 0 0 0 0 120.80422716261091 64.918516467776499 0 64.918516467776499 -139.31622498788784 0 0 0 0 88.6624133313926 -17.733779655311082 0 -17.733779655311082 -42.309788485261379 0 0 0 0 143.28093275998617 53.546322313468409 0 53.546322313468409 31.356826900635497 0 0 0 0 -523.03774462486035 674.63211052906991 0 674.63211052906991 -682.38738433763501 0 0 0 0 -28.101380941781343 75.234251274542629 0 75.234251274542629 -45.759481915568543 0 0 0 0 -554.75056857912568 592.25461980924592 0 592.25461980924592 -22.361140762499417 0 0 0 0 -132.35570235575869 407.01005147780961 0 407.01005147780961 -540.74277284456184 0 0 0 0 665.38427201456579 193.75288600798376 0 193.75288600798376 -786.87198050224106 0 0 0 0 423.44135393673787 489.75083165128308 0 489.75083165128308 -725.57463772083429 0 0 0 0 -3.177870633875898 4.0318873533872193 0 4.0318873533872193 -2.059534216503863 0 0 0 0 251.18965338444104 -396.0029566049634 0 -396.0029566049634 -440.57883980482802 0 0 0 0 699.4296409250237 168.94191853854136 0 168.94191853854136 -775.78072507989418 0 0 0 0 -717.15609393535851 319.90785762925952 0 319.90785762925952 -18.593523218674818 0 0 0 0 -1.8342105982635282 -0.08833782604740037 0 -0.08833782604740037 -8.3970832528996198 0 0 0 0 -167.03288658423844 539.47204127462464 0 539.47204127462464 -385.67388279447187 0 0 0 0 273.86768256642608 -31.552013624423125 0 -31.552013624423125 -66.703558119683294 0 0 0 0 -46.192718437800067 110.31511068581312 0 110.31511068581312 -181.505875986506 0 0 0 0 -69.495840234423667 74.905580846694647 0 74.905580846694647 -85.397204876207979 0 0 0 0 -13.741264709169627 -6.0968856666295324 0 -6.0968856666295324 -50.645251518741134 0 0 0 0 -235.18360041186043 81.984888363057507 0 81.984888363057507 -111.5777404254477 0 0 0 0 -20.886281910061371 128.26027060989873 0 128.26027060989873 -139.35898465839273 0 0 0 0 7.163690200111887 44.97424106184917 0 44.97424106184917 -59.737054253702809 0 0 0 0 2.4799822629211121 73.710708494254504 0 73.710708494254504 -118.7938558144524 0 0 0 0 15.944607401645044 63.000075943869888 0 63.000075943869888 -26.995263215358136 0 0 0 0 13.747542957789847 35.72005715421983 0 35.72005715421983 -37.845924792440201 0 0 0 0 -9.6296745692416152 43.126055547483702 0 43.126055547483702 0.4508716806594748 0 0 0 0 28.255127021526278 32.263700027571758 0 32.263700027571758 2.8901779117732076 0 0 0 0 11.98890131963708 24.731146955746226 0 24.731146955746226 -26.211583453026833 0 0 0 0 -16.45697089623863 71.587343998435955 0 71.587343998435955 -43.541825901846536 0 0 0 0 46.325525849446421 -163.43846383365599 0 -163.43846383365599 56.51238925056532 0 0 0 0 -307.88661146318191 -180.51220766319602 0 -180.51220766319602 -513.42713591692154 0 0 0 0 -63.154990390619787 84.946517420234159 0 84.946517420234159 260.79629054513498 0 0 0 0 16.694232001704222 -0.55654463705650414 0 -0.55654463705650414 -48.301041709331912 0 0 0 0 0.83093090222791943 -18.250051926095693 0 -18.250051926095693 -44.950500154052861 0 0 0 0 -2.9062724089872063 -11.184393907919002 0 -11.184393907919002 -29.341821228677873 0 0 0 0 0.51200126800421231 63.157960929007288 0 63.157960929007288 -37.918853955219902 0 0 0 0 -61.067168765992392 -91.961493137438083 0 -91.961493137438083 -357.10662332909124 0 0 0 0 -11.564623749846007 9.3223479831115981 0 9.3223479831115981 -12.188760583583814 0 0 0 0 88.984414631187974 -26.797220570922946 0 -26.797220570922946 -471.94675048451791 0 0 0 0 -28.86433323410165 -1.9299870890754391 0 -1.9299870890754391 -46.755776971098385 0 0 0 0 -16.009947855469363 67.025954781733162 0 67.025954781733162 55.458292331946723 0 0 0 0 1.7429114595579449 -12.311226358906424 0 -12.311226358906424 -52.957075808291847 0 0 0 0 -94.35726078672451 156.60381320516171 0 156.60381320516171 -54.399266065840493 0 0 0 0 -79.210825545971602 19.365400314320141 0 19.365400314320141 -42.067831705535355 0 0 0 0 5.4924165959474749 8.5766153090378623 0 8.5766153090378623 -18.211844876995883 0 0 0 0 -42.813355729376781 -19.208246992493514 0 -19.208246992493514 -36.033408444171073 0 0 0 0 20.057110609472147 10.081194932441576 0 10.081194932441576 -29.802638799222223 0 0 0 0 18.553377576390631 10.805425426413422 0 10.805425426413422 -29.712175229869899 0 0 0 0 -4.6660130023665261 0.85630790531286038 0 0.85630790531286038 -46.665043091652478 0 0 0 0 4.4691386329504894 -9.4675604832955287 0 -9.4675604832955287 -40.36178046715213 0 0 0 0 33.811961661893292 14.976486621191725 0 14.976486621191725 -45.422769309299838 0 0 0 0 28.437130548683854 34.876517726752354 0 34.876517726752354 -3.8047730824328028 0 0 0 0 70.491978779624333 74.340848885251035 0 74.340848885251035 -51.566666449492914 0 0 0 0 43.706803237459098 103.13419640687061 0 103.13419640687061 52.503821332324151 0 0 0 0 26.170560604453385 41.865455655160076 0 41.865455655160076 14.542234739041305 0 0 0 0 15.545722327697149 44.84794044859882 0 44.84794044859882 17.770070018654224 0 0 0 0 78.373427918555535 75.399188747896915 0 75.399188747896915 -37.291165905175149 0 0 0 0 23.907664149824996 119.25448657607922 0 119.25448657607922 128.4536041004103 0 0 0 0 -1.8851410998500597 5.4382123891164582 0 5.4382123891164582 -15.382300786949941 0 0 0 0 144.12494316784432 128.70133855083986 0 128.70133855083986 43.557277481922938 0 0 0 0 -44.161400409757334 -24.232669790635555 0 -24.232669790635555 138.20928619179904 0 0 0 0 301.55010005547683 153.36134991717518 0 153.36134991717518 -612.33225621236488 0 0 0 0 263.27196090406778 -6.8645861331315245 0 -6.8645861331315245 -115.35705065794173 0 0 0 0 -27.725960132018372 -7.388462650924339 0 -7.388462650924339 -49.302837991817796 0 0 0 0 -136.53782309672476 47.613443198832044 0 47.613443198832044 -36.166983570743469 0 0 0 0 -6.8160418990955804 -17.783812506968388 0 -17.783812506968388 -1.697100372708519 0 0 0 0 17.181695331419178 24.371161023082095 0 24.371161023082095 -36.114286963915916 0 0 0 0 393.1213314135257 -63.224655910438742 0 -63.224655910438742 10.012181322555989 0 0 0 0 82.869264300126815 31.411000318650622 0 31.411000318650622 7.8673078244028147 0 0 0 0 875.90668475568305 -121.20972433262023 0 -121.20972433262023 -42.136450748803327 0 0 0 0 4.7686061171698668 4.8229759399855681 0 4.8229759399855681 3.93489535996207 0 0 0 0 -870.33199007079384 451.42053952164133 0 451.42053952164133 544.76018281222787 0 0 0 0 377.50951754224661 -72.682042760374316 0 -72.682042760374316 184.94297625723993 0 0 0 0 -1180.7382949579041 -1133.9182852770464 0 -1133.9182852770464 1386.6757432873128 0 0 0 0 -196.99067328097544 58.460930246866155 0 58.460930246866155 155.31103691554745 0 0 0 0 238.02817574673463 137.06448151882796 0 137.06448151882796 75.509044859703863 0 0 0 0 9.0557569044246833 5.0992836389874867 0 5.0992836389874867 2.9554352063132114 0 0 0 0 141.72417998737365 372.01142797661305 0 372.01142797661305 12.839824960770784 0 0 0 0 82.914054905319063 32.134496831466095 0 32.134496831466095 -50.119812254692079 0 0 0 0 18.888923905570863 8.6830012698186962 0 8.6830012698186962 -11.070908110691505 0 0 0 0 -150.19376217057288 438.54779581644834 0 438.54779581644834 -134.86256098852027 0 0 0 0 1505.5464033564203 -40.193906406733731 0 -40.193906406733731 -1199.5959192742012 0 0 0 0 -89.952035926115059 120.77876909078623 0 120.77876909078623 77.048731256858446 0 0 0 0 -53.165809024980263 17.513057228366961 0 17.513057228366961 -29.135291988204699 0 0 0 0 -0.17485556881416642 0.81800702855325369 0 0.81800702855325369 1.1050012511316822 0 0 0 0 -121.02299933664472 -199.22202956769615 0 -199.22202956769615 77.44404768266395 0 0 0 0 97.33725567968213 207.84301180796319 0 207.84301180796319 86.600898038916057 0 0 0 0 232.26011195512547 128.11318040156766 0 128.11318040156766 61.777443162747659 0 0 0 0 130.93443574069533 185.50304681270063 0 185.50304681270063 75.982763706633705 0 0 0 0 91.020811344518734 170.8606977391828 0 170.8606977391828 57.944188057212159 0 0 0 0 -10.72400918330095 107.62863614965318 0 107.62863614965318 47.865776038292097 0 0 0 0 25.28566211888392 93.514965963433497 0 93.514965963433497 28.212680561102388 0 0 0 0 32.196643724048045 105.64339049161936 0 105.64339049161936 -2.1543842134960869 0 0 0 0 37.913820970854431 96.142806653384469 0 96.142806653384469 12.765911500813672 0 0 0 0 25.150865892588627 63.838145670742961 0 63.838145670742961 -50.454639463103376 0 0 0 0 14.804928791796556 44.04216776942485 0 44.04216776942485 -6.1669301845977316 0 0 0 0 3.8507064146178891 55.546944161338615 0 55.546944161338615 -15.198012707318412 0 0 0 0 5.637841818810557 27.221833559684455 0 27.221833559684455 -2.996144653763622 0 0 0 0 -2.7770905429497361 41.174975790723693 0 41.174975790723693 -25.735984214901691 0 0 0 0 0.12495179905090481 29.438507733808365 0 29.438507733808365 -18.164688637130894 0 0 0 0 1.2572350746777374 38.772467950402643 0 38.772467950402643 -31.278940865362529 0 0 0 0 -44.228367239033105 42.486915833258536 0 42.486915833258536 30.263076931626529 0 0 0 0 -19.209893133214791 50.546069191332208 0 50.546069191332208 -30.751396419765115 0 0 0 0 -30.596570276349667 96.039445209942642 0 96.039445209942642 -78.849629042553715 0 0 0 0 -6.3584194790601032 38.285200926446123 0 38.285200926446123 -27.298924981616437 0 0 0 0 -16.410701971282833 85.846529834423563 0 85.846529834423563 -53.167239691960276 0 0 0 0 -16.115553568160976 44.277991210256005 0 44.277991210256005 -102.80775073711993 0 0 0 0 -10.569502748199739 66.864417802324169 0 66.864417802324169 7.0470375248660275 0 0 0 0 11.837053661467507 81.238422477908898 0 81.238422477908898 -17.370351783931255 0 0 0 0 -41.204368185048224 37.497098275867756 0 37.497098275867756 -59.523305330309086 0 0 0 0 3.609010516676932 10.021912628860463 0 10.021912628860463 -10.492906922090981 0 0 0 0 -43.157027651745011 67.180187958307215 0 67.180187958307215 -54.78290918993298 0 0 0 0 13.249511725400225 32.377329153416213 0 32.377329153416213 54.543374612869229 0 0 0 0 -8.1030167312469885 11.709913415390702 0 11.709913415390702 13.910657836157611 0 0 0 0 2.2229051676749094 64.532573824691667 0 64.532573824691667 -23.045985258511593 0 0 0 0 14.655443067182205 35.589574156081653 0 35.589574156081653 -16.698899468814489 0 0 0 0 11.682617167505668 33.085501304187346 0 33.085501304187346 -71.134267568864743 0 0 0 0 4.5615359858790043 17.101983196385959 0 17.101983196385959 -26.642618060080565 0 0 0 0 16.303028494844867 51.098409331796148 0 51.098409331796148 -16.675454180399868 0 0 0 0 73.413640365644824 176.37394073628093 0 176.37394073628093 48.296200605691411 0 0 0 0 14.522264361214525 59.299754122825377 0 59.299754122825377 -23.346805727802092 0 0 0 0 12.169550090799277 36.773112675127827 0 36.773112675127827 -53.935566521699229 0 0 0 0 -4.4935983896027381 32.00678458352931 0 32.00678458352931 -12.998088667699136 0 0 0 0 22.46514765174652 41.582916801067768 0 41.582916801067768 -9.0357994242949644 0 0 0 0 -226.17986506766465 -458.62314328906996 0 -458.62314328906996 139.8805621296633 0 0 0 0 11.721572367279805 33.522289070488114 0 33.522289070488114 -67.960088324965909 0 0 0 0 0.30514428097148993 25.924716095070181 0 25.924716095070181 -21.681289690493742 0 0 0 0 1.3776581162539401 21.326846160703319 0 21.326846160703319 -88.574683268813658 0 0 0 0 -115.77247410552809 257.02180747082457 0 257.02180747082457 119.53638707427308 0 0 0 0 59.011494785700506 36.046542039704946 0 36.046542039704946 -26.070368354558013 0 0 0 0 33.387079048901796 52.390413083601743 0 52.390413083601743 -14.309213872373221 0 0 0 0 -4.0283430739453649 16.938650573731024 0 16.938650573731024 4.1238796740889256 0 0 0 0 1.2431597471227178 2.0466008940062714 0 2.0466008940062714 2.467791549503545 0 0 0 0 -38.992834891978418 45.183466883230722 0 45.183466883230722 -45.802788946428336 0 0 0 0 -37.805767504076357 43.066011708404403 0 43.066011708404403 -7.4639822869212367 0 0 0 0 65.632206398861854 98.11094740811086 0 98.11094740811086 -36.640175725420704 0 0 0 0 3.1619975984795019 37.674437818757724 0 37.674437818757724 19.977907181702903 0 0 0 0 -1.434800977084933 44.394048886583747 0 44.394048886583747 5.883401019459086 0 0 0 0 5.4631541481512045 11.777011058355072 0 11.777011058355072 10.681157692907703 0 0 0 0 15.421689292384457 59.71873840588141 0 59.71873840588141 3.7260368303870592 0 0 0 0 -54.790968022105517 44.342228207780863 0 44.342228207780863 12.271036155856564 0 0 0 0 0.12212199094787479 52.351428289808631 0 52.351428289808631 3.5392943713111151 0 0 0 0 -41.489923513741815 44.399837438453687 0 44.399837438453687 7.1902956236226601 0 0 0 0 -9.8631529367924173 36.452551015299406 0 36.452551015299406 -7.4583290712024279 0 0 0 0 -40.928274555495591 39.887506923842011 0 39.887506923842011 4.9944274731224141 0 0 0 0 -45.627004747220781 37.803657952499634 0 37.803657952499634 5.5868721478036605 0 0 0 0 44.278685764294124 79.094745986735063 0 79.094745986735063 53.790492886112759 0 0 0 0 56.944999609193474 142.01473916617761 0 142.01473916617761 169.21085244858114 0 0 0 0 12.445869864182896 103.07110061009007 0 103.07110061009007 61.298331903642975 0 0 0 0 -3.5470990928297397 167.88146725362458 0 167.88146725362458 51.807136640632962 0 0 0 0 6.7995266373764025 118.98484907117381 0 118.98484907117381 28.917900727494271 0 0 0 0 19.568354182428209 26.471634211140199 0 26.471634211140199 -6.7675626949225318 0 0 0 0 -70.993075401813257 88.993528138846159 0 88.993528138846159 60.321932712060516 0 0 0 0 120.38265666913503 150.76485465871519 0 150.76485465871519 -235.86625544723938 0 0 0 0 -44.965751056006411 -113.52622404319118 0 -113.52622404319118 -252.53521996899508 0 0 0 0 102.17157387245243 -134.28447434560076 0 -134.28447434560076 -690.62931107450277 0 0 0 0 4.8288377278891801 8.2806955160821758 0 8.2806955160821758 10.417553996843907 0 0 0 0 61.877195978715662 47.35752409697642 0 47.35752409697642 -41.262126440668453 0 0 0 0 159.60772255374468 -13.674276460464171 0 -13.674276460464171 -76.181553888873168 0 0 0 0 102.69635057490814 117.51515101985933 0 117.51515101985933 121.41439376360358 0 0 0 0 79.460342966602184 157.89688530319836 0 157.89688530319836 169.7204340272524 0 0 0 0 147.48143313844776 138.88966701797472 0 138.88966701797472 117.09411967418418 0 0 0 0 343.72587460526847 50.255117259162944 0 50.255117259162944 -156.87621104210848 0 0 0 0 53.263890418311348 296.55474082402361 0 296.55474082402361 39.446748631933588 0 0 0 0 -14.251845504448283 102.46714533466729 0 102.46714533466729 19.139826154103503 0 0 0 0 87.573835256189341 46.392427732767828 0 46.392427732767828 40.959090558630123 0 0 0 0 131.82195299866726 124.01868051848942 0 124.01868051848942 -27.073029996477999 0 0 0 0 70.343525062609842 77.756858494329208 0 77.756858494329208 -40.96226618156652 0 0 0 0 326.47522390574159 83.415845855393854 0 83.415845855393854 -47.732718108469271 0 0 0 0 17.079543886939064 91.542122930084588 0 91.542122930084588 17.996653551585041 0 0 0 0 -58.684686460226658 129.37203428916837 0 129.37203428916837 35.054858541705471 0 0 0 0 12.540754018147709 166.26905967562925 0 166.26905967562925 -19.880299397802446 0 0 0 0 75.028606501989998 108.39160432806966 0 108.39160432806966 -16.34303504008858 0 0 0 0 82.474736636053422 79.228738562746003 0 79.228738562746003 -25.793528727670491 0 0 0 0 162.08006109101188 85.788146600190885 0 85.788146600190885 -38.952684200441581 0 0 0 0 102.64616871610633 143.26550521597164 0 143.26550521597164 24.174054976378102 0 0 0 0 365.06891823818296 90.351520182659442 0 90.351520182659442 -48.018782942461257 0 0 0 0 -9.6869309463139501 27.973806775463146 0 27.973806775463146 -46.985045531434764 0 0 0 0 106.29256690752663 115.18633136513745 0 115.18633136513745 -17.013197171044339 0 0 0 0 -3.0306162723718444 93.852241935415805 0 93.852241935415805 -30.392927230630448 0 0 0 0 -1.6279697865847993 98.1560848615336 0 98.1560848615336 -53.611738838233578 0 0 0 0 1.0726915007559086 25.657554095512101 0 25.657554095512101 25.186806114564916 0 0 0 0 -9.6917112087974715 9.8974574020155472 0 9.8974574020155472 -7.008449337724528 0 0 0 0 7.1468488366323584 19.759972914006187 0 19.759972914006187 14.674264947055264 0 0 0 0 13.073227871118434 21.560089781385614 0 21.560089781385614 -22.686692511400906 0 0 0 0 -13.075073140455061 31.740936327500094 0 31.740936327500094 -29.809640634834068 0 0 0 0 -25.964654615132531 62.663272937559668 0 62.663272937559668 -9.3552080158806348 0 0 0 0 -40.902149474752605 75.042512472145972 0 75.042512472145972 -65.604033317016729 0 0 0 0 10.446160999577842 -26.252729282638029 0 -26.252729282638029 -159.35043464020964 0 0 0 0 1.572491790393542 36.25870360429326 0 36.25870360429326 8.8764238432650018 0 0 0 0 -0.72622980294545414 48.304362785896956 0 48.304362785896956 -53.81052288155243 0 0 0 0 -8.4849291069987345 16.843649864588514 0 16.843649864588514 -35.352608068291573 0 0 0 0 81.553989365769667 82.034092816040356 0 82.034092816040356 -67.234726636444975 0 0 0 0 41.133263110423286 2.2151145784227992 0 2.2151145784227992 -20.621355015155132 0 0 0 0 12.347408298650407 29.226880297785101 0 29.226880297785101 -41.446800438548962 0 0 0 0 47.085383736470249 55.974363637949864 0 55.974363637949864 15.758825677403365 0 0 0 0 11.726817770657561 16.109536901538135 0 16.109536901538135 8.0217475932308844 0 0 0 0 -0.7366215583234208 3.4381484733454144 0 3.4381484733454144 -2.3000705159728909 0 0 0 0 218.1771574489976 53.838349901110632 0 53.838349901110632 -83.016185528889764 0 0 0 0 -8.6877136820112355 64.656742392944579 0 64.656742392944579 -14.214146965481632 0 0 0 0 -0.20687374632305477 9.1947544276730326 0 9.1947544276730326 -21.808955009639277 0 0 0 0 70.894249373133789 -10.06819881683623 0 -10.06819881683623 -14.186693013194599 0 0 0 0 142.67296138151869 -21.150393466559763 0 -21.150393466559763 -24.966148412935581 0 0 0 0 130.4916410561691 44.091595979507474 0 44.091595979507474 -34.261738619272364 0 0 0 0 0.46015856181111303 47.544743254387868 0 47.544743254387868 52.664743753470248 0 0 0 0 28.931135745027859 60.336314668420528 0 60.336314668420528 7.4527267231314909 0 0 0 0 28.18256282377115 -44.703630031377543 0 -44.703630031377543 -124.59771298067062 0 0 0 0 -7.9700470532188774 25.541591478497139 0 25.541591478497139 36.727945247126627 0 0 0 0 23.412978074374678 87.664275193716094 0 87.664275193716094 75.04877743544057 0 0 0 0 24.795748831420497 124.81025715434953 0 124.81025715434953 -0.6974343364690867 0 0 0 0 -182.26734877715353 -14.665854029401089 0 -14.665854029401089 89.420383163407678 0 0 0 0 -4.5699919532292341 1.9262017214447198 0 1.9262017214447198 2.4158805456851553 0 0 0 0 28.912973115984641 185.29115548100526 0 185.29115548100526 331.96070281742141 0 0 0 0 11.382977006385786 11.23426999366173 0 11.23426999366173 8.8846671184435309 0 0 0 0 -121.79169978843038 24.708839639265534 0 24.708839639265534 -74.028245331195649 0 0 0 0 -48.878690757173899 28.564884795276157 0 28.564884795276157 15.754031600292365 0 0 0 0 4.4438886030568483 5.2593583878546255 0 5.2593583878546255 7.3136981350843939 0 0 0 0 -64.655658147501526 74.803660176170524 0 74.803660176170524 6.6549394860849134 0 0 0 0 10.801548750717018 10.312424949362306 0 10.312424949362306 13.035782787855197 0 0 0 0 0.73116992566065164 15.187762819659838 0 15.187762819659838 -23.290410101457383 0 0 0 0 -37.300604644463419 10.455868501029272 0 10.455868501029272 -50.444932099009748 0 0 0 0 -65.661183763077133 111.34553279740067 0 111.34553279740067 12.098722854541847 0 0 0 0 -46.844046978494589 34.559043022813057 0 34.559043022813057 18.794610111894144 0 0 0 0 1.7807834625712502 10.891435509137775 0 10.891435509137775 9.6677320285538144 0 0 0 0 -73.393154763056373 65.352879484089499 0 65.352879484089499 3.7011194067526958 0 0 0 0 -36.936243694019595 105.34167501622278 0 105.34167501622278 -73.990928137980518 0 0 0 0 -29.091492581050261 30.67782247922878 0 30.67782247922878 -49.882853235998482 0 0 0 0 -0.22810467461025041 11.823152107226104 0 11.823152107226104 25.544264065861626 0 0 0 0 -97.749813053997059 93.294004668696289 0 93.294004668696289 -19.522082761486672 0 0 0 0 2.2586256163899634 8.9298506467191139 0 8.9298506467191139 5.8811984070356118 0 0 0 0 -24.925356642801489 24.641485850028403 0 24.641485850028403 -6.392963819031138 0 0 0 0 -97.933637512134737 91.209002096977201 0 91.209002096977201 -14.674714498440153 0 0 0 0 -10.587258991594155 6.8422267949363977 0 6.8422267949363977 17.376807104063133 0 0 0 0 -54.864680860686349 49.600830784271238 0 49.600830784271238 -33.003587268758565 0 0 0 0 -41.310095571869169 19.959861957962858 0 19.959861957962858 -22.745845470257336 0 0 0 0 -67.665626412359416 36.51635176284617 0 36.51635176284617 -27.715002639917657 0 0 0 0 3.689973931729611 30.272693950056762 0 30.272693950056762 -8.462574926712449 0 0 0 0 -1.2504246167994779 1.3786701400880297 0 1.3786701400880297 -1.5573623612239373 0 0 0 0 -8.0109171741081227 2.8637987751875613 0 2.8637987751875613 -0.14252264991219477 0 0 0 0 -3.2898955829150509 -8.1694000977877295 0 -8.1694000977877295 -31.003723567833731 0 0 0 0 1.0013880485647775 21.948220045519534 0 21.948220045519534 1.4309001945241562 0 0 0 0 -31.300440906801668 49.73645749914067 0 49.73645749914067 -12.746926459396491 0 0 0 0 2.407704630937971 16.510135250690666 0 16.510135250690666 -18.111757943188934 0 0 0 0 -8.6138602048267785 36.401799874884091 0 36.401799874884091 -24.090581271761039 0 0 0 0 -1.2128859457516654 4.1061102596491352 0 4.1061102596491352 -4.9106400410842639 0 0 0 0 8.842811614302164 8.3271906221649061 0 8.3271906221649061 -32.978897778623463 0 0 0 0 7.6383933989634514 11.885475084163808 0 11.885475084163808 3.5749438290172293 0 0 0 0 116.20308632934029 19.240994349533139 0 19.240994349533139 -0.92991881773923524 0 0 0 0 -22.19855823308535 85.795210435189802 0 85.795210435189802 -63.052253475369071 0 0 0 0 141.83777132153045 -12.72396455717535 0 -12.72396455717535 -196.30894901723514 0 0 0 0 -39.245732714414771 -138.62496148700302 0 -138.62496148700302 -29.801849025287083 0 0 0 0 31.612362230844155 -63.209963442484877 0 -63.209963442484877 50.092378038432798 0 0 0 0 927.4073929335209 -132.60462266660761 0 -132.60462266660761 23.120624540657445 0 0 0 0 -147.1846549914444 205.78354866236077 0 205.78354866236077 204.69634522624983 0 0 0 0 3.0083460809058806 2.7177692605011394 0 2.7177692605011394 4.7067466052500322 0 0 0 0 314.97991469570479 271.96953976101577 0 271.96953976101577 128.81431165372487 0 0 0 0 867.37175200203274 470.86612125709871 0 470.86612125709871 183.38665254023726 0 0 0 0 288.98946099579189 98.349567741344799 0 98.349567741344799 -68.11586674020009 0 0 0 0 328.84938864620926 -131.691715272289 0 -131.691715272289 45.397260600049776 0 0 0 0 681.90424326822904 123.26912092049315 0 123.26912092049315 -66.784527775169408 0 0 0 0 116.64756384126201 -43.310280141153527 0 -43.310280141153527 46.488751271550427 0 0 0 0 305.43841224323842 -21.810848406632431 0 -21.810848406632431 -34.869516519313038 0 0 0 0 174.62971193945486 125.12723427725359 0 125.12723427725359 -66.548773466209241 0 0 0 0 155.83493570616338 25.18001836386884 0 25.18001836386884 -42.368985112057999 0 0 0 0 177.0603770947564 24.49911027563212 0 24.49911027563212 -49.548513178546273 0 0 0 0 252.65559068554876 294.18415345601488 0 294.18415345601488 -13.050400657724822 0 0 0 0 288.16171068144104 98.32093320675267 0 98.32093320675267 -67.439047097148432 0 0 0 0 130.25551635862212 120.48169304715339 0 120.48169304715339 -46.563205657170329 0 0 0 0 -82.377226344669907 208.90901297150049 0 208.90901297150049 -28.653061243112461 0 0 0 0 105.12873538044005 223.42920595829492 0 223.42920595829492 -60.896836217259988 0 0 0 0 68.830244043743733 206.35094762966401 0 206.35094762966401 -32.314517076600168 0 0 0 0 -129.04282889249225 271.02775657003804 0 271.02775657003804 65.524175859478419 0 0 0 0 46.00548739148735 273.9428539933906 0 273.9428539933906 4.0480178199213697 0 0 0 0 76.204451430825429 313.05590893889348 0 313.05590893889348 69.547300234233262 0 0 0 0 56.996688464940235 285.06111059858449 0 285.06111059858449 59.108344846939872 0 0 0 0 -6.2486186364149034 257.1691533552148 0 257.1691533552148 310.83393683159375 0 0 0 0 369.36499369213197 331.62918637061011 0 331.62918637061011 52.453203105622379 0 0 0 0 1.0421500608463248 294.04051027871174 0 294.04051027871174 -124.58657240732282 0 0 0 0 -320.43943691829008 380.90558150915604 0 380.90558150915604 108.42908957411055 0 0 0 0 -513.07355826627099 51.691715484397719 0 51.691715484397719 156.9716947255838 0 0 0 0 -5.5520081953573595 0.84539225800453721 0 0.84539225800453721 -2.9135491270136242 0 0 0 0 -19.182828363666431 332.84667882547319 0 332.84667882547319 -140.01821539652155 0 0 0 0 18.242198073679901 42.157153892239876 0 42.157153892239876 107.63026195440034 0 0 0 0 -44.17834669514923 143.72232160458589 0 143.72232160458589 63.598682656040182 0 0 0 0 -79.224120819253585 112.72647303035046 0 112.72647303035046 135.48363593120666 0 0 0 0 110.55157785444862 33.334914868311898 0 33.334914868311898 -3.8962957926123636 0 0 0 0 105.01281309280421 80.452997685188166 0 80.452997685188166 110.38711786626664 0 0 0 0 16.84826075747732 26.67684227965259 0 26.67684227965259 7.5799330433322041 0 0 0 0 113.09715064999314 90.004949853687947 0 90.004949853687947 44.388002078246302 0 0 0 0 -478.67934368598799 66.467843313905178 0 66.467843313905178 -16.038255180203123 0 0 0 0 10.989819883274322 394.64812567874469 0 394.64812567874469 -3.1200224329713819 0 0 0 0 2.2526598786380418 55.553462215380144 0 55.553462215380144 -8.1763589975051048 0 0 0 0 80.492602600744277 79.876597236128845 0 79.876597236128845 64.043885499939989 0 0 0 0 -12.109717534587844 -136.85447782611573 0 -136.85447782611573 411.39216957203462 0 0 0 0 149.13971926602608 349.61088183221 0 349.61088183221 26.270669132223702 0 0 0 0 -396.06723006620268 169.20129849498335 0 169.20129849498335 547.20222071015087 0 0 0 0 289.19214028346141 1473.8955288970756 0 1473.8955288970756 -2617.4196340093768 0 0 0 0 -758.64530039209239 594.96359701394977 0 594.96359701394977 351.58705976476631 0 0 0 0 -1348.9449475614852 2063.8338250452234 0 2063.8338250452234 -1640.3043549254799 0 0 0 0 -58.696905235843587 153.52483967929948 0 153.52483967929948 8.1776114827443962 0 0 0 0 -152.3562053502028 181.76672953840898 0 181.76672953840898 87.404437500226777 0 0 0 0 -57.43059036737759 145.05462778454967 0 145.05462778454967 64.004966005911228 0 0 0 0 80.312295081395007 66.243757025180727 0 66.243757025180727 53.9741972602109 0 0 0 0 -87.944805564355192 238.65969612505069 0 238.65969612505069 -29.963796565860321 0 0 0 0 -200.99583819146574 -1042.7883127310197 0 -1042.7883127310197 217.07622302025266 0 0 0 0 -44.566500821703585 -919.63611407401004 0 -919.63611407401004 -1751.0425018460955 0 0 0 0 -2618.7141748464055 2010.8574812669651 0 2010.8574812669651 -351.47243801159493 0 0 0 0 -221.44679275619364 1845.7728411305216 0 1845.7728411305216 -2758.3114070225984 0 0 0 0 -266.23648861323272 1046.5806489590686 0 1046.5806489590686 -533.59799435317109 0 0 0 0 -34.166918390136516 1085.7668232136709 0 1085.7668232136709 -690.13163154514041 0 0 0 0 -64.921568682443535 638.69942620036636 0 638.69942620036636 447.37661108616157 0 0 0 0 658.58086674648348 831.98534512409242 0 831.98534512409242 -1245.6708460758018 0 0 0 0 111.61771056084217 1162.5631443507664 0 1162.5631443507664 -1190.2714835401548 0 0 0 0 13.064210023227133 1567.9638781383201 0 1567.9638781383201 -2856.4187565964166 0 0 0 0 -1859.9928199520891 1647.3595866430915 0 1647.3595866430915 -536.91274411138875 0 0 0 0 -2495.0090431087883 111.6162242712453 0 111.6162242712453 299.53002797695808 0 0 0 0 -29.675150080774376 15.472679961815544 0 15.472679961815544 -9.9823895807164575 0 0 0 0 48.179304514252692 236.02005397056382 0 236.02005397056382 -143.93531238248397 0 0 0 0 -1808.4279990485743 735.66231946642438 0 735.66231946642438 -30.213900514092529 0 0 0 0 -312.59602020388638 -22.494979785122268 0 -22.494979785122268 6.6181417811603751 0 0 0 0 -471.69221406503971 282.44966945555279 0 282.44966945555279 -51.998943312515621 0 0 0 0 -112.73945505673646 522.54279525204765 0 522.54279525204765 -117.87102536065504 0 0 0 0 68.839606105172606 67.084618619235698 0 67.084618619235698 -200.51741320848305 0 0 0 0 -587.64028029175279 1695.0341227637546 0 1695.0341227637546 -308.04760949050979 0 0 0 0 -814.80384690572919 1494.8802110866636 0 1494.8802110866636 -411.42773014472914 0 0 0 0 -415.80510611909676 1204.0171975689718 0 1204.0171975689718 -296.4352197831613 0 0 0 0 -737.50447522983904 1327.8942094047452 0 1327.8942094047452 -174.01065900931644 0 0 0 0 -641.68672330130175 1160.7580108185939 0 1160.7580108185939 -402.52952712822662 0 0 0 0 -474.5806651532389 1344.3338483711941 0 1344.3338483711941 -1547.421216678893 0 0 0 0 -475.00974253400909 1256.0885037516127 0 1256.0885037516127 -390.93774876180396 0 0 0 0 -950.21846571315473 1714.8396643905144 0 1714.8396643905144 -664.4123425152502 0 0 0 0 -1536.0603171122275 850.27742173728984 0 850.27742173728984 -20.467016313516069 0 0 0 0 -24.579876522671384 473.93634489101441 0 473.93634489101441 -42.348644431156572 0 0 0 0 -92.585128458478721 -481.56234221329214 0 -481.56234221329214 315.07220900640823 0 0 0 0 3.7384178137586623 3.7579160779512222 0 3.7579160779512222 1.8537947326507265 0 0 0 0 -172.09192521763362 1411.8046603260009 0 1411.8046603260009 -124.38929537234071 0 0 0 0 76.624789603473047 83.579321639218506 0 83.579321639218506 41.309889961179181 0 0 0 0 -380.67024220082567 317.72934615011036 0 317.72934615011036 102.28018713116762 0 0 0 0 -72.107905257124003 81.925418367267412 0 81.925418367267412 -75.563953860386391 0 0 0 0 -453.49934532469251 1036.6991135594581 0 1036.6991135594581 -2191.7104686334496 0 0 0 0 -8.9447805109786458 10.186936030948743 0 10.186936030948743 -2.4797440276116873 0 0 0 0 -757.21128856478754 -205.93193296977915 0 -205.93193296977915 -83.267551368364366 0 0 0 0 -0.69421151954402305 20.565433296689491 0 20.565433296689491 3.7439418388284196 0 0 0 0 -26.587265605137873 120.20938057115563 0 120.20938057115563 -56.588315342421993 0 0 0 0 -57.223189028794629 69.013797372558244 0 69.013797372558244 -4.4140084721246637 0 0 0 0 39.99612821302965 31.580197477277963 0 31.580197477277963 -21.540720535877256 0 0 0 0 1.6792278265520508 135.91559684337881 0 135.91559684337881 -80.167753414469189 0 0 0 0 -19.948895579759778 85.813403800123325 0 85.813403800123325 -37.130503242423558 0 0 0 0 -463.33754212670465 -138.46935526854213 0 -138.46935526854213 497.90886390068772 0 0 0 0 121.95845443246071 160.94728759104692 0 160.94728759104692 -247.58576256764354 0 0 0 0 125.63182091059616 90.558077196629256 0 90.558077196629256 -125.32766833129426 0 0 0 0 53.861137256741131 187.05835742929412 0 187.05835742929412 -82.953646602203662 0 0 0 0 26.553616798053554 267.8366844588636 0 267.8366844588636 -209.2603432899632 0 0 0 0 -0.15168824667984637 1.669922812570718 0 1.669922812570718 -6.3360654181599898 0 0 0 0 -206.29250455467081 196.25173428689232 0 196.25173428689232 -37.938714684001752 0 0 0 0 85.725641902174175 88.094284845024958 0 88.094284845024958 -15.371182003313152 0 0 0 0 27.016410581631135 161.02919288687917 0 161.02919288687917 -60.551280824154674 0 0 0 0 70.259243359580068 205.77811623321577 0 205.77811623321577 -97.324902076259605 0 0 0 0 21.643582902583148 199.55979343511717 0 199.55979343511717 -64.944647552620154 0 0 0 0 26.242672199219669 217.8403239001309 0 217.8403239001309 -112.8224808861778 0 0 0 0 86.151598823116473 67.456108390315705 0 67.456108390315705 53.596226008409559 0 0 0 0 723.82324072595725 391.41969335534623 0 391.41969335534623 -443.47375544113311 0 0 0 0 855.50395320088865 778.68308765303664 0 778.68308765303664 -218.34767053838004 0 0 0 0 -1.7793667227415426 254.33823834209034 0 254.33823834209034 -108.19719518927968 0 0 0 0 7.8517625585045607 204.56151477522144 0 204.56151477522144 -89.280848228336254 0 0 0 0 2.5800477261946071 100.66003296785129 0 100.66003296785129 265.13483327653375 0 0 0 0 -1599.5005402096576 141.16430406758809 0 141.16430406758809 225.21828245526194 0 0 0 0 -3.548759944732808 7.0621390994874389 0 7.0621390994874389 84.468468895839919 0 0 0 0 -924.14813904433686 190.76488949520353 0 190.76488949520353 191.87320556446502 0 0 0 0 49.429912100284128 63.207771316185244 0 63.207771316185244 215.73282967368141 0 0 0 0 -3.1150179459840075 10.517219691512793 0 10.517219691512793 117.56335172734759 0 0 0 0 -733.7352535089376 172.83922698646347 0 172.83922698646347 57.543500905143446 0 0 0 0 -879.76802879179013 250.18665978989156 0 250.18665978989156 221.89007068621868 0 0 0 0 -324.55100072069035 215.56799262503773 0 215.56799262503773 174.90770423217327 0 0 0 0 -753.38151067605941 285.6465218675803 0 285.6465218675803 308.43561815823341 0 0 0 0 -255.08262341562659 389.46864960221137 0 389.46864960221137 271.36703136110191 0 0 0 0 -78.152823753654957 132.72310469943477 0 132.72310469943477 192.63714296309627 0 0 0 0 -235.91692226351734 333.20562501290988 0 333.20562501290988 88.401724184492195 0 0 0 0 -865.71428150616703 218.48912572336485 0 218.48912572336485 969.55022443165944 0 0 0 0 -987.5313199378852 -426.47085227169737 0 -426.47085227169737 106.89554123335984 0 0 0 0 -696.40703377615137 5.9745431271803682 0 5.9745431271803682 236.35520940026618 0 0 0 0 -738.32077837997349 199.8617946157683 0 199.8617946157683 320.99179851349618 0 0 0 0 -765.11084116873099 -272.13272606419923 0 -272.13272606419923 1241.8879895729751 0 0 0 0 63.503492246843962 290.055435412919 0 290.055435412919 515.58561659052793 0 0 0 0 -704.77863004455867 -352.67829460227404 0 -352.67829460227404 -413.25027115679404 0 0 0 0 -1836.9513327763052 -879.24364194304871 0 -879.24364194304871 1693.1936674263634 0 0 0 0 -689.84753985826319 343.23141822299658 0 343.23141822299658 -232.06799499221961 0 0 0 0 1967.1722429342808 2876.0539806775796 0 2876.0539806775796 3461.0047047765547 0 0 0 0 -0.61817319332184439 2.874059133368462 0 2.874059133368462 33.531829947594531 0 0 0 0 -1742.1325793718934 137.29957662786182 0 137.29957662786182 4293.5576277262735 0 0 0 0 -340.33952508404764 3117.2440430011338 0 3117.2440430011338 4101.921706043373 0 0 0 0 1404.5995806441788 984.12489153245406 0 984.12489153245406 4778.6925219345212 0 0 0 0 -0.78257041719189147 2883.088555602335 0 2883.088555602335 2367.3725976873757 0 0 0 0 895.89772183781315 2626.4443603122454 0 2626.4443603122454 -0.66085075974115171 0 0 0 0 276.63423441767191 1679.7460044858981 0 1679.7460044858981 786.61027443269268 0 0 0 0 441.85370417068771 2433.2839921933009 0 2433.2839921933009 1653.4536103970313 0 0 0 0 -505.3213992083729 741.32308023069072 0 741.32308023069072 969.1719139140987 0 0 0 0 -788.25366661431326 2003.0119469532583 0 2003.0119469532583 1554.1145889267336 0 0 0 0 -1011.9916274141433 105.35452514259669 0 105.35452514259669 1321.6275982855823 0 0 0 0 -1055.0973112996144 49.055034229506418 0 49.055034229506418 1362.5675502891681 0 0 0 0 -233.69766926014563 1445.2859623824552 0 1445.2859623824552 2114.8347135203076 0 0 0 0 -353.25818252432509 567.28850816504564 0 567.28850816504564 1096.3688085542017 0 0 0 0 -4.7021756166168984 4.6040688225327244 0 4.6040688225327244 5.6885490215468053 0 0 0 0 548.37713130156044 1301.8996980464726 0 1301.8996980464726 1183.7906027392528 0 0 0 0 684.46335256050952 567.41050182581239 0 567.41050182581239 417.80530062498292 0 0 0 0 449.46263843847555 407.7198115218489 0 407.7198115218489 313.40385078778127 0 0 0 0 337.74715241853846 398.05692524677579 0 398.05692524677579 325.18030059049488 0 0 0 0 -3.8391858680778057 5.3714718958126468 0 5.3714718958126468 3.6156075695788559 0 0 0 0 1117.1409659171877 1574.0997018328708 0 1574.0997018328708 1.5072438326169504 0 0 0 0 1732.9430550879624 1014.3491318706365 0 1014.3491318706365 449.66073016462315 0 0 0 0 806.12164374887288 1376.6200097023284 0 1376.6200097023284 473.33574258883891 0 0 0 0 154.40639415336045 881.80723659418436 0 881.80723659418436 0.25130397334578447 0 0 0 0 0.32583535259166752 2.3322033611496522 0 2.3322033611496522 0.36315894483038846 0 0 0 0 -362.47149740487657 224.2630159864093 0 224.2630159864093 259.39969520112209 0 0 0 0 379.76443730533356 435.36636733259365 0 435.36636733259365 247.75902398181779 0 0 0 0 465.1916572768605 740.9616683893546 0 740.9616683893546 240.47648003438371 0 0 0 0 288.37610112215043 454.28431996794279 0 454.28431996794279 365.01300208760949 0 0 0 0 430.75519725072081 546.97698182884051 0 546.97698182884051 394.46454934045323 0 0 0 0 520.14546765013802 501.89940380869666 0 501.89940380869666 411.51063231388252 0 0 0 0 429.50648345320951 463.4002317318882 0 463.4002317318882 402.44946492299641 0 0 0 0 503.76884601022357 453.219471255386 0 453.219471255386 349.75529557664413 0 0 0 0 374.67081206457078 343.80280252784723 0 343.80280252784723 302.50346301526588 0 0 0 0 481.91235195649642 319.11752013670048 0 319.11752013670048 169.30913885591144 0 0 0 0 413.06581665763224 357.8110208292419 0 357.8110208292419 338.94965748784307 0 0 0 0 408.97265726473415 413.66271098065772 0 413.66271098065772 313.28664232212031 0 0 0 0 354.53714587027935 401.47046054970997 0 401.47046054970997 458.5183408727753 0 0 0 0 390.52144799884991 397.87335151484876 0 397.87335151484876 299.92555741313845 0 0 0 0 383.52306745896931 320.35245060031593 0 320.35245060031593 238.49573747463 0 0 0 0 484.28568907752924 519.79277080977772 0 519.79277080977772 433.19167058085441 0 0 0 0 512.36485935292148 478.86227544758549 0 478.86227544758549 474.23369333050505 0 0 0 0 832.12130749915377 541.7210712662054 0 541.7210712662054 441.95149598385615 0 0 0 0 -0.91420571725353739 1.053828910288388 0 1.053828910288388 1.9966220323293555 0 0 0 0 514.32414962456096 714.17746142914984 0 714.17746142914984 722.12704851505623 0 0 0 0 1072.5669655803358 1006.8948108151126 0 1006.8948108151126 603.84084987848473 0 0 0 0 406.03528075166105 473.98761496203224 0 473.98761496203224 580.83135905901872 0 0 0 0 358.0486223516782 265.87059999983467 0 265.87059999983467 352.32501181504631 0 0 0 0 439.83969601732679 372.52729399644159 0 372.52729399644159 209.24568012693635 0 0 0 0 476.8015496344924 280.54258845165623 0 280.54258845165623 107.14104770732229 0 0 0 0 21.61225617871969 341.68208557852631 0 341.68208557852631 446.69188832731743 0 0 0 0 345.18213721478241 349.03813703631022 0 349.03813703631022 92.021277147694491 0 0 0 0 489.42594213728444 337.56380407464894 0 337.56380407464894 78.93118845349818 0 0 0 0 421.26392474596651 262.82988166997529 0 262.82988166997529 61.232106831972487 0 0 0 0 512.06196019357594 311.48005030010972 0 311.48005030010972 72.243803821780602 0 0 0 0 445.4812338649208 396.37732350871374 0 396.37732350871374 26.279814815286954 0 0 0 0 360.51284274701175 287.08196507568209 0 287.08196507568209 56.18342840790865 0 0 0 0 270.88713490695227 351.68210565605841 0 351.68210565605841 131.63824303000001 0 0 0 0 130.7247535950446 339.00176358630415 0 339.00176358630415 112.11897701026464 0 0 0 0 190.01637182076229 141.80578318968765 0 141.80578318968765 -80.313570447207894 0 0 0 0 2711.1614089351206 701.6945965080522 0 701.6945965080522 88.993704639433417 0 0 0 0 220.78211172000738 296.99901662419143 0 296.99901662419143 48.27079786570539 0 0 0 0 189.1822295870079 188.00114723312436 0 188.00114723312436 150.45444708416471 0 0 0 0 290.05064210342243 221.47821934397507 0 221.47821934397507 129.98911927017616 0 0 0 0 -6.6323932011531781 10.036761987973392 0 10.036761987973392 7.014779010230086 0 0 0 0 295.93347985750734 173.6890130169777 0 173.6890130169777 111.59354242091649 0 0 0 0 360.47017396026058 297.27558099587986 0 297.27558099587986 128.67459621009766 0 0 0 0 313.61820380299469 321.59650576124841 0 321.59650576124841 250.27237599488581 0 0 0 0 398.84400035673752 301.85651634695751 0 301.85651634695751 242.21087877283571 0 0 0 0 403.01569959122571 335.22630461492372 0 335.22630461492372 129.77120175489108 0 0 0 0 -212.55790481169242 23.713511212408775 0 23.713511212408775 193.5054135293758 0 0 0 0 -71.820155189539946 166.60189535848622 0 166.60189535848622 276.51195589581039 0 0 0 0 -244.55586765035696 39.037360814589192 0 39.037360814589192 201.1827233023796 0 0 0 0 -146.35932167871215 95.181341690084082 0 95.181341690084082 210.45696318089176 0 0 0 0 -159.95438105368521 35.907394609654148 0 35.907394609654148 170.8635562164709 0 0 0 0 1322.9911610667623 1265.4046555124514 0 1265.4046555124514 831.65831964055542 0 0 0 0 95.634943697310518 68.19412045525678 0 68.19412045525678 157.76513325303858 0 0 0 0 837.56234036485694 312.88974953736033 0 312.88974953736033 149.88880463375244 0 0 0 0 -137.82165304102818 222.99506371020107 0 222.99506371020107 186.65359725760936 0 0 0 0 -0.27740635410846437 2.4889136567563526 0 2.4889136567563526 0.92111937696381574 0 0 0 0 -453.51390982837029 108.31760516387703 0 108.31760516387703 176.15056653184001 0 0 0 0 -463.66512022838833 -97.916057565156734 0 -97.916057565156734 78.534494310268201 0 0 0 0 -214.47064986912301 99.283510332606966 0 99.283510332606966 59.107342425748357 0 0 0 0 -306.88003244277206 41.349527964513982 0 41.349527964513982 30.767018685932271 0 0 0 0 -227.16882885984523 -60.636479322718515 0 -60.636479322718515 -55.235530952486442 0 0 0 0 -242.67120331985643 119.57344660093077 0 119.57344660093077 65.224616998704732 0 0 0 0 -200.82188951346325 117.72914047662925 0 117.72914047662925 21.210806542541832 0 0 0 0 -190.82933221029816 151.18114628191688 0 151.18114628191688 98.167525655699137 0 0 0 0 -209.92172579927137 79.16965682882801 0 79.16965682882801 123.77241522999248 0 0 0 0 -194.90560726606054 81.811194568363135 0 81.811194568363135 119.72125234831765 0 0 0 0 -204.11710437236979 42.32546095694488 0 42.32546095694488 195.94741482869722 0 0 0 0 -243.88200854572642 197.39955687138718 0 197.39955687138718 275.55867487550131 0 0 0 0 -270.30022549125715 64.852508791576838 0 64.852508791576838 194.77415108990681 0 0 0 0 -391.04674301786872 28.747000891373318 0 28.747000891373318 427.69766013111803 0 0 0 0 -307.51883978316619 15.685645642952295 0 15.685645642952295 221.30968790408224 0 0 0 0 -140.20315477380063 458.07298284691933 0 458.07298284691933 576.28575824475411 0 0 0 0 -344.02365269443544 189.98530270827177 0 189.98530270827177 711.13201236835448 0 0 0 0 -607.72212408485939 -138.45131299181958 0 -138.45131299181958 344.3458793692771 0 0 0 0 0.1603735290351338 -0.31756275663227029 0 -0.31756275663227029 2.7697259745331166 0 0 0 0 -270.08140769572492 -57.444410657037224 0 -57.444410657037224 -61.765190894802799 0 0 0 0 -270.04654255394416 -19.58643193635362 0 -19.58643193635362 187.04864019132219 0 0 0 0 -250.23501355937333 10.887626145922695 0 10.887626145922695 220.76663979827572 0 0 0 0 -174.24913714348077 17.41753123584931 0 17.41753123584931 36.136472963175038 0 0 0 0 -187.93941098605865 132.64914296216011 0 132.64914296216011 88.944738003337989 0 0 0 0 -426.5911414507209 81.922634005517466 0 81.922634005517466 72.36196391652993 0 0 0 0 -198.59478616767228 97.959033914958127 0 97.959033914958127 43.121168217185186 0 0 0 0 -271.39750089023073 28.923150782049561 0 28.923150782049561 41.041354661341757 0 0 0 0 -92.583870599341026 49.096084978107683 0 49.096084978107683 64.550036617802107 0 0 0 0 -140.21981150041393 88.652930926138652 0 88.652930926138652 61.985476023949559 0 0 0 0 47.247155733399268 94.851647791459982 0 94.851647791459982 44.498731265979586 0 0 0 0 -9.8171474118888398 11.9435627569747 0 11.9435627569747 6.3275242489828543 0 0 0 0 491.11642963282429 345.957404342269 0 345.957404342269 247.48154472030001 0 0 0 0 78.556504452957597 170.38394444261212 0 170.38394444261212 152.36611975669121 0 0 0 0 510.56444266505923 374.6824595729604 0 374.6824595729604 216.61385870401864 0 0 0 0 552.08967130133533 567.69347541754269 0 567.69347541754269 334.68347874821484 0 0 0 0 853.70808736445179 537.12527362654509 0 537.12527362654509 278.88570271131903 0 0 0 0 -8.481373600242506 10.874631358917327 0 10.874631358917327 3.9049071936516384 0 0 0 0 1139.1364019331777 758.27943344384039 0 758.27943344384039 216.74153466233111 0 0 0 0 -5.2292630776891684 7.5646226633702156 0 7.5646226633702156 1.474497499304448 0 0 0 0 839.32786995561764 491.78584241779026 0 491.78584241779026 297.88603430019975 0 0 0 0 1152.3347981098559 444.92659752254622 0 444.92659752254622 191.7481567865907 0 0 0 0 856.0486472624325 781.72653795764563 0 781.72653795764563 -0.078279922483488917 0 0 0 0 580.24652920951485 476.09728767820343 0 476.09728767820343 200.393765759899 0 0 0 0 -436.13037062080548 427.4312154985746 0 427.4312154985746 -0.23069928469865975 0 0 0 0 17.578531670678785 -44.761820750249171 0 -44.761820750249171 -23.328853680737666 0 0 0 0 1417.6472262967509 687.58163018384948 0 687.58163018384948 0.45761158296888221 0 0 0 0 -0.54642827412847339 1.8049631651697666 0 1.8049631651697666 -0.62532363558239012 0 0 0 0 -1055.6082297369285 -195.31777991407944 0 -195.31777991407944 123.81428670200694 0 0 0 0 -232.39004913407916 236.86643240211743 0 236.86643240211743 166.1562346554274 0 0 0 0 -331.33518724463647 -49.221886435283523 0 -49.221886435283523 -67.389109382856986 0 0 0 0 -198.61928664674269 63.143977236461069 0 63.143977236461069 83.088236648531165 0 0 0 0 -396.35899493786928 -15.366224369257907 0 -15.366224369257907 50.458366569000646 0 0 0 0 -265.60374052699626 142.3401543971122 0 142.3401543971122 87.831480527129315 0 0 0 0 -174.51469852242735 65.17905434126078 0 65.17905434126078 76.317947096133139 0 0 0 0 -168.56666671582934 117.82062239942024 0 117.82062239942024 53.697111669684091 0 0 0 0 -107.27681417667918 84.888997970811033 0 84.888997970811033 84.348227201073314 0 0 0 0 -1.1106870358346654 2.5089215676917718 0 2.5089215676917718 4.3929796343880412 0 0 0 0 -8.8747977943494334 79.841209699232422 0 79.841209699232422 -6.938304362094641 0 0 0 0 -0.75856562095091107 1.9854272954912062 0 1.9854272954912062 1.4614417132118547 0 0 0 0 -385.80059167167929 74.013015453114349 0 74.013015453114349 31.804093325903523 0 0 0 0 224.82802554008958 248.61911370842427 0 248.61911370842427 31.093473904715211 0 0 0 0 -491.36675327963167 89.261200858672964 0 89.261200858672964 -26.717347465935745 0 0 0 0 -144.61279875020409 187.51788118280456 0 187.51788118280456 -21.069546234284644 0 0 0 0 -883.6791586735344 150.07958793239231 0 150.07958793239231 98.612431229907088 0 0 0 0 -457.9091507244666 316.26763731621031 0 316.26763731621031 -0.063451709997025318 0 0 0 0 0.10067893089232882 -0.73441065135193639 0 -0.73441065135193639 -0.49425158483785481 0 0 0 0 532.96258675789431 439.76830172461268 0 439.76830172461268 -0.35269207421515603 0 0 0 0 76.984709307278536 405.29937631141547 0 405.29937631141547 -0.18596314990281826 0 0 0 0 -116.88262218925229 292.21390162043463 0 292.21390162043463 -24.034996940048586 0 0 0 0 -104.62160430380754 288.35464294582926 0 288.35464294582926 -127.11168893759896 0 0 0 0 122.87892992149136 368.51314878729318 0 368.51314878729318 -59.601389406385351 0 0 0 0 -174.79401886085907 195.83334420814936 0 195.83334420814936 36.085461925307754 0 0 0 0 150.80927720722707 220.82407214368823 0 220.82407214368823 102.88395406442578 0 0 0 0 -19.245056105180993 310.11225737422501 0 310.11225737422501 66.171535294175555 0 0 0 0 138.96192732334748 415.22613599811666 0 415.22613599811666 133.64135384274778 0 0 0 0 251.66101118837832 480.17184808525053 0 480.17184808525053 399.35652330325684 0 0 0 0 206.5052365121046 313.74669829547202 0 313.74669829547202 364.64670094204484 0 0 0 0 201.72995609543432 352.42504913685116 0 352.42504913685116 229.3269363851141 0 0 0 0 111.7936587888762 367.17135737019271 0 367.17135737019271 240.16943619630183 0 0 0 0 193.55701192875131 160.6938510001055 0 160.6938510001055 17.659982242686965 0 0 0 0 141.94428894677549 178.0193719994295 0 178.0193719994295 118.56994315813063 0 0 0 0 -0.78345685251085939 1.5216446669882941 0 1.5216446669882941 5.8832577528592651 0 0 0 0 278.16427376944193 175.80452505749417 0 175.80452505749417 41.81014700808737 0 0 0 0 79.850950589738204 209.68399215095269 0 209.68399215095269 153.94194337676163 0 0 0 0 289.22874814798706 382.84630565731641 0 382.84630565731641 240.80332888054545 0 0 0 0 155.4930186628535 429.09088938807145 0 429.09088938807145 395.60092551395064 0 0 0 0 167.71769997102092 415.63212572725752 0 415.63212572725752 265.70837249132455 0 0 0 0 422.31534457479211 642.67043540039595 0 642.67043540039595 406.07285218118341 0 0 0 0 709.97839665270294 326.28385688778508 0 326.28385688778508 89.38495412845441 0 0 0 0 -195.00838827084226 366.72603556468675 0 366.72603556468675 620.28392776523833 0 0 0 0 709.63501642248048 475.27485227195939 0 475.27485227195939 741.90070195071166 0 0 0 0 646.57481110678054 574.41451261696056 0 574.41451261696056 689.69336826643848 0 0 0 0 114.52151506479277 -69.746075303599355 0 -69.746075303599355 -147.34671049882309 0 0 0 0 90.329530792834703 393.42389507131156 0 393.42389507131156 495.67192925648123 0 0 0 0 -44.901551638418738 35.669633766214019 0 35.669633766214019 -32.480792963550073 0 0 0 0 23.870686659018247 107.86877042408378 0 107.86877042408378 804.94811995075725 0 0 0 0 104.98225771474245 370.83449628925882 0 370.83449628925882 424.68898389340029 0 0 0 0 242.15216626092297 240.10368602233939 0 240.10368602233939 14.141502147057508 0 0 0 0 236.41018619701208 132.86032028430054 0 132.86032028430054 -60.470020913784538 0 0 0 0 217.25574482732191 259.21346470562275 0 259.21346470562275 12.443792173504335 0 0 0 0 550.04245556786918 190.51510723229876 0 190.51510723229876 -50.832106222078437 0 0 0 0 828.77964109407867 385.51965311816457 0 385.51965311816457 -45.317290183462319 0 0 0 0 265.78337221132097 290.93559419814119 0 290.93559419814119 27.632560056765215 0 0 0 0 -88.516840310452835 305.99040855701105 0 305.99040855701105 306.04688757496479 0 0 0 0 -14.703313571342733 175.86997145500573 0 175.86997145500573 144.88632258134749 0 0 0 0 -107.96946013775005 83.594195230158221 0 83.594195230158221 5.8710030220245244 0 0 0 0 -45.310001646866056 61.723739082701513 0 61.723739082701513 -30.413162768315544 0 0 0 0 0.82974388502957197 18.797064008949739 0 18.797064008949739 -1.2329695121520103 0 0 0 0 1160.94997947503 302.25509813615281 0 302.25509813615281 24.543992000690196 0 0 0 0 732.27788100136968 78.885612503785524 0 78.885612503785524 -50.948514273113688 0 0 0 0 672.56748666820931 555.92147118799767 0 555.92147118799767 -55.072285757705686 0 0 0 0 42.189105959598521 62.86504134083961 0 62.86504134083961 -114.43211942765413 0 0 0 0 -63.258912458353734 232.77181194873992 0 232.77181194873992 91.830613218018698 0 0 0 0 20.29209852206375 98.178280344294791 0 98.178280344294791 110.59907398855211 0 0 0 0 1.535015394740185 257.42078643453897 0 257.42078643453897 258.54849875481159 0 0 0 0 -118.36698935435197 111.38394845888342 0 111.38394845888342 155.06290130313573 0 0 0 0 16.266370378318243 98.824055341254279 0 98.824055341254279 93.579695700776938 0 0 0 0 32.959317147255078 87.824260397765642 0 87.824260397765642 108.87431202281897 0 0 0 0 101.21651521195963 162.08547503049704 0 162.08547503049704 89.218089161455282 0 0 0 0 31.372736920628085 190.47314249958436 0 190.47314249958436 34.484082808732637 0 0 0 0 146.49894055759796 141.23069112811936 0 141.23069112811936 49.85591406786989 0 0 0 0 159.28723135381733 116.18041072519554 0 116.18041072519554 -27.685850969151943 0 0 0 0 71.89818810850096 32.873852271002079 0 32.873852271002079 -54.367704601164817 0 0 0 0 54.188127055036603 145.86351876630943 0 145.86351876630943 37.61812861287035 0 0 0 0 0.086973256918575714 0.49541061264926611 0 0.49541061264926611 -0.50787855359101286 0 0 0 0 303.19955179233511 81.990336029291939 0 81.990336029291939 -24.498128403756709 0 0 0 0 121.05534473640728 116.88339905680914 0 116.88339905680914 37.012592708944908 0 0 0 0 93.36137408704495 36.978865825181686 0 36.978865825181686 -39.156740217330025 0 0 0 0 186.93485345751469 7.8846623221243135 0 7.8846623221243135 -31.048781384131871 0 0 0 0 132.34463370857702 77.739818579713756 0 77.739818579713756 -7.2364664416163578 0 0 0 0 160.56975253285054 43.484678195589368 0 43.484678195589368 33.798461738035257 0 0 0 0 156.2264354769577 121.54576279312278 0 121.54576279312278 8.9021364437721786 0 0 0 0 0.066286896687053343 1.0885658880899598 0 1.0885658880899598 -0.89735414572933792 0 0 0 0 212.31223251489246 70.900485222280622 0 70.900485222280622 11.750820640845632 0 0 0 0 348.79479048883513 111.82780956329225 0 111.82780956329225 -13.543105953282065 0 0 0 0 132.18974044112838 -70.086023441901489 0 -70.086023441901489 55.127211765182437 0 0 0 0 -608.7566968969586 537.86258784591246 0 537.86258784591246 183.92157526189112 0 0 0 0 -334.86527085205307 312.01552343408548 0 312.01552343408548 -58.730412683740724 0 0 0 0 -699.364994404139 462.98077650996856 0 462.98077650996856 -68.038027436308766 0 0 0 0 0.43735246888555679 6.2720279625883393 0 6.2720279625883393 6.4951690480589264 0 0 0 0 -631.3761530843185 443.62969833740135 0 443.62969833740135 -184.83168393771484 0 0 0 0 -508.55544607176853 590.78352966673265 0 590.78352966673265 -61.637818320166843 0 0 0 0 -273.03105190789211 514.29801604347267 0 514.29801604347267 -569.8870084889204 0 0 0 0 1.1734069648573211 18.475458810812469 0 18.475458810812469 11.232841677725759 0 0 0 0 -83.655954161709815 209.56826537557572 0 209.56826537557572 -115.44525647276987 0 0 0 0 16.696865591322336 17.961388080351611 0 17.961388080351611 6.83522416834208 0 0 0 0 -367.03315496838331 -15.19797869496324 0 -15.19797869496324 90.638007973338972 0 0 0 0 -379.18674958406336 719.49583355073628 0 719.49583355073628 -216.09379356675709 0 0 0 0 319.85290480846743 557.7674963546815 0 557.7674963546815 83.674139887873025 0 0 0 0 318.39029676474524 290.68687879100571 0 290.68687879100571 33.521923187145148 0 0 0 0 525.69492379103212 268.84482908521386 0 268.84482908521386 -280.96754159106058 0 0 0 0 543.43869416245434 345.63422627856562 0 345.63422627856562 -738.31928146761857 0 0 0 0 309.27654256117239 -4.9183806304208701 0 -4.9183806304208701 -361.39595235192246 0 0 0 0 -517.39304011917557 467.43144666563967 0 467.43144666563967 292.55515132565779 0 0 0 0 1059.5339444405399 86.018155674206355 0 86.018155674206355 -383.10834815513226 0 0 0 0 463.86526761313144 287.41026981448158 0 287.41026981448158 -64.236308628111146 0 0 0 0 1907.0320029467166 252.42836870579777 0 252.42836870579777 -189.37895821490383 0 0 0 0 374.75314668849751 713.69329687312347 0 713.69329687312347 518.586307307065 0 0 0 0 -18.793254054777208 123.69041661167284 0 123.69041661167284 107.16986031247143 0 0 0 0 -1398.8242038849457 -23.685951761432989 0 -23.685951761432989 -621.45109153189696 0 0 0 0 17.630916914669797 471.85766376397805 0 471.85766376397805 -880.48787271502079 0 0 0 0 -4.8878231553995306 6.3607843852078645 0 6.3607843852078645 -18.528048797729156 0 0 0 0 408.33183805996669 -280.56034179367998 0 -280.56034179367998 -87.206587187742116 0 0 0 0 -205.89464763322167 -260.67629313368241 0 -260.67629313368241 -1051.1683097412606 0 0 0 0 1622.5721518850205 -724.94992827489659 0 -724.94992827489659 67.638810983014992 0 0 0 0 -420.53174599539489 1192.212012255899 0 1192.212012255899 -678.77437662056764 0 0 0 0 3.200005907770759 3.1214523175136577 0 3.1214523175136577 7.04133112280266 0 0 0 0 -306.61236001699581 1441.8126256863106 0 1441.8126256863106 -404.4092642529522 0 0 0 0 316.95866283249234 10.409980832052497 0 10.409980832052497 26.891674920552759 0 0 0 0 -767.2856647689332 2363.3466147621184 0 2363.3466147621184 -391.61015053739538 0 0 0 0 567.36358212138293 -310.53832830231113 0 -310.53832830231113 350.06863686042198 0 0 0 0 946.95424738117435 -288.98407849761679 0 -288.98407849761679 2.2370701707259286 0 0 0 0 685.38301237591077 -49.084208959640819 0 -49.084208959640819 -216.80929926039244 0 0 0 0 329.97499305458041 -106.64413122882979 0 -106.64413122882979 175.46347354947648 0 0 0 0 572.34337518643588 -148.12565323995659 0 -148.12565323995659 15.605706628935877 0 0 0 0 126.76584178603662 436.49878366057237 0 436.49878366057237 -309.94183793331467 0 0 0 0 29.217285617649253 31.896358529797105 0 31.896358529797105 -1.568307658008365 0 0 0 0 -288.56420246872585 15.186243715936143 0 15.186243715936143 -341.97802354188025 0 0 0 0 -2028.7651519728824 -474.88236155698542 0 -474.88236155698542 -379.21384529699571 0 0 0 0 -314.98516502976418 246.28957890665333 0 246.28957890665333 -534.64402770994639 0 0 0 0 -6639.4006170453504 -1331.0433624236612 0 -1331.0433624236612 -522.95782669592882 0 0 0 0 -77.677985076094046 371.05497050448321 0 371.05497050448321 -584.80336418814841 0 0 0 0 -69.412463311877218 300.4850643869031 0 300.4850643869031 -664.6776360089716 0 0 0 0 -74.435847424174426 319.61429705824412 0 319.61429705824412 -700.94658508739667 0 0 0 0 -14.913325957430061 328.0392450791478 0 328.0392450791478 -657.55347197406809 0 0 0 0 -14.759805954046733 756.22009115356798 0 756.22009115356798 -1158.8606704036065 0 0 0 0 702.9946513842151 242.21693967007741 0 242.21693967007741 -835.31506646638445 0 0 0 0 132.45632920242497 140.98466948902933 0 140.98466948902933 -539.45994514776976 0 0 0 0 239.40757376817055 324.98794715869008 0 324.98794715869008 -499.84006115794182 0 0 0 0 382.40873178534093 62.148855938819906 0 62.148855938819906 -94.469400414789561 0 0 0 0 425.84086923045834 73.028496158156486 0 73.028496158156486 -93.682295257105579 0 0 0 0 651.47896309065982 160.39277280800161 0 160.39277280800161 -261.42738178501895 0 0 0 0 415.94548507260333 99.192721921954217 0 99.192721921954217 -161.02337464688208 0 0 0 0 504.75383223342942 57.191716930101393 0 57.191716930101393 -197.50480788317327 0 0 0 0 518.11306199709361 25.138260805309983 0 25.138260805309983 -126.48566085363564 0 0 0 0 421.85321744540124 1.5549996200279566 0 1.5549996200279566 -125.55082459119149 0 0 0 0 473.76766372333805 253.81097879255321 0 253.81097879255321 -309.37126852259462 0 0 0 0 -23.408804114340427 34.959109041628864 0 34.959109041628864 -21.129166417063288 0 0 0 0 45.134929858918895 59.307750398680582 0 59.307750398680582 -107.11327077666076 0 0 0 0 115.72408975323197 220.18099673022516 0 220.18099673022516 105.24976275628433 0 0 0 0 83.310177372924954 117.03322183849377 0 117.03322183849377 52.058357325004181 0 0 0 0 144.73027595012172 179.56039054186112 0 179.56039054186112 30.865178864740301 0 0 0 0 56.831236229569186 158.34447394257586 0 158.34447394257586 125.92299354000716 0 0 0 0 -12.146597599959932 51.281015656568343 0 51.281015656568343 51.070801776004373 0 0 0 0 15.705292857588574 49.120021897162587 0 49.120021897162587 41.524801004619803 0 0 0 0 -31.982869765546639 43.355040049733361 0 43.355040049733361 60.143284358273377 0 0 0 0 -5.5252233007122413 51.56101901364309 0 51.56101901364309 25.560730984405382 0 0 0 0 -33.767501471374999 25.162639158748789 0 25.162639158748789 50.691900195204653 0 0 0 0 24.99061483171181 120.40933313658616 0 120.40933313658616 91.166344111334183 0 0 0 0 -35.257982831433765 59.498311851129984 0 59.498311851129984 101.16629574331091 0 0 0 0 62.25229968772328 42.554208491332247 0 42.554208491332247 141.8088605501689 0 0 0 0 161.2526959499337 367.64448628594619 0 367.64448628594619 315.50320405379171 0 0 0 0 -9.9184249802092381 166.80211399378823 0 166.80211399378823 381.43060249084374 0 0 0 0 -19.324154005031431 16.038118798947067 0 16.038118798947067 -14.898954889890774 0 0 0 0 27.436666880228671 53.965632473446391 0 53.965632473446391 -123.133077039265 0 0 0 0 240.98294513402652 245.70262919129891 0 245.70262919129891 74.249305170043954 0 0 0 0 106.86284650776361 516.531739684473 0 516.531739684473 322.15945291105163 0 0 0 0 25.750642050395413 56.747005977631204 0 56.747005977631204 -125.49713405229397 0 0 0 0 -248.00580023536168 -117.27771414308518 0 -117.27771414308518 119.46026156461812 0 0 0 0 147.26013302915089 806.37706536198675 0 806.37706536198675 503.10379798428039 0 0 0 0 443.10910099364992 241.25893282544712 0 241.25893282544712 -7.3768067618657369 0 0 0 0 -207.76577825883578 496.46028450296581 0 496.46028450296581 -225.92654536661576 0 0 0 0 58.892756453264155 191.07009088912309 0 191.07009088912309 -322.31495727981383 0 0 0 0 -5.5281353084516809 5.4375595879728849 0 5.4375595879728849 -5.1537259037032754 0 0 0 0 682.84894220641581 443.73077721564914 0 443.73077721564914 -668.87069104872353 0 0 0 0 -513.06244201722438 451.33706109928607 0 451.33706109928607 626.73467313449146 0 0 0 0 431.9031005276338 408.96421919846762 0 408.96421919846762 151.49325494130608 0 0 0 0 -170.76900591199228 -79.866422341612633 0 -79.866422341612633 -181.56466113037459 0 0 0 0 432.82587561525725 206.05154652826604 0 206.05154652826604 178.69043387135025 0 0 0 0 -114.95181824571046 315.09587316785473 0 315.09587316785473 -2.3969405458192341 0 0 0 0 -457.95574336847494 466.69831656426322 0 466.69831656426322 133.22857412492158 0 0 0 0 -304.94614181687939 221.30387650743069 0 221.30387650743069 310.86982820183039 0 0 0 0 -162.11704398434085 329.06390269874828 0 329.06390269874828 389.20763250238269 0 0 0 0 -314.66638376583705 319.90262011631967 0 319.90262011631967 98.688170396984788 0 0 0 0 -220.33790112944553 187.07686647865921 0 187.07686647865921 55.430790734273614 0 0 0 0 -155.74155178427463 194.91460902705148 0 194.91460902705148 50.488222679894534 0 0 0 0 -93.021472859181813 243.31522794907505 0 243.31522794907505 10.221189688018057 0 0 0 0 -106.62345534286578 172.90495982709399 0 172.90495982709399 9.7781722708896268 0 0 0 0 -103.27515140251489 211.56162075697648 0 211.56162075697648 -63.375007083290257 0 0 0 0 -173.38103001869604 161.00194107404968 0 161.00194107404968 8.653220241307281 0 0 0 0 -150.7530038037512 141.28394975679112 0 141.28394975679112 24.511166483880515 0 0 0 0 -196.34734327964543 107.49057677388191 0 107.49057677388191 8.9765244573063683 0 0 0 0 -169.03821398763102 66.341408160922583 0 66.341408160922583 6.5299234759731917 0 0 0 0 -187.48744167169207 49.927521379489917 0 49.927521379489917 -1.2146824483061209 0 0 0 0 -110.74995079718065 30.269722812379769 0 30.269722812379769 2.6046459251956549 0 0 0 0 -91.17683568506618 48.219141090929043 0 48.219141090929043 -1.585097105235036 0 0 0 0 -111.48337621972314 115.83007500506938 0 115.83007500506938 3.9020771323775989 0 0 0 0 -127.61798198957695 96.483625846696668 0 96.483625846696668 -18.009632590401452 0 0 0 0 -28.050347527343547 53.656705558169051 0 53.656705558169051 2.6459945798269473 0 0 0 0 -44.719560614816146 71.286992313107476 0 71.286992313107476 -15.970690615853528 0 0 0 0 -92.323215640150011 44.805745584017131 0 44.805745584017131 18.033720976760378 0 0 0 0 -33.690627787880658 39.312888887187 0 39.312888887187 18.547515923972242 0 0 0 0 -60.5879961005121 26.921860825270414 0 26.921860825270414 34.744796661616419 0 0 0 0 -51.84600044941908 60.517795098247007 0 60.517795098247007 24.28866961406311 0 0 0 0 64.965336731635034 36.943757768349315 0 36.943757768349315 -15.764221986624761 0 0 0 0 -19.258165467423169 136.27088959089633 0 136.27088959089633 -112.14136524579953 0 0 0 0 77.960857150741504 -116.112044594076 0 -116.112044594076 171.91177756556135 0 0 0 0 546.79111549587105 199.53130997436529 0 199.53130997436529 -255.13571578473784 0 0 0 0 2829.1016234575654 1471.1144797349407 0 1471.1144797349407 442.42334813083289 0 0 0 0 337.99350742078968 875.98700809211005 0 875.98700809211005 524.74068830698525 0 0 0 0 149.34297458131914 476.26783026137855 0 476.26783026137855 602.18188475546776 0 0 0 0 321.3019998561067 474.55626020356431 0 474.55626020356431 597.12000710664142 0 0 0 0 125.19978647519019 186.75876844979939 0 186.75876844979939 175.1462888942915 0 0 0 0 -13.538563860609429 7.7816197153151734 0 7.7816197153151734 16.050514835864305 0 0 0 0 -27.689411838538945 -2.2272341800999129 0 -2.2272341800999129 11.663728346466087 0 0 0 0 -48.310571370544494 11.860592766897753 0 11.860592766897753 29.481664386461489 0 0 0 0 -41.962072641748819 15.180203216616064 0 15.180203216616064 20.944913640531013 0 0 0 0 -62.580144627063419 24.027086954636616 0 24.027086954636616 2.8115767915151082 0 0 0 0 -74.038922020350583 20.266362132751965 0 20.266362132751965 20.143333663101657 0 0 0 0 -51.729875864315545 -7.0364541211165488 0 -7.0364541211165488 10.714339284255402 0 0 0 0 2189.4943166889279 2384.4997375917665 0 2384.4997375917665 1809.6216784642311 0 0 0 0 -0.2224157348852458 3.6579544961664112 0 3.6579544961664112 2.8025274668009388 0 0 0 0 2995.7240519651968 1962.3101583930984 0 1962.3101583930984 958.30930694355629 0 0 0 0 -7.5157906893831807 8.9347397970128668 0 8.9347397970128668 5.4287723943858168 0 0 0 0 -70.577785091882106 10.407968131927191 0 10.407968131927191 -2.8173460482503287 0 0 0 0 -518.03199554767343 39.563004557909153 0 39.563004557909153 303.39826195896603 0 0 0 0 -69.945251926998026 15.971307685860666 0 15.971307685860666 -31.820007274101954 0 0 0 0 -113.18537968974852 -15.49339040437917 0 -15.49339040437917 -45.089860818086891 0 0 0 0 -234.89227931859932 657.9539487318616 0 657.9539487318616 542.6756126882392 0 0 0 0 375.19089568729396 520.86355126280978 0 520.86355126280978 343.18661701338715 0 0 0 0 94.783753654031898 296.08718293472339 0 296.08718293472339 183.7146312793484 0 0 0 0 344.34277236735215 430.59844925315701 0 430.59844925315701 54.251552008470753 0 0 0 0 394.65886935879826 345.44351675717917 0 345.44351675717917 52.994674246416253 0 0 0 0 1060.2285932113591 244.52749499172205 0 244.52749499172205 87.812093038297462 0 0 0 0 618.23614849307342 482.15709835212328 0 482.15709835212328 102.77999428479234 0 0 0 0 643.6789914795927 180.63453745235665 0 180.63453745235665 79.771877898849198 0 0 0 0 374.76914984460603 419.1348913259061 0 419.1348913259061 247.09876125774463 0 0 0 0 316.09397515907767 7.1920777320246998 0 7.1920777320246998 823.60782656275842 0 0 0 0 218.81972400103405 309.50875372478731 0 309.50875372478731 174.12810348474886 0 0 0 0 874.87861277992488 735.99134951733868 0 735.99134951733868 435.082005235221 0 0 0 0 175.85694047609286 563.97329285820706 0 563.97329285820706 954.35052908718353 0 0 0 0 0.25666471896704479 5.4995921153384231 0 5.4995921153384231 8.8672676106993435 0 0 0 0 -42.479274292301852 32.947134714398999 0 32.947134714398999 7.9752081311307847 0 0 0 0 -149.64768202263804 133.76800750546681 0 133.76800750546681 687.85181033058325 0 0 0 0 1366.3484229897949 27.89128378548412 0 27.89128378548412 -44.964024070082814 0 0 0 0 143.68856870625586 444.72131636185168 0 444.72131636185168 -111.70515736036759 0 0 0 0 838.74192879274779 762.17216387501685 0 762.17216387501685 418.96163072425406 0 0 0 0 130.50246839363535 368.86681915928784 0 368.86681915928784 285.32157707524311 0 0 0 0 399.86304096707318 501.95130736329156 0 501.95130736329156 -435.29769075057993 0 0 0 0 37.858474089884112 383.14580900136934 0 383.14580900136934 -137.8490053077112 0 0 0 0 518.77580475604918 596.41998096152383 0 596.41998096152383 -79.796544323209673 0 0 0 0 28.543726051586418 -13.210543122000672 0 -13.210543122000672 -100.44919018581277 0 0 0 0 632.70043547221576 48.983225546662652 0 48.983225546662652 100.9480837033916 0 0 0 0 305.17322659035563 361.07321433821926 0 361.07321433821926 -96.220448804429907 0 0 0 0 6.0517352498658852 3.1456254259090031 0 3.1456254259090031 1.9383455263764517 0 0 0 0 -44.825296052120393 49.051368952597841 0 49.051368952597841 5.8479410540894605 0 0 0 0 15.156795377378671 20.206428507371442 0 20.206428507371442 2.9950894267609556 0 0 0 0 -31.635863293032344 42.985988873834685 0 42.985988873834685 16.894394635077333 0 0 0 0 3.7462310129571392 18.04477592855487 0 18.04477592855487 17.726264062391465 0 0 0 0 -43.320219939225353 40.53855755875702 0 40.53855755875702 -10.901306070445571 0 0 0 0 -14.921574006759329 25.777808694561827 0 25.777808694561827 16.125151837477461 0 0 0 0 -31.581462361951708 42.190971279414953 0 42.190971279414953 503.43501407046278 0 0 0 0 -11.166719556327365 14.665435118183666 0 14.665435118183666 6.5233453349219417 0 0 0 0 -46.661173101805616 21.958131649327697 0 21.958131649327697 -9.4293024336220697 0 0 0 0 25.657216030037205 32.424789444669983 0 32.424789444669983 1.3784838811160398 0 0 0 0 -11.357232151443895 16.778962361087906 0 16.778962361087906 18.202041171840392 0 0 0 0 -5.7955488232292964 0.81506800667263235 0 0.81506800667263235 1.6849059898127621 0 0 0 0 -24.321513317991048 33.530475432489766 0 33.530475432489766 10.498287184236688 0 0 0 0 -27.715558676231012 28.819156077384832 0 28.819156077384832 24.525679713871796 0 0 0 0 -23.230704008514294 21.35216495973873 0 21.35216495973873 19.794708330853609 0 0 0 0 -33.033799850134528 85.587806463125162 0 85.587806463125162 -269.84410043607932 0 0 0 0 -30.067430657392833 30.448899948329199 0 30.448899948329199 34.717707444418011 0 0 0 0 -42.816875194432214 21.352940833137836 0 21.352940833137836 40.128449547162745 0 0 0 0 -31.758776457427302 14.540961385995615 0 14.540961385995615 29.890506585630646 0 0 0 0 -32.492789712574449 13.212573325276026 0 13.212573325276026 28.319705440924736 0 0 0 0 -24.363428818323882 20.624947176198475 0 20.624947176198475 32.071611014791415 0 0 0 0 -26.031703413129435 24.153240795814781 0 24.153240795814781 27.714570588344941 0 0 0 0 -26.074783112882869 25.721346721642476 0 25.721346721642476 29.631714540329995 0 0 0 0 -20.263129908955307 34.555089991874411 0 34.555089991874411 39.050184628271381 0 0 0 0 -2.8426344470208278 78.719360419301665 0 78.719360419301665 40.144144805126416 0 0 0 0 -12.147910904022865 40.494824668567162 0 40.494824668567162 9.4990747300616931 0 0 0 0 -32.296025120772356 36.926705089163988 0 36.926705089163988 29.330928003269946 0 0 0 0 -8.3589271159726195 50.005527170345886 0 50.005527170345886 -7.7091255106934113 0 0 0 0 0.44322418210504111 71.373877286154311 0 71.373877286154311 9.4234865139665942 0 0 0 0 10.522919450242966 28.630892329006429 0 28.630892329006429 15.693645280289218 0 0 0 0 17.038331252339447 42.598266606551192 0 42.598266606551192 -29.285703454135984 0 0 0 0 115.33846256850666 4.1685864737664815 0 4.1685864737664815 -157.90964337770129 0 0 0 0 12.301008086168338 24.138464369382213 0 24.138464369382213 0.21728197101447222 0 0 0 0 -122.48169047424744 322.61631586994554 0 322.61631586994554 -295.33701979086618 0 0 0 0 -11.244361734730774 41.212839082319988 0 41.212839082319988 -16.762794877809938 0 0 0 0 -26.460817312006839 236.48764770534763 0 236.48764770534763 -884.52130626092548 0 0 0 0 -301.50375830071062 658.38289084413555 0 658.38289084413555 -551.09448769901064 0 0 0 0 -549.86010948879994 250.73958618385223 0 250.73958618385223 60.863479226565687 0 0 0 0 13.116704708633648 6.4031233921083981 0 6.4031233921083981 -8.5777135551872732 0 0 0 0 50.862398402183317 72.247534773254301 0 72.247534773254301 -74.821831371868029 0 0 0 0 63.535679534252267 60.999763596162666 0 60.999763596162666 -82.287429837720993 0 0 0 0 64.761660763474666 80.157858332526501 0 80.157858332526501 -15.135078455961036 0 0 0 0 35.36810963746025 31.228721734457721 0 31.228721734457721 -93.388859375932554 0 0 0 0 47.874662421986216 47.073427027635262 0 47.073427027635262 -95.064360284373166 0 0 0 0 123.48799563895386 284.98369264444176 0 284.98369264444176 29.496890490438091 0 0 0 0 13.609478621176464 24.796656703088615 0 24.796656703088615 -27.629809095316489 0 0 0 0 -808.61847060779837 951.95684004982104 0 951.95684004982104 -979.79960351844056 0 0 0 0 531.2890266313334 -29.638548220878874 0 -29.638548220878874 -192.29819775733631 0 0 0 0 898.95837308385671 -81.622731622626816 0 -81.622731622626816 -555.36742344099912 0 0 0 0 -254.27601862016309 625.85363185200913 0 625.85363185200913 -1149.1596025507315 0 0 0 0 41.380898959923627 73.13423216628172 0 73.13423216628172 -108.7923679874348 0 0 0 0 69.182151811755659 98.281404121170794 0 98.281404121170794 45.784726773900047 0 0 0 0 -458.06488320559583 314.53802112326957 0 314.53802112326957 -632.46008444008476 0 0 0 0 -130.99308360708528 -33.403088850885979 0 -33.403088850885979 91.203885625378462 0 0 0 0 -213.60145400691545 667.72858679480851 0 667.72858679480851 -549.10060826312838 0 0 0 0 -74.578049993113382 -57.505441151784908 0 -57.505441151784908 -21.696891804873303 0 0 0 0 -93.763513984344172 20.259332029749203 0 20.259332029749203 11.401577206823276 0 0 0 0 -12.478243580889739 20.456459435929958 0 20.456459435929958 15.077873261744912 0 0 0 0 -24.181669485435123 0.79948027306090808 0 0.79948027306090808 170.2577852307295 0 0 0 0 -9.7583061843449741 7.9297335040749033 0 7.9297335040749033 -10.020605776079208 0 0 0 0 -10.081505115696928 -29.847563667048234 0 -29.847563667048234 41.17292674996861 0 0 0 0 140.90220248917467 90.985621984560566 0 90.985621984560566 -294.34787114451319 0 0 0 0 391.76282060262747 -160.26884414999222 0 -160.26884414999222 -248.79693022258289 0 0 0 0 -12.930645074709901 296.47233815171785 0 296.47233815171785 263.68450148428383 0 0 0 0 -163.64256142884551 13.041702538452228 0 13.041702538452228 19.971582160505932 0 0 0 0 -124.96274667160469 130.69782021446008 0 130.69782021446008 155.93977981280477 0 0 0 0 65.138686265418073 200.04611651932646 0 200.04611651932646 -113.19080611727259 0 0 0 0 -144.54215026664315 71.362062646454433 0 71.362062646454433 -105.84349293285413 0 0 0 0 -107.44359977959539 20.591918425867334 0 20.591918425867334 -134.60192077653483 0 0 0 0 -98.776888250606135 67.686091260344256 0 67.686091260344256 -17.248975562222768 0 0 0 0 -53.570220671856077 -3.9019132216053549 0 -3.9019132216053549 53.217803627252579 0 0 0 0 -2.5242391623987714 -2.0574670954162144 0 -2.0574670954162144 7.9291408142882318 0 0 0 0 4.425253208639333 62.360372824878141 0 62.360372824878141 -210.62161337905854 0 0 0 0 27.721550281043164 -176.57069422010682 0 -176.57069422010682 -30.686207821369653 0 0 0 0 -3.5833493032286015 -5.2173508928032675 0 -5.2173508928032675 14.187856764218679 0 0 0 0 -53.950689621036872 -0.59998580373212462 0 -0.59998580373212462 -30.57125068497831 0 0 0 0 403.57213118951768 62.396844170594704 0 62.396844170594704 23.125778680532676 0 0 0 0 -82.95225684918114 326.04225940676406 0 326.04225940676406 -32.57190351173449 0 0 0 0 -106.32134272163967 443.26173677638872 0 443.26173677638872 640.15503324505153 0 0 0 0 85.720062277789111 -268.7395038145296 0 -268.7395038145296 411.68158468614274 0 0 0 0 -189.66728796547977 217.79578530522122 0 217.79578530522122 320.19428020466148 0 0 0 0 14.244193526455604 10.944570597909447 0 10.944570597909447 -12.200897080386767 0 0 0 0 405.16241208618885 19.556657469576749 0 19.556657469576749 -288.63624046917539 0 0 0 0 -257.25920367239451 217.89583732505344 0 217.89583732505344 327.63539537515317 0 0 0 0 1.9151352741755545 501.35980565090722 0 501.35980565090722 -560.50269656295131 0 0 0 0 56.30655463267567 89.471959335459829 0 89.471959335459829 91.275990613669393 0 0 0 0 60.074702419224195 515.25934084125038 0 515.25934084125038 -562.50343110836548 0 0 0 0 12.223356679052813 449.11240540092695 0 449.11240540092695 -778.47067389144649 0 0 0 0 -37.979611385177122 350.17902653693454 0 350.17902653693454 -286.91942784890125 0 0 0 0 -179.76994155105058 456.67953915335784 0 456.67953915335784 -351.68963548123429 0 0 0 0 -265.66909796636355 811.7036982518548 0 811.7036982518548 -479.02985918990453 0 0 0 0 43.828187305805614 81.476095850473286 0 81.476095850473286 108.35560019111585 0 0 0 0 -201.87695494406216 74.356003002547368 0 74.356003002547368 322.41902075521648 0 0 0 0 4.8152324740041195 5.843019786110478 0 5.843019786110478 2.9483854570118666 0 0 0 0 -174.7082575976674 -268.73619862501073 0 -268.73619862501073 685.06152324367577 0 0 0 0 55.333974053501152 275.36341668155728 0 275.36341668155728 -800.68656061904039 0 0 0 0 289.09390527047799 -2.5906168800356681 0 -2.5906168800356681 -149.22928621976462 0 0 0 0 -248.87411819142289 296.49136585155065 0 296.49136585155065 153.37816509398544 0 0 0 0 1.9729257636948319 13.213823051323423 0 13.213823051323423 27.392226459797072 0 0 0 0 -53.377939227546449 332.81379037482111 0 332.81379037482111 -428.91184313580379 0 0 0 0 -236.2565078648804 536.47009041070214 0 536.47009041070214 -704.07802535592054 0 0 0 0 -328.5458111242915 159.94882587476604 0 159.94882587476604 486.39082704448447 0 0 0 0 207.3695624145912 406.50364356349019 0 406.50364356349019 149.75023627775226 0 0 0 0 131.51351861326111 169.48618222242476 0 169.48618222242476 188.95115755618099 0 0 0 0 -0.075253979485694344 5.7106376820038438 0 5.7106376820038438 6.731655442809739 0 0 0 0 1.8247724355576338 4.2761868051145484 0 4.2761868051145484 1.5728284327256574 0 0 0 0 -67.021451502951095 -60.317718437647272 0 -60.317718437647272 331.50365891774527 0 0 0 0 -117.02189758427266 104.6307172055549 0 104.6307172055549 -47.091480924922507 0 0 0 0 1.7278773459430568 1.351798747553083 0 1.351798747553083 -0.075340790264704083 0 0 0 0 -0.36332386411959305 525.02285653659237 0 525.02285653659237 -1059.2479330142451 0 0 0 0 -117.29160460694038 -108.58863466635194 0 -108.58863466635194 383.41851301180577 0 0 0 0 -102.3950988521101 72.296079390318482 0 72.296079390318482 546.1905569300252 0 0 0 0 -239.64913650658491 -63.950305355074306 0 -63.950305355074306 1021.9240921797391 0 0 0 0 -89.97773677035002 38.833748748042126 0 38.833748748042126 -137.77425478909572 0 0 0 0 0.12500049655500334 419.42056111547208 0 419.42056111547208 383.72474781069104 0 0 0 0 -125.92348447110271 350.12647707852739 0 350.12647707852739 -24.223157705944686 0 0 0 0 0.026549979054834694 353.29335917388016 0 353.29335917388016 -658.61336914080312 0 0 0 0 -152.00813519780058 -301.58572522993927 0 -301.58572522993927 1169.3395360980539 0 0 0 0 2.0953628340980117 0.96573117851320944 0 0.96573117851320944 0.92277244285058657 0 0 0 0 -11.858169500774238 127.64517678860648 0 127.64517678860648 -181.71563273648644 0 0 0 0 0.62149728034273721 372.35554641940325 0 372.35554641940325 320.23464017558217 0 0 0 0 -396.32564422397991 582.05530885541521 0 582.05530885541521 181.22348093781147 0 0 0 0 30.499971707336016 69.295058548862599 0 69.295058548862599 121.43409862292037 0 0 0 0 -403.30953184382815 106.49286181793286 0 106.49286181793286 573.24260220307042 0 0 0 0 153.28221178134118 36.17615211883458 0 36.17615211883458 -0.32306013151537627 0 0 0 0 32.693698963695539 73.294740291630575 0 73.294740291630575 130.50192274131655 0 0 0 0 -723.94074018206447 978.30431006527942 0 978.30431006527942 -337.67346189189993 0 0 0 0 -347.92744805230177 440.61711535673385 0 440.61711535673385 212.30062712692597 0 0 0 0 -117.70511401977274 741.57474463308608 0 741.57474463308608 -86.255338131973986 0 0 0 0 -506.00468960423314 427.44189316518896 0 427.44189316518896 -274.2740395122928 0 0 0 0 -417.64528325063293 559.67744786130788 0 559.67744786130788 313.60894529717916 0 0 0 0 -881.14257099277165 683.7563872120154 0 683.7563872120154 -9.6914990551158553 0 0 0 0 -431.46370690637559 452.87077518841397 0 452.87077518841397 -229.30137630327954 0 0 0 0 -524.25795854046009 371.35738418408437 0 371.35738418408437 -8.0238710891862866 0 0 0 0 -144.77935127587261 148.73380477654428 0 148.73380477654428 321.78827104927041 0 0 0 0 -552.6699280704488 453.73692346020835 0 453.73692346020835 233.56789215922436 0 0 0 0 -178.09323519993632 317.89413750816311 0 317.89413750816311 311.47503392701037 0 0 0 0 -234.23024695095955 232.73797403645585 0 232.73797403645585 210.43310844422194 0 0 0 0 181.16082088756593 147.7552204999738 0 147.7552204999738 214.9560971405881 0 0 0 0 -607.25516059769143 350.41309559743968 0 350.41309559743968 285.34670489872224 0 0 0 0 -643.36519209285325 266.00509132026855 0 266.00509132026855 122.48288357854472 0 0 0 0 -717.21972717723111 322.3705415777149 0 322.3705415777149 159.09978007600876 0 0 0 0 -0.42433472129050642 166.48179888295999 0 166.48179888295999 -156.0059255348242 0 0 0 0 -5.8100369417205968 -16.163129916187927 0 -16.163129916187927 29.018192393497031 0 0 0 0 -788.97943098885298 202.53652528257953 0 202.53652528257953 29.715097832493484 0 0 0 0 20.774949471722778 57.1643149715063 0 57.1643149715063 113.89881238392405 0 0 0 0 -160.8252683437604 362.2807690314894 0 362.2807690314894 -152.07802240666933 0 0 0 0 -716.21669388643932 345.58211795143143 0 345.58211795143143 56.027975840548606 0 0 0 0 -718.32448851145455 361.55536591717828 0 361.55536591717828 159.19258326206909 0 0 0 0 -2.8597259366288199 -93.855925510931229 0 -93.855925510931229 -0.6271427082720038 0 0 0 0 0.38171324125141837 -13.954403692376218 0 -13.954403692376218 168.74892154919144 0 0 0 0 74.068835073368973 12.263205581446528 0 12.263205581446528 32.338569543328049 0 0 0 0 -4.6675365256669465 -46.48741136123499 0 -46.48741136123499 21.619888688336687 0 0 0 0 -5.4669460397562943 -37.255278823984554 0 -37.255278823984554 30.031157865861132 0 0 0 0 2.8483638375982991 -36.431839919304366 0 -36.431839919304366 -16.003354405627761 0 0 0 0 -124.8375595119287 -42.414205938885061 0 -42.414205938885061 34.013129415197 0 0 0 0 -111.49600886432745 23.798548825185208 0 23.798548825185208 43.070969746881019 0 0 0 0 11.985420517899172 18.537656004968696 0 18.537656004968696 23.564044150562907 0 0 0 0 50.960768250821154 -6.6748038302821877 0 -6.6748038302821877 547.19222180561337 0 0 0 0 -72.226695890902192 18.543933036440649 0 18.543933036440649 36.643242479216497 0 0 0 0 0.57414276341645376 0.69589984623465284 0 0.69589984623465284 6.6087045227261569 0 0 0 0 50.930463575961767 -45.443635170340713 0 -45.443635170340713 -112.47856984913415 0 0 0 0 1.7996857498251302 17.146732650359866 0 17.146732650359866 23.909155177733233 0 0 0 0 -37.087439752518549 -118.73420090377476 0 -118.73420090377476 934.38705228774415 0 0 0 0 25.775181962293573 153.15948326726357 0 153.15948326726357 529.38458282766078 0 0 0 0 -41.112717752184835 -77.48520052661479 0 -77.48520052661479 512.04029680067288 0 0 0 0 142.24888349518733 -426.58576797188471 0 -426.58576797188471 832.51932253452105 0 0 0 0 -66.809516073015402 -193.51403192854559 0 -193.51403192854559 622.33394490244609 0 0 0 0 125.9946754288685 -126.44320041945321 0 -126.44320041945321 616.42691772300168 0 0 0 0 -43.333840523497202 -171.5202792595428 0 -171.5202792595428 611.08867123657546 0 0 0 0 -213.69072492531268 -26.657765544681752 0 -26.657765544681752 600.19487259195012 0 0 0 0 -153.85088322938827 212.40913107512824 0 212.40913107512824 101.02105571204083 0 0 0 0 -333.02439961399068 77.140855152476433 0 77.140855152476433 582.19243906404154 0 0 0 0 -238.230254886701 226.79205352802819 0 226.79205352802819 1005.1592497959218 0 0 0 0 161.52455902493239 214.63265404768026 0 214.63265404768026 397.85588978462329 0 0 0 0 122.53250626001682 483.15131495020614 0 483.15131495020614 1410.0299846071302 0 0 0 0 5.3693536197475282 5.8602158813303049 0 5.8602158813303049 9.1903808633782802 0 0 0 0 93.307127882885652 -694.21307370864042 0 -694.21307370864042 1819.40696299095 0 0 0 0 -23.807632514843135 297.30278507770709 0 297.30278507770709 63.259065072526028 0 0 0 0 -9.1606846696085995 460.50117942561155 0 460.50117942561155 1113.9889495060706 0 0 0 0 699.53264635362575 120.10403985921948 0 120.10403985921948 570.30601590606966 0 0 0 0 -0.31985059726866893 -22.908391085231415 0 -22.908391085231415 1783.7280709777697 0 0 0 0 95.666169552874635 199.58062379560215 0 199.58062379560215 573.13960882896185 0 0 0 0 269.8564713133419 450.01410746958118 0 450.01410746958118 -129.07715248594468 0 0 0 0 218.59167102220817 361.71639207254339 0 361.71639207254339 -336.38067761794082 0 0 0 0 -109.06713410852535 520.43492462344693 0 520.43492462344693 -133.53069446882728 0 0 0 0 0.48511576699092984 551.87552702165704 0 551.87552702165704 20.432835356306896 0 0 0 0 0.11734131933189929 567.14933953320906 0 567.14933953320906 -728.50089296431543 0 0 0 0 -176.73371126585698 532.61191305135435 0 532.61191305135435 -394.89286424185957 0 0 0 0 -109.09589607537418 345.50257870585665 0 345.50257870585665 -786.84954738653323 0 0 0 0 -92.124381389639893 510.56533216791649 0 510.56533216791649 -701.14106060764243 0 0 0 0 -6.5323701111091736 -1.2569003219410355 0 -1.2569003219410355 4.4210905263995386 0 0 0 0 -41.821981638058787 32.571443165295932 0 32.571443165295932 62.463025535078486 0 0 0 0 4.6789520384089087 14.928336161250485 0 14.928336161250485 23.073064194271979 0 0 0 0 -80.825255747506162 153.01320809151366 0 153.01320809151366 -78.666724884889845 0 0 0 0 -451.48715822130907 622.14223636758652 0 622.14223636758652 -459.84594478095823 0 0 0 0 -453.11435535115379 634.32876524546555 0 634.32876524546555 -545.90254341252876 0 0 0 0 -717.47651504199894 530.66265410245069 0 530.66265410245069 -319.86541610005224 0 0 0 0 -529.02603622258903 727.04622127740367 0 727.04622127740367 -241.3181064102173 0 0 0 0 -53.999565319842077 623.09433595325027 0 623.09433595325027 -473.77409346160857 0 0 0 0 -57.585347973668831 462.19752320270345 0 462.19752320270345 -266.62773682404531 0 0 0 0 -159.32284262249595 504.33920511922224 0 504.33920511922224 408.08157383857906 0 0 0 0 -559.0765664366445 461.5979364034356 0 461.5979364034356 196.50356576548802 0 0 0 0 -472.0559027135314 771.77513241930819 0 771.77513241930819 -449.85693750737119 0 0 0 0 -817.21221875667106 510.78589132878551 0 510.78589132878551 -141.73115226841037 0 0 0 0 -1361.6370751506474 618.23861508516711 0 618.23861508516711 -264.2376428053758 0 0 0 0 -1410.6893544536579 997.20443915538272 0 997.20443915538272 -289.59816793312893 0 0 0 0 -23.905343158050897 29.897896916666582 0 29.897896916666582 -22.844024260136678 0 0 0 0 -6.3163233806449455 11.228498240205624 0 11.228498240205624 26.652608233331875 0 0 0 0 -38.864020018772862 72.344414848203087 0 72.344414848203087 8.3376923011237523 0 0 0 0 -1794.2638134001172 742.54875481794443 0 742.54875481794443 -423.41643626485165 0 0 0 0 -26.629735194932437 49.038539750283235 0 49.038539750283235 5.4444885713455733 0 0 0 0 -953.31529159018828 985.00909753377891 0 985.00909753377891 -454.71412950306603 0 0 0 0 3.5516709923665815 12.245205587230515 0 12.245205587230515 27.733658732061116 0 0 0 0 -84.408585360244615 60.596036218616064 0 60.596036218616064 10.726586489661713 0 0 0 0 -34.547007964167278 40.528462525871873 0 40.528462525871873 -6.6790425092185615 0 0 0 0 -81.135300256697519 48.297531770870592 0 48.297531770870592 41.370162996718136 0 0 0 0 -23.237450759101193 188.35132607623382 0 188.35132607623382 -68.520747258458869 0 0 0 0 -164.80969332964742 70.028912833593495 0 70.028912833593495 49.036123166217294 0 0 0 0 -98.916735436090676 -2.3580472290741454 0 -2.3580472290741454 119.96072574197024 0 0 0 0 -276.92915991920745 -51.562359199473576 0 -51.562359199473576 -3.8919184161932208 0 0 0 0 5.9328492645441884 19.864093911122445 0 19.864093911122445 31.250239673075498 0 0 0 0 -81.45669688275666 317.66454345431703 0 317.66454345431703 -38.171582845272496 0 0 0 0 -43.525185296486598 331.77477329483008 0 331.77477329483008 -172.29239944077563 0 0 0 0 -2.7261025973116944 0.70727175715325075 0 0.70727175715325075 4.9424862757512926 0 0 0 0 -63.677664913964691 -66.784227234878927 0 -66.784227234878927 150.8649469235861 0 0 0 0 -6.6278780780558009 215.08366656777071 0 215.08366656777071 -430.41484092730389 0 0 0 0 -0.78563513492679249 -1.4906667155378912 0 -1.4906667155378912 -1.362202047565475 0 0 0 0 -124.71142859032261 68.081896448231419 0 68.081896448231419 -121.26419389602961 0 0 0 0 9.2145598596252967 -29.053371584435808 0 -29.053371584435808 40.847616591978294 0 0 0 0 -572.53950182738481 -706.04163953220996 0 -706.04163953220996 96.466083022635758 0 0 0 0 43.841539987125088 201.61980085701009 0 201.61980085701009 265.9352555473597 0 0 0 0 -14.851004351924416 43.229347257701903 0 43.229347257701903 -39.59639824661329 0 0 0 0 60.924282630556263 -191.54263889691356 0 -191.54263889691356 466.97951075382298 0 0 0 0 -73.132098511981894 13.135908411943092 0 13.135908411943092 166.38816812475125 0 0 0 0 46.070383275233326 146.98542863199691 0 146.98542863199691 18.134726931391924 0 0 0 0 -55.016081384237623 19.788529741883394 0 19.788529741883394 46.942599840411276 0 0 0 0 39.004293798003346 74.0407125402362 0 74.0407125402362 -1.5979543821304105 0 0 0 0 16.325407376018234 50.36785603552871 0 50.36785603552871 28.599532276267809 0 0 0 0 25.9812220834865 104.55894920853098 0 104.55894920853098 -12.703647797052326 0 0 0 0 1116.4963716884668 1173.3601146952969 0 1173.3601146952969 -396.26474680058527 0 0 0 0 29.511453220926199 42.376267224028553 0 42.376267224028553 6.9451724353967421 0 0 0 0 69.353906769010791 174.13682500223968 0 174.13682500223968 -143.83996926961845 0 0 0 0 89.98664791729243 517.72163701686441 0 517.72163701686441 810.937646174978 0 0 0 0 -97.147031917091226 -166.7567223407641 0 -166.7567223407641 306.02024743314905 0 0 0 0 -18.88504573060203 44.065507167289468 0 44.065507167289468 -28.777928429889073 0 0 0 0 6.4037096468091477 -9.0796807328579234 0 -9.0796807328579234 14.087700983021932 0 0 0 0 142.34039262845181 246.90019224623029 0 246.90019224623029 -18.962256853170857 0 0 0 0 133.78412903323988 354.42721877055419 0 354.42721877055419 233.53171853562526 0 0 0 0 74.788527470111148 -82.963960161036084 0 -82.963960161036084 59.40104153122229 0 0 0 0 333.40268552151974 428.39003730047261 0 428.39003730047261 76.195529665761569 0 0 0 0 -8.0785862061165972 342.18512212920541 0 342.18512212920541 496.92299521079985 0 0 0 0 229.72768506262219 669.75049955021677 0 669.75049955021677 395.74073243754174 0 0 0 0 259.20109380842769 667.47017062614759 0 667.47017062614759 349.2397357437294 0 0 0 0 210.03204962534073 678.35704806613467 0 678.35704806613467 626.25565161999839 0 0 0 0 255.29530604844331 742.98516687436859 0 742.98516687436859 313.70486089271435 0 0 0 0 302.65483312375 691.93365717585766 0 691.93365717585766 183.54892330503208 0 0 0 0 -199.83811832634819 -49.711266522611368 0 -49.711266522611368 -481.74656204382336 0 0 0 0 15.036232304031728 603.03710980428514 0 603.03710980428514 335.87563911082543 0 0 0 0 7.4178637193479631 14.104979438276878 0 14.104979438276878 5.5948402485059248 0 0 0 0 1210.9514675512182 1205.6262839828196 0 1205.6262839828196 -325.29156059624802 0 0 0 0 -513.74185625308019 872.06114172548041 0 872.06114172548041 972.04526250338677 0 0 0 0 1376.0092511505791 183.63342019933043 0 183.63342019933043 -76.159945527440868 0 0 0 0 -1.7545398107019139 10.259267837545067 0 10.259267837545067 7.3272121152791385 0 0 0 0 345.5691246924398 819.5939909953122 0 819.5939909953122 183.33622939816269 0 0 0 0 1247.2206578020268 1059.9341535049316 0 1059.9341535049316 86.261077295130235 0 0 0 0 820.87839721358614 681.80503382541065 0 681.80503382541065 156.51519837247906 0 0 0 0 657.87578653567471 52.963930024845467 0 52.963930024845467 9.7672648662701249 0 0 0 0 -1100.0847287185461 1129.7935692454739 0 1129.7935692454739 -1785.2981934856798 0 0 0 0 -1177.1342769884795 987.35447359123282 0 987.35447359123282 187.9506771760789 0 0 0 0 -3575.963908031641 1572.106879876621 0 1572.106879876621 -779.8533626447097 0 0 0 0 -3.7423551896981735 6.9926838146346313 0 6.9926838146346313 3.4272385235505141 0 0 0 0 -1116.9779994280216 741.4926423688521 0 741.4926423688521 -2048.7659640305355 0 0 0 0 -1949.3586697213468 -286.26867384820798 0 -286.26867384820798 -605.05910121297347 0 0 0 0 -1721.0965908445069 826.39836127772287 0 826.39836127772287 725.59368984165485 0 0 0 0 -2370.3920362255521 590.98424411466658 0 590.98424411466658 640.43294977945334 0 0 0 0 -1447.7571919398615 532.22206219672807 0 532.22206219672807 596.11853249630076 0 0 0 0 -1144.1667632706813 -61.920482057896152 0 -61.920482057896152 791.85792003364622 0 0 0 0 -161.47601599993504 386.18558617624603 0 386.18558617624603 -280.12147095602268 0 0 0 0 -1110.9177846311213 1166.3905970615742 0 1166.3905970615742 -1028.3582412912219 0 0 0 0 -1072.3687152121129 400.88546588530244 0 400.88546588530244 -369.28162723066634 0 0 0 0 -630.79300596495159 163.89296222405392 0 163.89296222405392 -592.88458215380524 0 0 0 0 -805.58416593214497 214.60633673287157 0 214.60633673287157 593.8274382276868 0 0 0 0 0.7669176634070709 6.9734518253534645 0 6.9734518253534645 4.0602952469803029 0 0 0 0 -59.677797819924308 686.02169154310104 0 686.02169154310104 -1005.9187309360641 0 0 0 0 341.068199380039 497.01292813455802 0 497.01292813455802 557.8430651494491 0 0 0 0 -1286.4013256964681 611.31658744679589 0 611.31658744679589 2120.3372256629664 0 0 0 0 -1596.1228650606645 -239.76857142217341 0 -239.76857142217341 2679.8187530259383 0 0 0 0 -657.09751923599106 1081.7246666009232 0 1081.7246666009232 62.551782010195893 0 0 0 0 -481.62108864798211 -157.07703096256955 0 -157.07703096256955 1277.0943759290349 0 0 0 0 -285.84264996228012 138.79320042075051 0 138.79320042075051 46.166439207408985 0 0 0 0 -258.10415889687283 94.95627489101571 0 94.95627489101571 -39.474863117844507 0 0 0 0 -211.74899648984137 175.01865389129671 0 175.01865389129671 -17.041281325371529 0 0 0 0 -274.49112509995757 194.39587173807013 0 194.39587173807013 104.90252046675596 0 0 0 0 -522.7330945397407 768.13469637232447 0 768.13469637232447 527.91994182100461 0 0 0 0 -464.10008085359004 61.47256090857627 0 61.47256090857627 381.7083879777565 0 0 0 0 -132.31723927106941 -301.37593881632347 0 -301.37593881632347 720.75814042357433 0 0 0 0 356.23192043895779 -323.22874396512464 0 -323.22874396512464 264.15921791133587 0 0 0 0 -58.480702855085838 4.0107189748632663 0 4.0107189748632663 287.57077732575272 0 0 0 0 49.765882061037701 -62.49534842443245 0 -62.49534842443245 129.77018948392652 0 0 0 0 9.663859154417878 -230.42245768809516 0 -230.42245768809516 366.61454020517112 0 0 0 0 0.25955256821646344 1.8765199817448774 0 1.8765199817448774 6.1377542187366032 0 0 0 0 12.497898141795304 14.818574961282138 0 14.818574961282138 50.610308002440433 0 0 0 0 7.8568112197535811 68.737143772068521 0 68.737143772068521 141.39385339712317 0 0 0 0 -179.58366998699785 -78.314269736329152 0 -78.314269736329152 244.52794215639005 0 0 0 0 -25.194076588872122 63.985748758834234 0 63.985748758834234 189.15741875495041 0 0 0 0 -35.640141043197275 10.022465733270266 0 10.022465733270266 -4.6183767580450237 0 0 0 0 -145.39132743921073 248.58850436806824 0 248.58850436806824 262.51774612981353 0 0 0 0 -34.866835933033144 87.811277103635803 0 87.811277103635803 215.02140842586232 0 0 0 0 130.59291685183416 415.70131202549965 0 415.70131202549965 -1206.8474503821253 0 0 0 0 10.470545957934064 11.190850313459954 0 11.190850313459954 3.5810188619458643 0 0 0 0 -31.63216637894584 139.88650368860363 0 139.88650368860363 147.73401771170029 0 0 0 0 -71.122286617188365 67.061671449464484 0 67.061671449464484 90.486419640394161 0 0 0 0 -104.77823757342412 289.21036230259779 0 289.21036230259779 -223.74927825524901 0 0 0 0 319.98987819044851 281.06701701717247 0 281.06701701717247 -1308.071223615756 0 0 0 0 -1714.4839818059991 -13.766161788582394 0 -13.766161788582394 765.01963052481187 0 0 0 0 3.8761874052330541 4.0586730841260277 0 4.0586730841260277 1.114401311521469 0 0 0 0 190.14590767187474 503.13424447789657 0 503.13424447789657 -697.66291786661895 0 0 0 0 -13.74703713474446 -136.98330412237556 0 -136.98330412237556 -826.60280907468405 0 0 0 0 509.83373320900137 -73.219510926304793 0 -73.219510926304793 65.727338532036811 0 0 0 0 -11.116264211827854 4.3622500788270315 0 4.3622500788270315 -1.0333003991737044 0 0 0 0 -152.9050221874495 52.753751637217647 0 52.753751637217647 189.46999959935783 0 0 0 0 18.253379854897503 7.1791721145709744 0 7.1791721145709744 126.53515786900607 0 0 0 0 154.45881595139508 79.656507913103269 0 79.656507913103269 189.1194442482464 0 0 0 0 845.79112313096994 373.2794465519255 0 373.2794465519255 126.52803977778967 0 0 0 0 415.45537275995594 1364.6501170161646 0 1364.6501170161646 457.2661415815719 0 0 0 0 -288.41352184631251 214.83698923465636 0 214.83698923465636 300.55406139908882 0 0 0 0 -62.518768338306927 95.873553627947672 0 95.873553627947672 20.183365474193124 0 0 0 0 -44.85068665754261 88.76482051037874 0 88.76482051037874 22.783607274839596 0 0 0 0 -57.482115975543522 60.007791974943757 0 60.007791974943757 -8.9151615867873772 0 0 0 0 -51.575000417964475 71.857401991739607 0 71.857401991739607 20.811714203329757 0 0 0 0 -62.434375458338764 94.225771210669336 0 94.225771210669336 51.747826072762109 0 0 0 0 -104.7779965994705 60.58564665502854 0 60.58564665502854 65.524460623204504 0 0 0 0 -88.412993881036527 74.386560596511117 0 74.386560596511117 38.677486264059553 0 0 0 0 -89.324917936423844 67.329768579643769 0 67.329768579643769 45.829724546645593 0 0 0 0 -97.118051488869241 52.771707981530199 0 52.771707981530199 34.756495851397631 0 0 0 0 -72.044301081630692 54.437132732015016 0 54.437132732015016 6.3543888080203033 0 0 0 0 168.65928511278253 483.65853484509989 0 483.65853484509989 323.08231218183937 0 0 0 0 334.86584779467375 129.20388018792073 0 129.20388018792073 -132.13452994678664 0 0 0 0 290.45954615740629 0.59783805023471359 0 0.59783805023471359 -388.1196684542665 0 0 0 0 -44.941211094909207 56.928064860884518 0 56.928064860884518 12.531819068819075 0 0 0 0 -90.404116799782059 58.369408392397418 0 58.369408392397418 5.6482751820803969 0 0 0 0 -31.69006483371777 21.488887696563324 0 21.488887696563324 35.002014949466684 0 0 0 0 -18.223182483098725 7.8406067867991851 0 7.8406067867991851 32.166670110511262 0 0 0 0 -14.355098517939041 21.611971381034891 0 21.611971381034891 20.434209803956037 0 0 0 0 -319.24994053982664 -24.492509728548612 0 -24.492509728548612 143.61991329864395 0 0 0 0 16.039468381056594 49.327630445201336 0 49.327630445201336 63.196427813629299 0 0 0 0 109.80782498927147 -13.002762331681879 0 -13.002762331681879 130.22769608260205 0 0 0 0 646.01181756673759 76.462406530601584 0 76.462406530601584 -224.60998461079726 0 0 0 0 398.9613774678437 -418.89472500592092 0 -418.89472500592092 -20.417423526938364 0 0 0 0 -151.15409993779031 -415.95018502913445 0 -415.95018502913445 112.26776374544716 0 0 0 0 80.212099489684988 -169.78870523737896 0 -169.78870523737896 -193.90623227858305 0 0 0 0 216.77563996291428 -130.46511191730679 0 -130.46511191730679 -298.28428229972633 0 0 0 0 120.35211361373513 86.041131214222332 0 86.041131214222332 -521.29719262041908 0 0 0 0 226.46611405147996 -129.36144324894121 0 -129.36144324894121 -525.42558421706963 0 0 0 0 231.65403281782346 -31.656861776678852 0 -31.656861776678852 -143.17906700608728 0 0 0 0 -288.00831348107022 183.76178669154979 0 183.76178669154979 -454.03928273223573 0 0 0 0 179.12854237409192 268.68810398307323 0 268.68810398307323 -438.65581033696435 0 0 0 0 83.729709418184939 102.95664834020045 0 102.95664834020045 -71.558262750324502 0 0 0 0 317.24298870604252 326.01543230651441 0 326.01543230651441 50.338774629293766 0 0 0 0 736.74795741177513 394.02854234987899 0 394.02854234987899 -75.71358951881848 0 0 0 0 401.04761346451414 856.5518815474461 0 856.5518815474461 404.65071273280046 0 0 0 0 1798.0789210245421 963.10302911746476 0 963.10302911746476 228.24042732203088 0 0 0 0 499.92566444598197 1170.3698864268445 0 1170.3698864268445 1398.2543918469382 0 0 0 0 231.41883346444229 599.65303562967165 0 599.65303562967165 546.55972135981574 0 0 0 0 1308.6658792477429 -647.53391065154528 0 -647.53391065154528 -69.221618210729503 0 0 0 0 -704.01922047662083 1298.7533806449301 0 1298.7533806449301 1755.6661822670976 0 0 0 0 28.372227712180802 37.823870116110001 0 37.823870116110001 50.052424374021285 0 0 0 0 2723.5679121402063 -723.3398104780299 0 -723.3398104780299 -721.07345215258101 0 0 0 0 -7.0135886869393289 310.66378500695646 0 310.66378500695646 1422.6174124931172 0 0 0 0 17.933159231404545 9.781305464720802 0 9.781305464720802 6.2322935460602338 0 0 0 0 849.94657615188044 -104.65171452658251 0 -104.65171452658251 -772.44197132584668 0 0 0 0 2877.4614894971455 432.78597881377209 0 432.78597881377209 -756.73973329744331 0 0 0 0 13.734029306683539 16.559870348545559 0 16.559870348545559 19.27648861633304 0 0 0 0 -247.59768876780436 5.8498342836714983 0 5.8498342836714983 20.013997591733641 0 0 0 0 -385.21784436634334 523.27868506202412 0 523.27868506202412 1033.4845793521745 0 0 0 0 333.37101325590629 1611.6511535087702 0 1611.6511535087702 -370.74946665809694 0 0 0 0 81.582036346422683 1429.7119895100841 0 1429.7119895100841 1539.4464741795236 0 0 0 0 50.511007985194738 1099.922773623075 0 1099.922773623075 285.08486283003003 0 0 0 0 -110.40839099399454 1036.3420464791052 0 1036.3420464791052 -43.662651783350157 0 0 0 0 1567.116428747584 77.932742765213334 0 77.932742765213334 -1373.9657329048641 0 0 0 0 -664.69083603271429 -100.82948979583034 0 -100.82948979583034 2835.7003538674762 0 0 0 0 2430.0521253070619 635.92821895470843 0 635.92821895470843 -1108.9767294269332 0 0 0 0 1686.2947276821651 1949.7119894738717 0 1949.7119894738717 336.53519936414887 0 0 0 0 -269.45416973545071 422.70439250334675 0 422.70439250334675 30.485752977532684 0 0 0 0 -109.11091359214515 110.5056526173903 0 110.5056526173903 -120.74666596472525 0 0 0 0 534.91289294352464 588.53722739029945 0 588.53722739029945 266.48403069782216 0 0 0 0 264.61326023090805 113.62727232487305 0 113.62727232487305 41.472577075815934 0 0 0 0 313.60621721985808 112.87177954809886 0 112.87177954809886 -390.79159840184002 0 0 0 0 -0.69691822940956172 -0.020155096065366251 0 -0.020155096065366251 1.0051586209151253 0 0 0 0 -269.3746043084393 332.43145308128442 0 332.43145308128442 -181.79691187774279 0 0 0 0 -53.317191381909652 383.15638960522483 0 383.15638960522483 -173.85671244178229 0 0 0 0 -236.5304261252968 173.29663614481251 0 173.29663614481251 -194.13222022826085 0 0 0 0 -188.51673522561032 221.1716725119004 0 221.1716725119004 -230.61381504315068 0 0 0 0 186.00865264439199 -70.712298318932881 0 -70.712298318932881 -24.280847490357701 0 0 0 0 -129.03272046334678 271.37659703749159 0 271.37659703749159 -353.0025955036981 0 0 0 0 -1.1956066729279371 1.2788470421652107 0 1.2788470421652107 1.6175130651321865 0 0 0 0 -154.38119858312712 142.87201869847922 0 142.87201869847922 -225.07838978424161 0 0 0 0 -185.32569420489017 439.64347054756581 0 439.64347054756581 -188.7686016760199 0 0 0 0 374.73849484663515 -274.50083772595099 0 -274.50083772595099 41.743922622685204 0 0 0 0 106.70502410164045 119.43556327461556 0 119.43556327461556 -94.438443075972828 0 0 0 0 -59.902842645715282 37.948177667733944 0 37.948177667733944 -25.222900986715103 0 0 0 0 25.332853508720291 137.34439153141648 0 137.34439153141648 -118.46180085201922 0 0 0 0 -6.6335127399253508 18.426018870943551 0 18.426018870943551 -10.202928472537224 0 0 0 0 17.379213688283926 83.687945012199634 0 83.687945012199634 -25.8435136857006 0 0 0 0 -198.18397042216384 86.734449386814958 0 86.734449386814958 -86.4879157392038 0 0 0 0 -3.0709026232973713 5.2645195695667226 0 5.2645195695667226 9.2174966115354096 0 0 0 0 -148.14646233891835 201.7830521549331 0 201.7830521549331 -212.45760658947529 0 0 0 0 -385.82056548303808 285.70584167720517 0 285.70584167720517 -103.61954711397084 0 0 0 0 -471.94599847248173 374.45782605361455 0 374.45782605361455 -177.15569068620971 0 0 0 0 -220.21300991807948 321.19014567140766 0 321.19014567140766 -245.42046267597834 0 0 0 0 -410.8439246895723 345.5832221074088 0 345.5832221074088 -192.43580743658094 0 0 0 0 -443.9225994335502 284.4616692068812 0 284.4616692068812 -291.83820719379582 0 0 0 0 -311.855864905825 288.12186177587864 0 288.12186177587864 -240.05196677315689 0 0 0 0 -398.4089145775215 347.9136244723486 0 347.9136244723486 -172.8141153362958 0 0 0 0 -394.64840982246096 319.8638771439073 0 319.8638771439073 -245.64972423076324 0 0 0 0 -436.98663334684534 438.97320950075482 0 438.97320950075482 -315.68632384251396 0 0 0 0 -302.84038662700914 214.09138978854753 0 214.09138978854753 -275.34074312345911 0 0 0 0 1.088932619415047 -1.6698040376754193 0 -1.6698040376754193 -2.3615277924454858 0 0 0 0 -253.95110319808009 247.97564695231267 0 247.97564695231267 -288.52354059999925 0 0 0 0 -309.53907728166087 297.57081422247575 0 297.57081422247575 -218.8170688128057 0 0 0 0 -346.26518189432682 234.65715081551025 0 234.65715081551025 -214.1743346688163 0 0 0 0 -324.91826804724406 230.60572332720039 0 230.60572332720039 -199.22486145664061 0 0 0 0 -288.7280380690936 182.36774695572967 0 182.36774695572967 -205.11986930223065 0 0 0 0 -358.00237458238553 204.25887219383003 0 204.25887219383003 -150.58891440867228 0 0 0 0 -328.73974404199907 222.13659645465486 0 222.13659645465486 -205.48073924890195 0 0 0 0 -406.17354078461358 275.02257946907048 0 275.02257946907048 -183.70954745937524 0 0 0 0 -665.1275076475431 393.84431680024136 0 393.84431680024136 -178.71110804222189 0 0 0 0 -477.1516631594277 607.69966429407032 0 607.69966429407032 -283.19837536489649 0 0 0 0 -872.56538044386537 712.30903913830127 0 712.30903913830127 -206.72993373693316 0 0 0 0 -458.01883020753303 228.0355002634351 0 228.0355002634351 -150.86693531535275 0 0 0 0 -882.49447664607214 310.62580441559294 0 310.62580441559294 -69.644296393293189 0 0 0 0 -1555.1051972682035 463.70555686882653 0 463.70555686882653 49.797001663035189 0 0 0 0 -878.20529926732706 233.16224173572118 0 233.16224173572118 -97.187636619049954 0 0 0 0 -435.45314664501348 343.27998812733131 0 343.27998812733131 117.99661412406567 0 0 0 0 -510.904672808334 250.67310738967353 0 250.67310738967353 62.281793376751011 0 0 0 0 -554.11056781320804 365.23776336832452 0 365.23776336832452 -224.30077212671313 0 0 0 0 318.54149089880229 5.9960094733178266 0 5.9960094733178266 -67.047601530473912 0 0 0 0 0.52028730908901366 0.18936146615661187 0 0.18936146615661187 -0.59079065243795981 0 0 0 0 427.85013844697824 318.14781799009324 0 318.14781799009324 -124.24032659988734 0 0 0 0 197.2387430768722 133.87608586884744 0 133.87608586884744 -55.166748200761504 0 0 0 0 0.5292903754279763 3.0512685077788717 0 3.0512685077788717 2.0557168658102114 0 0 0 0 209.98014070673526 -63.503561265868484 0 -63.503561265868484 114.72136966400467 0 0 0 0 1100.4363236773497 610.65391263082347 0 610.65391263082347 -308.6872819289274 0 0 0 0 -110.24752350636118 310.21769753053377 0 310.21769753053377 -330.52133166453859 0 0 0 0 -156.72925474718795 519.81148437010415 0 519.81148437010415 -304.7311058298219 0 0 0 0 -193.49849326946423 319.36807504851822 0 319.36807504851822 -243.08431170650874 0 0 0 0 -244.84341051755473 414.91250170547573 0 414.91250170547573 25.305764451397408 0 0 0 0 -422.62445241902606 377.21871350596484 0 377.21871350596484 -255.39906119081934 0 0 0 0 -643.51411420875229 392.67633470503642 0 392.67633470503642 -317.82687508777599 0 0 0 0 -0.48203354369016438 2.11200223286869 0 2.11200223286869 -7.7446642899533913 0 0 0 0 -581.97446167409544 45.206584336681772 0 45.206584336681772 24.856245839793701 0 0 0 0 4.2208837348880479 58.027729710403946 0 58.027729710403946 -38.920179521170212 0 0 0 0 -418.58489612219273 313.23880995833315 0 313.23880995833315 -409.96755084508914 0 0 0 0 -396.48434069206996 141.82717725710972 0 141.82717725710972 28.626534943381557 0 0 0 0 -626.7810503643268 318.18682316261402 0 318.18682316261402 -93.870127800444607 0 0 0 0 -253.94973035970179 390.08366377012862 0 390.08366377012862 274.59731810186349 0 0 0 0 -211.10737274782696 -109.21082715683451 0 -109.21082715683451 -102.09901465756411 0 0 0 0 -349.26173153152922 591.95874905292294 0 591.95874905292294 -720.96616495482158 0 0 0 0 -524.23272732258192 498.43244007261819 0 498.43244007261819 -699.51945346232969 0 0 0 0 -346.39746826036571 161.13342679255675 0 161.13342679255675 -1146.701877133426 0 0 0 0 -784.30289076524787 -295.78558042889927 0 -295.78558042889927 -563.7546878216599 0 0 0 0 -548.82193909796479 61.215248140419135 0 61.215248140419135 -443.49378841818543 0 0 0 0 -565.00614530444727 34.227982663695002 0 34.227982663695002 -481.42232291147229 0 0 0 0 -803.59906624470023 308.56434240476301 0 308.56434240476301 -321.59495720596169 0 0 0 0 -185.3684455233888 317.4404435858778 0 317.4404435858778 -521.7769047429174 0 0 0 0 -431.40268814927549 176.20985695900163 0 176.20985695900163 -278.0676043135536 0 0 0 0 -323.9023212340544 369.64060127412085 0 369.64060127412085 -540.59543813332857 0 0 0 0 -334.91874292696593 361.75590916849615 0 361.75590916849615 -261.24864402515232 0 0 0 0 -299.35578045008879 292.72825071488478 0 292.72825071488478 -432.54225923084596 0 0 0 0 -294.30991203949088 277.63998208574776 0 277.63998208574776 -473.38974422137835 0 0 0 0 -208.95642218558351 417.11512863819371 0 417.11512863819371 -433.03542704287975 0 0 0 0 -213.83041436664644 306.53554965733201 0 306.53554965733201 -590.10085424006684 0 0 0 0 -270.90412934269989 228.05199341139814 0 228.05199341139814 -599.75205016703694 0 0 0 0 -343.38278865374741 237.20531456375693 0 237.20531456375693 -550.61031554249348 0 0 0 0 -416.20655032675131 181.18871826674149 0 181.18871826674149 -360.23850802159723 0 0 0 0 -415.27156411556643 174.2406747918576 0 174.2406747918576 -361.50736481963395 0 0 0 0 -444.59697474642599 211.88990316913987 0 211.88990316913987 -191.84628309278196 0 0 0 0 -454.63714967075066 180.2477483617804 0 180.2477483617804 -226.23342387455341 0 0 0 0 -402.30131234532018 228.92230665035095 0 228.92230665035095 -277.68398113934381 0 0 0 0 -520.10659366179607 123.05027012868959 0 123.05027012868959 -276.05381821774063 0 0 0 0 -317.96575747600582 274.67487603017071 0 274.67487603017071 -219.01206866937719 0 0 0 0 -502.43243110323965 294.40062933808804 0 294.40062933808804 -174.54202930899191 0 0 0 0 -502.51179281035729 119.73824021633482 0 119.73824021633482 -289.1052498934223 0 0 0 0 -436.32425961946137 190.10006312153928 0 190.10006312153928 -141.50090455527243 0 0 0 0 -285.05672196796513 320.18702789796225 0 320.18702789796225 -143.05438031579251 0 0 0 0 -364.50167066462745 372.76957932010555 0 372.76957932010555 -142.6061840121838 0 0 0 0 -388.64827694359701 237.99544769461136 0 237.99544769461136 -28.181190728260844 0 0 0 0 -132.53859502351406 379.5620385089569 0 379.5620385089569 -156.28822728861269 0 0 0 0 -387.2723770534285 238.89523936085243 0 238.89523936085243 -65.791627575192251 0 0 0 0 -739.50765622532344 271.3078859849993 0 271.3078859849993 -63.932770751234784 0 0 0 0 -377.58395662023577 314.37489254255888 0 314.37489254255888 -280.26824374035641 0 0 0 0 1.0604413836830773 3.2660785173158331 0 3.2660785173158331 -1.2091990203095406 0 0 0 0 -12.192456831829986 3.8449292087816502 0 3.8449292087816502 35.727564976143185 0 0 0 0 1.925794870716544 12.383425914384944 0 12.383425914384944 24.733199047178715 0 0 0 0 5.6081223322398728 36.658059212404623 0 36.658059212404623 -144.57500744914933 0 0 0 0 -14.939270035290974 12.335778137876332 0 12.335778137876332 26.365369307361107 0 0 0 0 -2.4427936110561248 5.4587101291896261 0 5.4587101291896261 35.471597162052745 0 0 0 0 3.8188593416853109 22.806742534659861 0 22.806742534659861 38.557271537398265 0 0 0 0 -65.066302243998507 14.711867815218284 0 14.711867815218284 93.256876812680275 0 0 0 0 -16.174914562396225 -34.524828239859744 0 -34.524828239859744 82.198329937193193 0 0 0 0 -29.905542688022251 33.278566947945365 0 33.278566947945365 41.577094797534301 0 0 0 0 -3.9244831004298533 8.95391111722396 0 8.95391111722396 46.537450346381519 0 0 0 0 -12.267654356182902 6.2133118382298562 0 6.2133118382298562 27.632892737718066 0 0 0 0 -107.31528593288385 50.966713087564131 0 50.966713087564131 46.288836367726617 0 0 0 0 -97.291606987178056 52.988811651240212 0 52.988811651240212 46.664214840311615 0 0 0 0 -5.059970186678818 15.259983854978884 0 15.259983854978884 54.120444320605458 0 0 0 0 -19.045414454834827 56.59714655773314 0 56.59714655773314 101.7847136984783 0 0 0 0 -26.833919687749585 10.435833048501081 0 10.435833048501081 119.40581765121533 0 0 0 0 -143.07978391525103 188.07888620247468 0 188.07888620247468 18.259802741828025 0 0 0 0 -176.64277278759255 60.195103255129652 0 60.195103255129652 134.46742282044579 0 0 0 0 -130.46173635368177 147.74098165075702 0 147.74098165075702 98.032595200722426 0 0 0 0 -57.278535276767798 181.39990253542419 0 181.39990253542419 -12.046980883707874 0 0 0 0 -125.3431054056382 160.09293202618937 0 160.09293202618937 -14.920209184827399 0 0 0 0 -156.02077105740682 218.62671520022559 0 218.62671520022559 -19.077284398721531 0 0 0 0 -5.4379793159197334 -1.8509489038592193 0 -1.8509489038592193 4.9627246801072431 0 0 0 0 13.055401720886977 65.233140291287242 0 65.233140291287242 108.72304340940836 0 0 0 0 -31.798598117078654 129.65296360415232 0 129.65296360415232 207.12157180860231 0 0 0 0 -5.7865398824214935 95.444574539005771 0 95.444574539005771 140.84163801807154 0 0 0 0 -12.891976467207456 76.655351037840404 0 76.655351037840404 -12.867842306900339 0 0 0 0 3.4026193607860478 79.139085670743953 0 79.139085670743953 -11.258852225546434 0 0 0 0 -6.0892608916619793 76.271984645922203 0 76.271984645922203 19.714750293474935 0 0 0 0 -10.90555166291233 98.79978651273268 0 98.79978651273268 161.61168811038078 0 0 0 0 -32.137403721790179 122.13187780867156 0 122.13187780867156 101.82062602851875 0 0 0 0 22.960064622184291 174.43149233225631 0 174.43149233225631 145.99744017295598 0 0 0 0 -77.372566680947784 156.15697506522338 0 156.15697506522338 145.10175613479805 0 0 0 0 -40.722688283232856 63.721969635113055 0 63.721969635113055 112.13456404404133 0 0 0 0 -59.99768108830358 60.245641334824086 0 60.245641334824086 131.47163876915874 0 0 0 0 -67.261900606186828 129.01490395313886 0 129.01490395313886 145.42576808933518 0 0 0 0 51.042581255052937 184.67854538694519 0 184.67854538694519 82.216374259354779 0 0 0 0 6.379992975121354 37.285742954870081 0 37.285742954870081 108.7392295787082 0 0 0 0 -155.14225740963229 29.321699656551573 0 29.321699656551573 87.183007177234686 0 0 0 0 -4.0400229512472876 16.288010714106491 0 16.288010714106491 11.044492084637653 0 0 0 0 -147.25871903488587 60.596815465876716 0 60.596815465876716 165.2467088062258 0 0 0 0 -118.14902703681582 -33.244055835462859 0 -33.244055835462859 122.11886589373898 0 0 0 0 -203.93735292095153 273.73098550583063 0 273.73098550583063 17.398405993801134 0 0 0 0 -54.901192764082225 29.000469172948215 0 29.000469172948215 174.89024899372907 0 0 0 0 -70.618967392358172 72.588167529540442 0 72.588167529540442 117.24068636987067 0 0 0 0 -1.6146862648847957 10.66587905612981 0 10.66587905612981 24.146992000235805 0 0 0 0 -35.498403232733835 26.662618371035933 0 26.662618371035933 -38.427445048055233 0 0 0 0 31.366124065047188 71.706361655699766 0 71.706361655699766 -46.604818816715124 0 0 0 0 -132.86639399157139 199.59112649411327 0 199.59112649411327 -248.15160518105859 0 0 0 0 -306.83560311544716 111.60093705595136 0 111.60093705595136 -76.343780101542507 0 0 0 0 -4.2974407167399704 -3.2592046329246926 0 -3.2592046329246926 2.9856361428954017 0 0 0 0 -334.99218756106347 128.67332696330323 0 128.67332696330323 37.294285663578194 0 0 0 0 -325.73460337416373 170.42857651667646 0 170.42857651667646 50.310321688510157 0 0 0 0 -375.7366285140015 174.60696775761244 0 174.60696775761244 70.048844911154447 0 0 0 0 99.167791712388862 65.36526487844003 0 65.36526487844003 -109.93323056792633 0 0 0 0 -268.99511140379764 -56.387544691335279 0 -56.387544691335279 72.801287413032696 0 0 0 0 -15.673400020088593 141.78079220980061 0 141.78079220980061 45.637703029275144 0 0 0 0 -33.123901937993793 40.877046766402501 0 40.877046766402501 -34.115115477069253 0 0 0 0 75.565730674337829 138.60418593160648 0 138.60418593160648 -18.236911147198967 0 0 0 0 32.420257645397214 63.518923609667581 0 63.518923609667581 -16.951036220911192 0 0 0 0 23.319060299623828 49.690208422298149 0 49.690208422298149 -5.8504492607448526 0 0 0 0 3.5644957101030741 92.74748826665018 0 92.74748826665018 -2.0998311465700681 0 0 0 0 326.05513031014561 246.19186100868319 0 246.19186100868319 -30.192567862639407 0 0 0 0 -11.499061269398737 43.81091191222562 0 43.81091191222562 -55.887190247066528 0 0 0 0 0.95316698363239993 97.979155950865788 0 97.979155950865788 12.214698784911889 0 0 0 0 856.96425101049681 209.35935904818143 0 209.35935904818143 -57.047032367895554 0 0 0 0 -7.844817003513171 14.965787229673559 0 14.965787229673559 -4.7560271583228815 0 0 0 0 -27.490562103594129 176.31418367853621 0 176.31418367853621 535.39860683715051 0 0 0 0 209.37038602788652 226.25010668715129 0 226.25010668715129 -427.96928054091404 0 0 0 0 714.04941664200305 743.33830331763329 0 743.33830331763329 30.546683067653248 0 0 0 0 156.82716864385384 443.40369406680435 0 443.40369406680435 91.952788827411496 0 0 0 0 258.52286080934573 274.8466935983688 0 274.8466935983688 -383.5908023406256 0 0 0 0 289.29265550308173 287.08427158128643 0 287.08427158128643 -389.00377829946046 0 0 0 0 14.637860450762673 382.09521579450484 0 382.09521579450484 -671.56623536519055 0 0 0 0 -1.6356338959918162 2.9266577817001576 0 2.9266577817001576 -8.0086856527666228 0 0 0 0 248.04968500960786 62.47973113878254 0 62.47973113878254 -54.606787933054875 0 0 0 0 145.64069901926268 517.5219787678825 0 517.5219787678825 -613.53876422686244 0 0 0 0 -66.704522052856191 -73.286235315430929 0 -73.286235315430929 -61.023065299103109 0 0 0 0 8.7715096669123511 41.935300475955536 0 41.935300475955536 -57.565153198969753 0 0 0 0 12.02082880443777 94.519636402461401 0 94.519636402461401 243.08724814016341 0 0 0 0 293.87594649424136 664.41882242019437 0 664.41882242019437 118.82393251411668 0 0 0 0 -111.22836724462741 202.55205911024291 0 202.55205911024291 357.08647191021919 0 0 0 0 214.38683099273476 182.46171082409273 0 182.46171082409273 -5.2854868937101855 0 0 0 0 128.60570984019432 -171.82187293249717 0 -171.82187293249717 -50.08632670902989 0 0 0 0 10.29024079784341 36.483790626676679 0 36.483790626676679 -71.221830094244339 0 0 0 0 71.962484439725813 224.33860637599128 0 224.33860637599128 12.908514643550006 0 0 0 0 120.37269607421331 163.74129016492998 0 163.74129016492998 -123.95128658910835 0 0 0 0 -5.9338399929692969 63.504956116417816 0 63.504956116417816 -90.244817388090723 0 0 0 0 0.98283034842759776 2.0645170460072322 0 2.0645170460072322 -0.2239628681157666 0 0 0 0 75.133587324125983 72.449298656391875 0 72.449298656391875 -262.1969362712116 0 0 0 0 -10.156722793588415 241.75652531612013 0 241.75652531612013 263.73484877237934 0 0 0 0 28.44128834514413 60.549157104276674 0 60.549157104276674 -144.43080537730748 0 0 0 0 7.1649062287906418 27.151367230400865 0 27.151367230400865 -165.53375284958202 0 0 0 0 44.592413375576143 106.91712240922789 0 106.91712240922789 36.959350019416888 0 0 0 0 244.2999739915831 298.39991027552787 0 298.39991027552787 82.357864980227532 0 0 0 0 -8.4595979507284937 -2.9459705492090507 0 -2.9459705492090507 613.30263243438139 0 0 0 0 4.4371831720737873 4.7004438784353475 0 4.7004438784353475 3.5670091141373277 0 0 0 0 52.171755245683016 209.0331298657693 0 209.0331298657693 519.48945770530918 0 0 0 0 34.967070856597275 -50.845796549173429 0 -50.845796549173429 339.39678689709399 0 0 0 0 62.447642250424906 229.81616940932486 0 229.81616940932486 231.61570806743839 0 0 0 0 -1178.6582939961663 763.42963923661955 0 763.42963923661955 1503.8685149422581 0 0 0 0 542.47207413087017 -525.37055481234893 0 -525.37055481234893 -2284.3658480949634 0 0 0 0 490.5959208236236 486.60968156570652 0 486.60968156570652 -812.35701296306615 0 0 0 0 -14.677194228285714 12.136027110807731 0 12.136027110807731 -12.715626643294993 0 0 0 0 223.46631729110231 -62.953316487635675 0 -62.953316487635675 -841.7882404614262 0 0 0 0 -636.88749919150723 30.606558267312721 0 30.606558267312721 61.556598955055961 0 0 0 0 -825.71163812276791 337.69028101210779 0 337.69028101210779 30.886558508118469 0 0 0 0 -700.77698306940874 624.24159863025761 0 624.24159863025761 -142.36648181541022 0 0 0 0 -496.65568664076636 179.80019420267445 0 179.80019420267445 94.50743252954635 0 0 0 0 -375.97606020356579 522.0921859899629 0 522.0921859899629 -110.46932400293372 0 0 0 0 -70.172713916253997 249.60132418713511 0 249.60132418713511 -164.92935648493221 0 0 0 0 -61.797350510591059 279.59849514603593 0 279.59849514603593 -74.793223647189734 0 0 0 0 177.09386253319099 176.35735182832832 0 176.35735182832832 -358.62834843081873 0 0 0 0 241.8369562561129 45.699732651064551 0 45.699732651064551 -141.99129892538622 0 0 0 0 230.20221345913887 20.285285005074911 0 20.285285005074911 -80.908480757283542 0 0 0 0 138.85650479443575 -130.21234667873705 0 -130.21234667873705 116.49705800020638 0 0 0 0 62.880442029388178 32.271487206002071 0 32.271487206002071 -5.7782913502966533 0 0 0 0 17.253363223702763 77.434096570669681 0 77.434096570669681 23.640405649740387 0 0 0 0 324.5684046864917 -154.51972055747319 0 -154.51972055747319 -314.62622045303146 0 0 0 0 31.398169540807885 9.0551668666664291 0 9.0551668666664291 4.9753914550697331 0 0 0 0 6.002295231577591 16.035434083749351 0 16.035434083749351 161.96480291660464 0 0 0 0 44.012250498806679 -349.39807991366388 0 -349.39807991366388 450.26508310888858 0 0 0 0 4.6881012116573402 27.469326299390104 0 27.469326299390104 152.80593848071658 0 0 0 0 3.4426307090325281 44.939799956471688 0 44.939799956471688 178.04743629720224 0 0 0 0 -13.082265367826039 83.665783877120703 0 83.665783877120703 94.748610252510844 0 0 0 0 30.908761240847525 22.701441772048383 0 22.701441772048383 118.04759745696902 0 0 0 0 14.720273937538877 61.511267132055082 0 61.511267132055082 41.209637209931316 0 0 0 0 -5.0568969683517935 89.559815080397129 0 89.559815080397129 81.607694349720077 0 0 0 0 -9.6802147117123241 110.52089007712493 0 110.52089007712493 60.787039163264126 0 0 0 0 -17.046310718375025 95.775510750076137 0 95.775510750076137 112.75857897023161 0 0 0 0 21.248809576543863 153.3403362158715 0 153.3403362158715 -66.779907879208622 0 0 0 0 -9.3705041800276376 91.674353558517396 0 91.674353558517396 42.412425165837703 0 0 0 0 -5.8918277369375573 156.13663403299688 0 156.13663403299688 54.010525917348787 0 0 0 0 3.1709683668450452 148.09125869021409 0 148.09125869021409 145.12704965518242 0 0 0 0 13.14489447161759 111.78419528312133 0 111.78419528312133 36.869184646020585 0 0 0 0 -23.153899316679826 28.997617746435168 0 28.997617746435168 14.667688192445691 0 0 0 0 128.53267885890091 84.294171041175105 0 84.294171041175105 -57.926206172876618 0 0 0 0 -5.4950095160020282 104.97412463157343 0 104.97412463157343 61.58736598582982 0 0 0 0 16.559479626634356 65.511442350534082 0 65.511442350534082 41.712476569014278 0 0 0 0 6.9341534986888291 106.65745643826722 0 106.65745643826722 56.909845000540372 0 0 0 0 -5.6812879028875614 94.791402530102005 0 94.791402530102005 45.773363552696537 0 0 0 0 -0.47737310288357548 91.481660582816403 0 91.481660582816403 47.437360584305679 0 0 0 0 19.48359742910543 141.84713141681877 0 141.84713141681877 75.153777347458345 0 0 0 0 15.286550347533222 67.143559011751364 0 67.143559011751364 46.409758661329988 0 0 0 0 27.472861471709621 88.676167596676351 0 88.676167596676351 34.816921318501045 0 0 0 0 -17.246296165889362 70.109843667660243 0 70.109843667660243 27.39697500539387 0 0 0 0 -25.393845142578357 84.383810592089503 0 84.383810592089503 -7.7163585115401929 0 0 0 0 27.177969899628565 58.970029860460727 0 58.970029860460727 10.510238497122293 0 0 0 0 -43.485275589417142 83.119364719017767 0 83.119364719017767 15.666835785244075 0 0 0 0 104.057210123603 72.941222494749354 0 72.941222494749354 12.165111205082212 0 0 0 0 -38.177495598531095 72.952676297755715 0 72.952676297755715 32.548234821166261 0 0 0 0 -23.774206424699514 84.578494716405658 0 84.578494716405658 11.793433783259388 0 0 0 0 39.999812519818079 65.404924473697974 0 65.404924473697974 20.3035366236345 0 0 0 0 19.968946474458789 82.198489824524586 0 82.198489824524586 30.644052762285355 0 0 0 0 1.2205791035667062 91.653985690416448 0 91.653985690416448 30.974220427386172 0 0 0 0 2.3883124729472911 98.45958566971558 0 98.45958566971558 26.738302773424948 0 0 0 0 -17.131101241742726 73.905088540554061 0 73.905088540554061 26.786626040401188 0 0 0 0 -18.387353024329059 66.617459395984042 0 66.617459395984042 0.052657753837593191 0 0 0 0 -64.57649229085655 75.199400634486665 0 75.199400634486665 33.48192371296318 0 0 0 0 11.154293297216682 22.664661949728767 0 22.664661949728767 -8.499427191315382 0 0 0 0 228.49963633968582 35.548211602590527 0 35.548211602590527 -93.39762834810972 0 0 0 0 81.22933904020465 161.33114230489082 0 161.33114230489082 -108.18842607353145 0 0 0 0 31.963485323435016 66.138862776586322 0 66.138862776586322 -50.98916909031572 0 0 0 0 -25.999969758704538 129.9926165030156 0 129.9926165030156 42.06238427842618 0 0 0 0 211.91829326366133 62.569593272623024 0 62.569593272623024 -45.91864077979335 0 0 0 0 194.86462612389732 49.05032871595904 0 49.05032871595904 2.2118384983023134 0 0 0 0 -33.125744839357822 52.032868631001541 0 52.032868631001541 40.534754374776384 0 0 0 0 -25.999969758617226 129.99261650306289 0 129.99261650306289 42.06238427842618 0 0 0 0 -29.918224705848843 76.723370330280886 0 76.723370330280886 146.26655803072936 0 0 0 0 0.84680864415713586 155.51163935801014 0 155.51163935801014 -74.668025808660786 0 0 0 0 7.5999645811198207 12.931392621631915 0 12.931392621631915 16.774594219099825 0 0 0 0 -25.999969758791849 129.99261650303379 0 129.99261650303379 42.062384278427089 0 0 0 0 -25.999969758719089 129.99261650303242 0 129.99261650303242 42.062384278455283 0 0 0 0 -25.999969758791849 129.99261650309199 0 129.99261650309199 42.062384278367972 0 0 0 0 -195.85492190814693 193.3243115433288 0 193.3243115433288 -64.534041628307023 0 0 0 0 -8.5377843343740096 238.86406180680933 0 238.86406180680933 -129.56534903274223 0 0 0 0 11.203364546406803 3.375282857791376 0 3.375282857791376 -3.5971263563456262 0 0 0 0 -37.764890857775754 117.57273577603337 0 117.57273577603337 -10.033250413551286 0 0 0 0 113.26506187895575 -31.513245162550447 0 -31.513245162550447 -127.72663256871343 0 0 0 0 58.376375934487442 145.31500677923214 0 145.31500677923214 -63.126317444122833 0 0 0 0 9.0441110829815727 69.531106308057829 0 69.531106308057829 -34.498688293176599 0 0 0 0 89.882338916337176 117.86660446704082 0 117.86660446704082 -62.34505969512611 0 0 0 0 138.98584423639113 61.603362477322662 0 61.603362477322662 -27.521879622690903 0 0 0 0 188.83486278803321 101.40666687443809 0 101.40666687443809 -155.36714038282571 0 0 0 0 192.47685593822098 18.221543168056087 0 18.221543168056087 -67.693755540800339 0 0 0 0 -95.750640309765004 190.31531046108466 0 190.31531046108466 -77.407962362667604 0 0 0 0 96.725252468346298 174.20777722514367 0 174.20777722514367 -131.00764527967476 0 0 0 0 50.829301950725494 127.57104827924195 0 127.57104827924195 -66.167888004321867 0 0 0 0 -332.70594596223464 268.3596939282379 0 268.3596939282379 -68.748168049129163 0 0 0 0 -94.021218981593847 177.94578879068104 0 177.94578879068104 -60.820036140983575 0 0 0 0 -121.66683234798256 195.51124877048278 0 195.51124877048278 -17.02818119836229 0 0 0 0 -96.90456462194561 180.56766914335094 0 180.56766914335094 -158.96158501744685 0 0 0 0 50.984578015573788 138.45814546065048 0 138.45814546065048 -51.716588087081618 0 0 0 0 -4.2402576658059843 198.91062355248141 0 198.91062355248141 -92.206699126038075 0 0 0 0 -63.340302403430542 160.01388816481904 0 160.01388816481904 19.590458890368609 0 0 0 0 2.3801860106686945 179.08310155910658 0 179.08310155910658 -65.757538681564256 0 0 0 0 -106.14607688493561 214.24620581227646 0 214.24620581227646 -30.167700195843281 0 0 0 0 -178.89997684078116 175.42548062525202 0 175.42548062525202 173.05629862561909 0 0 0 0 -118.51618654041522 86.307803702924502 0 86.307803702924502 85.84237104654494 0 0 0 0 -119.03780793041926 114.69846650288773 0 114.69846650288773 48.824766603378521 0 0 0 0 -56.879616999794962 132.28133422777319 0 132.28133422777319 33.492484852480629 0 0 0 0 -15.63171773945578 99.448199479520554 0 99.448199479520554 18.340081530448515 0 0 0 0 -58.779571273829788 279.2324654866934 0 279.2324654866934 315.59161408000728 0 0 0 0 -48.255328667422873 216.61737518420887 0 216.61737518420887 357.3820266837447 0 0 0 0 -45.931061106202392 71.802868079155587 0 71.802868079155587 -22.497433831215005 0 0 0 0 25.933224637439707 1.1077008298943838 0 1.1077008298943838 305.07930344601482 0 0 0 0 -16.20150120149669 7.6932588801478801 0 7.6932588801478801 -0.17951033976098074 0 0 0 0 308.73295578473335 165.96889846783688 0 165.96889846783688 53.6030234250793 0 0 0 0 113.52707178963465 68.316518655599793 0 68.316518655599793 4.9972987574165018 0 0 0 0 27.1392324621429 127.6094304555113 0 127.6094304555113 -17.736630941661133 0 0 0 0 15.944405687350809 135.28256873978762 0 135.28256873978762 -21.71729959019649 0 0 0 0 29.542189909057925 155.25345927577473 0 155.25345927577473 -29.262284981854464 0 0 0 0 -25.022794482021709 100.42738261365957 0 100.42738261365957 76.338053594545272 0 0 0 0 20.704915151975001 193.89178880687177 0 193.89178880687177 100.01762290688657 0 0 0 0 3.8140699314390076 98.908575492059754 0 98.908575492059754 127.33188642509322 0 0 0 0 71.502955246272904 205.90214818657296 0 205.90214818657296 289.95282388042324 0 0 0 0 -11.390761325601488 130.38790997581964 0 130.38790997581964 93.50325634600631 0 0 0 0 -46.340108789183432 47.587430714068432 0 47.587430714068432 180.85956369647101 0 0 0 0 -7.0791012105219124 102.4172538440971 0 102.4172538440971 70.973561665312445 0 0 0 0 -82.276566112122964 123.41833687397229 0 123.41833687397229 108.12799302885833 0 0 0 0 -54.019988154515488 24.584523865981396 0 24.584523865981396 7.5594003173606765 0 0 0 0 -1.5665439751464874 -10.982910100341542 0 -10.982910100341542 29.373962207668228 0 0 0 0 -93.331630751037665 129.09895428998834 0 129.09895428998834 82.475115503904817 0 0 0 0 -4.6995541456199135 15.198572046037953 0 15.198572046037953 -30.827268422131965 0 0 0 0 26.791174647198773 33.80076822001584 0 33.80076822001584 24.667562595487382 0 0 0 0 -103.92405144734948 73.063636592050898 0 73.063636592050898 62.14390055815602 0 0 0 0 -16.85527326616284 125.0401578965575 0 125.0401578965575 -70.575753768429422 0 0 0 0 -32.833473894468625 197.84143676057647 0 197.84143676057647 -46.543568608023634 0 0 0 0 41.507034385767042 34.120213506995185 0 34.120213506995185 24.803246683593223 0 0 0 0 130.94050369784236 258.4526204107342 0 258.4526204107342 66.277573161671171 0 0 0 0 -20.538485929886519 23.312655240960339 0 23.312655240960339 156.79037213903939 0 0 0 0 11.540970869318699 -1.2356846196262268 0 -1.2356846196262268 -17.607059006106283 0 0 0 0 27.344256608888827 0.67732978096046281 0 0.67732978096046281 45.772987335039943 0 0 0 0 -46.339512254889996 48.685368352758815 0 48.685368352758815 127.49308805328837 0 0 0 0 105.01623218806344 149.01879974656003 0 149.01879974656003 114.59755932342341 0 0 0 0 0.23932666027373273 1.3481968976804239 0 1.3481968976804239 1.6423341910941076 0 0 0 0 63.578728947904892 -2.0176255349360872 0 -2.0176255349360872 -17.3471622631223 0 0 0 0 273.76593002126901 36.880993486417537 0 36.880993486417537 -11.993856305602094 0 0 0 0 -60.129472865432035 -93.955269737336494 0 -93.955269737336494 -58.88503142841364 0 0 0 0 -82.659216081532577 44.416409679652361 0 44.416409679652361 48.442218852243968 0 0 0 0 -12.884369847655762 95.638265711626445 0 95.638265711626445 1.797211320270435 0 0 0 0 44.232634645354949 35.822117023510529 0 35.822117023510529 25.608334496716445 0 0 0 0 76.478978426865069 63.387460673206078 0 63.387460673206078 -89.044904777733791 0 0 0 0 -30.923890196592765 113.42118807553322 0 113.42118807553322 -73.957995910452155 0 0 0 0 22.663680849262164 165.46714828205586 0 165.46714828205586 -26.509376894317029 0 0 0 0 37.731271691838629 185.89109876825114 0 185.89109876825114 -180.4068010690753 0 0 0 0 80.107596781977918 84.417697591186879 0 84.417697591186879 -116.86655025873915 0 0 0 0 61.415716292191064 14.645512447918009 0 14.645512447918009 -248.95794570338694 0 0 0 0 30.078411184513243 22.381624640804148 0 22.381624640804148 17.085770740028238 0 0 0 0 49.33494843301014 -75.002877123584767 0 -75.002877123584767 140.6944660930385 0 0 0 0 43.250841040289743 25.718951720263483 0 25.718951720263483 1.8281402335437242 0 0 0 0 22.994471847836394 23.365443356829928 0 23.365443356829928 -36.723086797777796 0 0 0 0 39.900681471117991 6.9494025100433419 0 6.9494025100433419 -15.268728160568003 0 0 0 0 58.728934803191805 64.767096023853128 0 64.767096023853128 31.233893065091252 0 0 0 0 55.312490954820532 82.596128673552357 0 82.596128673552357 45.628253042879805 0 0 0 0 91.042260238406016 72.228858305786616 0 72.228858305786616 15.023854361774283 0 0 0 0 104.52709746162873 83.568082596244494 0 83.568082596244494 21.399740431757891 0 0 0 0 99.842757760547101 75.584429129506134 0 75.584429129506134 30.194722781766359 0 0 0 0 104.87632566469256 63.101019428147993 0 63.101019428147993 37.023507215129939 0 0 0 0 115.20006914727855 51.776587389893393 0 51.776587389893393 46.226542148331646 0 0 0 0 118.02564035612158 48.334479256544 0 48.334479256544 46.704950808206377 0 0 0 0 92.604516458581031 69.949879721268559 0 69.949879721268559 -25.071113265879688 0 0 0 0 113.85847158590332 68.977643342401279 0 68.977643342401279 24.553321695042541 0 0 0 0 107.3814327956643 99.143246199149871 0 99.143246199149871 34.959578893041908 0 0 0 0 71.352293091256513 47.604629722659269 0 47.604629722659269 2.077059482864037 0 0 0 0 95.578512121457607 71.864365822108084 0 71.864365822108084 27.971092159699765 0 0 0 0 68.555937061842997 96.876732897273541 0 96.876732897273541 39.988607794170093 0 0 0 0 134.08565605213516 84.284108895708414 0 84.284108895708414 20.958735794440145 0 0 0 0 138.18723374709953 53.477495529741645 0 53.477495529741645 33.82927243307131 0 0 0 0 19.859502375402371 36.076988437438558 0 36.076988437438558 22.95325565609528 0 0 0 0 -60.473713084720657 7.4700556108382443 0 7.4700556108382443 27.022601178188779 0 0 0 0 1.6816524383320939 61.526123105566512 0 61.526123105566512 40.290719698568864 0 0 0 0 63.525295674451627 48.567032170802122 0 48.567032170802122 12.163730992228011 0 0 0 0 -7.5697746878765884 9.4864676512168273 0 9.4864676512168273 10.981924107377804 0 0 0 0 86.009919852185703 38.948165880947613 0 38.948165880947613 -5.4908984630046689 0 0 0 0 107.71690902170667 50.033997740025143 0 50.033997740025143 -9.2610891546296443 0 0 0 0 34.426462262437099 17.772176559754442 0 17.772176559754442 -10.053454463614241 0 0 0 0 106.97561180143384 53.709174798500044 0 53.709174798500044 -4.6447613898656073 0 0 0 0 110.00855951885751 50.781990071578662 0 50.781990071578662 -9.0170686524397752 0 0 0 0 101.82048170155031 78.235411577756622 0 78.235411577756622 9.6089652479008691 0 0 0 0 91.269574901089072 74.169751998111678 0 74.169751998111678 17.12137762639577 0 0 0 0 82.191274578450248 61.400633685023877 0 61.400633685023877 5.4115393088941346 0 0 0 0 98.676041827362496 73.005252857311916 0 73.005252857311916 10.059877719705582 0 0 0 0 102.0016261296114 50.947870842678867 0 50.947870842678867 -6.1495600488665332 0 0 0 0 99.053602036263328 70.992785851527515 0 70.992785851527515 4.8110246954774993 0 0 0 0 103.9223081121454 69.957500532827453 0 69.957500532827453 2.6236816459577312 0 0 0 0 98.607549233853206 74.053832246984143 0 74.053832246984143 1.257765584237859 0 0 0 0 74.165326867514523 63.503922932438968 0 63.503922932438968 10.978936067193331 0 0 0 0 99.413104981504148 68.913425054757909 0 68.913425054757909 2.93801471978054 0 0 0 0 86.513934395727119 81.121095582632279 0 81.121095582632279 12.432302074987774 0 0 0 0 122.82144428268657 82.940322156489401 0 82.940322156489401 2.0093039322580353 0 0 0 0 149.36888284518409 40.455938019580977 0 40.455938019580977 -1.2513561869791943 0 0 0 0 136.87234644039563 53.098884408755168 0 53.098884408755168 -5.9117138754077132 0 0 0 0 110.55619131581625 45.213554189206064 0 45.213554189206064 -1.4447309410501816 0 0 0 0 265.17193727567792 79.974298579012384 0 79.974298579012384 -7.4564393551572721 0 0 0 0 125.95537890700507 123.77540904477428 0 123.77540904477428 21.997629216952873 0 0 0 0 152.81918750035311 113.12888233902243 0 113.12888233902243 25.951636032780925 0 0 0 0 51.352049704699311 45.141266630389964 0 45.141266630389964 -143.85377095398087 0 0 0 0 11.721062223165063 133.71910718656864 0 133.71910718656864 -206.89237945275715 0 0 0 0 -45.695538017855142 100.8834699288517 0 100.8834699288517 -90.561547711845947 0 0 0 0 21.207524511220981 100.50296080197893 0 100.50296080197893 -122.61812268653398 0 0 0 0 0.79129239765667592 3.589689775122423 0 3.589689775122423 -5.1739015187559483 0 0 0 0 51.972792798071168 15.36912487253494 0 15.36912487253494 -27.498059213329725 0 0 0 0 10.564852802442061 9.2128427763501577 0 9.2128427763501577 -8.9391218978700984 0 0 0 0 10.99039376724977 25.245394793933428 0 25.245394793933428 -17.777556201199332 0 0 0 0 99.914987831216422 49.25243937291134 0 49.25243937291134 -0.24945653537997714 0 0 0 0 12.853609357722689 72.489823589037201 0 72.489823589037201 -103.36590278077074 0 0 0 0 7.2772213569113724 9.2191114645331709 0 9.2191114645331709 -0.36790275733761568 0 0 0 0 58.785237436997704 -14.676948592460121 0 -14.676948592460121 -40.504136906569329 0 0 0 0 60.689486335744732 30.059618895986205 0 30.059618895986205 2.9091872510434769 0 0 0 0 30.25210461653478 52.725085985489386 0 52.725085985489386 8.1161994657777541 0 0 0 0 34.29389204329226 6.1205669398516989 0 6.1205669398516989 -9.9653716579671912 0 0 0 0 16.158429358925787 31.638736224025706 0 31.638736224025706 -2.6725420654152003 0 0 0 0 3.3723982253901568 28.133556072388444 0 28.133556072388444 23.490449054649734 0 0 0 0 11.608850060885658 10.217072538092083 0 10.217072538092083 3.2434467517734547 0 0 0 0 98.558504766915576 27.956903001097544 0 27.956903001097544 -11.380892621942621 0 0 0 0 34.25682376959594 24.344244041320962 0 24.344244041320962 29.233539677534282 0 0 0 0 96.556795780299581 17.066017400113196 0 17.066017400113196 12.437213444272857 0 0 0 0 93.181940637148728 55.00642490328903 0 55.00642490328903 -26.172927484960383 0 0 0 0 22.737017685663886 39.157105548745676 0 39.157105548745676 27.388122821473189 0 0 0 0 22.401315293740481 37.314000881020547 0 37.314000881020547 22.375418840239945 0 0 0 0 -4.0645119221153436 32.226626209755523 0 32.226626209755523 25.721824981058489 0 0 0 0 33.345088906062301 49.933078673716068 0 49.933078673716068 -5.0697874420347944 0 0 0 0 33.086013955703493 38.436435054533376 0 38.436435054533376 19.883985411166577 0 0 0 0 13.870851625287287 25.206354568306093 0 25.206354568306093 -123.22582382597625 0 0 0 0 28.792902774177492 58.973075975954771 0 58.973075975954771 48.800596946711948 0 0 0 0 -4.1194382572043082 5.7004824956282079 0 5.7004824956282079 3.5911716170096764 0 0 0 0 7.864600617060205 46.789995068949906 0 46.789995068949906 -180.82499684648656 0 0 0 0 7.3199823738250416 8.5467870396136618 0 8.5467870396136618 -370.59614259239561 0 0 0 0 0.26393549983913545 53.502569804030031 0 53.502569804030031 -172.81880847839625 0 0 0 0 18.911515799438348 38.4268929286701 0 38.4268929286701 -250.05083023373493 0 0 0 0 50.796206123582806 81.292413416269255 0 81.292413416269255 -199.64327839517136 0 0 0 0 0.99870052916230634 207.88075281705392 0 207.88075281705392 -538.37663157966585 0 0 0 0 -211.36801549760276 246.01156841767704 0 246.01156841767704 -523.66821392522547 0 0 0 0 -4.4676336604647986 -1.230146732006304 0 -1.230146732006304 0.7473782769623547 0 0 0 0 -28.171855742126354 126.01960811813228 0 126.01960811813228 -752.6514604270435 0 0 0 0 -212.20753495236568 245.4305771149896 0 245.4305771149896 -458.91078890715301 0 0 0 0 -48.281943493901053 45.844450314948972 0 45.844450314948972 125.08162185469064 0 0 0 0 -105.28346127550685 142.23322294206309 0 142.23322294206309 -30.528803125179365 0 0 0 0 -0.43930539604849272 3.4500404338259898 0 3.4500404338259898 0.16942284737983826 0 0 0 0 14.095001813468116 313.13552801928 0 313.13552801928 -472.13751860081265 0 0 0 0 180.83260362439614 70.78815598055462 0 70.78815598055462 -159.35189607856501 0 0 0 0 0.046863627788418773 6.3812981240442213 0 6.3812981240442213 -0.72607095367857255 0 0 0 0 -0.033108167321188375 6.6224354525975286 0 6.6224354525975286 -0.4133942717598984 0 0 0 0 -41.319897505381959 26.327873970765722 0 26.327873970765722 71.790318305043911 0 0 0 0 -32.279546248872066 10.151309526106161 0 10.151309526106161 35.951836891332277 0 0 0 0 -5.8608089244371513 27.47750474924942 0 27.47750474924942 47.285733411583351 0 0 0 0 -16.261758056061808 40.223191466706339 0 40.223191466706339 36.459269187806058 0 0 0 0 -29.365739648870658 42.256021493768458 0 42.256021493768458 38.651719532714196 0 0 0 0 -13.526189290205366 57.742520838605742 0 57.742520838605742 35.527430248210294 0 0 0 0 -4.1175674634796451 -4.3415155260204301 0 -4.3415155260204301 -0.2691911839065142 0 0 0 0 -0.59548779140201447 4.1685755573292056 0 4.1685755573292056 0.20194226684000682 0 0 0 0 -28.559413635113742 47.800868536363851 0 47.800868536363851 72.646166157359175 0 0 0 0 0.066779369291907642 -11.694100310069189 0 -11.694100310069189 -0.73007359891198575 0 0 0 0 -58.517573324861587 4.9517358636148856 0 4.9517358636148856 -12.008216814658226 0 0 0 0 -9.7424161557137268 48.224927825489431 0 48.224927825489431 -2.6381394232175808 0 0 0 0 -143.06309798666916 27.536850558087281 0 27.536850558087281 41.750191015999008 0 0 0 0 -0.56211922926512159 3.485649257696906 0 3.485649257696906 0.50657067656937471 0 0 0 0 44.832251810556045 58.822171261114818 0 58.822171261114818 26.8135999476508 0 0 0 0 -24.931318711867789 25.239706377793482 0 25.239706377793482 3.5630310086112331 0 0 0 0 -19.960180909154587 57.41163704808514 0 57.41163704808514 10.317673010636327 0 0 0 0 -0.5995680500564049 35.18171618716724 0 35.18171618716724 17.057933522988606 0 0 0 0 -4.3476100777297688 56.69322453032737 0 56.69322453032737 15.597528731561397 0 0 0 0 62.492338581461809 30.439161832038735 0 30.439161832038735 7.1775628714713093 0 0 0 0 0.015782473345023362 25.315785957185483 0 25.315785957185483 22.604890370526689 0 0 0 0 43.481273232813692 29.241165897409701 0 29.241165897409701 24.071420385927922 0 0 0 0 -7.8757342974131461 52.328674286547539 0 52.328674286547539 26.28795467305099 0 0 0 0 41.150472422144958 48.927082028892073 0 48.927082028892073 -2.4175267475275177 0 0 0 0 67.512606703039637 52.032277569847565 0 52.032277569847565 20.857918315145071 0 0 0 0 54.969852726193494 16.600764243856247 0 16.600764243856247 53.238192095912382 0 0 0 0 7.8118674883992814 29.381785870492678 0 29.381785870492678 20.587851687946682 0 0 0 0 64.907791039629956 28.563356599612234 0 28.563356599612234 41.051164152497222 0 0 0 0 63.812249804308522 21.290526099661292 0 21.290526099661292 14.451633124501313 0 0 0 0 -22.992760615277803 57.16503170467513 0 57.16503170467513 94.475775602655631 0 0 0 0 48.909736381028779 25.13039759863932 0 25.13039759863932 56.814663322020351 0 0 0 0 4.6100826002566464 8.4016017954138391 0 8.4016017954138391 13.75475956952765 0 0 0 0 39.79255108255893 36.217936955887126 0 36.217936955887126 44.095092814823147 0 0 0 0 -41.985710013980984 49.176288873193471 0 49.176288873193471 48.69154829637796 0 0 0 0 -16.499786913540447 20.585618208369851 0 20.585618208369851 18.833722244058663 0 0 0 0 -7.3357023447868386 10.942898116740565 0 10.942898116740565 33.591357623419555 0 0 0 0 6.2377794284695369 21.755275418785075 0 21.755275418785075 21.819018963845089 0 0 0 0 92.054393590631662 3.8599635004920856 0 3.8599635004920856 16.226495238861389 0 0 0 0 -2.8457694266587055 0.80688935318539734 0 0.80688935318539734 8.3695839063886197 0 0 0 0 -26.821251883244258 34.024257144003059 0 34.024257144003059 80.445361398515161 0 0 0 0 -22.743128615518799 29.361594360654635 0 29.361594360654635 -21.159404031552185 0 0 0 0 -2.8264443798533421 -3.115246303551146 0 -3.115246303551146 1.2241127803303549 0 0 0 0 9.9138583784806542 -53.443913952520234 0 -53.443913952520234 -28.098644531813989 0 0 0 0 -0.093040997384408644 -54.536098951072574 0 -54.536098951072574 -7.6885450718255015 0 0 0 0 -26.165056041085336 74.013328500140233 0 74.013328500140233 21.575924692657281 0 0 0 0 0.078183977860626169 107.79313444445791 0 107.79313444445791 50.206625488783175 0 0 0 0 -67.081601437108475 72.418036440898504 0 72.418036440898504 22.442168042365665 0 0 0 0 157.46336819715361 -100.02085803483351 0 -100.02085803483351 -379.8872845643491 0 0 0 0 -1879.2018430215539 -416.53796410698124 0 -416.53796410698124 -503.59007530107419 0 0 0 0 1.9281571301928295 2.1172624822911814 0 2.1172624822911814 -0.803231480194738 0 0 0 0 117.59671638571308 -1176.9687799123785 0 -1176.9687799123785 859.71719568441767 0 0 0 0 3027.8023170883971 -975.80962059234298 0 -975.80962059234298 -2319.6703945186382 0 0 0 0 54.005662071796536 66.344666260634824 0 66.344666260634824 -48.902241066074701 0 0 0 0 -46.703454394832988 -75.897569485534405 0 -75.897569485534405 -27.019103644590359 0 0 0 0 -103.78099922915499 61.345089503265626 0 61.345089503265626 43.416084187723754 0 0 0 0 113.05886865303182 54.509867579734419 0 54.509867579734419 17.979958712818188 0 0 0 0 -12.325749797755634 -10.967361190603697 0 -10.967361190603697 76.942691617572564 0 0 0 0 217.68400742163794 150.19032830497599 0 150.19032830497599 493.34349233155081 0 0 0 0 763.10887011951127 234.08136606001062 0 234.08136606001062 226.28035562377772 0 0 0 0 -3.5184633483903127 6.8333976954808691 0 6.8333976954808691 -9.6939533446538917 0 0 0 0 -14.668864637187653 200.09996340557336 0 200.09996340557336 166.71701747195038 0 0 0 0 555.77522149858123 642.08492459759145 0 642.08492459759145 602.07983594598227 0 0 0 0 -84.204252104798798 -359.59825806271692 0 -359.59825806271692 -523.70635726292676 0 0 0 0 410.91253714020422 722.94737917424209 0 722.94737917424209 703.8388072973612 0 0 0 0 5.6241477584858046 9.1616032196216963 0 9.1616032196216963 -15.169437967038249 0 0 0 0 -163.94096666301994 -104.79256022151094 0 -104.79256022151094 -488.14415849872603 0 0 0 0 1959.0496685191756 1225.8900350448675 0 1225.8900350448675 632.18852099536161 0 0 0 0 0.12146895196768526 2.0777639480758552 0 2.0777639480758552 -1.4097103200616345 0 0 0 0 1052.4356593425618 1095.9234030509251 0 1095.9234030509251 2241.7947730862434 0 0 0 0 1723.5598037626478 567.08596339984797 0 567.08596339984797 478.5138532181154 0 0 0 0 452.21078268294514 584.46571401532856 0 584.46571401532856 828.61590255453484 0 0 0 0 586.13242600127705 636.24540893750964 0 636.24540893750964 746.11154401138629 0 0 0 0 -216.62629064029898 537.64414993338869 0 537.64414993338869 827.59174047052511 0 0 0 0 1012.8837751948595 138.14661808319215 0 138.14661808319215 1076.8322967993445 0 0 0 0 445.64184358733473 547.70973581727594 0 547.70973581727594 649.34789355430985 0 0 0 0 -22.179848212210345 761.67446714871039 0 761.67446714871039 937.36937178279913 0 0 0 0 79.979387742409017 498.66971324638871 0 498.66971324638871 647.6243052938371 0 0 0 0 230.62092242101062 -133.63645215303404 0 -133.63645215303404 -599.78611250531685 0 0 0 0 181.91061675519086 -48.0682834538311 0 -48.0682834538311 -676.31716179148498 0 0 0 0 24.678722342939935 13.686494409066043 0 13.686494409066043 -2.3543843236002004 0 0 0 0 75.583174992894783 33.561180215616332 0 33.561180215616332 -21.117434038969805 0 0 0 0 -7.856430616387911 14.323584337822851 0 14.323584337822851 -11.524274245999436 0 0 0 0 635.62357158251689 890.46227073622867 0 890.46227073622867 705.07171885206481 0 0 0 0 -3.1391234775946941 791.3355731775664 0 791.3355731775664 1091.0360733309644 0 0 0 0 -270.16720907232775 613.782603503676 0 613.782603503676 1246.9747612212959 0 0 0 0 627.16455122244952 638.94930935517186 0 638.94930935517186 601.64922102555283 0 0 0 0 -150.20086004432596 303.88757633613568 0 303.88757633613568 713.54527202169993 0 0 0 0 420.29470305036375 29.1573177222308 0 29.1573177222308 161.35212830582168 0 0 0 0 -124.27061058479876 412.05281963741663 0 412.05281963741663 -1241.8602694988658 0 0 0 0 2.3148012172137413 2.7096357495536552 0 2.7096357495536552 -7.0347364501593574 0 0 0 0 907.91820531027042 348.20010898706096 0 348.20010898706096 -298.59544396469573 0 0 0 0 45.189600668149069 1026.511591808503 0 1026.511591808503 63.230719625338679 0 0 0 0 538.13168637466151 433.58447260223329 0 433.58447260223329 755.61827988561708 0 0 0 0 553.77600207828345 839.34092143859516 0 839.34092143859516 -97.951919594081119 0 0 0 0 1057.940938837477 294.59750879748026 0 294.59750879748026 478.24469574584509 0 0 0 0 1116.0675267834122 598.11740724068113 0 598.11740724068113 151.5289937381167 0 0 0 0 911.16244864902183 569.86943505661475 0 569.86943505661475 594.65174911101349 0 0 0 0 1013.061198518204 561.23977577348705 0 561.23977577348705 592.70857844223792 0 0 0 0 1138.3096818686499 469.62101321335285 0 469.62101321335285 53.828641146013979 0 0 0 0 679.98724900691013 380.31169620713627 0 380.31169620713627 255.78372347823461 0 0 0 0 875.85558624257101 527.21839530891157 0 527.21839530891157 324.00556435872568 0 0 0 0 847.3714147224382 378.28891626148834 0 378.28891626148834 207.89183142577531 0 0 0 0 987.18376774221542 180.9136856928817 0 180.9136856928817 -6.1989792527547252 0 0 0 0 1007.3573187671427 369.13009725269512 0 369.13009725269512 70.174870553888468 0 0 0 0 50.794353279365168 140.47389257208852 0 140.47389257208852 495.70365536438476 0 0 0 0 826.20878001627716 325.2323347866768 0 325.2323347866768 94.745659486245131 0 0 0 0 787.07706942277582 -267.23954487320589 0 -267.23954487320589 -2047.7943458252848 0 0 0 0 52.628228059906633 80.548980421324927 0 80.548980421324927 -53.294515113531951 0 0 0 0 28.242510289201164 174.97543377249713 0 174.97543377249713 323.46305853091326 0 0 0 0 -887.77149986877339 329.12218498095172 0 329.12218498095172 -692.18390274071135 0 0 0 0 65.118405655608512 122.04596884113562 0 122.04596884113562 296.07735797366513 0 0 0 0 813.13903338433738 -86.366784336380078 0 -86.366784336380078 -1361.9628767727554 0 0 0 0 29.906379351014351 93.500818060683287 0 93.500818060683287 -58.360130122411384 0 0 0 0 754.99787189606286 471.16525713659939 0 471.16525713659939 -1677.1692653425998 0 0 0 0 579.54186539035618 170.21479202331284 0 170.21479202331284 -1119.5943338003417 0 0 0 0 -414.15987011461402 120.48419978597667 0 120.48419978597667 1224.2426806531812 0 0 0 0 532.25036157760042 -56.008285635729408 0 -56.008285635729408 -33.499399581050966 0 0 0 0 245.9992801227927 873.08685735020845 0 873.08685735020845 -1303.6273239392467 0 0 0 0 -398.22490149810619 722.34924488508841 0 722.34924488508841 253.77152487609419 0 0 0 0 -266.06389862450305 374.6319375486928 0 374.6319375486928 673.68995711744356 0 0 0 0 35.414741402179061 240.20861402066748 0 240.20861402066748 413.00849100583673 0 0 0 0 4.5472937899685348 177.23423734493736 0 177.23423734493736 404.71760497704418 0 0 0 0 57.204695224761963 147.77122580835862 0 147.77122580835862 275.33717510238057 0 0 0 0 75.84103677492385 199.81127812280874 0 199.81127812280874 308.58330625418967 0 0 0 0 31.346921094533172 170.06036213556581 0 170.06036213556581 313.06848447012817 0 0 0 0 15.069439709874132 120.62342117033018 0 120.62342117033018 285.28994910741312 0 0 0 0 7.2585787966672797 168.99338051523591 0 168.99338051523591 349.47598093409124 0 0 0 0 23.45063318737084 128.72160244945189 0 128.72160244945189 264.07529089413765 0 0 0 0 20.158648663782515 136.25402369407766 0 136.25402369407766 291.89390171963169 0 0 0 0 82.38969184733287 125.69703095558361 0 125.69703095558361 247.448006837918 0 0 0 0 149.91077068427694 187.79615902446585 0 187.79615902446585 283.35319177625206 0 0 0 0 45.641441542044049 164.16110688805929 0 164.16110688805929 293.46585149984821 0 0 0 0 9.7564978914306266 111.93372311308303 0 111.93372311308303 250.65336558336276 0 0 0 0 57.704010842702701 125.6801719847972 0 125.6801719847972 222.08870985280373 0 0 0 0 36.175262896213098 97.427267491382281 0 97.427267491382281 191.09754565747971 0 0 0 0 25.504467195598409 80.548802712929046 0 80.548802712929046 149.32949052531512 0 0 0 0 -1.7961949448872474 85.417484011261877 0 85.417484011261877 222.38184677526078 0 0 0 0 -21.60141781134007 61.352428102625709 0 61.352428102625709 180.20909911855188 0 0 0 0 71.481544473244867 92.376392702645717 0 92.376392702645717 163.47002447151499 0 0 0 0 42.781494952843786 121.64455530573423 0 121.64455530573423 217.85880224172979 0 0 0 0 18.772454704383563 121.74843021321794 0 121.74843021321794 246.87915388525289 0 0 0 0 95.913348528905772 189.42697601460804 0 189.42697601460804 233.12198700608542 0 0 0 0 -19.035448443733912 81.168976424316497 0 81.168976424316497 183.71285231970114 0 0 0 0 88.482634898110291 84.763635917841839 0 84.763635917841839 176.61308961573013 0 0 0 0 -10.605754028496449 72.339205944186688 0 72.339205944186688 198.37686239959294 0 0 0 0 -9.3991611464552989 94.369886622416288 0 94.369886622416288 129.57367887652981 0 0 0 0 1.3261108039223473 22.389871867188049 0 22.389871867188049 103.27162807414697 0 0 0 0 -28.281213684891554 203.08826907438743 0 203.08826907438743 -150.72411752994867 0 0 0 0 -559.7526961164258 203.1441442617579 0 203.1441442617579 -137.03046162000828 0 0 0 0 -185.20391653920888 521.09674725772493 0 521.09674725772493 -263.42505082168645 0 0 0 0 -297.53395511291455 396.11026656789545 0 396.11026656789545 -105.32769618606153 0 0 0 0 192.24956313681105 144.25878040650059 0 144.25878040650059 -91.989970574242761 0 0 0 0 642.97141166615802 172.93641975319042 0 172.93641975319042 -469.45834422829648 0 0 0 0 265.01041753583559 -160.29051942651131 0 -160.29051942651131 142.72227723924152 0 0 0 0 207.44867119735136 283.6761778884902 0 283.6761778884902 -451.1898619742642 0 0 0 0 -38.709400715433731 92.0646487618028 0 92.0646487618028 184.76446519045021 0 0 0 0 -7.4456931381045317 34.796746050625757 0 34.796746050625757 133.13850447995273 0 0 0 0 -389.59756907173232 1859.5489148470715 0 1859.5489148470715 -879.10721653018845 0 0 0 0 -1945.0721075292131 1074.9589591816002 0 1074.9589591816002 146.24198568725842 0 0 0 0 -148.85897764905894 67.104302793988609 0 67.104302793988609 -4.6246726616886917 0 0 0 0 -150.24530038409739 82.958655370272027 0 82.958655370272027 70.267280927524553 0 0 0 0 -154.1012120340547 122.56201145155683 0 122.56201145155683 -0.62505327753024176 0 0 0 0 -136.22412297277879 104.32766662575887 0 104.32766662575887 -24.360340624916716 0 0 0 0 307.29522140198969 229.18210820850072 0 229.18210820850072 16.884983327810914 0 0 0 0 196.7745551722619 -143.6426623346415 0 -143.6426623346415 216.01709944116374 0 0 0 0 62.519781947034062 55.093906180427439 0 55.093906180427439 -0.26572312071220949 0 0 0 0 362.40588035362089 -83.361157049152098 0 -83.361157049152098 86.938099197126576 0 0 0 0 290.18119184399984 -67.364179873475223 0 -67.364179873475223 194.18989847596094 0 0 0 0 384.76467831031914 -188.24727236025137 0 -188.24727236025137 33.237703455954033 0 0 0 0 351.60669540655363 -139.8991304423289 0 -139.8991304423289 -65.132030179891444 0 0 0 0 -192.27558357186001 89.821627515959335 0 89.821627515959335 82.589131760752934 0 0 0 0 42.957953125526302 81.820934282142389 0 81.820934282142389 -4.2175426767441024 0 0 0 0 -170.58197167215729 106.76897958688824 0 106.76897958688824 85.432470774969261 0 0 0 0 -116.92249955420084 58.758618226871477 0 58.758618226871477 51.023403575643897 0 0 0 0 -106.49521643207174 100.73857920038972 0 100.73857920038972 42.813373496122949 0 0 0 0 -50.241562585575252 14.514754446656696 0 14.514754446656696 4.9015996498626517 0 0 0 0 1.0153439171044738 24.060701761263772 0 24.060701761263772 -18.632788083305059 0 0 0 0 -2.9121432850115525 26.321522207203088 0 26.321522207203088 -15.161537423104164 0 0 0 0 -2.3678720810094092 25.203738877389696 0 25.203738877389696 -12.948670082550962 0 0 0 0 3.4907789356511785 20.83790937026788 0 20.83790937026788 -15.955699244062998 0 0 0 0 15.786525878480461 19.140727823934867 0 19.140727823934867 -20.616370847754297 0 0 0 0 48.711973482917529 22.63077402719864 0 22.63077402719864 -38.914953537867405 0 0 0 0 12.075589469607621 24.676194161069361 0 24.676194161069361 -26.230644509982085 0 0 0 0 12.097105628199643 25.180036694058799 0 25.180036694058799 -17.500015134402929 0 0 0 0 -19.610301317006815 38.083559343154775 0 38.083559343154775 -12.4291211469681 0 0 0 0 3.7783523115087689 5.2995690146295455 0 5.2995690146295455 -2.783898692631908 0 0 0 0 21.352099982454092 17.596972680301405 0 17.596972680301405 -26.140802829671884 0 0 0 0 15.217203168398555 16.917242092193192 0 16.917242092193192 -26.176152812404325 0 0 0 0 5.5001088982560731 7.1784487553535996 0 7.1784487553535996 7.1267028014301843 0 0 0 0 4.9615624003599805 16.116460694553098 0 16.116460694553098 -8.1949754440545348 0 0 0 0 10.092396890850068 14.987482872900728 0 14.987482872900728 -12.640394775342429 0 0 0 0 14.670689308994042 12.992466769806924 0 12.992466769806924 -19.839110320506734 0 0 0 0 10.246048549608531 13.658056947140722 0 13.658056947140722 -19.178398576535983 0 0 0 0 7.0063608656273573 16.0405911588241 0 16.0405911588241 -11.661260026685341 0 0 0 0 9.0074136327530141 20.226261311174312 0 20.226261311174312 -16.654645782036823 0 0 0 0 6.1382633374523721 23.606808733966318 0 23.606808733966318 -17.758084872901236 0 0 0 0 2.7824345531462313 20.047135063830865 0 20.047135063830865 -8.3838682569330558 0 0 0 0 17.045760717294101 -0.82712129501605602 0 -0.82712129501605602 -0.59035924470474521 0 0 0 0 -4118.1070445998485 1138.4283916664281 0 1138.4283916664281 -1311.2140517078224 0 0 0 0 20.976908264474332 -43.862955159362173 0 -43.862955159362173 -96.381423643098969 0 0 0 0 25.409583461500006 -5.4176976867165649 0 -5.4176976867165649 -46.235156984723289 0 0 0 0 969.42472013640509 1412.275320661749 0 1412.275320661749 -1496.7045705491109 0 0 0 0 509.38169811460102 -532.803269699456 0 -532.803269699456 599.44689762360213 0 0 0 0 1952.8149802916305 -289.84055739294854 0 -289.84055739294854 -846.6003225749082 0 0 0 0 57.536685539566321 7.7115054814502173 0 7.7115054814502173 -4.9677574018883037 0 0 0 0 22.001612360043509 12.671173357855878 0 12.671173357855878 -31.128257500598238 0 0 0 0 24.109520004123624 7.2407602704042802 0 7.2407602704042802 -26.710246242437279 0 0 0 0 14.125931257673074 11.287602155018249 0 11.287602155018249 -23.770149336196482 0 0 0 0 27.127917401812738 4.7303149319486693 0 4.7303149319486693 -25.348016333955457 0 0 0 0 20.895168008944893 6.287160719773965 0 6.287160719773965 -20.134380905583384 0 0 0 0 10.011135064451082 3.3281225449027261 0 3.3281225449027261 -20.200627747040699 0 0 0 0 6.8187885541810829 14.300236945360666 0 14.300236945360666 -4.7647622354343184 0 0 0 0 12.66674607207824 8.46052291693195 0 8.46052291693195 -10.480271875858307 0 0 0 0 0.50276317187672248 10.76005543825886 0 10.76005543825886 6.6116179022501456 0 0 0 0 5.0252373137736868 -3.3501764221691701 0 -3.3501764221691701 2.83569956420979 0 0 0 0 4.1136850268958369 -4.3546372430573683 0 -4.3546372430573683 2.6527280620794045 0 0 0 0 -10.25606520697329 -37.16840716227307 0 -37.16840716227307 -18.968514172709547 0 0 0 0 -12.932482329582854 -15.514209059248969 0 -15.514209059248969 28.29733860475244 0 0 0 0 -16.917689583468018 -10.287038860522443 0 -10.287038860522443 39.918340083062503 0 0 0 0 -4.7866655523466761 -8.017449009574193 0 -8.017449009574193 24.19654675917991 0 0 0 0 0.089564018977398518 24.318704617238836 0 24.318704617238836 48.234198019370524 0 0 0 0 10.926655333543749 36.084929790697061 0 36.084929790697061 29.11473718459456 0 0 0 0 10.07903479594097 31.84653034722578 0 31.84653034722578 20.386780152388383 0 0 0 0 -5.7634145565061772 10.536533314738335 0 10.536533314738335 16.487944351218175 0 0 0 0 -54.493164494051598 131.6457501320474 0 131.6457501320474 -1.0264995021607319 0 0 0 0 1.4673465483028849 10.657054272396635 0 10.657054272396635 5.0347161941390368 0 0 0 0 12.823477904389854 17.003322722297327 0 17.003322722297327 8.6519173953729194 0 0 0 0 4.810271221342191 23.033651708839898 0 23.033651708839898 5.8004281479516067 0 0 0 0 -204.35114243380303 460.39608797217807 0 460.39608797217807 -532.31870782512487 0 0 0 0 -16.250677387902172 -0.50081823799143876 0 -0.50081823799143876 1.9318087508778063 0 0 0 0 -108.13542651111493 8.0028743120383297 0 8.0028743120383297 174.70027415378718 0 0 0 0 52.950257734581101 -2.8554325735676684 0 -2.8554325735676684 -68.385724660547567 0 0 0 0 -268.9729626330809 249.58234579757845 0 249.58234579757845 -188.15445191995605 0 0 0 0 -228.4312865304164 302.22579306455009 0 302.22579306455009 -204.73950110332953 0 0 0 0 -122.38277289301914 132.51375495294633 0 132.51375495294633 -385.33881891290366 0 0 0 0 -107.95974079406187 61.500996744151053 0 61.500996744151053 -83.247290685947519 0 0 0 0 218.77494016099081 191.78787120095512 0 191.78787120095512 -190.77096953918226 0 0 0 0 -4.6983026133602834 23.735857302461227 0 23.735857302461227 -23.470836919848807 0 0 0 0 -2.4204548294306392 3.9784399754845623 0 3.9784399754845623 0.15588570140999991 0 0 0 0 -200.86727575145778 -12.032758020504843 0 -12.032758020504843 160.11885154618358 0 0 0 0 -27.831916466389558 1.802784564504492 0 1.802784564504492 6.6294824155020535 0 0 0 0 -44.315038578664826 -9.9971132857826888 0 -9.9971132857826888 -31.75418226304464 0 0 0 0 -16.236882773552637 14.937797225680598 0 14.937797225680598 1.3627279159014449 0 0 0 0 -4.3641008314255174 0.039209745626976655 0 0.039209745626976655 -0.3017557105265638 0 0 0 0 68.79360890343014 872.69914824490115 0 872.69914824490115 -1108.9434874942672 0 0 0 0 -335.8290656961417 97.902499413130499 0 97.902499413130499 354.07023593642225 0 0 0 0 -191.67076704445208 126.65574805891811 0 126.65574805891811 201.71267830497527 0 0 0 0 61.945557922073931 121.00558330902277 0 121.00558330902277 -247.41356150797219 0 0 0 0 -371.70746850236173 504.74628169638163 0 504.74628169638163 -309.45590581186116 0 0 0 0 -515.03023535812099 408.87914624202676 0 408.87914624202676 -98.997211679670727 0 0 0 0 -331.9214772655705 113.97145451524011 0 113.97145451524011 -708.12931470273179 0 0 0 0 -101.52271304900933 521.62999626836972 0 521.62999626836972 -291.43939185324416 0 0 0 0 -249.90738733000398 182.16472326085568 0 182.16472326085568 94.036498170309642 0 0 0 0 -8.7827247119967069 -212.46349095747428 0 -212.46349095747428 898.56327402727038 0 0 0 0 -99.723100346629508 91.749207072709396 0 91.749207072709396 87.523540202422737 0 0 0 0 589.65412416732943 423.58619176338016 0 423.58619176338016 120.16934218019014 0 0 0 0 -450.12357882038123 182.11146773644941 0 182.11146773644941 290.2678835644183 0 0 0 0 -350.63437762446847 350.60555476417903 0 350.60555476417903 17.522635068729869 0 0 0 0 -293.17117858847996 318.25047684148012 0 318.25047684148012 -169.96371413992892 0 0 0 0 -68.641086035650005 -61.335831875027907 0 -61.335831875027907 244.44263095431234 0 0 0 0 -148.86511551505919 205.3731352039058 0 205.3731352039058 -27.970006148432731 0 0 0 0 256.80786635771074 -35.816314149291429 0 -35.816314149291429 28.79693525447874 0 0 0 0 -232.11788336235986 60.355651762260095 0 60.355651762260095 186.0456357748335 0 0 0 0 -154.43393012498564 133.26039002230391 0 133.26039002230391 136.77312655713467 0 0 0 0 -250.95403530255862 79.539445195503504 0 79.539445195503504 171.34062171714322 0 0 0 0 -100.2334192385315 85.756073506432585 0 85.756073506432585 65.689473458594875 0 0 0 0 -264.65178983083024 246.37984074942142 0 246.37984074942142 18.551166300137993 0 0 0 0 -339.93518784841217 174.84825415570958 0 174.84825415570958 121.33071153482888 0 0 0 0 -249.45675433544966 194.55797198842629 0 194.55797198842629 -12.853722781597753 0 0 0 0 -276.78917049487427 299.27832756332646 0 299.27832756332646 87.511930024455069 0 0 0 0 -224.95548783635604 225.76149511059339 0 225.76149511059339 24.415447573628626 0 0 0 0 -252.0446213395262 203.84637831634973 0 203.84637831634973 80.954480677806714 0 0 0 0 -496.71949117013355 397.02929550974659 0 397.02929550974659 50.804331700128387 0 0 0 0 -510.2527377809464 67.645691304510024 0 67.645691304510024 148.90546547374106 0 0 0 0 -168.83940825715399 -14.442270930776431 0 -14.442270930776431 -24.987106432279688 0 0 0 0 35.830956671372405 113.22187784392736 0 113.22187784392736 53.797841437975876 0 0 0 0 242.89441252291726 145.18875904853121 0 145.18875904853121 152.16233593520883 0 0 0 0 34.747369829330182 109.00766729675934 0 109.00766729675934 348.67085113402572 0 0 0 0 0.12519760575817429 0.37211748061005778 0 0.37211748061005778 1.6519415685356051 0 0 0 0 10.763904154992815 -86.908562143807103 0 -86.908562143807103 370.84966223269294 0 0 0 0 -55.150509356473776 -119.45368747468456 0 -119.45368747468456 275.09480449833609 0 0 0 0 173.48579262696148 -18.679758146659879 0 -18.679758146659879 69.159216328130697 0 0 0 0 -173.1478262099954 5.7555310489774456 0 5.7555310489774456 199.23929636793036 0 0 0 0 79.327884202321002 -40.320089430184453 0 -40.320089430184453 173.99398056474456 0 0 0 0 26.219627575854247 -71.013038965902524 0 -71.013038965902524 166.12123759347014 0 0 0 0 -156.76946491025592 107.86127907029731 0 107.86127907029731 171.73544834105996 0 0 0 0 1.4516021765226128 5.7982009271267074 0 5.7982009271267074 -0.60842950248354555 0 0 0 0 -137.48986476362916 -209.93218369250098 0 -209.93218369250098 27.110957665744536 0 0 0 0 -32.07740391700645 38.747657534906466 0 38.747657534906466 43.305589648662135 0 0 0 0 350.44866484961312 147.90271846591349 0 147.90271846591349 -574.60671413410455 0 0 0 0 -151.11868564639735 -260.81532716118818 0 -260.81532716118818 -275.38092532347946 0 0 0 0 3.3855455126031302 158.39664448019175 0 158.39664448019175 166.6683939674258 0 0 0 0 347.66817654607439 -137.6454328142936 0 -137.6454328142936 -853.4657496960499 0 0 0 0 -138.79213603099629 -29.527776285611708 0 -29.527776285611708 70.245143232968985 0 0 0 0 -278.1849433013922 -761.01546476758813 0 -761.01546476758813 -765.04043882657061 0 0 0 0 0.59467946321876752 2.1913782241994255 0 2.1913782241994255 -5.61352020605284 0 0 0 0 -407.53876245978336 -123.48063849976461 0 -123.48063849976461 -284.73208401048032 0 0 0 0 -5.8562143129831696 14.059422080120584 0 14.059422080120584 -11.731429429260146 0 0 0 0 271.04817500818899 703.6408386423027 0 703.6408386423027 559.02854713039414 0 0 0 0 -4.2034566920519865 45.518351195318246 0 45.518351195318246 78.251198079249207 0 0 0 0 495.67972368900882 310.77792380245955 0 310.77792380245955 98.472738183205365 0 0 0 0 248.0070794277708 -15.174258830331382 0 -15.174258830331382 -285.69480675431259 0 0 0 0 408.81122728848277 -168.71383317760046 0 -168.71383317760046 -144.50423613292514 0 0 0 0 187.10808423646813 -198.80147141851194 0 -198.80147141851194 -467.59540065567126 0 0 0 0 79.577839238540037 -125.31119351008238 0 -125.31119351008238 -306.20963728870265 0 0 0 0 73.928612676943885 -105.45953122542414 0 -105.45953122542414 -378.0643920722141 0 0 0 0 -31.494153095263755 -196.81471822073217 0 -196.81471822073217 -565.27607599986368 0 0 0 0 -16.155882282459061 -285.53379728154687 0 -285.53379728154687 -368.51739754799928 0 0 0 0 87.291532025032211 -72.255984709503537 0 -72.255984709503537 -350.00680685552743 0 0 0 0 236.01837290928006 -213.04917231728859 0 -213.04917231728859 -306.68131342029665 0 0 0 0 35.840399819397135 -85.023647693757084 0 -85.023647693757084 -43.685780436717323 0 0 0 0 277.26098083618854 -29.108073792755022 0 -29.108073792755022 -103.98728036738248 0 0 0 0 -161.05322475039429 -277.62744260277395 0 -277.62744260277395 -215.0852001398016 0 0 0 0 111.77248378685181 -82.707800115902501 0 -82.707800115902501 -241.21954342131176 0 0 0 0 27.029103234803188 -92.476711529907334 0 -92.476711529907334 206.28401805047179 0 0 0 0 368.2452867980719 -152.38688429123067 0 -152.38688429123067 623.93742084151017 0 0 0 0 224.19888393058318 133.33912533638431 0 133.33912533638431 263.89697751568747 0 0 0 0 471.07516138381652 563.54947662847917 0 563.54947662847917 835.50441802500427 0 0 0 0 738.21259470132645 794.29822279443033 0 794.29822279443033 423.47032685338854 0 0 0 0 195.59798972696262 142.00959152436008 0 142.00959152436008 365.8343882777408 0 0 0 0 156.28093223265023 200.54097457369789 0 200.54097457369789 294.64045492502009 0 0 0 0 240.11040673168236 191.34574224993685 0 191.34574224993685 629.11182888956682 0 0 0 0 752.51443442772143 293.27156622365146 0 293.27156622365146 375.36809999378966 0 0 0 0 652.36590390248239 518.00455359010903 0 518.00455359010903 265.94898939854465 0 0 0 0 392.1267002472523 561.89761573758733 0 561.89761573758733 306.35100131167746 0 0 0 0 182.22013876779238 366.25116063500172 0 366.25116063500172 282.53461962594884 0 0 0 0 -38.109527021588292 38.144088199293037 0 38.144088199293037 133.67077329444874 0 0 0 0 -159.90793011281494 -36.446420739812311 0 -36.446420739812311 118.95241223304765 0 0 0 0 78.437224555982539 -60.665782014104479 0 -60.665782014104479 39.153532673080917 0 0 0 0 247.08457256020483 -87.417491498119489 0 -87.417491498119489 -71.456988495483529 0 0 0 0 559.8674811226665 221.01167511706444 0 221.01167511706444 25.90198168774441 0 0 0 0 822.27886888669718 277.46767370493853 0 277.46767370493853 51.288239032452111 0 0 0 0 1.8050957638176612 3.8557951368818912 0 3.8557951368818912 9.1492606960788407 0 0 0 0 -6.1559072187083075 -178.05162349433522 0 -178.05162349433522 616.74152554268221 0 0 0 0 -98.841503240560996 177.38412842078833 0 177.38412842078833 343.96485738803312 0 0 0 0 -86.837648009248369 264.83560983329517 0 264.83560983329517 958.05920427117235 0 0 0 0 -55.925873985514045 60.193720084702363 0 60.193720084702363 -3.2811313244164921 0 0 0 0 -153.20347129766014 77.330310733726947 0 77.330310733726947 52.457324409668217 0 0 0 0 0.84961150189629109 15.230485347437792 0 15.230485347437792 18.281722594068043 0 0 0 0 49.421990786688184 -19.569795999536836 0 -19.569795999536836 42.829622582052252 0 0 0 0 -16.722716918104197 33.398760284637319 0 33.398760284637319 12.27297799855296 0 0 0 0 74.637796938653992 50.361965915206383 0 50.361965915206383 -38.671296947650262 0 0 0 0 2.6215138352126814 85.907374810180045 0 85.907374810180045 -15.896320538602595 0 0 0 0 12.032084434591525 14.085020778769831 0 14.085020778769831 -8.4995226432220079 0 0 0 0 -196.33762892066261 48.447348951562162 0 48.447348951562162 10.513026263331994 0 0 0 0 -0.90461246737289969 0.48348018458224828 0 0.48348018458224828 -1.9351875945659458 0 0 0 0 -162.60804116494546 59.219761574226141 0 59.219761574226141 5.2483870121795917 0 0 0 0 31.181739549210761 130.30741939675863 0 130.30741939675863 -15.65998443186254 0 0 0 0 -163.69446408345334 139.00650835019786 0 139.00650835019786 72.263795079416013 0 0 0 0 -81.14799912799208 92.713704510970274 0 92.713704510970274 33.878530699890689 0 0 0 0 -263.70855707124065 188.93493400009538 0 188.93493400009538 230.02288784387929 0 0 0 0 92.558165176596958 178.37872875847461 0 178.37872875847461 306.42874540996127 0 0 0 0 1.9487203298994658 -2.5814019228524359 0 -2.5814019228524359 -2.5597959068969089 0 0 0 0 -534.60812792121578 -48.810926745114557 0 -48.810926745114557 101.60757369255953 0 0 0 0 -191.94382041696736 256.59340005175181 0 256.59340005175181 236.6961601319199 0 0 0 0 -143.15393070021491 369.15970611946432 0 369.15970611946432 491.62270902204909 0 0 0 0 -110.78241917588821 222.96896706291409 0 222.96896706291409 232.63177131901466 0 0 0 0 -131.25662354420638 201.19494956802373 0 201.19494956802373 228.45323623896093 0 0 0 0 -55.340961885478464 143.42910487793779 0 143.42910487793779 250.38856070604652 0 0 0 0 -78.247898767276638 209.18181496848774 0 209.18181496848774 189.59480133772558 0 0 0 0 -12.58218924958328 306.91399873879345 0 306.91399873879345 -47.700303066500055 0 0 0 0 -54.31235300076878 213.11181968580422 0 213.11181968580422 72.851676374109502 0 0 0 0 369.77276811956381 296.29668829175876 0 296.29668829175876 -49.400313636069768 0 0 0 0 43.232284246969357 31.468525866817799 0 31.468525866817799 -220.9228686960596 0 0 0 0 895.46788142982405 111.7813437404966 0 111.7813437404966 4.6316106949161622 0 0 0 0 350.92068161241332 696.81833026385175 0 696.81833026385175 612.82914368467755 0 0 0 0 114.46427122518799 340.37366646148439 0 340.37366646148439 79.096959315571439 0 0 0 0 -28.419655333127594 123.90549909973925 0 123.90549909973925 -42.91182541512535 0 0 0 0 3.8852045117680234 1.4481764525228868 0 1.4481764525228868 -4.0430048439776272 0 0 0 0 27.051782551774522 -8.9565978903410723 0 -8.9565978903410723 29.878960729169194 0 0 0 0 61.827792266143661 30.432316304966662 0 30.432316304966662 -36.08298387582181 0 0 0 0 -4.3882003586722647 9.6049580574489823 0 9.6049580574489823 -20.471502383036466 0 0 0 0 -27.372089336204226 -23.836935547209578 0 -23.836935547209578 73.053944850231346 0 0 0 0 39.035631808728795 -15.693925506413507 0 -15.693925506413507 6.501511064467195 0 0 0 0 47.468478900918853 -18.96162075117536 0 -18.96162075117536 -58.452379274705891 0 0 0 0 148.40695792229235 48.3608249570716 0 48.3608249570716 -34.845545832526113 0 0 0 0 4.9182668607888331 1.8835818148994292 0 1.8835818148994292 -4.7787047368362749 0 0 0 0 145.85042258557951 53.224329093925007 0 53.224329093925007 -43.947331579271122 0 0 0 0 184.59762491486617 180.062838034577 0 180.062838034577 77.454002272301295 0 0 0 0 3.9014283620903143 1.5541612230300927 0 1.5541612230300927 -3.7380927700228739 0 0 0 0 51.557224841439165 188.77771468765059 0 188.77771468765059 73.276877317599428 0 0 0 0 -22.564269732160028 187.10674261008353 0 187.10674261008353 153.88120109013107 0 0 0 0 86.790051014257187 115.99725615555508 0 115.99725615555508 48.457914979424459 0 0 0 0 21.332901242549269 187.33087578289815 0 187.33087578289815 219.02700810988608 0 0 0 0 2.6549996693720459 146.69820919111226 0 146.69820919111226 143.52265200395686 0 0 0 0 50.536279030508013 187.9916683366464 0 187.9916683366464 217.44272977567016 0 0 0 0 -47.713321218914643 194.0405452041814 0 194.0405452041814 420.53690997816011 0 0 0 0 53.070484003244928 283.44585581494175 0 283.44585581494175 956.48030936191935 0 0 0 0 348.97180104575818 440.62147707725308 0 440.62147707725308 159.97815239785086 0 0 0 0 -24.29160372253682 -58.76203780996002 0 -58.76203780996002 -49.563104535802267 0 0 0 0 86.460161906434223 207.85931798825914 0 207.85931798825914 -85.062852258910425 0 0 0 0 362.65725939397998 185.14443879944974 0 185.14443879944974 -270.33488592978392 0 0 0 0 -314.9458334389783 235.78419511218272 0 235.78419511218272 41.784056548975059 0 0 0 0 51.594703016991843 82.292582391062751 0 82.292582391062751 87.848921268123377 0 0 0 0 -59.228056462452514 313.26974251783759 0 313.26974251783759 -302.94042156377691 0 0 0 0 -26.504298214189475 -23.761128439444292 0 -23.761128439444292 -545.83500749651284 0 0 0 0 -90.786766844772501 152.45510623313749 0 152.45510623313749 -238.46893989480304 0 0 0 0 112.9481873692057 152.39171924247603 0 152.39171924247603 -432.12051006582624 0 0 0 0 -20.739827281576709 -121.5369853067366 0 -121.5369853067366 -243.52868760022102 0 0 0 0 -7.7372959620261099 278.74628447042778 0 278.74628447042778 -172.56010309654812 0 0 0 0 20.065020986025047 311.98996237847314 0 311.98996237847314 -367.30266069996651 0 0 0 0 -94.934371027338784 409.07329127068806 0 409.07329127068806 -169.65558481162589 0 0 0 0 -101.62997383473703 466.71716532170467 0 466.71716532170467 204.33615539044513 0 0 0 0 313.87283367106284 541.44296387228678 0 541.44296387228678 -271.59044906959025 0 0 0 0 41.699677894670458 215.30683634280285 0 215.30683634280285 -225.37577572741429 0 0 0 0 60.308861653480562 230.50451153785252 0 230.50451153785252 -364.60087740539166 0 0 0 0 71.468694909082842 141.71436964071108 0 141.71436964071108 -487.639367838201 0 0 0 0 254.85197534064082 311.80102899312533 0 311.80102899312533 -1066.8609942603434 0 0 0 0 -122.24271857978601 135.48680845717172 0 135.48680845717172 -486.36046485721454 0 0 0 0 4.3794685252185275 5.9874431817017211 0 5.9874431817017211 1.0239908676096654 0 0 0 0 39.500945936553762 303.25737602376103 0 303.25737602376103 -805.83908990658529 0 0 0 0 12.684152728282982 11.622564401269571 0 11.622564401269571 1.8775059658012978 0 0 0 0 -133.07218374630611 167.09499817419055 0 167.09499817419055 -276.91432719172008 0 0 0 0 -67.535847560939146 212.98260910502358 0 212.98260910502358 -118.48292725279316 0 0 0 0 57.543495859194081 215.95014142947912 0 215.95014142947912 -269.9450034838992 0 0 0 0 -37.225933438870925 178.87895311479951 0 178.87895311479951 121.59511853024742 0 0 0 0 59.506584048373043 155.94853330262049 0 155.94853330262049 -117.75941646880864 0 0 0 0 1.9277768305328209 134.95342697893648 0 134.95342697893648 -46.865280208032345 0 0 0 0 0.03844207369547803 213.33464818864013 0 213.33464818864013 81.010242980919429 0 0 0 0 10.962348905378349 142.24976214841445 0 142.24976214841445 47.755765883397544 0 0 0 0 -38.485737978218822 161.6383705092594 0 161.6383705092594 -161.87156292541476 0 0 0 0 -3.1789869982494565 150.87152798945135 0 150.87152798945135 -63.185151416138979 0 0 0 0 30.73568945095758 205.40565622720169 0 205.40565622720169 -143.10177562817262 0 0 0 0 35.337921497954085 223.88111472143282 0 223.88111472143282 -211.58465043833712 0 0 0 0 16.549894537805812 189.59538301661087 0 189.59538301661087 -74.3071107941214 0 0 0 0 39.020131673227297 197.85998587806534 0 197.85998587806534 -215.87835717834969 0 0 0 0 8.0405858241865644 213.51973789294425 0 213.51973789294425 -31.828605558548588 0 0 0 0 0.81295050936751068 215.79207449209935 0 215.79207449209935 106.54978826263687 0 0 0 0 0.34012230823282152 217.36473963460594 0 217.36473963460594 54.527609738190222 0 0 0 0 -2.6003632466581621 160.99272155758081 0 160.99272155758081 44.008598602114944 0 0 0 0 1.1108426946739201 211.54007707860728 0 211.54007707860728 -68.233177355141379 0 0 0 0 -25.801059647496004 184.84272063116441 0 184.84272063116441 44.567659603664652 0 0 0 0 -27.623405819096661 214.9293388313381 0 214.9293388313381 -61.337598606318352 0 0 0 0 3.9366812442458468 167.99864505862934 0 167.99864505862934 50.655861992945574 0 0 0 0 -71.335618432975025 179.75006604335795 0 179.75006604335795 67.974872952644546 0 0 0 0 -3.479899235200719 248.68020417651496 0 248.68020417651496 -188.83304897046764 0 0 0 0 -33.566999364484218 210.09480708212504 0 210.09480708212504 -61.936179877679024 0 0 0 0 -53.027759755575971 258.97488437104403 0 258.97488437104403 -172.89764453680255 0 0 0 0 -7.3713944733462995 160.38569719129737 0 160.38569719129737 -170.95957733237265 0 0 0 0 -164.97226329071418 174.43206885799736 0 174.43206885799736 -5.7604554175049998 0 0 0 0 -212.06880379882932 310.18773270693782 0 310.18773270693782 -217.86577996820779 0 0 0 0 -4.9469624366465723 -71.637217093320942 0 -71.637217093320942 8.2039962096802128 0 0 0 0 -123.81167800395269 139.97100095830683 0 139.97100095830683 -100.03411136566865 0 0 0 0 246.32857835883988 258.43475279872837 0 258.43475279872837 -549.61300191152986 0 0 0 0 -116.66327677418303 116.34337495226282 0 116.34337495226282 -64.361625617784739 0 0 0 0 23.482468241072112 14.184485164737936 0 14.184485164737936 2.5423003165231002 0 0 0 0 20.869393845990999 240.7646015271348 0 240.7646015271348 -444.23127769603616 0 0 0 0 18.890201166574798 14.431899650151351 0 14.431899650151351 2.2316324211991514 0 0 0 0 -52.867360757598362 118.36712325334156 0 118.36712325334156 -488.37566903985862 0 0 0 0 27.140713351895101 288.14656389527227 0 288.14656389527227 -413.57227725878329 0 0 0 0 14.115967280471523 294.08975480281515 0 294.08975480281515 -329.56178424956988 0 0 0 0 -13.791843073778182 197.08565663596846 0 197.08565663596846 -335.43313902242517 0 0 0 0 244.12494855016121 90.957611680001719 0 90.957611680001719 -242.71839397638541 0 0 0 0 15.247233201200288 300.08769711276454 0 300.08769711276454 -319.94273506766331 0 0 0 0 89.603402301967435 163.53155114648689 0 163.53155114648689 -317.68441620130034 0 0 0 0 -6.1522559990785624 107.99399795795262 0 107.99399795795262 -62.160474490095893 0 0 0 0 -5.7062572086069849 204.14625042666012 0 204.14625042666012 73.811839387322834 0 0 0 0 114.92814765068397 417.64902870187598 0 417.64902870187598 -583.49992646489409 0 0 0 0 6.5835520667289131 102.98999575928909 0 102.98999575928909 -60.610124981544274 0 0 0 0 -1520.1623284399393 222.48621419232222 0 222.48621419232222 -26.787393656297354 0 0 0 0 -24.618350903328974 194.17109626273668 0 194.17109626273668 476.03395385453996 0 0 0 0 17.327557359327329 282.14624792648647 0 282.14624792648647 503.93588988167312 0 0 0 0 -286.92407115535025 548.46501313529006 0 548.46501313529006 -353.87268800094171 0 0 0 0 14.581996534434438 379.68823608003731 0 379.68823608003731 -259.68348445388256 0 0 0 0 811.48761279895552 108.50679214543197 0 108.50679214543197 -1572.5221053382411 0 0 0 0 -1.4603827946398837 5.5813004854428527 0 5.5813004854428527 -10.173328290841653 0 0 0 0 -504.23821353862877 372.66217302107543 0 372.66217302107543 -96.316625732848479 0 0 0 0 -388.64791685940145 134.12312718400062 0 134.12312718400062 0.89514470795052148 0 0 0 0 747.64716911093274 19.186928416813316 0 19.186928416813316 -1292.3355168687121 0 0 0 0 1240.1687702215713 -380.66467428301985 0 -380.66467428301985 -1014.3530912935385 0 0 0 0 43.529324599032407 142.4360645134584 0 142.4360645134584 362.63424975221824 0 0 0 0 119.20552931002749 210.63037928579706 0 210.63037928579706 349.77353499350102 0 0 0 0 3.5514217751187971 180.5024236344907 0 180.5024236344907 359.77786273482843 0 0 0 0 -3.8121921465935884 140.03778515765407 0 140.03778515765407 278.85181209765051 0 0 0 0 39.587433136388427 128.99314938394991 0 128.99314938394991 281.65789946414043 0 0 0 0 57.760601268942992 164.75641947603435 0 164.75641947603435 303.90161956483462 0 0 0 0 -25.299970062875218 154.47314554117361 0 154.47314554117361 311.61571239183831 0 0 0 0 -29.481454251130344 114.03870181394996 0 114.03870181394996 193.57960670092962 0 0 0 0 20.635853774940188 91.919938453547729 0 91.919938453547729 202.91365616656003 0 0 0 0 -22.327210679388372 58.367961384926275 0 58.367961384926275 129.89814344742445 0 0 0 0 18.944636033949791 86.213986160878449 0 86.213986160878449 -44.025284707776336 0 0 0 0 -6.2530871501367074 87.313286594468082 0 87.313286594468082 77.744442761433675 0 0 0 0 -16.707623749940467 127.52827606364554 0 127.52827606364554 164.72821563558318 0 0 0 0 -110.44952386850491 69.158264766237153 0 69.158264766237153 77.924439557667938 0 0 0 0 -82.765587821981171 52.448344546186945 0 52.448344546186945 193.60719371650248 0 0 0 0 -2.9364635990714305 19.832258838584494 0 19.832258838584494 38.018286112804162 0 0 0 0 37.398624062469025 148.85276221268305 0 148.85276221268305 368.59682310329299 0 0 0 0 -19.114663873027894 185.78399684375836 0 185.78399684375836 349.7357488546586 0 0 0 0 -20.709368861076655 85.534501887170336 0 85.534501887170336 207.34632573305225 0 0 0 0 -44.011422274190409 286.6331861780659 0 286.6331861780659 527.62058933273192 0 0 0 0 77.020329600441983 215.46064783036582 0 215.46064783036582 294.29680676093267 0 0 0 0 62.584861903364072 291.87080453183898 0 291.87080453183898 440.60388662251989 0 0 0 0 -179.86030197768923 125.5853393484299 0 125.5853393484299 480.45670804462679 0 0 0 0 -57.99493090330725 176.13517188414335 0 176.13517188414335 346.44906493168719 0 0 0 0 -23.312103472448143 82.616998807910477 0 82.616998807910477 99.690952946766629 0 0 0 0 -67.426076491972339 43.349832270418808 0 43.349832270418808 -2.125886694787309 0 0 0 0 -91.123397196159203 -356.62210999776926 0 -356.62210999776926 187.97117244910442 0 0 0 0 -406.50225878723131 -944.68933225541991 0 -944.68933225541991 -594.50371909832393 0 0 0 0 440.92128718525419 -186.01464919992213 0 -186.01464919992213 -1566.1035748758331 0 0 0 0 424.58586875783658 20.339688581769224 0 20.339688581769224 -374.96219363367254 0 0 0 0 217.6012001914969 268.84862858815723 0 268.84862858815723 207.14520845292645 0 0 0 0 72.512803204663214 372.3708569221651 0 372.3708569221651 -1523.5260255033536 0 0 0 0 -201.37520807654073 -428.43867097937073 0 -428.43867097937073 -86.45168276754157 0 0 0 0 -43.825607538419106 42.479053242730835 0 42.479053242730835 -2.8285367023049819 0 0 0 0 -249.00474382704851 323.66057284962517 0 323.66057284962517 -256.14122847249928 0 0 0 0 392.2937413054533 11.106339371166541 0 11.106339371166541 -786.82399326185259 0 0 0 0 203.44005867856322 -188.4406996243888 0 -188.4406996243888 -475.84019101980812 0 0 0 0 153.7951003650378 471.74972516824982 0 471.74972516824982 175.49981339921305 0 0 0 0 5.4990781705587324 65.770576589482147 0 65.770576589482147 -58.668841857719009 0 0 0 0 32.939962839853251 119.26282171685125 0 119.26282171685125 59.933592692599632 0 0 0 0 -29.938475620590935 59.749852998569494 0 59.749852998569494 -30.560820090054492 0 0 0 0 -23.992049442807911 187.95894063311425 0 187.95894063311425 202.03089559651562 0 0 0 0 -22.187379085429711 171.48193041364721 0 171.48193041364721 67.082003749026626 0 0 0 0 -37.234379037054168 203.22622999040323 0 203.22622999040323 125.60469235116034 0 0 0 0 20.134886505635222 175.6068581694999 0 175.6068581694999 138.47136978330673 0 0 0 0 -28.388605807267595 204.92087163722317 0 204.92087163722317 173.14980059880327 0 0 0 0 45.79966160908225 197.09059758378135 0 197.09059758378135 146.88265381453675 0 0 0 0 60.122967984207207 246.09811677234029 0 246.09811677234029 189.57367154757958 0 0 0 0 -31.967585020969693 12.413233318545849 0 12.413233318545849 59.342390093750851 0 0 0 0 -43.739003317183233 182.9174462114388 0 182.9174462114388 267.73730588580656 0 0 0 0 -11.502806841759593 234.92362135498843 0 234.92362135498843 280.09832574006577 0 0 0 0 -21.69208169261492 114.44795637225111 0 114.44795637225111 -67.617520716906554 0 0 0 0 -43.675198204844492 240.83331822402397 0 240.83331822402397 279.01906112424331 0 0 0 0 22.887964325527719 263.28950418737986 0 263.28950418737986 181.10126363518066 0 0 0 0 29.975307504093507 218.88114860194037 0 218.88114860194037 165.1307022710098 0 0 0 0 0.94117738964268938 218.17594069385086 0 218.17594069385086 143.0716826756244 0 0 0 0 -22.193170429978636 177.53495455824304 0 177.53495455824304 143.29417200331227 0 0 0 0 -13.44089888842791 247.71211476139797 0 247.71211476139797 186.05405628096196 0 0 0 0 137.09489186580322 425.25887886759119 0 425.25887886759119 339.57853539948701 0 0 0 0 -27.34536375960306 209.38257786333588 0 209.38257786333588 382.59164172265082 0 0 0 0 -13.239944295928581 402.51514093226069 0 402.51514093226069 496.16162678729597 0 0 0 0 70.280907368578482 517.54468129649194 0 517.54468129649194 245.92311003988743 0 0 0 0 -139.19629222531512 408.77554563217745 0 408.77554563217745 603.51564412589869 0 0 0 0 -171.861498926286 491.74464738145252 0 491.74464738145252 448.58800275255726 0 0 0 0 -21.497050234395729 8.6442099876127116 0 8.6442099876127116 12.176476889214609 0 0 0 0 610.67128282925114 789.83343676882214 0 789.83343676882214 594.41576549425827 0 0 0 0 -71.492327926389407 505.95396175960923 0 505.95396175960923 1146.2924878849772 0 0 0 0 -112.40320268725918 152.50465002276997 0 152.50465002276997 989.58051376217463 0 0 0 0 -83.853826950406074 91.412018746359536 0 91.412018746359536 734.40627096154731 0 0 0 0 -28.373003886517836 475.72189002566211 0 475.72189002566211 626.60347350066149 0 0 0 0 16.683464762507356 126.02391908477148 0 126.02391908477148 193.26808756802347 0 0 0 0 65.264505521845422 176.70237997230288 0 176.70237997230288 97.891600404676865 0 0 0 0 -9.8242403691911022 246.50133918421488 0 246.50133918421488 158.31938157912009 0 0 0 0 57.928408203224535 304.36195388224769 0 304.36195388224769 431.96255515917346 0 0 0 0 -14.237652923077775 110.83814780651146 0 110.83814780651146 -62.681870193312037 0 0 0 0 -96.515580277162371 249.85741505045917 0 249.85741505045917 607.20620068493736 0 0 0 0 305.92684875153282 431.7841296029153 0 431.7841296029153 494.27018260233945 0 0 0 0 -84.179087854946715 48.533018767035557 0 48.533018767035557 -6.3869147111984219 0 0 0 0 -314.25308352944194 243.6053494956268 0 243.6053494956268 311.03207510830362 0 0 0 0 -65.81482495918317 -54.917479427710532 0 -54.917479427710532 230.06467187545059 0 0 0 0 -932.82682520572189 1047.8172270430816 0 1047.8172270430816 -639.51654224167214 0 0 0 0 -4.6809758076851722 -328.80696744677425 0 -328.80696744677425 -1458.6433777308466 0 0 0 0 373.65019072171708 515.20430545826639 0 515.20430545826639 -933.18259879848029 0 0 0 0 -29.822734888550979 55.323657184047597 0 55.323657184047597 -72.419086234324467 0 0 0 0 -293.03197646367335 213.13280888546001 0 213.13280888546001 -543.76329676017303 0 0 0 0 41.470237065397669 291.93642116079263 0 291.93642116079263 469.71987001142224 0 0 0 0 -152.5627912721975 815.11516965771898 0 815.11516965771898 338.04618747687937 0 0 0 0 0.41609910984064413 20.716996095599967 0 20.716996095599967 -14.103872076148695 0 0 0 0 32.590719239466125 534.02131558770998 0 534.02131558770998 -282.14561958267223 0 0 0 0 -24.707265817429288 596.22555865850927 0 596.22555865850927 205.98593175787937 0 0 0 0 -64.192716732184635 336.80438859181231 0 336.80438859181231 -16.358132037388714 0 0 0 0 -23.794814200024121 247.88250056956349 0 247.88250056956349 -238.62263612081233 0 0 0 0 -295.21729383511479 291.75927573379619 0 291.75927573379619 -10.800883381127278 0 0 0 0 5.8806006780541793 242.7327455286013 0 242.7327455286013 -523.37520317685448 0 0 0 0 215.58953079788262 485.58199706944333 0 485.58199706944333 565.17760839777657 0 0 0 0 18.000777495159127 126.96531682578006 0 126.96531682578006 -8.0308616669550474 0 0 0 0 106.93162469654635 566.78075956318003 0 566.78075956318003 112.51010183375729 0 0 0 0 401.74644995288691 374.17005999722051 0 374.17005999722051 115.77906786205153 0 0 0 0 -129.15688481518009 -28.002905631748945 0 -28.002905631748945 -928.01489841157399 0 0 0 0 0.014911067204110395 5.7187870237254685 0 5.7187870237254685 5.7204059400601768 0 0 0 0 -59.512618255743291 -101.59578663503271 0 -101.59578663503271 -873.46635305662858 0 0 0 0 -215.29790373188735 459.1534008868457 0 459.1534008868457 -554.82015943210172 0 0 0 0 -354.69181525320164 -39.517155457347599 0 -39.517155457347599 -327.88337476478227 0 0 0 0 297.55572176080022 192.26033869451021 0 192.26033869451021 -846.39428205400554 0 0 0 0 327.43317406427195 -247.14223162738585 0 -247.14223162738585 -114.34203012007129 0 0 0 0 -60.614843934730743 43.119832278627655 0 43.119832278627655 -306.24754837780938 0 0 0 0 -22.774596135314873 47.338902962703919 0 47.338902962703919 -78.054210831131158 0 0 0 0 -154.3575553855917 -205.9974054158929 0 -205.9974054158929 -158.81264061049751 0 0 0 0 -45.243358029513274 -180.0103737885525 0 -180.0103737885525 -378.90160839694727 0 0 0 0 -41.353676239117704 10.238071791428865 0 10.238071791428865 -195.04874717852726 0 0 0 0 48.653796199796489 329.43299531887169 0 329.43299531887169 -466.26411627988637 0 0 0 0 -22.972713920033129 152.72761176823587 0 152.72761176823587 -1.0347857976521482 0 0 0 0 -27.80055954635294 30.346385849628817 0 30.346385849628817 -34.625194977408214 0 0 0 0 -113.44902461444508 542.02881342303954 0 542.02881342303954 10.296720326477953 0 0 0 0 59.780979730648596 -46.663871596132594 0 -46.663871596132594 -308.80471598739678 0 0 0 0 47.523895448222902 17.815337817924956 0 17.815337817924956 -195.43771435316376 0 0 0 0 143.39419594639548 21.194170019350622 0 21.194170019350622 -353.05665965300796 0 0 0 0 165.80858187057856 72.025657288627826 0 72.025657288627826 -305.93257748575707 0 0 0 0 27.998177820805722 1.4643846032022338 0 1.4643846032022338 -316.2954298697432 0 0 0 0 -11.44441968833889 10.344219089750407 0 10.344219089750407 -10.780806813995937 0 0 0 0 -1022.042766567025 -333.81507039389726 0 -333.81507039389726 174.73072461160336 0 0 0 0 -510.49428759887269 224.28230436157901 0 224.28230436157901 494.63523798678943 0 0 0 0 -93.196923025755041 485.06351149707007 0 485.06351149707007 -274.52370141586289 0 0 0 0 -257.96785097033171 89.257270582809724 0 89.257270582809724 -262.55393644866854 0 0 0 0 -4.9195109162339179 0.8758209149695233 0 0.8758209149695233 1.3155097541141689 0 0 0 0 -786.99636276725869 -26.597743839534814 0 -26.597743839534814 -189.29998882232758 0 0 0 0 -192.88308854250499 27.776046514532936 0 27.776046514532936 -524.22213887609541 0 0 0 0 189.26944838980307 -143.17590641081915 0 -143.17590641081915 -350.31284002400571 0 0 0 0 -170.86088124108937 153.66827292508242 0 153.66827292508242 -6.2078394689669949 0 0 0 0 -2.2567384350555457 13.521520491182258 0 13.521520491182258 -6.5347085859990273 0 0 0 0 -661.37895075581037 1017.9825403482319 0 1017.9825403482319 542.40286727831699 0 0 0 0 -333.29849403625667 376.61693011203533 0 376.61693011203533 -163.33690763593768 0 0 0 0 10.801297027616648 17.61876851419882 0 17.61876851419882 -25.332539169647045 0 0 0 0 19.740887518910313 179.72996813286591 0 179.72996813286591 -94.704394684667477 0 0 0 0 109.89502600787819 -132.73809230010374 0 -132.73809230010374 -225.47431235125623 0 0 0 0 270.38371719538327 108.14221494450885 0 108.14221494450885 -169.04172864022985 0 0 0 0 -166.56472624685921 169.21186709026006 0 169.21186709026006 147.58185059028074 0 0 0 0 -20.671203004544068 61.516277129696341 0 61.516277129696341 -69.415080429364508 0 0 0 0 120.6393754153687 213.55139882682306 0 213.55139882682306 -279.72369567392889 0 0 0 0 -31.367617736648974 51.467226589909139 0 51.467226589909139 -55.289077945513583 0 0 0 0 6.3036044737164048 147.71773821442548 0 147.71773821442548 -7.2493744573221193 0 0 0 0 -21.757634636716375 116.09069809258767 0 116.09069809258767 0.95166225696812035 0 0 0 0 77.598786009948526 51.033160615277666 0 51.033160615277666 -18.54975943271711 0 0 0 0 114.40277790178652 102.01838832051783 0 102.01838832051783 -180.66101939494911 0 0 0 0 51.570552541479444 23.417373154880522 0 23.417373154880522 -50.550742687846395 0 0 0 0 13.495196831932844 70.002821660234986 0 70.002821660234986 -64.972316353125279 0 0 0 0 9.0287200064567514 120.71339410395012 0 120.71339410395012 -204.92285284427635 0 0 0 0 5.8068374074924662 22.380822105826972 0 22.380822105826972 -18.451026181063497 0 0 0 0 37.445397554815401 25.234984638223235 0 25.234984638223235 -58.358279337971119 0 0 0 0 42.849421984021319 29.559766029662569 0 29.559766029662569 -24.44029421779851 0 0 0 0 62.509725501829934 77.707450539218854 0 77.707450539218854 -83.130646498422834 0 0 0 0 9.1422571406292263 84.977495479834033 0 84.977495479834033 -113.10551313037286 0 0 0 0 27.552229052535793 97.925846404291718 0 97.925846404291718 -109.09863840831311 0 0 0 0 -41.841905897059604 86.422536429077127 0 86.422536429077127 -82.780198953369194 0 0 0 0 49.477166108379606 28.941044013110513 0 28.941044013110513 -83.485918610505905 0 0 0 0 3.94098355810101 14.66821511746277 0 14.66821511746277 -3.6816513555868164 0 0 0 0 -13.820504998580873 60.154933572878008 0 60.154933572878008 -127.88852486978067 0 0 0 0 -9.0603894243977265 86.55769140223947 0 86.55769140223947 -41.387067624030806 0 0 0 0 17.922297158776828 -0.28363055508728507 0 -0.28363055508728507 -13.237677412606528 0 0 0 0 11.481543284186046 105.17128763900109 0 105.17128763900109 38.777919817338443 0 0 0 0 -86.836262631870341 -32.044532777535096 0 -32.044532777535096 50.49421635591716 0 0 0 0 -9.516416757346235 51.054396424817838 0 51.054396424817838 30.355969968902969 0 0 0 0 -23.271886535167141 170.05336771693192 0 170.05336771693192 -127.32578297703003 0 0 0 0 -276.76518960485555 187.71500553729618 0 187.71500553729618 72.496875210150392 0 0 0 0 198.02162314705492 248.48235469016254 0 248.48235469016254 254.15763170794708 0 0 0 0 66.8535934688407 59.449926156412403 0 59.449926156412403 171.15322705720973 0 0 0 0 193.85721639423718 174.21915828451529 0 174.21915828451529 126.13212704738089 0 0 0 0 264.06756424631931 443.99730337182655 0 443.99730337182655 426.89981451786298 0 0 0 0 -13.99571533113577 10.225196767842725 0 10.225196767842725 -5.683244784586762 0 0 0 0 139.31200027946034 288.11238868229702 0 288.11238868229702 239.52430432157053 0 0 0 0 134.76384242028507 100.40069541535013 0 100.40069541535013 157.49430286857387 0 0 0 0 350.60670251370902 196.44192459536134 0 196.44192459536134 247.91181655540277 0 0 0 0 112.72391860175594 204.23449816636366 0 204.23449816636366 357.93076139624827 0 0 0 0 465.04263884067132 -123.27301972318855 0 -123.27301972318855 -240.4382603060003 0 0 0 0 -54.442594502124848 952.38653745869124 0 952.38653745869124 436.24038155984454 0 0 0 0 -13.972097291871535 9.2842354725851379 0 9.2842354725851379 -4.1238245092680046 0 0 0 0 -1114.826825266744 922.37544655071906 0 922.37544655071906 -264.22527198947864 0 0 0 0 359.9762783194019 -165.91248602725136 0 -165.91248602725136 522.71411401414662 0 0 0 0 314.71404816947324 11.120474107337941 0 11.120474107337941 -745.63200767886156 0 0 0 0 -8.7833993736619504 2.3938352575177042 0 2.3938352575177042 0.95866049570742007 0 0 0 0 -860.48525681089995 638.64352163446347 0 638.64352163446347 747.49366976266174 0 0 0 0 166.65881941106272 300.13281825398008 0 300.13281825398008 243.47658112945282 0 0 0 0 88.254554280349112 390.34835428386214 0 390.34835428386214 343.45291509638628 0 0 0 0 29.071879142888065 200.61991401214254 0 200.61991401214254 514.37482683495 0 0 0 0 13.33640740589658 2.6404131793078989 0 2.6404131793078989 0.13786813991643498 0 0 0 0 -444.89145095932327 429.66980338800022 0 429.66980338800022 -965.49369517948071 0 0 0 0 717.60845398030324 1104.4778520825221 0 1104.4778520825221 -2090.084624644529 0 0 0 0 -5.4594321939026571 -1.0984856334171695 0 -1.0984856334171695 -0.17729031839381548 0 0 0 0 -480.63361985430674 766.27049532530509 0 766.27049532530509 -571.97143507099918 0 0 0 0 -236.44711378763895 -287.93766043858341 0 -287.93766043858341 1359.4421716993602 0 0 0 0 613.49528060330886 -787.0552560135784 0 -787.0552560135784 -505.67713233000541 0 0 0 0 -85.984863477366162 407.71292244824144 0 407.71292244824144 493.23754880682827 0 0 0 0 34.197467943089578 562.1805764464516 0 562.1805764464516 -769.13466913759839 0 0 0 0 332.28739339976892 49.738524213855271 0 49.738524213855271 -81.060984723328147 0 0 0 0 61.086013737869507 308.60483928706526 0 308.60483928706526 -553.91220171393434 0 0 0 0 103.89876257092692 142.77688044545357 0 142.77688044545357 61.033776181024223 0 0 0 0 16.084423327261902 549.28068671321489 0 549.28068671321489 -964.69816719699884 0 0 0 0 -135.21465314550869 693.69711254856418 0 693.69711254856418 -134.90846745953604 0 0 0 0 -135.79886877630634 668.95864628216077 0 668.95864628216077 -171.55809239328664 0 0 0 0 -118.3784763571457 425.74416520299019 0 425.74416520299019 -452.47783784815692 0 0 0 0 -108.8438034970859 527.30607931240593 0 527.30607931240593 -393.24137085225084 0 0 0 0 -12.427792714832322 96.470408405724811 0 96.470408405724811 266.59161847783002 0 0 0 0 84.532281169089401 5.716790943203705 0 5.716790943203705 -15.486177220991522 0 0 0 0 74.597656797519448 50.757618337996973 0 50.757618337996973 -53.876278528437979 0 0 0 0 89.752799102348945 33.719515632344155 0 33.719515632344155 -11.121655293260119 0 0 0 0 -334.440750366477 384.1500216243403 0 384.1500216243403 -348.51337598502869 0 0 0 0 30.801255094735808 15.91565604225201 0 15.91565604225201 0.20176593127636977 0 0 0 0 -121.61041325932092 26.198920519456806 0 26.198920519456806 51.379276689382095 0 0 0 0 17.618717101463545 47.410640936172243 0 47.410640936172243 29.239513708356327 0 0 0 0 -52.080141467915382 171.39768894798544 0 171.39768894798544 -69.17878423719776 0 0 0 0 -227.5603188518653 277.22432502857919 0 277.22432502857919 -172.23314615110939 0 0 0 0 -287.16204445503536 77.337066407490056 0 77.337066407490056 53.167104659652978 0 0 0 0 5.9825281781506847 12.416447989176191 0 12.416447989176191 6.211721755366284 0 0 0 0 1.8262612712132977 10.0792275357162 0 10.0792275357162 -3.7215077519213082 0 0 0 0 30.023486824731663 74.163886196622116 0 74.163886196622116 -43.40613296704214 0 0 0 0 -280.78161663341234 234.04690082749767 0 234.04690082749767 345.30821423330053 0 0 0 0 -246.56848363822064 229.28023786306585 0 229.28023786306585 81.455571023980156 0 0 0 0 -352.99278192380734 329.33567539170326 0 329.33567539170326 139.16009544649933 0 0 0 0 -255.61691343182611 355.92727422845201 0 355.92727422845201 -105.43299884420412 0 0 0 0 -260.98730694537153 337.75917637945531 0 337.75917637945531 -83.653937270588358 0 0 0 0 -278.89789263250714 237.28537980371766 0 237.28537980371766 85.289267137733987 0 0 0 0 -192.74456636924879 277.54598110769621 0 277.54598110769621 -121.64315431510477 0 0 0 0 -269.32833019542159 237.54717678115776 0 237.54717678115776 -7.4037088079694513 0 0 0 0 -235.60912483954598 286.12956190555997 0 286.12956190555997 14.695629209498293 0 0 0 0 -204.45269775345332 148.65071874812111 0 148.65071874812111 -405.51639477915523 0 0 0 0 -261.0064849535047 182.81345670711016 0 182.81345670711016 -106.67017780734386 0 0 0 0 -286.90839514668914 171.09854908149646 0 171.09854908149646 -23.902932881850575 0 0 0 0 -235.37416164878596 247.73410380766836 0 247.73410380766836 -56.122735282689973 0 0 0 0 -11.393434298380981 -1.3632949541599118 0 -1.3632949541599118 2.7109788722224124 0 0 0 0 32.40289736116015 34.613693783268076 0 34.613693783268076 22.506669225560699 0 0 0 0 -11.718847675292636 91.026648057413695 0 91.026648057413695 4.7920690206392464 0 0 0 0 -218.29490346282546 223.84446649500205 0 223.84446649500205 -114.43666960432165 0 0 0 0 -98.944944874609064 -33.889482128482996 0 -33.889482128482996 155.6020991045707 0 0 0 0 -160.39661429404805 114.77187087002676 0 114.77187087002676 -89.906014210399007 0 0 0 0 24.640891223928882 44.595622990356496 0 44.595622990356496 41.108297148439789 0 0 0 0 -54.381008843964082 98.897711499440447 0 98.897711499440447 73.978219649070525 0 0 0 0 -5.6921251703133748 47.389002044184053 0 47.389002044184053 21.051103753856296 0 0 0 0 312.59993326213225 -154.58389333203741 0 -154.58389333203741 -121.1657031866489 0 0 0 0 22.627424863596389 260.69391393265687 0 260.69391393265687 96.235727254821541 0 0 0 0 -201.12278390666324 106.72976347866461 0 106.72976347866461 116.7665742951931 0 0 0 0 -344.69853008550126 -123.94248987920582 0 -123.94248987920582 -16.121084079766661 0 0 0 0 0.99430769316120404 8.7298517754317366 0 8.7298517754317366 16.638251175714622 0 0 0 0 -36.568200738235831 18.000448936751443 0 18.000448936751443 19.187766862351324 0 0 0 0 -45.752136132548912 15.222244534876154 0 15.222244534876154 117.08603597159708 0 0 0 0 -8.676358732918743 114.0576789454035 0 114.0576789454035 78.161730803264618 0 0 0 0 51.442489314646082 46.610485180444812 0 46.610485180444812 103.90884384760284 0 0 0 0 -0.33414317073647126 0.69249836444436141 0 0.69249836444436141 1.4740697884870144 0 0 0 0 -55.937204277215642 58.536218536673914 0 58.536218536673914 -113.65619685446291 0 0 0 0 -738.64707410238043 17.332847018515167 0 17.332847018515167 237.43002428625186 0 0 0 0 145.05613135170279 115.08096749630931 0 115.08096749630931 -33.298570730410574 0 0 0 0 -304.44877351887772 299.83858395209609 0 299.83858395209609 -179.13417597830994 0 0 0 0 -777.32492703693424 317.5435547001216 0 317.5435547001216 160.16598737461754 0 0 0 0 -405.68701290949684 -435.68562587711494 0 -435.68562587711494 311.09821931871556 0 0 0 0 -1.5312399834897548 -2.0307795598096021 0 -2.0307795598096021 -2.5164419336518762 0 0 0 0 -424.77180753641733 607.09199127650936 0 607.09199127650936 -436.81185401395351 0 0 0 0 -410.6207833374865 62.502435184114802 0 62.502435184114802 658.27302044977114 0 0 0 0 -376.89661500576585 -10.614913195172903 0 -10.614913195172903 375.95436648706527 0 0 0 0 -274.88414540386293 227.23772797674974 0 227.23772797674974 211.84819213546507 0 0 0 0 -292.0919652033117 282.1472014807332 0 282.1472014807332 446.65658430373878 0 0 0 0 -269.11223845289533 192.9692260283623 0 192.9692260283623 343.53481529567216 0 0 0 0 -135.99944145730842 272.93814069787186 0 272.93814069787186 311.5768620475119 0 0 0 0 -330.39063048128082 395.01952726911804 0 395.01952726911804 249.48982902594435 0 0 0 0 5.1205801923133549 170.56205705634784 0 170.56205705634784 -203.05378041499716 0 0 0 0 4.8751937915003509 202.81350033307899 0 202.81350033307899 165.69073553851194 0 0 0 0 -144.77876511469367 302.47374973876867 0 302.47374973876867 412.79130647778584 0 0 0 0 142.41090514409871 166.27844815951022 0 166.27844815951022 135.00605208518391 0 0 0 0 -183.72275902148976 467.0276033380087 0 467.0276033380087 659.16936067007236 0 0 0 0 452.05057115419186 70.942980994823301 0 70.942980994823301 -1367.1079294533411 0 0 0 0 33.032380380689574 131.26633265756573 0 131.26633265756573 573.47630688207573 0 0 0 0 -7.4319396718245798 4.0669223390553899 0 4.0669223390553899 -1.9721296046465682 0 0 0 0 -263.13812108054117 293.83061740159246 0 293.83061740159246 426.5234151085242 0 0 0 0 -171.78391495862525 539.24630669741782 0 539.24630669741782 299.38421864081465 0 0 0 0 -32.896075237149489 40.834222266497818 0 40.834222266497818 203.07186438963436 0 0 0 0 26.095589639015088 -19.777157961138073 0 -19.777157961138073 83.524634607163534 0 0 0 0 -5.4938408140633896 1.4110889745090738 0 1.4110889745090738 -0.53749355039721536 0 0 0 0 -20.466319292158687 43.358174969933856 0 43.358174969933856 -4.4947523033400492 0 0 0 0 -8.3281090775271878 50.41151935068774 0 50.41151935068774 203.3792992441231 0 0 0 0 4.8947980203097217 21.125606167922967 0 21.125606167922967 41.024669356527966 0 0 0 0 -916.65040628217685 348.07629065195397 0 348.07629065195397 343.55111719865272 0 0 0 0 175.06779297854519 19.877245883304568 0 19.877245883304568 -444.37654425501751 0 0 0 0 -12.235609058916225 6.1895800173215756 0 6.1895800173215756 13.537025725787366 0 0 0 0 -32.00267713409994 44.405043150975871 0 44.405043150975871 36.162189921516983 0 0 0 0 -28.06263682320531 -14.496436953916257 0 -14.496436953916257 60.804611622464684 0 0 0 0 -148.59553020634121 499.23881561064354 0 499.23881561064354 -66.125553841469809 0 0 0 0 -261.91365690024395 315.41245566870202 0 315.41245566870202 258.49859800402191 0 0 0 0 -230.78588142288936 212.93887894529689 0 212.93887894529689 178.47438485131715 0 0 0 0 -206.13305011267221 250.93107844152109 0 250.93107844152109 67.830584572555381 0 0 0 0 -24.552931624937628 53.733600348585242 0 53.733600348585242 31.543804931297927 0 0 0 0 4.2341081371429823 23.40945669744589 0 23.40945669744589 46.583933758932716 0 0 0 0 -29.749636178341461 35.046545749607503 0 35.046545749607503 31.399171727803818 0 0 0 0 -6.0706896782976401 37.171936826038063 0 37.171936826038063 35.002568122739831 0 0 0 0 -21.007300403522095 44.246146440565781 0 44.246146440565781 42.167186673695142 0 0 0 0 2.8026612538997142 46.663039778243729 0 46.663039778243729 42.574644443718626 0 0 0 0 -10.447181429328339 51.627238753523329 0 51.627238753523329 53.634094631837002 0 0 0 0 -14.618520877940682 51.461752565804318 0 51.461752565804318 47.943369224129128 0 0 0 0 -39.286639844092861 36.529648381368361 0 36.529648381368361 55.747885096256141 0 0 0 0 -38.744969710423902 44.99912467131071 0 44.99912467131071 53.057180830739298 0 0 0 0 -44.25090536296193 40.058539299563563 0 40.058539299563563 63.490040444983606 0 0 0 0 0.56003281082047351 8.9038122572799807 0 8.9038122572799807 1.1263768178957885 0 0 0 0 -41.844337923568673 53.56055784187356 0 53.56055784187356 3.8004331926413215 0 0 0 0 -26.429760730963608 3.217773013461283 0 3.217773013461283 -4.1003095438672972 0 0 0 0 -23.093455800255867 25.936250445484017 0 25.936250445484017 -0.81126160537408509 0 0 0 0 -35.42596484196838 51.060379571777958 0 51.060379571777958 62.099177894649202 0 0 0 0 -5.8597088457172504 36.048253552066399 0 36.048253552066399 62.080826329127376 0 0 0 0 2.4514316818944195 35.78969979960624 0 35.78969979960624 23.364951968271427 0 0 0 0 -2.9789563932354213 39.355155355071474 0 39.355155355071474 19.097482737879545 0 0 0 0 -4.5110797727548402 3.764704349495684 0 3.764704349495684 -0.57978112173145036 0 0 0 0 -30.217991620469547 8.4815861936667716 0 8.4815861936667716 76.520944195362972 0 0 0 0 -19.990230846130885 21.271303862474156 0 21.271303862474156 27.097206558418119 0 0 0 0 -31.721030723879267 18.268810579064393 0 18.268810579064393 44.119296937962645 0 0 0 0 -66.105913838338893 14.869599827637103 0 14.869599827637103 124.9887349188175 0 0 0 0 -22.692825296639057 6.610776583707775 0 6.610776583707775 75.845147810881826 0 0 0 0 -26.681502608925257 50.171723339123446 0 50.171723339123446 114.15431507586436 0 0 0 0 -12.790341352461837 16.929883635776605 0 16.929883635776605 30.699838747682406 0 0 0 0 -15.055600468808734 49.6464477416568 0 49.6464477416568 89.640378152096673 0 0 0 0 -11.710385944068548 32.527024693861676 0 32.527024693861676 129.99260669291925 0 0 0 0 15.207898845881573 77.312710094064187 0 77.312710094064187 138.8366992839583 0 0 0 0 1.4607411225006217 66.342714574509955 0 66.342714574509955 186.22780545451837 0 0 0 0 30.369303986386512 80.045335931532463 0 80.045335931532463 150.15117976059628 0 0 0 0 -1.1460550543270074 31.660180083368687 0 31.660180083368687 108.12310096311558 0 0 0 0 -8.9755299781882059 68.246130125384298 0 68.246130125384298 155.04272429196863 0 0 0 0 -13.801512058864319 77.96758084597468 0 77.96758084597468 176.45037048411905 0 0 0 0 10.50835220234876 53.560173437112098 0 53.560173437112098 98.681226708531995 0 0 0 0 -0.53187426770455204 96.356552941881091 0 96.356552941881091 225.50351577352853 0 0 0 0 28.287955290346872 83.892600740447051 0 83.892600740447051 173.45364861052803 0 0 0 0 4.1358663721039193 129.30604069459901 0 129.30604069459901 265.66667847235294 0 0 0 0 11.432624716151622 88.275959112579585 0 88.275959112579585 192.12385619230554 0 0 0 0 -15.804286248472636 88.60556472513781 0 88.60556472513781 193.77053897406222 0 0 0 0 10.381737364390574 72.767931658209818 0 72.767931658209818 117.00704569411027 0 0 0 0 10.287363925024692 56.851759639775082 0 56.851759639775082 99.97204460460307 0 0 0 0 3.5778761886249413 43.023790373828888 0 43.023790373828888 23.211749455173049 0 0 0 0 -18.452098133420805 54.196076496635214 0 54.196076496635214 101.93384708482881 0 0 0 0 21.909592656054883 27.290672181143236 0 27.290672181143236 -82.824058846188791 0 0 0 0 -62.61206829114235 58.629002087916888 0 58.629002087916888 125.34562559605456 0 0 0 0 -54.835803304558794 -16.884674472037204 0 -16.884674472037204 20.707759483431801 0 0 0 0 -28.123220202265657 81.605564250144198 0 81.605564250144198 0.90068228435484343 0 0 0 0 -68.556499385871575 24.040833070293957 0 24.040833070293957 37.51823805890308 0 0 0 0 -0.60244063462596387 29.794778963845602 0 29.794778963845602 37.466762903064591 0 0 0 0 7.6006302492387476 38.031551224333725 0 38.031551224333725 22.080943998791554 0 0 0 0 -30.114777680268162 59.34609000414639 0 59.34609000414639 97.859098456002357 0 0 0 0 -62.295245174853335 134.76327540424063 0 134.76327540424063 -105.62988932641019 0 0 0 0 -106.24277977425663 214.59774742392528 0 214.59774742392528 125.1445812982314 0 0 0 0 -372.46040114166317 236.30895928433165 0 236.30895928433165 123.67283049401522 0 0 0 0 106.79252946606721 343.5973458139033 0 343.5973458139033 116.52043230393792 0 0 0 0 -491.57868172314556 151.56381168182634 0 151.56381168182634 49.146778497739433 0 0 0 0 615.67492408362159 -49.730190149165537 0 -49.730190149165537 -323.38160920175142 0 0 0 0 23.823992345820884 10.211730633557009 0 10.211730633557009 -0.90275839865934415 0 0 0 0 26.610542559688131 90.604232038226868 0 90.604232038226868 7.3129727149376009 0 0 0 0 16.220801731390566 225.56012812812332 0 225.56012812812332 -60.838087187090423 0 0 0 0 144.62822449360101 35.407635066418152 0 35.407635066418152 203.37118449120135 0 0 0 0 15.00484808836336 408.98376238131823 0 408.98376238131823 -439.64306536128424 0 0 0 0 24.526155749212194 -118.65231500119626 0 -118.65231500119626 -309.6716345527966 0 0 0 0 -89.414237150242116 373.35295079869684 0 373.35295079869684 -522.76354647707558 0 0 0 0 -9.8297395588789698 -5.4324345779307777 0 -5.4324345779307777 6.4705694896290424 0 0 0 0 -269.18007347153616 39.295159591469201 0 39.295159591469201 220.53541703504015 0 0 0 0 -79.364815936463856 33.535368197060052 0 33.535368197060052 99.457566666309503 0 0 0 0 -6.9401716260414261 35.899255129383654 0 35.899255129383654 82.70527436295076 0 0 0 0 -156.69863574890041 148.68884180910118 0 148.68884180910118 7.5018553778390924 0 0 0 0 51.914750314914272 74.226969364070101 0 74.226969364070101 -0.66279702433166676 0 0 0 0 4.2092085836629849 103.08178084758038 0 103.08178084758038 138.57067903862844 0 0 0 0 -8.299326040941267 8.5353409481478195 0 8.5353409481478195 18.231583888944655 0 0 0 0 0.39657202064685082 38.039238903092553 0 38.039238903092553 32.938951330456781 0 0 0 0 18.020963401151675 49.724847371582655 0 49.724847371582655 55.999435124620504 0 0 0 0 -119.51080136621749 164.24616716524179 0 164.24616716524179 -19.395161054975688 0 0 0 0 18.074385337009971 50.296103996634656 0 50.296103996634656 74.968116309013567 0 0 0 0 25.894309010574943 113.25128116602355 0 113.25128116602355 59.507740827662928 0 0 0 0 24.831979061789752 42.077965635813143 0 42.077965635813143 -147.79287370064048 0 0 0 0 12.187383706062974 61.21318281458025 0 61.21318281458025 0.59030600286024537 0 0 0 0 3.4765419951763761 12.792151015917852 0 12.792151015917852 16.667332378582557 0 0 0 0 23.25517104632587 15.813220518818984 0 15.813220518818984 12.313312051147143 0 0 0 0 -0.15548967176954953 22.334117714764403 0 22.334117714764403 27.722144377197843 0 0 0 0 45.903588496115844 52.562000567285168 0 52.562000567285168 92.873098291345741 0 0 0 0 -0.20766986714332347 3.8384066831573271 0 3.8384066831573271 8.2170256453537558 0 0 0 0 73.892875140569231 131.13059848259581 0 131.13059848259581 112.07597445350257 0 0 0 0 14.74747668641794 50.434711244814252 0 50.434711244814252 183.7672281370551 0 0 0 0 15.621029289220132 59.802845115898137 0 59.802845115898137 280.27200840925821 0 0 0 0 47.648222769319545 122.08839508805977 0 122.08839508805977 143.21447677112701 0 0 0 0 42.747682294662809 124.20902084606496 0 124.20902084606496 219.82009860566359 0 0 0 0 11.36699133584932 -0.43014294834177491 0 -0.43014294834177491 -4.1375445524902528 0 0 0 0 20.901979691177985 130.86002039700634 0 130.86002039700634 300.43330376970698 0 0 0 0 -82.430850294011179 205.14492520523345 0 205.14492520523345 1498.6694361755608 0 0 0 0 134.26322468166472 26.815924023541356 0 26.815924023541356 -26.195926197677181 0 0 0 0 23.791423960742719 4.2882966482386031 0 4.2882966482386031 -3.8080075152218136 0 0 0 0 -7.1331814515475145 -0.88132647743977088 0 -0.88132647743977088 10.781363197777738 0 0 0 0 -22.782327872060705 30.560255799015977 0 30.560255799015977 4.4506132998958492 0 0 0 0 24.788198630456463 157.32146465426831 0 157.32146465426831 -179.78919289111036 0 0 0 0 201.90900271643477 210.43368773539441 0 210.43368773539441 -201.45585766592376 0 0 0 0 -374.56642488100397 -90.209958413349341 0 -90.209958413349341 -18.281042095572047 0 0 0 0 350.81564261009771 271.20360731725691 0 271.20360731725691 -224.38091006431023 0 0 0 0 19.767126914249218 95.439456891090501 0 95.439456891090501 24.63193294654701 0 0 0 0 -15.479506510918286 8.2088015146483642 0 8.2088015146483642 -0.14687911307967738 0 0 0 0 189.40216065572167 16.455022532248222 0 16.455022532248222 -367.87605710026378 0 0 0 0 219.22390488966084 143.81871703439003 0 143.81871703439003 -336.20554112903665 0 0 0 0 -434.21681222239658 78.246116353175012 0 78.246116353175012 134.77909837328389 0 0 0 0 -315.62296964046664 235.36555416505325 0 235.36555416505325 111.1109995609404 0 0 0 0 -133.2650265953198 338.94214321582513 0 338.94214321582513 1361.7679471259289 0 0 0 0 170.99971318675671 -114.73257554713155 0 -114.73257554713155 -152.53244636798081 0 0 0 0 -0.5363437495704777 95.741540879526283 0 95.741540879526283 43.290407728447178 0 0 0 0 113.54997711766919 -149.00625382851422 0 -149.00625382851422 18.017986376658087 0 0 0 0 195.27871051184775 33.466228921466609 0 33.466228921466609 -621.15612735512423 0 0 0 0 498.1830952699529 907.82053843403764 0 907.82053843403764 -86.460878861389574 0 0 0 0 132.08211554730951 370.970177119656 0 370.970177119656 393.35308714941675 0 0 0 0 90.647855630828417 236.65756552993571 0 236.65756552993571 34.394013100580196 0 0 0 0 320.88767833085876 415.92064916771324 0 415.92064916771324 -30.697946094824147 0 0 0 0 268.94690257685579 187.89091478293494 0 187.89091478293494 -285.86229544648813 0 0 0 0 219.18122097002197 243.61587088317856 0 243.61587088317856 34.277122090894409 0 0 0 0 -120.66544720304955 169.86946274138518 0 169.86946274138518 -94.667350261634056 0 0 0 0 -342.31068970767956 -21.472439764817864 0 -21.472439764817864 -82.783073740583859 0 0 0 0 1.6977382207900593 95.506044429084511 0 95.506044429084511 47.622405352681739 0 0 0 0 55.936734949929814 75.320859258277778 0 75.320859258277778 105.3164370201157 0 0 0 0 62.185433651731728 73.394495171525705 0 73.394495171525705 30.195984990874422 0 0 0 0 -6.7215884496494471 4.0814463691348664 0 4.0814463691348664 0.7127096581054353 0 0 0 0 47.041878653712047 113.38745586920868 0 113.38745586920868 138.00538057498397 0 0 0 0 69.844452394521795 147.9968371122568 0 147.9968371122568 70.032680092954251 0 0 0 0 46.20960064678502 125.10696911883537 0 125.10696911883537 148.1683223132386 0 0 0 0 43.861107888071274 111.33790504935132 0 111.33790504935132 186.55901154366256 0 0 0 0 86.181867065810366 193.07908516805219 0 193.07908516805219 184.26802559960754 0 0 0 0 171.9209563855984 165.79754260793197 0 165.79754260793197 -93.135512224551348 0 0 0 0 212.45075157193787 100.2577802266751 0 100.2577802266751 -115.02784516682186 0 0 0 0 195.82928359370271 67.658689965972371 0 67.658689965972371 -56.77034789048048 0 0 0 0 135.89234688039141 145.81530940576522 0 145.81530940576522 67.55441084755148 0 0 0 0 106.27319032256128 96.854829286398854 0 96.854829286398854 -7.6153301818485488 0 0 0 0 113.74875982292724 77.566839281105786 0 77.566839281105786 -15.041653469634184 0 0 0 0 70.742287221335573 49.059082083367684 0 49.059082083367684 -21.03848656604805 0 0 0 0 58.843425640232454 84.386677022959702 0 84.386677022959702 -10.943655864775792 0 0 0 0 39.792062702686962 27.140202277754724 0 27.140202277754724 -4.2584558863891289 0 0 0 0 129.07966681035759 54.054378498633014 0 54.054378498633014 -24.167605774657204 0 0 0 0 72.711064441289636 52.315305053540214 0 52.315305053540214 -24.010073274235765 0 0 0 0 195.39121152755979 90.764348646063809 0 90.764348646063809 -93.804295926373015 0 0 0 0 279.40669260914729 -12.080880314595561 0 -12.080880314595561 -57.719351381379965 0 0 0 0 48.583773722602928 -33.255477860446263 0 -33.255477860446263 37.333247487804329 0 0 0 0 131.74286906261477 35.70707639353077 0 35.70707639353077 -72.69995108776493 0 0 0 0 272.37865384929637 105.84595180302654 0 105.84595180302654 -112.99387169222609 0 0 0 0 710.10795222064553 41.466805867416042 0 41.466805867416042 -116.50324678196193 0 0 0 0 459.67461879079929 -212.57720726823391 0 -212.57720726823391 66.672629940338084 0 0 0 0 -105.1881470058288 -270.29485219945127 0 -270.29485219945127 1375.0035869104468 0 0 0 0 12.091209020373839 2.17415617261058 0 2.17415617261058 -0.9722390566559227 0 0 0 0 -60.189013831670309 43.832099488688982 0 43.832099488688982 396.74012411449075 0 0 0 0 98.32726047421238 -179.99315502106583 0 -179.99315502106583 361.34953897898959 0 0 0 0 -188.72807472663408 116.66556263490202 0 116.66556263490202 281.28237891380559 0 0 0 0 -359.34442541848694 317.54298551747343 0 317.54298551747343 232.43875772448882 0 0 0 0 17.483181031755521 45.535519074008334 0 45.535519074008334 200.4643153713514 0 0 0 0 -29.480756887292955 247.20308835600736 0 247.20308835600736 164.06025267121004 0 0 0 0 -67.315458696677524 -65.571597200258111 0 -65.571597200258111 246.30995256139431 0 0 0 0 20.511032559071083 14.866435314218734 0 14.866435314218734 8.8109546821785472 0 0 0 0 5.0341593595479708 4.0990843931411263 0 4.0990843931411263 -4.7042248274291723 0 0 0 0 20.939188830016064 27.775919894913386 0 27.775919894913386 396.10922507924988 0 0 0 0 166.2014285805999 215.11759400149822 0 215.11759400149822 -113.08338582407487 0 0 0 0 -36.617597349941207 112.2985104610998 0 112.2985104610998 -44.838030141159834 0 0 0 0 498.26270644338183 497.56503105871707 0 497.56503105871707 155.5963767913272 0 0 0 0 1.3890126913451084 95.007564962778503 0 95.007564962778503 38.960598187818704 0 0 0 0 -524.46371872394229 258.12263623949184 0 258.12263623949184 418.363773444049 0 0 0 0 1.8005666831767415 93.489312175855574 0 93.489312175855574 22.156897593161204 0 0 0 0 -335.56807426564046 -68.866184376394813 0 -68.866184376394813 138.71721059684933 0 0 0 0 -39.049134640561533 -18.621036102684229 0 -18.621036102684229 -142.12236812485571 0 0 0 0 -31.450572682595521 -109.33680668700981 0 -109.33680668700981 940.78199933655196 0 0 0 0 844.44808896953327 -169.07247805858788 0 -169.07247805858788 -243.3109399273817 0 0 0 0 -5.2367461854810244 93.111019855263294 0 93.111019855263294 -278.39234979190223 0 0 0 0 94.29009059494274 74.496391219698125 0 74.496391219698125 -360.73976167479123 0 0 0 0 26.935197729166248 144.29893250322493 0 144.29893250322493 -170.74771265350864 0 0 0 0 26.31837128791085 160.97847626009752 0 160.97847626009752 -592.05062284482847 0 0 0 0 81.505934995730513 -26.853455571226732 0 -26.853455571226732 -105.79398968911119 0 0 0 0 -258.68164225939836 241.95050159733728 0 241.95050159733728 -1024.7801986734557 0 0 0 0 -544.30898173039895 528.31791702293413 0 528.31791702293413 -413.27850490667333 0 0 0 0 -369.68576708603359 478.9661045763205 0 478.9661045763205 55.639514855647576 0 0 0 0 -165.88270643691067 381.73000752850567 0 381.73000752850567 -423.0199163625075 0 0 0 0 -189.99768560135271 457.45643746819769 0 457.45643746819769 826.02594408088771 0 0 0 0 -119.04673737688427 295.23712812990925 0 295.23712812990925 -237.47082125021552 0 0 0 0 -203.88305035763187 639.11392444656667 0 639.11392444656667 -211.16755575215211 0 0 0 0 256.89916146624091 358.58800177957892 0 358.58800177957892 -353.48592864153034 0 0 0 0 -128.33135831874097 346.7957472090784 0 346.7957472090784 -275.58123985627026 0 0 0 0 97.383595420811616 519.71661328190021 0 519.71661328190021 -889.94105708949792 0 0 0 0 375.05915189379448 740.61455497575298 0 740.61455497575298 647.58440552516186 0 0 0 0 350.592406382013 762.0888678986812 0 762.0888678986812 -784.19129129243083 0 0 0 0 -3.6658274238720594 -3.9280219879853462 0 -3.9280219879853462 -0.47925182748443795 0 0 0 0 41.727068775271619 626.92181864779377 0 626.92181864779377 -838.90795180792338 0 0 0 0 -86.420615427174198 31.33887734421296 0 31.33887734421296 -325.14366653917386 0 0 0 0 -276.94969147110533 707.36330671952601 0 707.36330671952601 -481.68520811459166 0 0 0 0 -280.26366807251179 943.07321264936763 0 943.07321264936763 -724.03473839059006 0 0 0 0 53.56096705863456 950.30670007018125 0 950.30670007018125 -1463.1045473950362 0 0 0 0 1.7836241928806373 -1.7825924667989881 0 -1.7825924667989881 -2.6201970442190472 0 0 0 0 -277.50316978109913 -313.20975233596982 0 -313.20975233596982 19.395528891353024 0 0 0 0 89.137862688505265 82.58419201648212 0 82.58419201648212 101.22086649549601 0 0 0 0 63.09757490015636 102.53260925444738 0 102.53260925444738 161.47570436885144 0 0 0 0 55.355255655233123 117.16768168623639 0 117.16768168623639 187.26583065534942 0 0 0 0 9.6439437929657288 159.9394446955157 0 159.9394446955157 168.17706078149058 0 0 0 0 -102.93993803949706 181.12140855515463 0 181.12140855515463 543.4396545969953 0 0 0 0 -100.96805952525392 379.34006788384613 0 379.34006788384613 -274.52164267933404 0 0 0 0 -131.73578398106474 344.863614257476 0 344.863614257476 140.29124814741954 0 0 0 0 -87.735432370827766 125.44956562323205 0 125.44956562323205 188.37470753623711 0 0 0 0 -87.648656421479245 140.00367541301603 0 140.00367541301603 159.13951553433435 0 0 0 0 -67.543066837504739 64.039846294770541 0 64.039846294770541 119.8101618421897 0 0 0 0 8.1214731439613388 118.77133218414383 0 118.77133218414383 116.03011901558057 0 0 0 0 -86.786625755892601 102.21190196981479 0 102.21190196981479 207.52299417887116 0 0 0 0 105.93650503752724 205.07232590781496 0 205.07232590781496 175.89489204961865 0 0 0 0 2.3714229266698097 91.791137301817287 0 91.791137301817287 3.6580542166608154 0 0 0 0 -135.08998288650037 112.86464504131072 0 112.86464504131072 -28.840032963300473 0 0 0 0 406.34716017778788 298.36851894003735 0 298.36851894003735 -1289.5532870248426 0 0 0 0 -79.364210583516979 107.78251836875279 0 107.78251836875279 -145.88635395072379 0 0 0 0 -39.41981419192598 176.13779893391256 0 176.13779893391256 -31.27329225729045 0 0 0 0 -95.583490975528548 250.51778117887443 0 250.51778117887443 75.439288965833839 0 0 0 0 -67.226930123011698 247.88179123363079 0 247.88179123363079 -216.29659069522677 0 0 0 0 -122.52599122084939 212.01238418159119 0 212.01238418159119 42.05796689944691 0 0 0 0 -117.28002115081472 129.15857042945572 0 129.15857042945572 -11.333716122580881 0 0 0 0 -103.27116578045388 111.61700014485541 0 111.61700014485541 112.51922405233199 0 0 0 0 -120.66808042096454 145.98503707259442 0 145.98503707259442 51.566580605256604 0 0 0 0 -133.11564519177045 98.050270826894121 0 98.050270826894121 52.612969361012802 0 0 0 0 -124.27257272816496 77.544429237001168 0 77.544429237001168 100.15749970563047 0 0 0 0 -156.04398634337122 66.592385277355788 0 66.592385277355788 41.815582570139668 0 0 0 0 -135.29291140440182 82.666343604963913 0 82.666343604963913 2.7986820869118674 0 0 0 0 -121.32818708239938 133.23126296792179 0 133.23126296792179 1.0866400437080301 0 0 0 0 1.2971218950635277 87.488254174107979 0 87.488254174107979 -5.2224110932585006 0 0 0 0 -157.54175194657 63.651063795015943 0 63.651063795015943 61.942172742652474 0 0 0 0 306.24121608035068 -95.98520741438665 0 -95.98520741438665 41.297805011199671 0 0 0 0 -119.44805893066422 -8.1104527049517401 0 -8.1104527049517401 730.14675647791591 0 0 0 0 0.44223219525912083 6.7573946782283016 0 6.7573946782283016 2.2788768237361978 0 0 0 0 -123.84197747182407 65.197165359228165 0 65.197165359228165 20.418166730669327 0 0 0 0 -58.692637937503079 18.391902918598063 0 18.391902918598063 2.6190975244917922 0 0 0 0 -85.651693515465013 188.6876228135734 0 188.6876228135734 141.13204707989644 0 0 0 0 -99.240998028944887 38.194941233814461 0 38.194941233814461 46.524883548954676 0 0 0 0 -88.044932301068911 12.626054269225278 0 12.626054269225278 104.89274107421807 0 0 0 0 -156.20330836587709 70.32272854407347 0 70.32272854407347 86.602533201818005 0 0 0 0 -92.979294039490924 90.990439224027796 0 90.990439224027796 94.83010649465723 0 0 0 0 -86.750412328507082 26.099205752601847 0 26.099205752601847 177.66935276282311 0 0 0 0 -47.374408360148664 89.124995571328327 0 89.124995571328327 148.75237263546296 0 0 0 0 110.72654679668995 432.03616854547181 0 432.03616854547181 381.45952570566442 0 0 0 0 -374.35498002227632 210.76891594846347 0 210.76891594846347 482.10711808479391 0 0 0 0 -186.93267312164608 -139.63075656117508 0 -139.63075656117508 13.531568081860314 0 0 0 0 16.835266532521928 434.95488465869857 0 434.95488465869857 -656.83116551551757 0 0 0 0 -21.312516168522365 -0.74228472271866508 0 -0.74228472271866508 -0.60216529393002816 0 0 0 0 226.93261596094999 -58.588205988276968 0 -58.588205988276968 -27.044677612037049 0 0 0 0 -3.7695320369870302 3.2966697928646767 0 3.2966697928646767 1.1384522917903865 0 0 0 0 -802.39523885992821 504.28401369366475 0 504.28401369366475 821.23898319359341 0 0 0 0 -798.76533211571586 2.0642827143747127 0 2.0642827143747127 1319.2472310451631 0 0 0 0 -1312.1545371312932 546.0590193415992 0 546.0590193415992 826.02254763651581 0 0 0 0 -391.11472134201176 694.02291596867872 0 694.02291596867872 -591.64986140644032 0 0 0 0 -272.12408171747666 450.11746264509566 0 450.11746264509566 -369.74517160673713 0 0 0 0 -109.14407186112658 182.7688705814071 0 182.7688705814071 -19.099319865716097 0 0 0 0 -203.16872229182991 198.52150405114662 0 198.52150405114662 247.35701884108494 0 0 0 0 -4.3680145007614328 6.4434396452675315 0 6.4434396452675315 1.6940755921872324 0 0 0 0 73.374838025378267 45.322088529024768 0 45.322088529024768 256.79222820270661 0 0 0 0 105.39367304566986 -124.39269488031277 0 -124.39269488031277 -281.27659298745857 0 0 0 0 -263.63873985125974 168.38303551470744 0 168.38303551470744 115.73668081319192 0 0 0 0 438.83294907878371 101.65811453627794 0 101.65811453627794 -192.1185371758329 0 0 0 0 144.35421001289797 462.40742714602311 0 462.40742714602311 301.5255220317631 0 0 0 0 -14.523106579161322 285.97975936293915 0 285.97975936293915 250.79740829582443 0 0 0 0 -161.402841694573 374.09213557432668 0 374.09213557432668 198.39039419238179 0 0 0 0 -552.573227214285 209.25071261602352 0 209.25071261602352 103.09917782236153 0 0 0 0 -482.3007007729102 323.99465842817153 0 323.99465842817153 -115.88450390256912 0 0 0 0 -408.77057040144973 280.33014254052523 0 280.33014254052523 43.510553124797298 0 0 0 0 -440.43691204294191 -26.688089372031754 0 -26.688089372031754 594.08061914450082 0 0 0 0 -273.04257564487489 219.94239919215033 0 219.94239919215033 -183.04533523702412 0 0 0 0 -276.59822828842152 35.253306339778646 0 35.253306339778646 132.0716512320796 0 0 0 0 -441.10405148732389 88.822135635979066 0 88.822135635979066 204.94388557995262 0 0 0 0 -313.45286773603584 42.046200682452763 0 42.046200682452763 188.04807406887994 0 0 0 0 -334.71257739686553 58.508781752854702 0 58.508781752854702 187.8305974927498 0 0 0 0 -223.77120105286303 202.00523324586902 0 202.00523324586902 94.407174302003114 0 0 0 0 -291.08712755437591 115.13728753340547 0 115.13728753340547 203.04181674568827 0 0 0 0 -248.90508104774926 197.06758012990031 0 197.06758012990031 148.07136945659295 0 0 0 0 -129.17627353870193 275.69547416367277 0 275.69547416367277 -31.524120445057633 0 0 0 0 -229.34370736521669 332.91035516907868 0 332.91035516907868 10.117242166656069 0 0 0 0 -187.51784638111712 391.09550296029192 0 391.09550296029192 16.106123153775115 0 0 0 0 -348.31180633472104 217.12769019760162 0 217.12769019760162 108.06841581642584 0 0 0 0 -361.31677027320825 435.05515642460955 0 435.05515642460955 57.924399744879338 0 0 0 0 -369.46729377087468 413.878521470142 0 413.878521470142 -138.7686864562711 0 0 0 0 -345.76121876706748 250.18738244385895 0 250.18738244385895 -38.224592153339472 0 0 0 0 -392.00181542418068 274.72899428740857 0 274.72899428740857 -168.44750322951586 0 0 0 0 -187.15208287852147 384.4163890464697 0 384.4163890464697 -148.73317278283503 0 0 0 0 -697.53844020651013 463.78864945803798 0 463.78864945803798 -57.800035280670272 0 0 0 0 340.7634080536518 340.66524312936235 0 340.66524312936235 -181.67484590587264 0 0 0 0 -887.18738968169419 79.054207219342061 0 79.054207219342061 693.05579205784306 0 0 0 0 -426.44010044153765 34.964903120511735 0 34.964903120511735 687.11193018851918 0 0 0 0 -300.09222086336376 641.6991677803926 0 641.6991677803926 68.661995406459027 0 0 0 0 -577.85591909659706 427.38261698566203 0 427.38261698566203 59.785186374941986 0 0 0 0 -513.84485659338679 242.2912573338981 0 242.2912573338981 31.775985370273702 0 0 0 0 -753.85377101035556 211.98210818341249 0 211.98210818341249 -103.19996346271364 0 0 0 0 0.71489161538847501 5.9969421203037783 0 5.9969421203037783 8.7931590814643812 0 0 0 0 -1408.4440358720749 550.69888005167377 0 550.69888005167377 68.904512153563701 0 0 0 0 2030.2079740291301 670.39099302999239 0 670.39099302999239 -1171.4078937354243 0 0 0 0 1.1535376252309764 13.638732130528375 0 13.638732130528375 30.736198906053573 0 0 0 0 -778.20663887289993 440.51115514375124 0 440.51115514375124 33.16718887607567 0 0 0 0 -670.12966478709131 321.50446703367925 0 321.50446703367925 -93.226733304339632 0 0 0 0 -896.68170743916562 163.03768515720003 0 163.03768515720003 263.98936685763329 0 0 0 0 -804.39007516884885 523.10390292094962 0 523.10390292094962 284.76771345038424 0 0 0 0 -742.00784714074143 246.8505840054986 0 246.8505840054986 -136.51264122320572 0 0 0 0 -3.6780766134097007 2.8955685566313747 0 2.8955685566313747 -1.0336280968748497 0 0 0 0 -83.610050758834404 130.27630184921873 0 130.27630184921873 -617.14164877653093 0 0 0 0 -890.48505514139833 792.10926035134617 0 792.10926035134617 510.73193179563896 0 0 0 0 -713.579684652369 485.31976701605663 0 485.31976701605663 279.82541983564442 0 0 0 0 -694.3500443420362 812.03099848815145 0 812.03099848815145 -306.97636319450976 0 0 0 0 -285.07001661243703 845.31480561531498 0 845.31480561531498 -1047.6428042970365 0 0 0 0 -170.7269605686306 400.60474280626659 0 400.60474280626659 -361.93886562237003 0 0 0 0 -167.19798497192096 1022.5629688426779 0 1022.5629688426779 -1477.7918818980543 0 0 0 0 -1209.1063814903916 1438.3955426239909 0 1438.3955426239909 -236.61842674763466 0 0 0 0 -770.72987829897897 326.79777552222254 0 326.79777552222254 20.971436930791242 0 0 0 0 579.3033624508389 256.33123123507539 0 256.33123123507539 85.199490761711786 0 0 0 0 109.56548183255609 136.57600682397992 0 136.57600682397992 62.7066792813348 0 0 0 0 -477.53046014822758 526.49083977899136 0 526.49083977899136 47.119463161201566 0 0 0 0 -612.12510583236144 266.53829465640956 0 266.53829465640956 34.26085198509827 0 0 0 0 -161.38444866182181 164.71315271028652 0 164.71315271028652 -107.41014715479832 0 0 0 0 -279.41308721992391 196.21444814520873 0 196.21444814520873 -53.455162021658907 0 0 0 0 -2.2479231692714796 16.661168733494989 0 16.661168733494989 57.450017752160448 0 0 0 0 72.081878186119866 87.961589022095723 0 87.961589022095723 126.59617784516013 0 0 0 0 -5.1283948198744032 19.168580690385852 0 19.168580690385852 75.65204569747803 0 0 0 0 -34.261410488106776 13.983332250849344 0 13.983332250849344 140.06499367926881 0 0 0 0 -11.423098473767908 2.1651807619309267 0 2.1651807619309267 20.567327285589929 0 0 0 0 23.588482813735027 8.2458227017777972 0 8.2458227017777972 39.1149819961297 0 0 0 0 -42.617995690430689 11.358969287291984 0 11.358969287291984 148.20233446863131 0 0 0 0 -14.114033990430471 20.849389143826556 0 20.849389143826556 108.34749731280317 0 0 0 0 -7.7524402330501516 6.2023896799352229 0 6.2023896799352229 17.454799770547936 0 0 0 0 -16.033461057428212 32.508191802808142 0 32.508191802808142 126.17255084234057 0 0 0 0 -147.32358862500041 245.90457119400435 0 245.90457119400435 -121.02350719006063 0 0 0 0 -0.49849681619525654 67.809362679014157 0 67.809362679014157 68.132466425267921 0 0 0 0 12.730787869620357 43.25926320336788 0 43.25926320336788 39.080963296169188 0 0 0 0 85.034594515047502 398.82507389440434 0 398.82507389440434 -645.37623661756516 0 0 0 0 1.7291771306252883 12.47036382542818 0 12.47036382542818 -1.0109672496402311 0 0 0 0 -350.11582598317182 316.0000818411645 0 316.0000818411645 -786.2655900522368 0 0 0 0 -691.97907455940731 424.86216069274815 0 424.86216069274815 -662.84087285178248 0 0 0 0 -210.39623704554833 357.62794891094745 0 357.62794891094745 -774.44333568404545 0 0 0 0 -277.87065683692344 489.67390762563446 0 489.67390762563446 -663.06106250344601 0 0 0 0 -141.19207428795926 270.55704547189089 0 270.55704547189089 -341.40338838787284 0 0 0 0 -314.38814342400292 404.82557046490547 0 404.82557046490547 -98.168820317318023 0 0 0 0 -360.47618726651126 415.39107140249689 0 415.39107140249689 -75.778370881944284 0 0 0 0 -259.97706583408581 397.87264183436855 0 397.87264183436855 -422.54462505938136 0 0 0 0 -262.74043332216388 657.06434620924119 0 657.06434620924119 -741.34390431783686 0 0 0 0 -180.08586033500615 595.69184723678336 0 595.69184723678336 -872.94191989184765 0 0 0 0 -6.2408073196941132 0.8094968840132708 0 0.8094968840132708 17.108114033869917 0 0 0 0 -282.59078784292797 399.93077363929478 0 399.93077363929478 -419.20906009965984 0 0 0 0 723.28368997174402 497.4927259580254 0 497.4927259580254 -1169.1353026908873 0 0 0 0 -2728.859366174057 925.42206032954937 0 925.42206032954937 108.10668606891704 0 0 0 0 -2.2337957553704513 5.280778757643688 0 5.280778757643688 -14.981426274755393 0 0 0 0 8.7776312004389183 3.2528632983739953 0 3.2528632983739953 134.15117068657855 0 0 0 0 -0.60484769786489778 11.202086817655072 0 11.202086817655072 140.05445771137602 0 0 0 0 -3.1206431951055151 0.70681990068464984 0 0.70681990068464984 -1.3134578818138429 0 0 0 0 -22.896670950191037 15.110408527129039 0 15.110408527129039 177.36090356770183 0 0 0 0 37.295723358769465 67.788227010812989 0 67.788227010812989 -6.7547015342861414 0 0 0 0 -19.195206272488576 73.181418092186505 0 73.181418092186505 150.26711267281735 0 0 0 0 58.579993544302852 143.46592553823575 0 143.46592553823575 178.73345464799786 0 0 0 0 7.6357044737483362 23.126815193329548 0 23.126815193329548 -43.011511325063935 0 0 0 0 -539.30075978897821 436.83410770247974 0 436.83410770247974 -283.00148494541645 0 0 0 0 -581.2860755642314 644.76570105978317 0 644.76570105978317 -406.15318346388813 0 0 0 0 -548.01343416580494 460.34106451070693 0 460.34106451070693 -227.51080393064331 0 0 0 0 600.53213244021026 84.120667224440695 0 84.120667224440695 -442.07912879196374 0 0 0 0 540.27088874346009 948.04961991574601 0 948.04961991574601 -1036.5539261823142 0 0 0 0 112.64009409103892 432.50389031082523 0 432.50389031082523 -690.83054765231645 0 0 0 0 108.23685295747418 136.39614285134667 0 136.39614285134667 -272.92693602018699 0 0 0 0 -17.834132521436914 226.3249951863545 0 226.3249951863545 -246.51207374959995 0 0 0 0 209.37891295248301 241.70856498358626 0 241.70856498358626 -283.66976982435153 0 0 0 0 28.495422517624547 126.55817101549655 0 126.55817101549655 -162.98500773405249 0 0 0 0 53.712990403077569 0.69316128185960224 0 0.69316128185960224 -37.466830720079216 0 0 0 0 42.460230986689567 95.49365595648851 0 95.49365595648851 -294.6554787403511 0 0 0 0 207.4292784572317 -38.695102852649143 0 -38.695102852649143 -188.28790964214568 0 0 0 0 349.39315740845268 304.46098967938815 0 304.46098967938815 199.90824285793497 0 0 0 0 12.888315443320636 1.106527387408903 0 1.106527387408903 -3.7158297372786642 0 0 0 0 38.832500286831504 26.702028367789438 0 26.702028367789438 6.5215387987885833 0 0 0 0 39.975894204042049 55.5689807057406 0 55.5689807057406 -8.3442105009851666 0 0 0 0 -73.827284929553571 146.22244100791067 0 146.22244100791067 -54.403524311223009 0 0 0 0 318.93400336264313 67.166234670454287 0 67.166234670454287 -255.2129118971352 0 0 0 0 258.57540936804071 282.83891443773973 0 282.83891443773973 -27.53609608986153 0 0 0 0 36.562142071205017 187.19154013404477 0 187.19154013404477 107.5853752258372 0 0 0 0 1562.9357984348317 -647.86689333131289 0 -647.86689333131289 -226.46595660249295 0 0 0 0 -129.43093884805785 503.68411989573724 0 503.68411989573724 1075.692120652282 0 0 0 0 11.244798851670964 8.9187747161848563 0 8.9187747161848563 9.1299542764496096 0 0 0 0 -753.80037628852369 371.53063379748528 0 371.53063379748528 1413.8317641842514 0 0 0 0 964.47540569655393 985.35272114664622 0 985.35272114664622 247.04568505364296 0 0 0 0 -277.05127140686818 1451.7204332545189 0 1451.7204332545189 -1696.8701804696175 0 0 0 0 131.78251291407651 121.11606552692501 0 121.11606552692501 456.87472888627963 0 0 0 0 -1214.4384154551328 -18.342093062915097 0 -18.342093062915097 -116.97956690708816 0 0 0 0 1052.9466484990407 101.18951584392926 0 101.18951584392926 -630.34662720423512 0 0 0 0 2.8180230014477843 38.071824421560194 0 38.071824421560194 -48.038583317515759 0 0 0 0 28.964842469049472 70.018427845579936 0 70.018427845579936 -81.929065564538178 0 0 0 0 32.791401394541026 74.587627354376309 0 74.587627354376309 -78.046401212006458 0 0 0 0 -6.4356724330396489 34.020592316236957 0 34.020592316236957 -57.022289808639044 0 0 0 0 19.937271455957671 51.607189424399621 0 51.607189424399621 -44.101364264784934 0 0 0 0 59.075557549389487 93.728491139799189 0 93.728491139799189 -132.88081957376926 0 0 0 0 53.542838591210966 46.958036736783129 0 46.958036736783129 -93.617383601791516 0 0 0 0 29.556533007707912 77.28872659816443 0 77.28872659816443 -121.13323999703425 0 0 0 0 40.451067162355685 59.885525953465731 0 59.885525953465731 -43.549687638915202 0 0 0 0 39.045834860107789 49.247523811966857 0 49.247523811966857 -88.682952679260779 0 0 0 0 20.432937500330979 33.56663032269536 0 33.56663032269536 -58.012309976336844 0 0 0 0 35.736359250208793 40.217551482055661 0 40.217551482055661 -46.787221849423318 0 0 0 0 59.958876030075771 89.395196886613121 0 89.395196886613121 7.2917644152039429 0 0 0 0 57.607260976772523 76.221115140440816 0 76.221115140440816 -85.761514294084918 0 0 0 0 54.783808674895226 48.355933740192086 0 48.355933740192086 -49.229838363666204 0 0 0 0 48.538784732707427 82.309333957709896 0 82.309333957709896 -74.820586706089671 0 0 0 0 51.37058800405066 74.858056061919342 0 74.858056061919342 -115.582531298307 0 0 0 0 32.022418471278797 55.090198789079295 0 55.090198789079295 -98.569816305054701 0 0 0 0 66.959326079744642 65.434757905459264 0 65.434757905459264 -140.60011404070246 0 0 0 0 44.427861820651742 32.707123373613285 0 32.707123373613285 -69.264508418840705 0 0 0 0 95.847830469800101 65.099357048242382 0 65.099357048242382 -52.717524380725081 0 0 0 0 74.730191444697994 9.4999403349029308 0 9.4999403349029308 -43.962814516940853 0 0 0 0 76.191759689873138 28.922526016355476 0 28.922526016355476 -16.792799555362222 0 0 0 0 -18.16866542092248 188.25609865521255 0 188.25609865521255 -84.766709251762222 0 0 0 0 -50.818337219145178 46.577171079930849 0 46.577171079930849 -9.55118310796081 0 0 0 0 20.664232643910509 59.740015401734126 0 59.740015401734126 -56.041612053872086 0 0 0 0 54.964145281053788 18.373211766691384 0 18.373211766691384 -150.44891935328633 0 0 0 0 -64.670571404123621 58.952045080382959 0 58.952045080382959 -79.860033507218759 0 0 0 0 139.45172525346425 358.77886368124018 0 358.77886368124018 -258.56309454325674 0 0 0 0 0.21620441801098877 2.3322898910946606 0 2.3322898910946606 2.937932249221106 0 0 0 0 176.42088065067401 -90.815068343245457 0 -90.815068343245457 -11.527375309226045 0 0 0 0 57.584592211969721 66.610252816753928 0 66.610252816753928 -447.239089616407 0 0 0 0 65.970239921658504 -20.055155110383566 0 -20.055155110383566 -177.8938757548749 0 0 0 0 37.852688159910031 43.786569970601704 0 43.786569970601704 -172.97584502406244 0 0 0 0 60.629229075610056 28.81901365104568 0 28.81901365104568 -171.88900955427744 0 0 0 0 37.135178109762535 48.22099238534193 0 48.22099238534193 -11.998392375817946 0 0 0 0 4.9571610813385405 3.8119802468700357 0 3.8119802468700357 -11.140086450498018 0 0 0 0 22.668936388582637 21.556274363011639 0 21.556274363011639 -15.42346474465497 0 0 0 0 15.749650993864634 17.477460686430277 0 17.477460686430277 -58.221159424618236 0 0 0 0 -3.3967616477893898 1.2072825587383704 0 1.2072825587383704 -76.967799460646347 0 0 0 0 42.85045610605448 55.497929646917328 0 55.497929646917328 -120.12311876226522 0 0 0 0 13.725446717740851 70.840083301955019 0 70.840083301955019 -109.87193796272913 0 0 0 0 0.20319494765527679 2.3656395862587658 0 2.3656395862587658 7.8230094622503543 0 0 0 0 38.379617190745194 38.242479922897473 0 38.242479922897473 -247.2087839578744 0 0 0 0 39.755916642021475 62.444865860259597 0 62.444865860259597 -113.38300233252812 0 0 0 0 23.212215032825725 40.936946873045201 0 40.936946873045201 -7.5923972397060311 0 0 0 0 23.803323306448874 -27.6674425755009 0 -27.6674425755009 -455.93907753119129 0 0 0 0 24.10033644962823 -6.2083975247805938 0 -6.2083975247805938 -372.0781623656876 0 0 0 0 90.546749375207582 -5.6945083082391648 0 -5.6945083082391648 -457.28329306891237 0 0 0 0 -33.265059887540701 21.212187287334018 0 21.212187287334018 -240.26066847535549 0 0 0 0 8.8042391158372766 22.618706127423835 0 22.618706127423835 -33.102099537261353 0 0 0 0 -88.947978953481652 -224.97029977056081 0 -224.97029977056081 -397.04758728544766 0 0 0 0 -43.481828695483273 -41.103413343778811 0 -41.103413343778811 -436.18786090796129 0 0 0 0 14.637754427254549 29.401133525418118 0 29.401133525418118 -37.92776747390235 0 0 0 0 11.962835654820083 31.643963099417306 0 31.643963099417306 -39.124510093301069 0 0 0 0 14.820463667442397 10.7703844388476 0 10.7703844388476 -43.211849404936245 0 0 0 0 23.515663511163439 30.123999595976784 0 30.123999595976784 -53.007703416995355 0 0 0 0 28.93248103632655 39.111155407400858 0 39.111155407400858 -32.25056498670439 0 0 0 0 3.284973522357177 25.547814205434406 0 25.547814205434406 -29.727912584578007 0 0 0 0 20.561950661912476 27.458991893471321 0 27.458991893471321 -35.505062997956529 0 0 0 0 6.4976851363542778 32.812299100464145 0 32.812299100464145 -19.446540988419905 0 0 0 0 109.0343601425775 57.473100366005383 0 57.473100366005383 -995.60716564993345 0 0 0 0 -357.61631443993247 16.617417196823226 0 16.617417196823226 -734.0632035101371 0 0 0 0 19.467098080247524 -20.184524369564315 0 -20.184524369564315 -800.10285818959528 0 0 0 0 -162.42494226249983 43.823103225469822 0 43.823103225469822 -674.50175332404615 0 0 0 0 -15.992207407805836 -110.10363402429357 0 -110.10363402429357 -680.69641776832577 0 0 0 0 61.142797027037886 -85.131837792952865 0 -85.131837792952865 -627.85436504340032 0 0 0 0 16.670965773686476 18.230529292868596 0 18.230529292868596 -591.47079211499658 0 0 0 0 323.87712850070238 176.24629239003843 0 176.24629239003843 -542.0506808683931 0 0 0 0 142.31774710521859 -20.42696793797586 0 -20.42696793797586 -740.21866889247758 0 0 0 0 83.968183447577758 25.518450992556609 0 25.518450992556609 -548.31882383454649 0 0 0 0 284.8595136669901 175.76041212462587 0 175.76041212462587 -577.94693958974676 0 0 0 0 221.56683218889521 256.2009505426031 0 256.2009505426031 -675.7020604698082 0 0 0 0 738.63429570643348 407.07225658555399 0 407.07225658555399 -592.6117211891542 0 0 0 0 2.0936984514173673 217.43369834093482 0 217.43369834093482 -331.09523238090333 0 0 0 0 193.24515963512385 272.50564674829002 0 272.50564674829002 -582.27516578540963 0 0 0 0 266.71383081162639 395.21034164164303 0 395.21034164164303 -389.27257534591445 0 0 0 0 221.78976242586941 365.81210644733801 0 365.81210644733801 -295.4497145996429 0 0 0 0 199.09555427544547 460.57078997249482 0 460.57078997249482 -127.54150255068089 0 0 0 0 237.00276594764 822.59560727546341 0 822.59560727546341 -247.4090839549026 0 0 0 0 375.661158065981 710.60630884562852 0 710.60630884562852 -746.57584790591454 0 0 0 0 713.17434810723353 1545.3734362496289 0 1545.3734362496289 -1207.1902572777253 0 0 0 0 1546.1525303045055 750.517877046801 0 750.517877046801 -745.6259974795787 0 0 0 0 2139.7484772297175 1391.4335062559439 0 1391.4335062559439 -299.72077316782816 0 0 0 0 1645.7031331451508 768.36097176090334 0 768.36097176090334 -925.4620060851812 0 0 0 0 2240.2019464448385 -532.19009636484407 0 -532.19009636484407 -258.82428064982378 0 0 0 0 436.83140749473387 93.552003185610374 0 93.552003185610374 -472.02677408572345 0 0 0 0 11.250673489534648 7.9865570462766584 0 7.9865570462766584 6.2734683497963175 0 0 0 0 864.80222337774467 17.096423746403161 0 17.096423746403161 -587.04216592719604 0 0 0 0 549.46670833037206 279.3597880214511 0 279.3597880214511 -622.10730112151214 0 0 0 0 108.78997603386233 135.2502530866941 0 135.2502530866941 -295.80697425138351 0 0 0 0 207.13850511229248 311.01695119107535 0 311.01695119107535 -448.8823201559062 0 0 0 0 -415.88845570313424 -73.413870271983797 0 -73.413870271983797 -277.82513230798941 0 0 0 0 33.489010098647412 19.243822576941966 0 19.243822576941966 -2.2266504532993991 0 0 0 0 13.102660203809364 -9.4029708652041393 0 -9.4029708652041393 -68.151648804808673 0 0 0 0 37.526565641041088 -79.241816033787472 0 -79.241816033787472 -264.95417978311161 0 0 0 0 10.697702254601865 -6.8144551064877419 0 -6.8144551064877419 -4.3057127489238383 0 0 0 0 -314.27598393349035 496.26101513058165 0 496.26101513058165 -601.42720344780537 0 0 0 0 734.93674710798223 249.32096123615338 0 249.32096123615338 -270.0392354315336 0 0 0 0 202.62332547739425 503.17831154774467 0 503.17831154774467 173.45886329571658 0 0 0 0 -212.17493539818679 42.039364943208057 0 42.039364943208057 186.73667940149971 0 0 0 0 1256.2035055309825 -276.88164068078913 0 -276.88164068078913 239.52605323107491 0 0 0 0 733.50298203382226 883.73776018506578 0 883.73776018506578 367.67975515057333 0 0 0 0 219.07498306490743 366.45507711034224 0 366.45507711034224 266.22001272496709 0 0 0 0 167.59529661427223 655.44478396591876 0 655.44478396591876 156.48002583129892 0 0 0 0 187.2426990257627 728.69522787329879 0 728.69522787329879 282.20374320078554 0 0 0 0 188.663474031644 514.17542203293124 0 514.17542203293124 558.02789114948973 0 0 0 0 -108.74243304491392 910.22759339485856 0 910.22759339485856 1070.911477167585 0 0 0 0 -1713.2215297962903 1489.2076436939096 0 1489.2076436939096 -1153.3998920891427 0 0 0 0 -5.3582106681842561 7.8775906031811616 0 7.8775906031811616 -2.5173672315900504 0 0 0 0 -310.92505022529804 1394.5849024879353 0 1394.5849024879353 136.94384220354368 0 0 0 0 2278.5914357252623 1209.3545545732886 0 1209.3545545732886 -421.78136734054897 0 0 0 0 440.89353019171176 2391.458054743629 0 2391.458054743629 -986.66501498017169 0 0 0 0 -1507.1403017259508 1884.806770978852 0 1884.806770978852 -1231.7886011415503 0 0 0 0 464.64065596897854 728.40534016196398 0 728.40534016196398 -1772.0908416325838 0 0 0 0 -186.86009709527571 723.52404531607317 0 723.52404531607317 -857.35490818867038 0 0 0 0 124.26358127289404 -287.85851755856766 0 -287.85851755856766 -265.95746221255104 0 0 0 0 -203.30991449238354 331.87418371967942 0 331.87418371967942 661.61127945916814 0 0 0 0 -10.069172389947425 8.5366551581579557 0 8.5366551581579557 -2.6296492473903115 0 0 0 0 139.64290142458049 -13.887841616015066 0 -13.887841616015066 -81.618906997835438 0 0 0 0 -295.53190631271718 189.79726025696436 0 189.79726025696436 -92.612232432911696 0 0 0 0 76.995523931549542 259.01635312852522 0 259.01635312852522 -468.54612911248114 0 0 0 0 -417.37646933611541 622.00060068214952 0 622.00060068214952 -539.0476937836429 0 0 0 0 -322.84641553985421 627.52655999903436 0 627.52655999903436 -595.29337458625378 0 0 0 0 -233.17472614816506 524.50149370342842 0 524.50149370342842 -551.43633233486617 0 0 0 0 -420.43909184810036 694.22873204400821 0 694.22873204400821 -545.87010227284372 0 0 0 0 -418.9528502995563 673.47087740903225 0 673.47087740903225 -440.13782674525282 0 0 0 0 -382.67089757896792 581.59855168888134 0 581.59855168888134 -511.98492432590865 0 0 0 0 -362.50491836384936 627.59676041586135 0 627.59676041586135 -576.73314724864031 0 0 0 0 -521.75694154846133 617.54575015325099 0 617.54575015325099 -366.38251981195936 0 0 0 0 -936.16061641649139 864.71040011984587 0 864.71040011984587 -499.8946841321158 0 0 0 0 -668.88648767898485 667.32302985896604 0 667.32302985896604 -590.59396943233151 0 0 0 0 -439.22410526512795 773.01566672622448 0 773.01566672622448 -717.58700204111665 0 0 0 0 -3236.383512927594 355.75122798132725 0 355.75122798132725 -62.215500503298244 0 0 0 0 -6.2107598246969076 11.627058218241622 0 11.627058218241622 -15.471362187061857 0 0 0 0 -17.356871864991049 34.596602408249062 0 34.596602408249062 -41.265758132392733 0 0 0 0 -829.18834689333562 69.879953743024089 0 69.879953743024089 -121.66670013433031 0 0 0 0 -870.40972558077192 42.077901241256768 0 42.077901241256768 -57.785744211461861 0 0 0 0 -1214.0573867591411 398.61040699370278 0 398.61040699370278 -149.14464121035417 0 0 0 0 -331.04363960187038 51.662104037968675 0 51.662104037968675 -46.611339341758139 0 0 0 0 -423.81462619514059 301.97991258113143 0 301.97991258113143 -113.46500209282385 0 0 0 0 -697.29029993700533 238.68124136209371 0 238.68124136209371 -101.08915547525612 0 0 0 0 -623.23637275811052 -39.952955714229574 0 -39.952955714229574 -63.407234182966931 0 0 0 0 -545.30271455508773 288.36103770022601 0 288.36103770022601 4.5349090574600268 0 0 0 0 -187.07692715896428 401.01125195207987 0 401.01125195207987 -238.98272985515359 0 0 0 0 -326.87372069620233 773.78649639238029 0 773.78649639238029 -300.90434293229191 0 0 0 0 -612.76763297820435 749.34956235560821 0 749.34956235560821 -212.56986669991238 0 0 0 0 -534.80992368553416 614.81540313848382 0 614.81540313848382 -334.37243402998865 0 0 0 0 -569.75036283459485 627.64989809412509 0 627.64989809412509 -349.73021034387784 0 0 0 0 -896.50846112609725 491.0900993955911 0 491.0900993955911 -168.32941346947337 0 0 0 0 -0.08700363236724229 0.30988035527326474 0 0.30988035527326474 -40.632815376267246 0 0 0 0 0.79748473182918644 -1.0420099686833737 0 -1.0420099686833737 -22.150389791473089 0 0 0 0 124.79631876190979 272.41051090869405 0 272.41051090869405 353.30341811814287 0 0 0 0 -927.17441893102296 670.47427650479358 0 670.47427650479358 -338.16013570222276 0 0 0 0 321.52710459727678 87.072954852425028 0 87.072954852425028 -102.41820628664073 0 0 0 0 44.036339252994367 -40.894781625222095 0 -40.894781625222095 187.08015288572642 0 0 0 0 184.92338147909322 -232.24031007805024 0 -232.24031007805024 -110.35374614880129 0 0 0 0 295.06373045698274 370.48054850904009 0 370.48054850904009 535.24453675971745 0 0 0 0 1191.1635645663191 502.61101441781648 0 502.61101441781648 199.66321751751093 0 0 0 0 427.38747405607137 -26.015619569490809 0 -26.015619569490809 146.94841335850651 0 0 0 0 1884.9771612708864 807.42728412715951 0 807.42728412715951 85.412290898580977 0 0 0 0 1163.2973435135409 586.70416464518985 0 586.70416464518985 245.09238423663919 0 0 0 0 538.88750138799514 881.0413055082654 0 881.0413055082654 482.74416869174456 0 0 0 0 2458.4203078839855 768.74240913022732 0 768.74240913022732 -17.700691207886848 0 0 0 0 2438.1998066819724 283.61436142163075 0 283.61436142163075 398.88788058720638 0 0 0 0 1622.734113549599 405.97148253489104 0 405.97148253489104 877.88617030371097 0 0 0 0 2715.5273023961781 795.89064835815589 0 795.89064835815589 146.67928441517142 0 0 0 0 2355.781662683803 430.45979487814475 0 430.45979487814475 75.824253184495319 0 0 0 0 -30.255605580416287 53.355341991772583 0 53.355341991772583 -56.226267750878662 0 0 0 0 3174.076459149619 1281.2776340178498 0 1281.2776340178498 -469.05010296286491 0 0 0 0 2266.9493230915396 1398.1605778181292 0 1398.1605778181292 -24.820727446181991 0 0 0 0 766.51560114216409 1724.8660019640593 0 1724.8660019640593 114.3005699397545 0 0 0 0 1917.9174886013134 861.20187189571152 0 861.20187189571152 -618.37213544725091 0 0 0 0 1842.9814215476654 643.79523714359675 0 643.79523714359675 282.70374006636484 0 0 0 0 0.6059220692775753 0.52418118716849449 0 0.52418118716849449 -12.449411583258353 0 0 0 0 2042.0770729594515 356.5554958795874 0 356.5554958795874 -451.50389895894477 0 0 0 0 1291.0283606211742 488.90749237770433 0 488.90749237770433 124.37619039958372 0 0 0 0 1516.0665640754887 200.88176722240314 0 200.88176722240314 -65.908046724060114 0 0 0 0 1791.9691002109321 776.24954318210803 0 776.24954318210803 -61.214050977199804 0 0 0 0 1653.91756197621 416.52983059707185 0 416.52983059707185 -592.18045984015043 0 0 0 0 1455.3179860070813 921.60284004561254 0 921.60284004561254 -596.69588652630136 0 0 0 0 1466.1530917196069 1479.5163485032972 0 1479.5163485032972 -1278.8785015926987 0 0 0 0 1603.3833899078636 1391.0885116899444 0 1391.0885116899444 -2071.3776597446413 0 0 0 0 791.62342912149325 1793.9750483276875 0 1793.9750483276875 -170.01476440276019 0 0 0 0 1355.5168659400515 1450.6637068541386 0 1450.6637068541386 -990.68943033053074 0 0 0 0 -95.283376917097485 2586.101847453072 0 2586.101847453072 -874.33173598151188 0 0 0 0 -241.0755230326904 1976.3343607218412 0 1976.3343607218412 -39.215178642683895 0 0 0 0 -745.26483400835423 2133.0722736994358 0 2133.0722736994358 -1307.3541140176239 0 0 0 0 -1491.921498631651 3003.1755283327511 0 3003.1755283327511 -881.70773526545963 0 0 0 0 -1163.6380206734611 1766.8256205275484 0 1766.8256205275484 -489.44000854020123 0 0 0 0 1870.4020379584545 791.84913920967665 0 791.84913920967665 -1251.1223884467472 0 0 0 0 206.62491484466591 2661.6619527033472 0 2661.6619527033472 -2223.5577905706305 0 0 0 0 -404.20660081000824 -93.407326804379409 0 -93.407326804379409 -3062.8599247033526 0 0 0 0 -2.5537026776423204 7.8184240145601471 0 7.8184240145601471 -9.2902457299397128 0 0 0 0 -555.23869300274237 2287.213238962755 0 2287.213238962755 1479.6159504317766 0 0 0 0 -738.88268494495424 3429.5951073688702 0 3429.5951073688702 -2301.8875261060748 0 0 0 0 -938.13762414902885 3096.4476730336173 0 3096.4476730336173 -214.74155984123354 0 0 0 0 -1118.03387626115 1768.8493293618376 0 1768.8493293618376 1292.1394842990558 0 0 0 0 -1304.2930512762396 2417.3960728350794 0 2417.3960728350794 175.13957974057121 0 0 0 0 -830.91431761797867 1291.9560037775154 0 1291.9560037775154 -3590.2621241151173 0 0 0 0 -1997.3550000704126 514.30506852171311 0 514.30506852171311 -108.87995766561653 0 0 0 0 -115.2636774098828 1449.8866200022085 0 1449.8866200022085 -2304.5541848883804 0 0 0 0 -0.74788854962731932 2.004386161434411 0 2.004386161434411 -12.928145317478311 0 0 0 0 -2776.5855342520517 2475.3310225605856 0 2475.3310225605856 -1342.8034452029096 0 0 0 0 -1550.7039056980284 2210.1848906159867 0 2210.1848906159867 -3045.9980589251281 0 0 0 0 -2775.8732568391279 2280.8393239469297 0 2280.8393239469297 -2718.6157103682854 0 0 0 0 -2243.5425081335125 1719.3069076384418 0 1719.3069076384418 -270.57188550608407 0 0 0 0 -943.50273109605041 816.05797395138779 0 816.05797395138779 3255.0925627931138 0 0 0 0 -1291.5865765525814 -170.67257509705451 0 -170.67257509705451 1372.5540625320136 0 0 0 0 18.858147087743333 20.164512900803999 0 20.164512900803999 17.969346425120762 0 0 0 0 -741.11844253918389 -561.13345404863139 0 -561.13345404863139 107.90818412972294 0 0 0 0 -1175.7886049851804 337.01823565486848 0 337.01823565486848 2202.7353298040834 0 0 0 0 -334.17635953862191 1603.4919324978837 0 1603.4919324978837 2147.8993140511739 0 0 0 0 -562.01595890207682 1163.5290554072672 0 1163.5290554072672 1993.8127209853701 0 0 0 0 -703.93125306344882 1675.1754002691378 0 1675.1754002691378 2113.3567542147794 0 0 0 0 109.55843013354024 1134.6468961947758 0 1134.6468961947758 1882.7565328902274 0 0 0 0 -713.46756267093588 1512.8260795509414 0 1512.8260795509414 1152.3525453743641 0 0 0 0 -1011.8267362335318 1816.3029638855478 0 1816.3029638855478 1380.1679588277184 0 0 0 0 -922.56996893307951 1296.3468338565144 0 1296.3468338565144 2305.138120633892 0 0 0 0 -825.92466388037428 1126.672419794937 0 1126.672419794937 1959.6546336979809 0 0 0 0 -615.97155409787956 1452.7623122484329 0 1452.7623122484329 1067.1630141827627 0 0 0 0 -1070.1035949669604 2331.7976997429359 0 2331.7976997429359 390.39414609500091 0 0 0 0 -432.50473753713595 1607.8516232584807 0 1607.8516232584807 1164.4486246716406 0 0 0 0 -920.0604169977596 1639.1333171294245 0 1639.1333171294245 951.56474114798766 0 0 0 0 -252.83461426378926 1912.2410071544509 0 1912.2410071544509 233.06110065542453 0 0 0 0 889.47666013821436 1202.2033634965992 0 1202.2033634965992 592.95875191715459 0 0 0 0 -56.901353059773101 972.92299855761303 0 972.92299855761303 985.63714090575377 0 0 0 0 819.35171797267685 901.80904414802353 0 901.80904414802353 980.85209861759358 0 0 0 0 -254.53825591795248 336.15074360297331 0 336.15074360297331 842.11938070811448 0 0 0 0 -284.23169028542179 261.56090975347615 0 261.56090975347615 896.7497092524136 0 0 0 0 1193.6234123885224 535.53164659083996 0 535.53164659083996 254.20409305823705 0 0 0 0 -368.27866493271176 -28.26669453843715 0 -28.26669453843715 -171.43302817568474 0 0 0 0 2036.2122409738367 1325.7056880574382 0 1325.7056880574382 295.01604901452083 0 0 0 0 -304.15992353647198 81.394785672244325 0 81.394785672244325 -180.3941504508548 0 0 0 0 -23.746092696439689 64.966411541720902 0 64.966411541720902 -62.195211082630408 0 0 0 0 1885.6622406446131 1467.3889114273952 0 1467.3889114273952 272.71946009694511 0 0 0 0 1203.0089951531845 611.8479376366231 0 611.8479376366231 871.33377642871346 0 0 0 0 1546.1846763907233 413.78217730988399 0 413.78217730988399 271.59068911523354 0 0 0 0 1248.3692085097427 1646.0267507191566 0 1646.0267507191566 24.717151193370228 0 0 0 0 1462.8330191492823 1081.12779403081 0 1081.12779403081 830.79515936420648 0 0 0 0 -286.1720302011272 135.35460254171085 0 135.35460254171085 -93.067134508077288 0 0 0 0 -217.97183138526816 161.37923896708526 0 161.37923896708526 -168.29887849714578 0 0 0 0 -203.29423679329921 233.28790192512679 0 233.28790192512679 -151.94280837650876 0 0 0 0 -233.03740955226385 151.08141166899441 0 151.08141166899441 -172.71057092073897 0 0 0 0 -153.71051456165878 241.43705626230803 0 241.43705626230803 -174.08676421588461 0 0 0 0 -131.25045611582937 291.81660459955492 0 291.81660459955492 -114.53301017661579 0 0 0 0 -93.820131022532223 188.28274868022345 0 188.28274868022345 -73.744386480320827 0 0 0 0 -228.70408395613777 240.30092978206812 0 240.30092978206812 -93.585869712085696 0 0 0 0 28.099142645098311 21.31504050077794 0 21.31504050077794 12.331859599468544 0 0 0 0 3638.3247786994907 -1876.7196986458875 0 -1876.7196986458875 -2234.1619174510561 0 0 0 0 141.42086858679249 531.82792718251585 0 531.82792718251585 -1568.405325160853 0 0 0 0 -534.22312850208255 -74.711457146593602 0 -74.711457146593602 895.41498454904649 0 0 0 0 24.286038170134077 -10.560843403790841 0 -10.560843403790841 13.032384534312627 0 0 0 0 208.49995521744131 -81.326436147559434 0 -81.326436147559434 -254.34846455549632 0 0 0 0 46.255369454219917 72.647885260171634 0 72.647885260171634 -67.92846753049065 0 0 0 0 2393.67103961049 955.01425448823284 0 955.01425448823284 -699.42311239131959 0 0 0 0 -228.68638451076367 260.5802802516082 0 260.5802802516082 -193.15694176360557 0 0 0 0 -200.81233751717491 190.58119452387541 0 190.58119452387541 -281.65820196706045 0 0 0 0 -221.0575794004717 116.20931932738313 0 116.20931932738313 -275.12208044527506 0 0 0 0 -8.1548436722125643 9.7049935048383702 0 9.7049935048383702 -4.0950975535717475 0 0 0 0 1594.4698986795411 694.33482192807423 0 694.33482192807423 593.48435269871698 0 0 0 0 3587.1261774258674 534.04536511091646 0 534.04536511091646 238.5777716730372 0 0 0 0 38.163232710349121 42.364137203856131 0 42.364137203856131 37.755923553551185 0 0 0 0 -1113.6260266946192 1218.5358897375045 0 1218.5358897375045 -691.11905914965973 0 0 0 0 -807.13006499472613 2343.29978250371 0 2343.29978250371 -515.82298796674149 0 0 0 0 297.65759648561652 715.71459342210255 0 715.71459342210255 810.41005576182215 0 0 0 0 1602.3586029346188 780.7144163601406 0 780.7144163601406 -367.23846911966393 0 0 0 0 363.56450198545281 615.48140120536118 0 615.48140120536118 -1423.0871283246379 0 0 0 0 -1694.0662820869038 892.08589799143374 0 892.08589799143374 1206.2265910104034 0 0 0 0 378.52768790733535 -4060.5602205719806 0 -4060.5602205719806 2899.4466830666352 0 0 0 0 -535.57734737112332 -155.30317472518436 0 -155.30317472518436 475.13096702189068 0 0 0 0 -531.70278525985486 -105.34332691158488 0 -105.34332691158488 -183.93310248950729 0 0 0 0 -819.72219093487365 159.87845909672615 0 159.87845909672615 648.80739144331892 0 0 0 0 -834.90418699558359 312.60706577889505 0 312.60706577889505 -102.67429062782321 0 0 0 0 -481.32889800556586 48.809082894869789 0 48.809082894869789 -516.82934889037278 0 0 0 0 -692.6477633642935 334.82698637754947 0 334.82698637754947 -4.9144039717939449 0 0 0 0 -1052.7415671264898 244.79998657322722 0 244.79998657322722 619.08882751050987 0 0 0 0 -792.34423012794286 271.6763389373009 0 271.6763389373009 537.86507334421185 0 0 0 0 -1599.1401570133603 689.80666042969824 0 689.80666042969824 323.19145737162762 0 0 0 0 -901.49651437295688 -101.5747332119754 0 -101.5747332119754 -186.86991179468168 0 0 0 0 512.09203694664211 -48.04535691516503 0 -48.04535691516503 -13.916221467094147 0 0 0 0 77.31949314429221 143.46259108626691 0 143.46259108626691 -65.712149309956658 0 0 0 0 -1086.7601718959377 689.1018550234694 0 689.1018550234694 -190.18114648866322 0 0 0 0 1.5317923517746266 3.4247513094108371 0 3.4247513094108371 1.1716375558712002 0 0 0 0 311.3873618582129 345.56346729562574 0 345.56346729562574 -98.546922391600674 0 0 0 0 -168.13406172419491 416.65314051247333 0 416.65314051247333 40.162698818228819 0 0 0 0 -368.88603212908129 67.420897600344688 0 67.420897600344688 -24.8806788667207 0 0 0 0 -250.35636214025544 200.94124755946723 0 200.94124755946723 -65.150265242802561 0 0 0 0 -159.9463273719266 220.49263598532343 0 220.49263598532343 42.622494067749358 0 0 0 0 -185.53699401406993 268.15408541908619 0 268.15408541908619 -9.1606737114807402 0 0 0 0 -187.44022717691405 282.96881124892025 0 282.96881124892025 -6.6503513516217936 0 0 0 0 -160.78376105821371 324.260208322361 0 324.260208322361 -98.417435058698175 0 0 0 0 -158.35629881930799 316.16508096733742 0 316.16508096733742 -81.335394326933056 0 0 0 0 -180.9942159902821 290.17455140813036 0 290.17455140813036 -110.71294514951296 0 0 0 0 -106.96568251019198 308.18266743376444 0 308.18266743376444 -114.2894469322091 0 0 0 0 -144.6226497729549 337.82626636300483 0 337.82626636300483 -123.42804551853624 0 0 0 0 -207.64233198186412 330.07822797184053 0 330.07822797184053 -94.287105482129846 0 0 0 0 -147.72975934630813 337.45126906922087 0 337.45126906922087 -91.843726504936058 0 0 0 0 -230.63729962629441 354.28380817799916 0 354.28380817799916 -65.374614293665218 0 0 0 0 -222.98266681187465 125.92816014072559 0 125.92816014072559 22.103099549451144 0 0 0 0 -41.499256355852765 104.67528242364517 0 104.67528242364517 21.841940333746606 0 0 0 0 -42.820766699176602 295.41080281724135 0 295.41080281724135 -37.166061812793487 0 0 0 0 5.9296588651802651 8.5350655357590881 0 8.5350655357590881 4.2664534934443736 0 0 0 0 176.22631216814443 -18.963418425501004 0 -18.963418425501004 -21.882917579816421 0 0 0 0 -23.255531622337003 147.36384439106041 0 147.36384439106041 -27.877335005876375 0 0 0 0 -65.292417481648954 15.256909284957146 0 15.256909284957146 80.999150316842133 0 0 0 0 -149.22385630833014 167.56597515992325 0 167.56597515992325 -39.277944863482844 0 0 0 0 77.134344135331048 72.410039330607106 0 72.410039330607106 -15.466575074518914 0 0 0 0 -154.47492003655498 -6.8248634103001677 0 -6.8248634103001677 -16.83219603561156 0 0 0 0 -26.608946185471723 86.582889689478179 0 86.582889689478179 -80.226120022834948 0 0 0 0 88.763350427995647 -55.876121694395806 0 -55.876121694395806 -57.621167862191214 0 0 0 0 -0.70114592466759129 2.6327967111264314 0 2.6327967111264314 1.3677606427465889 0 0 0 0 2.6517610348746317 13.263066326724811 0 13.263066326724811 10.402715627800177 0 0 0 0 -132.83118294746578 334.40660634315714 0 334.40660634315714 -808.76113351121603 0 0 0 0 -101.31123509478493 108.04537236234682 0 108.04537236234682 -144.5419288248886 0 0 0 0 -119.22382114003631 112.37696026382037 0 112.37696026382037 -110.78162276178773 0 0 0 0 -441.24801972317437 650.77075557690841 0 650.77075557690841 -373.69139489301597 0 0 0 0 -599.34271129098488 868.95791114605163 0 868.95791114605163 -578.53818793507526 0 0 0 0 -488.83843669060298 583.96187746441865 0 583.96187746441865 -405.22809878046246 0 0 0 0 -146.27211184171028 458.00995671888813 0 458.00995671888813 -585.82272410128644 0 0 0 0 -518.34068945795298 419.72409537368731 0 419.72409537368731 -313.64573646387726 0 0 0 0 -217.23824968956615 123.84063875756692 0 123.84063875756692 -24.050954893245944 0 0 0 0 -703.84052396925836 479.90503901100601 0 479.90503901100601 -296.97095823795826 0 0 0 0 -436.65373388751323 462.45716033108329 0 462.45716033108329 -303.72498104075203 0 0 0 0 -644.89592911744876 661.12147512454612 0 661.12147512454612 -275.69086164844339 0 0 0 0 -606.70400862602401 668.8751316673879 0 668.8751316673879 -363.64342067165308 0 0 0 0 -634.1103601708237 582.22888502895512 0 582.22888502895512 -313.02991243405268 0 0 0 0 -635.25203139898076 592.18145667895806 0 592.18145667895806 -228.60573113399005 0 0 0 0 -570.44310306093212 616.58583622782317 0 616.58583622782317 -296.03643022617325 0 0 0 0 -826.18254098225225 614.97864510317595 0 614.97864510317595 -137.72053637099452 0 0 0 0 -664.28669500754222 693.15457555629473 0 693.15457555629473 -296.23534895841294 0 0 0 0 -670.35358668900699 263.08606015057921 0 263.08606015057921 -33.389991243129771 0 0 0 0 -1696.0434954451866 215.16779355774997 0 215.16779355774997 -150.09716020690394 0 0 0 0 -1385.3811909408705 1320.1999919955961 0 1320.1999919955961 -738.87658271581313 0 0 0 0 -699.24523666885943 717.33096216866397 0 717.33096216866397 -294.83988458706085 0 0 0 0 -69.184672302457329 536.1216618774306 0 536.1216618774306 -1638.2761662167723 0 0 0 0 -14.431367516067311 8.5458032023485089 0 8.5458032023485089 -6.2120895990706799 0 0 0 0 -41.781853674754529 -0.033302455667580944 0 -0.033302455667580944 -174.65011320349004 0 0 0 0 -742.39787517461446 60.351208615909854 0 60.351208615909854 -1007.1977823910738 0 0 0 0 -286.68419332284248 1068.8679775544078 0 1068.8679775544078 47.506993406386755 0 0 0 0 -213.91453591600839 54.513236251817943 0 54.513236251817943 313.50333981237054 0 0 0 0 -475.24193061886217 491.59153099639661 0 491.59153099639661 -314.33989892390673 0 0 0 0 -634.29262390074291 -104.98146065424953 0 -104.98146065424953 -139.05954074074543 0 0 0 0 250.75149747456089 -244.37500146325328 0 -244.37500146325328 1538.7026955003676 0 0 0 0 7.2520100825570211 5.8627357838336138 0 5.8627357838336138 4.3417132659562299 0 0 0 0 606.44430231507431 41.024979841775348 0 41.024979841775348 -256.59832615675987 0 0 0 0 522.6589229454562 572.09908778109957 0 572.09908778109957 374.24260166770546 0 0 0 0 473.21717202255968 236.18804866404753 0 236.18804866404753 -223.14474313639039 0 0 0 0 -68.253143701560475 111.6264492848095 0 111.6264492848095 -78.575446551665664 0 0 0 0 95.76401407035155 29.660622852428787 0 29.660622852428787 -135.0677507565033 0 0 0 0 298.31199646662935 193.1236417573582 0 193.1236417573582 -160.28485548370372 0 0 0 0 155.30235184683443 375.31265969140077 0 375.31265969140077 -266.50971768657473 0 0 0 0 -804.06381934827732 473.34748210119142 0 473.34748210119142 -179.06254084054672 0 0 0 0 -78.210107868042542 169.4195967482774 0 169.4195967482774 -169.15749689487711 0 0 0 0 -8.9896154462076083 236.08707213263551 0 236.08707213263551 -35.188917134917574 0 0 0 0 -306.81333177097258 31.584560334733396 0 31.584560334733396 -117.30202557009761 0 0 0 0 -517.07899313263988 371.4698114636667 0 371.4698114636667 -39.356512650832883 0 0 0 0 -146.36519816872533 160.21072176183952 0 160.21072176183952 -115.30241139102509 0 0 0 0 -237.54831988587011 23.761341352421368 0 23.761341352421368 147.77431025509577 0 0 0 0 1.4436692401275479 1.4056738147877041 0 1.4056738147877041 0.86381922910911157 0 0 0 0 -144.34466173159672 178.61606752320586 0 178.61606752320586 -78.804442690034193 0 0 0 0 -106.72854711384571 -93.79971607346306 0 -93.79971607346306 163.02412863811332 0 0 0 0 21.625032770865801 360.38861988947247 0 360.38861988947247 -163.98785355140046 0 0 0 0 -144.0084096840516 515.40985256079796 0 515.40985256079796 -308.04561197567818 0 0 0 0 153.2709696050988 430.38789726439609 0 430.38789726439609 -393.61419087820104 0 0 0 0 120.90252621418335 356.64468510818551 0 356.64468510818551 -320.05035006020626 0 0 0 0 276.42869349061584 468.2688623251961 0 468.2688623251961 -243.3007660977546 0 0 0 0 120.38929828417167 366.58103964590555 0 366.58103964590555 -491.93807429302979 0 0 0 0 -447.52153603244369 446.79893677805012 0 446.79893677805012 -178.77056628263381 0 0 0 0 -73.612653746164142 251.29639774337193 0 251.29639774337193 -182.29870776498865 0 0 0 0 244.50530087519292 316.98455377091523 0 316.98455377091523 -166.71775584535499 0 0 0 0 -6.6439014422703622 451.35671515711147 0 451.35671515711147 176.33164429380122 0 0 0 0 -302.1223184468472 734.33331240798725 0 734.33331240798725 -718.17256266269032 0 0 0 0 -266.96639906571363 390.323168790208 0 390.323168790208 -440.56158206829423 0 0 0 0 -5.3699581661978613 0.64915356113772305 0 0.64915356113772305 0.18863673771407719 0 0 0 0 -395.9114581412432 506.16907563093991 0 506.16907563093991 -112.17578939127998 0 0 0 0 -280.45791852764523 328.42897912197077 0 328.42897912197077 -119.34744280314771 0 0 0 0 -469.84739120773884 483.62952615888207 0 483.62952615888207 -132.95148272390361 0 0 0 0 -321.38806265774292 231.68632696652821 0 231.68632696652821 21.58906702020613 0 0 0 0 -415.1762079367054 322.53246156329442 0 322.53246156329442 -38.86139359450317 0 0 0 0 -293.85787540037563 303.29820350552473 0 303.29820350552473 -85.941399245843058 0 0 0 0 -309.09334477865377 260.37627610629715 0 260.37627610629715 83.183508483867627 0 0 0 0 -37.108725182813942 189.91079599047953 0 189.91079599047953 -13.810192685734364 0 0 0 0 -248.28417250250277 250.56741953804158 0 250.56741953804158 -23.688390736417205 0 0 0 0 -107.27144230584963 -47.795589269939228 0 -47.795589269939228 52.146322062013496 0 0 0 0 -13.959546563355673 0.18977721345488874 0 0.18977721345488874 1.2534607347852074 0 0 0 0 -17.707377001921557 -1.2713704212670649 0 -1.2713704212670649 1.939405736494848 0 0 0 0 7.9820452009574865 6.5286644196191048 0 6.5286644196191048 2.2722791495112915 0 0 0 0 19.194000031009637 55.09115020178433 0 55.09115020178433 -9.3545112068095477 0 0 0 0 -439.78853153913224 549.13139546696038 0 549.13139546696038 -539.49800159328061 0 0 0 0 -315.67735547031771 -60.334651893223054 0 -60.334651893223054 676.46371002802334 0 0 0 0 22.231826284114504 -79.3021228790858 0 -79.3021228790858 224.03511413242086 0 0 0 0 74.801080686309433 27.319370993824123 0 27.319370993824123 93.96358676024829 0 0 0 0 -137.90266276904731 203.82399855916447 0 203.82399855916447 17.598935231129872 0 0 0 0 -130.8424210735102 232.29804448089271 0 232.29804448089271 78.078872146685171 0 0 0 0 -49.24703454876726 182.75484942852927 0 182.75484942852927 124.22086423752626 0 0 0 0 -128.33854400423081 90.930503409670678 0 90.930503409670678 300.69973256895901 0 0 0 0 160.07941875534016 -289.06071587065526 0 -289.06071587065526 718.903126886682 0 0 0 0 -186.32971307183107 -24.181352127434366 0 -24.181352127434366 351.82908024903736 0 0 0 0 -424.8875202141935 185.4802445626774 0 185.4802445626774 547.33457998502854 0 0 0 0 -289.81946875657195 104.22947647341971 0 104.22947647341971 74.873005471046781 0 0 0 0 -533.58875293313031 396.57328536867135 0 396.57328536867135 207.43392734156805 0 0 0 0 -3.8561608595616264 4.1460585654364195 0 4.1460585654364195 1.6382951060721496 0 0 0 0 -673.03566269211296 1066.1269427025545 0 1066.1269427025545 -1366.0631283160183 0 0 0 0 -434.62972068317322 442.79515012523916 0 442.79515012523916 -141.00188915892249 0 0 0 0 -390.0004717450538 401.94037076630775 0 401.94037076630775 -286.15726117840677 0 0 0 0 -929.36614682499203 699.99999655892316 0 699.99999655892316 -447.45254127990484 0 0 0 0 -461.66386592184426 609.97513838637678 0 609.97513838637678 -513.61031356373132 0 0 0 0 -578.54560994235362 483.95511353840266 0 483.95511353840266 -590.06848949572304 0 0 0 0 -460.61412920897419 604.71948359498856 0 604.71948359498856 -488.07416831277078 0 0 0 0 -437.54768220648839 537.70409876566555 0 537.70409876566555 -596.44769992103102 0 0 0 0 -450.11011408233026 633.74426872313779 0 633.74426872313779 -851.51325296213327 0 0 0 0 -744.45123376584525 670.10478562946082 0 670.10478562946082 -476.27095756979543 0 0 0 0 -588.7042891023375 560.45181665805285 0 560.45181665805285 -427.33750835746832 0 0 0 0 -570.49937279672304 604.56213446301263 0 604.56213446301263 -494.97075251807837 0 0 0 0 -615.3724918312837 551.52595952502634 0 551.52595952502634 -287.44369259933592 0 0 0 0 -615.34974244400655 611.73684076157224 0 611.73684076157224 -346.79130596720643 0 0 0 0 -618.49780167771678 565.71398260832211 0 565.71398260832211 -308.56541250956434 0 0 0 0 -520.97971244444489 617.24007692465239 0 617.24007692465239 -333.96172106349695 0 0 0 0 -556.23554439751751 551.6670712616251 0 551.6670712616251 -452.73140385280931 0 0 0 0 -741.661611623711 587.15051357182347 0 587.15051357182347 -214.87102459582093 0 0 0 0 -601.24165345786605 627.11553765366989 0 627.11553765366989 -218.78939914971852 0 0 0 0 -663.53527509916603 584.51096181842877 0 584.51096181842877 -206.54213042023912 0 0 0 0 -586.06190374281141 434.79407464949327 0 434.79407464949327 -40.133085866174952 0 0 0 0 -536.32013184928655 472.56427611430263 0 472.56427611430263 -209.73149274292518 0 0 0 0 -401.08491727279761 392.19671169880166 0 392.19671169880166 -191.10507626016624 0 0 0 0 -419.19190623687973 370.63799544118956 0 370.63799544118956 -158.08755024484708 0 0 0 0 -21.129071318235674 165.68511735852917 0 165.68511735852917 -12.732310869090725 0 0 0 0 -341.81005976945016 245.7918168667311 0 245.7918168667311 -143.46658109235432 0 0 0 0 4.5898687201956392 4.0068958121133136 0 4.0068958121133136 2.5873753323498505 0 0 0 0 -401.61288077400241 520.02821324334946 0 520.02821324334946 -543.00695164368608 0 0 0 0 -268.67051483508294 367.18779680318403 0 367.18779680318403 -367.43168359165429 0 0 0 0 -483.33396899218133 494.51426172390711 0 494.51426172390711 -363.48905868980364 0 0 0 0 -535.56382186578412 471.06743858862683 0 471.06743858862683 -223.94428634725045 0 0 0 0 -0.75509213402983733 686.96047870869916 0 686.96047870869916 -1461.7253168371453 0 0 0 0 1.6971772216767818 -0.28090674491646439 0 -0.28090674491646439 -3.3699722145940036 0 0 0 0 59.525254116000724 382.91769348013258 0 382.91769348013258 -1315.9725318264082 0 0 0 0 -0.19229131742758909 644.6623323112135 0 644.6623323112135 -619.88278596986856 0 0 0 0 -273.21199811516271 436.67335087010815 0 436.67335087010815 -524.45234869505293 0 0 0 0 -134.42639747183421 741.72017310758383 0 741.72017310758383 -1146.7881569236151 0 0 0 0 0.16102788168467441 1.0072526582673191 0 1.0072526582673191 -1.4472603678487701 0 0 0 0 -330.43342090793885 518.20055117232369 0 518.20055117232369 -595.06651950211744 0 0 0 0 -532.9717773323755 833.10245297896927 0 833.10245297896927 -1357.7351839447874 0 0 0 0 1.0422319686607011 1.3087272549014415 0 1.3087272549014415 -2.6107420357855062 0 0 0 0 -312.41725012588722 364.99682480122829 0 364.99682480122829 -1258.060571382086 0 0 0 0 -607.2193865937079 440.21109047112225 0 440.21109047112225 -1895.4485709242053 0 0 0 0 -396.02703141198435 772.44828836680063 0 772.44828836680063 -1638.8390983809068 0 0 0 0 -449.28710589798902 1111.1013468667622 0 1111.1013468667622 -2609.4965056769943 0 0 0 0 -923.76838666196272 1467.0225127767535 0 1467.0225127767535 -2747.6191207755883 0 0 0 0 -11.31065247618244 640.19545210270917 0 640.19545210270917 -1973.8669781414355 0 0 0 0 -573.27811454550829 666.30188686825295 0 666.30188686825295 -1780.2334234063246 0 0 0 0 -118.38567648163007 300.47223683794164 0 300.47223683794164 -1681.9075278142118 0 0 0 0 -182.88294179018703 381.83407890519629 0 381.83407890519629 -1253.7943399657706 0 0 0 0 -5.783809887143434 553.83962554002028 0 553.83962554002028 -1690.6290828908413 0 0 0 0 0.45724103203974664 669.90830100783387 0 669.90830100783387 -1626.7613049062784 0 0 0 0 0.47697873885772424 667.59977855845909 0 667.59977855845909 -1904.3864013405155 0 0 0 0 -88.287579027099127 842.32184590287397 0 842.32184590287397 -1463.7240638123894 0 0 0 0 -21.249177680760113 712.74557047526969 0 712.74557047526969 -2011.9340874478257 0 0 0 0 -0.23218904839450261 591.76927365408642 0 591.76927365408642 -1148.1450570710485 0 0 0 0 -302.73098474447033 669.24554462607841 0 669.24554462607841 -902.33958731029497 0 0 0 0 -365.59212961981393 394.46802829950485 0 394.46802829950485 -286.72663459559226 0 0 0 0 -151.08694313158048 292.69998106562616 0 292.69998106562616 -509.97573723782853 0 0 0 0 -0.60591974658107728 322.66751138400178 0 322.66751138400178 -505.44530172343502 0 0 0 0 84.818781734065851 140.36478532315073 0 140.36478532315073 -313.69722681599615 0 0 0 0 29.652938926272327 144.96485235045003 0 144.96485235045003 -243.64103544275076 0 0 0 0 -150.34599866022472 258.15308827689614 0 258.15308827689614 -311.69263541181499 0 0 0 0 -4.5852338586264523 244.38110641552021 0 244.38110641552021 -462.49430357394135 0 0 0 0 -248.23021027805225 282.24078234592298 0 282.24078234592298 -210.78983500381673 0 0 0 0 -17.952431878293282 281.07434793187122 0 281.07434793187122 -360.78947707898396 0 0 0 0 -11.201301540009808 312.55576966986433 0 312.55576966986433 -270.64043876986761 0 0 0 0 -357.46129912565084 377.77262341770165 0 377.77262341770165 1336.8796660599 0 0 0 0 -718.20257645075617 1240.413255179209 0 1240.413255179209 -670.05156184020507 0 0 0 0 50.683870592183666 824.9947931097804 0 824.9947931097804 -4846.6997510404199 0 0 0 0 -10.576749426358219 6.7614749338848856 0 6.7614749338848856 -3.4249460837038885 0 0 0 0 -54.779803196826833 409.66493694368364 0 409.66493694368364 -2520.5913617425367 0 0 0 0 -29.386286320127454 21.607505955722395 0 21.607505955722395 -4.801394187643921 0 0 0 0 91.504438504518475 211.58569612675183 0 211.58569612675183 137.88208663078694 0 0 0 0 230.78283030082821 312.37412272690517 0 312.37412272690517 44.152229918550802 0 0 0 0 -70.21201444932376 294.33070923191099 0 294.33070923191099 753.31869256598475 0 0 0 0 8.6522264432132943 185.94403910238975 0 185.94403910238975 43.541118926449919 0 0 0 0 141.02730463357875 178.09509476648901 0 178.09509476648901 -239.09582383998486 0 0 0 0 -29.485288888914511 174.24877703386983 0 174.24877703386983 127.13314721137249 0 0 0 0 68.226031765450898 378.75823548511335 0 378.75823548511335 -149.43371905536696 0 0 0 0 -47.05824886137998 153.66820471425422 0 153.66820471425422 -127.41152879920401 0 0 0 0 -407.95244686708611 328.6227467834176 0 328.6227467834176 -104.03939266110501 0 0 0 0 24.16397507590591 202.54375704470795 0 202.54375704470795 -232.28974976942163 0 0 0 0 85.62091286867917 158.31935824379912 0 158.31935824379912 -203.35492180032224 0 0 0 0 185.96816511849465 96.863828016704304 0 96.863828016704304 -24.27277653177407 0 0 0 0 1.0770354397061155 3.5583530593543742 0 3.5583530593543742 -2.510670595615391 0 0 0 0 514.70951424936356 76.881606977697174 0 76.881606977697174 -80.495803161467393 0 0 0 0 173.0509238967752 72.855625051952586 0 72.855625051952586 16.539119777508859 0 0 0 0 35.670579388272017 280.78840516130367 0 280.78840516130367 -19.596580907016687 0 0 0 0 148.79359896348615 205.12510536443688 0 205.12510536443688 -101.48208803511716 0 0 0 0 112.94671797183946 95.48192606890575 0 95.48192606890575 -38.466240092045155 0 0 0 0 17.49228260062057 90.628798630890515 0 90.628798630890515 3.0923010727929068 0 0 0 0 18.028347717016004 135.82833375983591 0 135.82833375983591 157.07098765104365 0 0 0 0 -58.366234050670755 220.14848325264802 0 220.14848325264802 326.02077262443436 0 0 0 0 -133.83911546687887 245.78924531240227 0 245.78924531240227 -1543.0428973485746 0 0 0 0 -45.244074086327203 27.860147602098085 0 27.860147602098085 -5.8205580841133724 0 0 0 0 111.6489617756597 185.81465893585846 0 185.81465893585846 -1132.9682972144437 0 0 0 0 7.6640146194622503 39.619379491334257 0 39.619379491334257 -1242.6580605643467 0 0 0 0 -359.96889203335741 856.40489376500045 0 856.40489376500045 -1383.5244621455204 0 0 0 0 -102.2069204027066 753.93053999562835 0 753.93053999562835 -2016.971008286851 0 0 0 0 -38.486947483012045 228.75988986577204 0 228.75988986577204 -2141.45857815003 0 0 0 0 -177.39586469146889 855.13879493007698 0 855.13879493007698 -1965.8428109586212 0 0 0 0 -223.50481308119925 205.98416366169113 0 205.98416366169113 -2704.3016832945341 0 0 0 0 -216.84286771144252 740.2328154124807 0 740.2328154124807 -1885.6475790449151 0 0 0 0 -322.00255524645036 669.45211167088019 0 669.45211167088019 -1876.7918888946406 0 0 0 0 -104.58214728409803 752.36534614345396 0 752.36534614345396 -1865.055348514772 0 0 0 0 -84.57700005339575 626.46224200833603 0 626.46224200833603 -1924.7729944223211 0 0 0 0 -268.08662802467734 663.28701014866692 0 663.28701014866692 -1413.5344418881941 0 0 0 0 -339.55027429768234 559.89334333780607 0 559.89334333780607 -1170.2889858895578 0 0 0 0 -277.98728710594514 797.78957354671752 0 797.78957354671752 -1345.3382462910959 0 0 0 0 -381.02868968495022 269.10270945706907 0 269.10270945706907 -760.51699984364313 0 0 0 0 -153.09846062361612 231.85760791608845 0 231.85760791608845 -1543.3342661503057 0 0 0 0 -626.5654578728936 543.97652421966995 0 543.97652421966995 -1476.9040215079749 0 0 0 0 -82.429605759869446 622.76228091407575 0 622.76228091407575 -2044.0564108840344 0 0 0 0 -87.682805466189166 744.71496967995154 0 744.71496967995154 -1923.5129290114346 0 0 0 0 -138.33909755845525 202.42377590184697 0 202.42377590184697 -2109.0187481774828 0 0 0 0 83.305493614559964 921.69958718201997 0 921.69958718201997 -4120.6362482908844 0 0 0 0 -59.141676477476722 856.17524356733338 0 856.17524356733338 -1542.6268859313968 0 0 0 0 3.0998399413365405 474.03836618804598 0 474.03836618804598 -1437.8795233388701 0 0 0 0 100.91849139008264 922.86509215791921 0 922.86509215791921 -1472.2747403615431 0 0 0 0 -581.14213670883328 575.60269815884021 0 575.60269815884021 -1254.1783432366628 0 0 0 0 -143.76360677525008 457.62778913376496 0 457.62778913376496 -1172.1747411569013 0 0 0 0 -113.36064595637436 433.49626049711514 0 433.49626049711514 -1836.5808287095078 0 0 0 0 176.90247980597633 495.87842181948508 0 495.87842181948508 -2706.6006452586516 0 0 0 0 -21.091705385718626 20.452667425624156 0 20.452667425624156 -5.3524370188033075 0 0 0 0 109.43389775967808 159.1330177417185 0 159.1330177417185 -804.33723617170108 0 0 0 0 -75.8045637493924 372.40236081989133 0 372.40236081989133 -1315.6609011657442 0 0 0 0 -35.633195184847636 24.568324381178108 0 24.568324381178108 -3.5326953459865411 0 0 0 0 104.91230782470666 189.32270003484336 0 189.32270003484336 -859.2696205392167 0 0 0 0 156.78964599664323 264.66676336364981 0 264.66676336364981 -800.4509414394779 0 0 0 0 100.47016278106639 187.50081582532675 0 187.50081582532675 -564.94775499867319 0 0 0 0 80.065827747006551 515.12260543538832 0 515.12260543538832 -909.70930470349413 0 0 0 0 -406.30443475794164 -102.41846732745398 0 -102.41846732745398 -861.0203202801913 0 0 0 0 -207.1143664988922 440.44373477428962 0 440.44373477428962 -60.270205776752846 0 0 0 0 -7.0346198359067103 7.9141756192516155 0 7.9141756192516155 -3.5882290673328079 0 0 0 0 304.3598666566977 203.79325683965817 0 203.79325683965817 -765.34569759315491 0 0 0 0 -340.65216028291616 373.50220676387289 0 373.50220676387289 541.15701077846506 0 0 0 0 80.308736644285091 278.79492542012031 0 278.79492542012031 -1403.6604506840413 0 0 0 0 -120.42113658894959 357.30856697829586 0 357.30856697829586 -889.04089215315253 0 0 0 0 -57.565561885281454 41.170679280623858 0 41.170679280623858 0.28053656975529062 0 0 0 0 -277.679342789168 603.0633465273022 0 603.0633465273022 -1164.0796205806564 0 0 0 0 -148.95275743348429 -235.37905086162596 0 -235.37905086162596 -536.41792925220216 0 0 0 0 0.63921273696554692 22.018277088235493 0 22.018277088235493 -12.450235744169078 0 0 0 0 67.6597809310515 68.627400420772915 0 68.627400420772915 -12.023760836025758 0 0 0 0 43.285499392797647 70.200971635104111 0 70.200971635104111 51.515867824716224 0 0 0 0 12.942938229652327 59.076794441516796 0 59.076794441516796 3.9169437257403352 0 0 0 0 -42.080019390414236 110.59444339332731 0 110.59444339332731 24.605699248413544 0 0 0 0 -85.101776523239096 97.965096182817433 0 97.965096182817433 33.299713572237124 0 0 0 0 -50.285443820786895 74.912970084491917 0 74.912970084491917 5.7733894169855375 0 0 0 0 32.322645734158868 56.883749749226808 0 56.883749749226808 -9.9764235789803024 0 0 0 0 14.421768927888479 90.364158853555864 0 90.364158853555864 -64.535167795376765 0 0 0 0 71.066642133053392 138.07329643584808 0 138.07329643584808 -2.0133182722215679 0 0 0 0 -8.2950198632315733 96.169525416982424 0 96.169525416982424 22.503438856112552 0 0 0 0 24.21385411977279 53.653023027927645 0 53.653023027927645 -19.771962609149373 0 0 0 0 73.428197899600491 119.02639363531353 0 119.02639363531353 -157.10250302417262 0 0 0 0 -2.2873644387436798 116.97728975881546 0 116.97728975881546 -12.844037443586785 0 0 0 0 51.844389634210074 67.059576260831463 0 67.059576260831463 26.368052446748948 0 0 0 0 39.732788536248279 58.647647620243461 0 58.647647620243461 39.090043096880841 0 0 0 0 47.164221854502102 104.75044283556872 0 104.75044283556872 -78.915648601337125 0 0 0 0 26.651140081175981 101.3830265812249 0 101.3830265812249 -36.660670600844242 0 0 0 0 39.644754546668992 115.05590503974963 0 115.05590503974963 -77.019975733731371 0 0 0 0 32.743541950869258 50.840026680471965 0 50.840026680471965 -64.349626412636098 0 0 0 0 43.222266884921964 49.419147966730563 0 49.419147966730563 -7.2551271424495631 0 0 0 0 55.502163813886 85.571766323152815 0 85.571766323152815 -26.740276450117562 0 0 0 0 5.1906463731138501 70.320598095337118 0 70.320598095337118 37.011855201456456 0 0 0 0 54.872281837437185 45.1019042069438 0 45.1019042069438 0.26069857159131971 0 0 0 0 43.963274545612933 54.838920302700373 0 54.838920302700373 -12.370004941818719 0 0 0 0 205.81002016944694 134.1659222647304 0 134.1659222647304 -1157.6176388165504 0 0 0 0 18.247011508487049 194.8949043400462 0 194.8949043400462 -396.92459842426615 0 0 0 0 206.3347784001744 105.34913809065597 0 105.34913809065597 -697.91763747510049 0 0 0 0 112.41727163047472 128.61466498752634 0 128.61466498752634 -498.89561003775589 0 0 0 0 28.101235859197914 2.9394049384864047 0 2.9394049384864047 24.442400499610812 0 0 0 0 -108.25040066371002 153.09767456920508 0 153.09767456920508 -5.9612181759475789 0 0 0 0 46.416132406387874 52.875270554878881 0 52.875270554878881 -14.259167815450244 0 0 0 0 41.819507015155978 77.851328686876968 0 77.851328686876968 -30.291648217800685 0 0 0 0 61.861428600619547 71.709336705749593 0 71.709336705749593 -83.210844812813775 0 0 0 0 62.16237251504208 74.123941841529813 0 74.123941841529813 -74.136666975626213 0 0 0 0 44.083935574948555 60.653066007176676 0 60.653066007176676 -62.696060036969357 0 0 0 0 43.522989173827227 65.899877382951672 0 65.899877382951672 -61.398659720583964 0 0 0 0 59.764325455151265 97.894764709553783 0 97.894764709553783 -65.705461367809221 0 0 0 0 55.242531973242876 43.398272440934306 0 43.398272440934306 -22.265106418238247 0 0 0 0 -13.195249652308121 99.536412558171833 0 99.536412558171833 -42.029718108533416 0 0 0 0 62.186412450711941 58.067479923189239 0 58.067479923189239 -197.85504769332056 0 0 0 0 14.247998016130481 12.756930871990818 0 12.756930871990818 8.8288057351320859 0 0 0 0 62.271760514763912 69.807417733492443 0 69.807417733492443 -82.25022734137201 0 0 0 0 59.958065913713654 68.612259156109758 0 68.612259156109758 -82.213238971921783 0 0 0 0 62.237336333739222 19.351723680832492 0 19.351723680832492 -69.912710443407491 0 0 0 0 55.968179720497943 22.075680868231771 0 22.075680868231771 -5.5256634099696722 0 0 0 0 50.077442196256015 63.996185548920039 0 63.996185548920039 -80.691426794975996 0 0 0 0 19.494109786003889 50.047005894701236 0 50.047005894701236 -58.169767797729548 0 0 0 0 112.554469190487 91.616325275039799 0 91.616325275039799 -94.596707110573334 0 0 0 0 95.655174305000401 189.59577924344376 0 189.59577924344376 6.8351088022036492 0 0 0 0 117.63022076978905 23.661646560616532 0 23.661646560616532 -202.23275980314793 0 0 0 0 22.838471837152611 53.781426365571406 0 53.781426365571406 -89.905693035329023 0 0 0 0 28.17104042423307 61.923098946432219 0 61.923098946432219 -92.185336330181599 0 0 0 0 9.6018737385529676 43.865025937193423 0 43.865025937193423 -104.98161958945639 0 0 0 0 23.571494040865218 56.394058143457642 0 56.394058143457642 -104.26273598373155 0 0 0 0 38.011245513669564 46.611368574903281 0 46.611368574903281 -106.09632504407602 0 0 0 0 36.248212673614034 159.45208909004214 0 159.45208909004214 51.785005295148949 0 0 0 0 -61.37340725127433 50.336006626387643 0 50.336006626387643 21.339459324549352 0 0 0 0 43.681343439231568 49.26481923903475 0 49.26481923903475 -171.37233709126303 0 0 0 0 -39.177597116693505 120.47441411102318 0 120.47441411102318 -92.467196505720949 0 0 0 0 14.578031200761531 4.4412601030758054 0 4.4412601030758054 -0.8833508726169832 0 0 0 0 30.149804099724861 39.737865421351671 0 39.737865421351671 -25.287980119666827 0 0 0 0 26.659989951785803 39.761470095929077 0 39.761470095929077 -11.031293276845604 0 0 0 0 10.348637412702374 54.044812156446142 0 54.044812156446142 -4.3285175435607925 0 0 0 0 17.083536815815023 95.932726430991352 0 95.932726430991352 -30.857143791866292 0 0 0 0 20.827729900433042 48.634635512437853 0 48.634635512437853 -35.121047301461658 0 0 0 0 10.261610937632469 44.181308925495216 0 44.181308925495216 -45.258408532738748 0 0 0 0 31.823042637435719 95.431572617402935 0 95.431572617402935 -81.045436451204296 0 0 0 0 13.011347756124451 55.071885250246851 0 55.071885250246851 -39.354242569847429 0 0 0 0 7.3101979489564144 42.892842067560267 0 42.892842067560267 -17.996294849569804 0 0 0 0 13.884806781709671 30.980241871354949 0 30.980241871354949 -27.998826901852865 0 0 0 0 5.5610048023881973 40.707735479625626 0 40.707735479625626 -81.621806126633601 0 0 0 0 22.780024192659766 52.449667410108304 0 52.449667410108304 -73.87717353734115 0 0 0 0 -6.868752852387729 31.192096229316043 0 31.192096229316043 -20.810178370079029 0 0 0 0 26.613194891930242 37.117919582562649 0 37.117919582562649 -36.761140503029921 0 0 0 0 36.483591108204564 62.363910964304523 0 62.363910964304523 -71.029883263467127 0 0 0 0 44.082701997765525 60.752412589159604 0 60.752412589159604 -70.363027331028206 0 0 0 0 43.525307774730209 65.857547319156851 0 65.857547319156851 -69.501283442235945 0 0 0 0 20.140955317513402 53.087037876012275 0 53.087037876012275 -16.311512632791263 0 0 0 0 22.850995781875952 40.305576836225072 0 40.305576836225072 -27.33660296948046 0 0 0 0 12.037571331078652 45.238499606202822 0 45.238499606202822 -52.191072538094886 0 0 0 0 55.203682433622816 33.247184453601299 0 33.247184453601299 -49.789306810294001 0 0 0 0 25.11587356205564 52.067630733821716 0 52.067630733821716 -7.5591792967097717 0 0 0 0 19.101859766107793 50.945908245495744 0 50.945908245495744 -31.139120355994681 0 0 0 0 10.788789407080912 61.571232627040445 0 61.571232627040445 -31.670147061553507 0 0 0 0 130.36343193121866 63.603601289043581 0 63.603601289043581 -232.1241321520356 0 0 0 0 0.40569300724470914 48.474224314408048 0 48.474224314408048 -34.752845829745866 0 0 0 0 -10.424976975823142 52.614564759665825 0 52.614564759665825 -53.502098393028767 0 0 0 0 -35.000345204718542 -128.96122021317206 0 -128.96122021317206 -731.40075315537979 0 0 0 0 -15.0861798148253 -234.86333300652041 0 -234.86333300652041 -535.52693848038325 0 0 0 0 -61.948394502593146 -29.511867127504956 0 -29.511867127504956 -985.14970010146499 0 0 0 0 -68.291439601307502 -76.270593150591594 0 -76.270593150591594 -660.27670777562889 0 0 0 0 -100.34140872463468 124.25684249060578 0 124.25684249060578 -884.97301463942472 0 0 0 0 -34.981428715898801 -14.114120566013298 0 -14.114120566013298 -886.28910757903941 0 0 0 0 -80.877809137760778 128.57461584897828 0 128.57461584897828 -979.02220131264767 0 0 0 0 -48.586517221236136 106.21129435433249 0 106.21129435433249 -1053.8179615917325 0 0 0 0 35.293827705289004 195.09402343088004 0 195.09402343088004 -1044.3947255983512 0 0 0 0 -69.389464134990703 109.69430874298268 0 109.69430874298268 -887.0712475743785 0 0 0 0 -155.04906943175592 224.43450852987007 0 224.43450852987007 -815.14963728966541 0 0 0 0 -418.24006226324127 402.39993225724447 0 402.39993225724447 -932.63532913065865 0 0 0 0 -69.288221143629926 300.18575379673712 0 300.18575379673712 -1086.7249900146271 0 0 0 0 73.079519155115122 221.48242670328182 0 221.48242670328182 -1003.5283159243991 0 0 0 0 150.46352266307804 291.4666150095436 0 291.4666150095436 -1089.2699249093766 0 0 0 0 64.827131504949648 28.402033875347115 0 28.402033875347115 -576.85207706713118 0 0 0 0 152.69415841062437 231.91023792089254 0 231.91023792089254 -1002.1686467826803 0 0 0 0 274.45236090218532 109.79438333897269 0 109.79438333897269 -1280.150292691882 0 0 0 0 -89.572367528075119 498.2310144727744 0 498.2310144727744 -1188.7617061967903 0 0 0 0 307.82894683533232 140.08308739436325 0 140.08308739436325 -456.53704968435341 0 0 0 0 -13.551543952727373 27.787819731153306 0 27.787819731153306 -63.567784863526782 0 0 0 0 -3.0479813346776723 6.2045473267293829 0 6.2045473267293829 -6.711600871343137 0 0 0 0 -14.342118366912473 -11.9680001490633 0 -11.9680001490633 -128.09843675834418 0 0 0 0 2.6582775652309181 23.853954946970831 0 23.853954946970831 -13.534008314933814 0 0 0 0 -202.40343582744754 213.41645229447568 0 213.41645229447568 584.03345530416118 0 0 0 0 -45.391250278160442 325.43056971739861 0 325.43056971739861 -279.52832090370066 0 0 0 0 167.86737683825777 304.67304702826368 0 304.67304702826368 -394.79383125947788 0 0 0 0 59.283801044919528 132.51732426176022 0 132.51732426176022 -451.48671348158678 0 0 0 0 13.51041492522927 386.69036479780334 0 386.69036479780334 -990.761812427314 0 0 0 0 -24.215265982900746 212.48718159427517 0 212.48718159427517 -433.25073834689101 0 0 0 0 82.544632012024522 368.28307716321433 0 368.28307716321433 -986.18268962492584 0 0 0 0 119.00512793421512 398.52464313586825 0 398.52464313586825 -1498.8975318914163 0 0 0 0 -165.5905440319475 679.97718691853515 0 679.97718691853515 -1059.3526026413892 0 0 0 0 78.813906343217241 514.63390102593985 0 514.63390102593985 -2357.1450879431613 0 0 0 0 -65.069810015993426 -13.354464868287323 0 -13.354464868287323 -1403.4401790745615 0 0 0 0 105.08564039756311 110.55326731290552 0 110.55326731290552 -1378.0054206413115 0 0 0 0 88.184353113960242 149.15410620099283 0 149.15410620099283 -1170.8834228418564 0 0 0 0 170.85219691728707 235.47515470719372 0 235.47515470719372 -1177.3355316382658 0 0 0 0 6.9097926013782853 131.53997067085584 0 131.53997067085584 -1169.5626703555754 0 0 0 0 257.27856932658415 -92.028439990294487 0 -92.028439990294487 -2231.4908788620887 0 0 0 0 -163.27147786477872 18.529252998614538 0 18.529252998614538 -1109.6852322012855 0 0 0 0 2.6295576270002616 53.714266107847905 0 53.714266107847905 -100.49382846549415 0 0 0 0 -43.134445608739043 103.1556671680446 0 103.1556671680446 -1054.2356520576868 0 0 0 0 -130.5229593563854 88.159832308432669 0 88.159832308432669 -966.74943453047308 0 0 0 0 23.133598179835133 17.581115139155969 0 17.581115139155969 -33.599935346352183 0 0 0 0 -264.4716221151466 303.87885163563988 0 303.87885163563988 97.2974748930028 0 0 0 0 -27.46589067127934 578.74722514564201 0 578.74722514564201 -1218.3913827029392 0 0 0 0 -40.679422879096819 331.97080258492133 0 331.97080258492133 -542.90122614826032 0 0 0 0 82.475317111136974 -54.985758105194691 0 -54.985758105194691 -1318.1228406903165 0 0 0 0 183.49630428062665 242.5109621844249 0 242.5109621844249 -1014.6667979242702 0 0 0 0 65.331935354843154 76.939415675828059 0 76.939415675828059 -920.05638669337714 0 0 0 0 -40.468361293489579 79.842845477134688 0 79.842845477134688 -197.71434611755103 0 0 0 0 -288.39300382163492 225.66648279206129 0 225.66648279206129 -151.41214664247309 0 0 0 0 -47.844627677695655 30.270229101152154 0 30.270229101152154 -15.757192773270395 0 0 0 0 -370.37160544654762 80.584648464464408 0 80.584648464464408 -1140.4915118628232 0 0 0 0 -205.68217954034253 19.177507625941416 0 19.177507625941416 27.180711073364364 0 0 0 0 -220.96337716748531 492.84217834871015 0 492.84217834871015 -556.46442977445258 0 0 0 0 -23.534101173936506 357.0593136276766 0 357.0593136276766 -844.38239197741495 0 0 0 0 9.1996151962302974 157.6286860698001 0 157.6286860698001 -773.15304380764428 0 0 0 0 -60.318775152210947 526.92552547100786 0 526.92552547100786 -1105.6192688510127 0 0 0 0 -114.76917800396041 529.16554547914347 0 529.16554547914347 -1096.2654980510215 0 0 0 0 -87.420134507920011 553.72649381357587 0 553.72649381357587 -1349.1046051662779 0 0 0 0 -27.962775967615016 523.87704748856413 0 523.87704748856413 -1357.8877480860247 0 0 0 0 -144.47686070674536 720.22808193100354 0 720.22808193100354 -1324.395195704863 0 0 0 0 -98.65920062144869 590.11165307685224 0 590.11165307685224 -1024.5455430809743 0 0 0 0 35.558912850552588 664.46896124524937 0 664.46896124524937 -1432.8833680534099 0 0 0 0 -139.15836546602077 563.80201182200472 0 563.80201182200472 -1285.3310200206524 0 0 0 0 2.3270996051724069 907.24340295754519 0 907.24340295754519 -1319.3437947965976 0 0 0 0 -398.55616966861271 631.64677859401672 0 631.64677859401672 -773.97064084638987 0 0 0 0 -911.7945969081411 594.25515688780797 0 594.25515688780797 -137.06103282630011 0 0 0 0 -822.29882675140107 1187.0387365838469 0 1187.0387365838469 -697.19996139940667 0 0 0 0 459.03462945741194 -268.33285053724103 0 -268.33285053724103 -375.35791320920544 0 0 0 0 -1.5637261389217088 -2.5200940752491761 0 -2.5200940752491761 -9.0350830194752518 0 0 0 0 9.256974841322517 -179.93400722059778 0 -179.93400722059778 -329.52080777386436 0 0 0 0 825.35753448717878 4.1961286717196344 0 4.1961286717196344 -1539.2085129216866 0 0 0 0 -217.07841381139588 -421.18255180999404 0 -421.18255180999404 265.09431969101752 0 0 0 0 43.410917010418956 -9.8300920760018755 0 -9.8300920760018755 -35.286277030343918 0 0 0 0 -114.31675916824315 -25.184794307766424 0 -25.184794307766424 194.88384776456223 0 0 0 0 290.80601054246654 2.1792705390107585 0 2.1792705390107585 -617.88972087873117 0 0 0 0 -533.28566912967653 -35.474510423404354 0 -35.474510423404354 692.46366990259412 0 0 0 0 -28.888668270097696 -117.92115865258529 0 -117.92115865258529 -103.20724210971093 0 0 0 0 -794.32684773205256 625.11487078202117 0 625.11487078202117 -575.66000626052119 0 0 0 0 397.29511849793926 150.23742400718038 0 150.23742400718038 -312.49956659946838 0 0 0 0 2.4891373581319058 -5.5946680136928819 0 -5.5946680136928819 -5.688564331705436 0 0 0 0 34.759748750289958 -3.6105352986490686 0 -3.6105352986490686 -31.280367386064796 0 0 0 0 285.2776109513361 768.78574713704802 0 768.78574713704802 -2661.3411121878744 0 0 0 0 -1003.8493192564492 778.44182798330439 0 778.44182798330439 1257.4181158370757 0 0 0 0 -16.835326866194862 12.270464069614114 0 12.270464069614114 -6.7695640897672291 0 0 0 0 -1502.7050807293563 1371.9666799034349 0 1371.9666799034349 -157.37530675798916 0 0 0 0 -136.13727926259162 257.62597381510932 0 257.62597381510932 -1991.6878573289614 0 0 0 0 -1834.6828258308669 1354.5841493000171 0 1354.5841493000171 583.25474121744628 0 0 0 0 -617.2452749203585 1894.4766793395429 0 1894.4766793395429 -1843.8009449439705 0 0 0 0 -162.11032823361165 1034.3317616871718 0 1034.3317616871718 -675.61769614818149 0 0 0 0 -157.83991924158181 900.49980279486408 0 900.49980279486408 -1132.1719505013534 0 0 0 0 57.173594693624182 946.83547214924329 0 946.83547214924329 -1205.7974462300845 0 0 0 0 -9.8442920681554824 747.45103832436507 0 747.45103832436507 -1039.7705752102629 0 0 0 0 292.19633985159453 839.31818004387969 0 839.31818004387969 -1313.7578778529532 0 0 0 0 227.72109749330593 389.57346710157435 0 389.57346710157435 -1657.2139230568573 0 0 0 0 -353.32720900082495 1023.5102492031438 0 1023.5102492031438 566.0076539818765 0 0 0 0 477.5006362896529 121.49075344933954 0 121.49075344933954 -806.79210189622245 0 0 0 0 467.32063063078022 258.95721803144079 0 258.95721803144079 -217.09683004602994 0 0 0 0 172.41746694484027 387.59613115272805 0 387.59613115272805 572.32137312213126 0 0 0 0 -42.685616890463479 26.50232461953749 0 26.50232461953749 -11.830919706395505 0 0 0 0 177.94175794896 7.0593045125096978 0 7.0593045125096978 -75.692508927430026 0 0 0 0 228.01262660579232 105.65872960858178 0 105.65872960858178 -258.37520968871104 0 0 0 0 299.04171955032507 -79.943524880864061 0 -79.943524880864061 -405.8319195741351 0 0 0 0 105.77512779999233 -195.31125941841674 0 -195.31125941841674 -366.20872148777198 0 0 0 0 120.96979396112874 -203.90210969368854 0 -203.90210969368854 -376.87409472953732 0 0 0 0 -65.620990283117862 -445.56142314515455 0 -445.56142314515455 -688.26505616812801 0 0 0 0 -81.81537726312672 208.52860043397413 0 208.52860043397413 -650.70589106794068 0 0 0 0 211.85789162940637 -156.64913561519188 0 -156.64913561519188 -239.3469957531197 0 0 0 0 -1347.2342284548577 1537.4484950790084 0 1537.4484950790084 -410.10132766497554 0 0 0 0 -75.804885638019186 133.584203986793 0 133.584203986793 -1149.3061723680948 0 0 0 0 -1153.2284453148604 1120.7655742138086 0 1120.7655742138086 -107.39342786422276 0 0 0 0 -1185.8791971010505 1441.6731014803081 0 1441.6731014803081 -1232.8283348786281 0 0 0 0 -1494.1233365754306 1662.5140308405735 0 1662.5140308405735 -1388.8336058403511 0 0 0 0 -330.87325498601422 515.71976403439476 0 515.71976403439476 -2385.3938554342967 0 0 0 0 -429.55967364035314 545.57046067644114 0 545.57046067644114 -1611.8227636291267 0 0 0 0 -283.29489577835193 -494.45748084607112 0 -494.45748084607112 -233.80527275980421 0 0 0 0 -120.00157984858379 -827.65771773554297 0 -827.65771773554297 -1349.5905601173117 0 0 0 0 1676.2252354360826 1364.6511410596286 0 1364.6511410596286 1675.141224189676 0 0 0 0 1120.2082993888762 558.74764967599913 0 558.74764967599913 13.944752615891048 0 0 0 0 -4.1359984470597624 16.643489371910807 0 16.643489371910807 -21.749592909124942 0 0 0 0 1865.0945571473421 1475.481860605003 0 1475.481860605003 1148.3431625263765 0 0 0 0 2389.3415952252981 100.6118257641574 0 100.6118257641574 -957.2605007008533 0 0 0 0 4699.4789901597833 2156.202238967322 0 2156.202238967322 -601.61436033493374 0 0 0 0 1206.1311538225709 2739.8828323335838 0 2739.8828323335838 2957.9524205303969 0 0 0 0 3702.6901270588278 3231.7305959745572 0 3231.7305959745572 445.31519436848612 0 0 0 0 -192.14543685647368 -300.01498009501665 0 -300.01498009501665 -219.79328927144888 0 0 0 0 -198.21203531296487 -270.37767207011439 0 -270.37767207011439 -357.2881828692698 0 0 0 0 2.194293488675612 346.98704181252106 0 346.98704181252106 387.14983106141881 0 0 0 0 -6.0372761790279981 9.9200480469065226 0 9.9200480469065226 -7.3482287330609779 0 0 0 0 1398.5786647374043 2151.4664363585907 0 2151.4664363585907 2091.7440077862993 0 0 0 0 1727.3035653942497 2077.3100358759984 0 2077.3100358759984 2105.8449229187609 0 0 0 0 1338.504649697541 2394.2429454624435 0 2394.2429454624435 -571.7028744584095 0 0 0 0 1644.8297628813525 1319.1992895967414 0 1319.1992895967414 4668.2423103986366 0 0 0 0 1317.8451870739227 2678.4439408455 0 2678.4439408455 1936.0484589224798 0 0 0 0 1730.2275378250633 2271.0621034316137 0 2271.0621034316137 10.957164322360768 0 0 0 0 886.94571552131674 635.20482664195151 0 635.20482664195151 -1204.4874431671815 0 0 0 0 1775.952265552507 1220.5765193433472 0 1220.5765193433472 -66.326903416731511 0 0 0 0 1327.7949065867797 1662.4645759685918 0 1662.4645759685918 688.42807307206385 0 0 0 0 2569.8835162142941 2411.5994325153415 0 2411.5994325153415 1115.7952228127397 0 0 0 0 2668.5829546993336 1750.5471964559911 0 1750.5471964559911 595.51751933187188 0 0 0 0 2170.1988169976103 1600.8796174538584 0 1600.8796174538584 542.86051713289635 0 0 0 0 1694.948327565784 1615.2354155371067 0 1615.2354155371067 912.61676469500526 0 0 0 0 1268.5171927469637 1151.5348887402142 0 1151.5348887402142 805.18347688560243 0 0 0 0 1895.7028773579223 1338.5505535218326 0 1338.5505535218326 709.02097643801244 0 0 0 0 947.4077235612931 844.57249165367102 0 844.57249165367102 797.90482488738962 0 0 0 0 87.061701269164587 476.39910232491047 0 476.39910232491047 495.68902407090354 0 0 0 0 88.379748005361762 462.35824725440034 0 462.35824725440034 605.01285115986684 0 0 0 0 551.16260879317997 557.35459245445236 0 557.35459245445236 -41.985425945866155 0 0 0 0 1321.6973354688071 930.16825927320042 0 930.16825927320042 369.60904851743544 0 0 0 0 545.95066657513962 693.25307035908918 0 693.25307035908918 448.84980830342829 0 0 0 0 15.354926790780155 97.736212762443756 0 97.736212762443756 -19.825558313139481 0 0 0 0 19.811355846588341 47.88950628604033 0 47.88950628604033 -5.8803189873579527 0 0 0 0 -401.11355882848875 -37.944215074763633 0 -37.944215074763633 -62.208640564465895 0 0 0 0 24.15771672099072 78.794849299149064 0 78.794849299149064 -35.127040151273832 0 0 0 0 -2078.696179919425 576.80484493496624 0 576.80484493496624 -57.909559966897007 0 0 0 0 3781.5021642361826 1611.6198247797001 0 1611.6198247797001 458.95011351987341 0 0 0 0 3.1859118752480668 16.681760377960813 0 16.681760377960813 -5.7590567149505887 0 0 0 0 2238.3791638370894 1208.3244490519573 0 1208.3244490519573 578.05141636188091 0 0 0 0 2073.5370058871267 2002.9521732013709 0 2002.9521732013709 2019.9016624654178 0 0 0 0 -3.4101178264115504 34.793722175572775 0 34.793722175572775 -40.900481664552728 0 0 0 0 1849.6599167441309 1356.6701498518523 0 1356.6701498518523 860.46526252889453 0 0 0 0 1828.7264100355096 1574.0180895360099 0 1574.0180895360099 964.07930659041449 0 0 0 0 2205.5692323324329 1469.0010554389155 0 1469.0010554389155 897.02976658160333 0 0 0 0 -21.881643448825344 11.769240084351622 0 11.769240084351622 50.500827200790809 0 0 0 0 51.917065612200531 124.23875786123972 0 124.23875786123972 -34.508605371309386 0 0 0 0 -8.3632509763545499 21.869524505871762 0 21.869524505871762 -31.046718732967605 0 0 0 0 1906.3563432388182 1765.1170374381254 0 1765.1170374381254 1505.8790242633258 0 0 0 0 4.4301807968367939 8.0757513580501836 0 8.0757513580501836 -71.898012488822133 0 0 0 0 -10.833619823645762 19.332748341184541 0 19.332748341184541 -37.394741434518309 0 0 0 0 -38.35724057337211 -85.312709227546293 0 -85.312709227546293 -335.671763471335 0 0 0 0 -12.86973090621359 13.697875409730841 0 13.697875409730841 -203.83192837162642 0 0 0 0 -5.5621026231972621 19.556470990081507 0 19.556470990081507 -24.931454322171064 0 0 0 0 116.65741553622138 -46.401848221534237 0 -46.401848221534237 24.200536170683336 0 0 0 0 -7.2480504262493923 -196.39634270694296 0 -196.39634270694296 -395.71368115150108 0 0 0 0 31.126016235124553 -141.10234564366692 0 -141.10234564366692 -392.08548440263507 0 0 0 0 19.667661332561693 -137.10042193901427 0 -137.10042193901427 -368.30779094800528 0 0 0 0 142.09648696570366 -55.56578909322343 0 -55.56578909322343 -364.28713367592354 0 0 0 0 68.071245164843276 -11.012078099703103 0 -11.012078099703103 -325.67717187389644 0 0 0 0 -56.579699673631694 61.564545247367278 0 61.564545247367278 -204.79700828135537 0 0 0 0 81.072847795348935 18.516758810749252 0 18.516758810749252 -329.7773357367696 0 0 0 0 -9.8452357969275255 -9.7708101209411495 0 -9.7708101209411495 -8.303292797803266 0 0 0 0 -545.63084754388547 247.49010024862946 0 247.49010024862946 -365.43380096412204 0 0 0 0 -146.93308130250807 743.99915922460059 0 743.99915922460059 -1050.0707112247328 0 0 0 0 -540.23346132785082 425.48705463388433 0 425.48705463388433 -371.39602725570114 0 0 0 0 -36.553951541285642 84.735632398037069 0 84.735632398037069 -337.36002427435596 0 0 0 0 -623.45995182141633 571.49811666722871 0 571.49811666722871 -507.46999978272288 0 0 0 0 -15.33869626928157 -18.904932634574763 0 -18.904932634574763 -42.899071002672528 0 0 0 0 -350.0876337431182 538.22035965141549 0 538.22035965141549 -558.45215824088882 0 0 0 0 -536.88379607135903 614.33999141610502 0 614.33999141610502 -598.11797807719631 0 0 0 0 -503.68905673826521 502.90726730195547 0 502.90726730195547 -530.64177613549759 0 0 0 0 -996.20719635921705 1131.9603195501186 0 1131.9603195501186 -627.00029708755028 0 0 0 0 -1514.9026481851179 1623.2049763491668 0 1623.2049763491668 -758.39069958561595 0 0 0 0 -1.9751846616359217 76.133687688281384 0 76.133687688281384 -74.33113582940544 0 0 0 0 1.7433489122631727 162.78029347699703 0 162.78029347699703 -36.266663324218825 0 0 0 0 61.338756007957272 121.66127242567018 0 121.66127242567018 -11.189022541035229 0 0 0 0 44.653345974243251 110.33462280844827 0 110.33462280844827 47.526545721914239 0 0 0 0 -247.92685207786781 439.64891231209003 0 439.64891231209003 -436.76869476394495 0 0 0 0 -290.43897572270362 527.52947424484591 0 527.52947424484591 -572.90706726704593 0 0 0 0 31.160745115752547 86.21666107413138 0 86.21666107413138 80.262735118866757 0 0 0 0 -210.20339108924964 583.23220791339918 0 583.23220791339918 -528.35968398357909 0 0 0 0 -192.81480715413636 630.61925120251908 0 630.61925120251908 -698.29862429117929 0 0 0 0 -153.25857970473589 646.41500608304705 0 646.41500608304705 -703.93057738363495 0 0 0 0 78.618889645920717 290.11888308560447 0 290.11888308560447 -660.96207740433965 0 0 0 0 -270.82721978316113 472.91765042078987 0 472.91765042078987 -696.14150363802764 0 0 0 0 -463.39614789445477 20.911417781639102 0 20.911417781639102 -595.22850557113634 0 0 0 0 100.07629550678757 -368.47424603806849 0 -368.47424603806849 -335.41462035641598 0 0 0 0 520.9448997045547 106.81140269017487 0 106.81140269017487 -1086.8784040899554 0 0 0 0 251.61689646379091 526.51870395596598 0 526.51870395596598 -1735.7219056422218 0 0 0 0 -30.217536643474887 531.39225770766461 0 531.39225770766461 -1194.3611329086925 0 0 0 0 160.39226773119844 883.39225383384178 0 883.39225383384178 1445.1514057976347 0 0 0 0 -12.436628352808043 11.504744403475705 0 11.504744403475705 -6.8299560260400725 0 0 0 0 -30.568602859677071 21.853622001441288 0 21.853622001441288 -10.82656108987797 0 0 0 0 -59.38828084639681 232.75656062439521 0 232.75656062439521 985.15562940347081 0 0 0 0 50.352304088999517 227.90772112838749 0 227.90772112838749 856.52852435736713 0 0 0 0 -23.247467351851867 17.812478122831301 0 17.812478122831301 -10.213450408084299 0 0 0 0 79.974015802086797 186.63758534543013 0 186.63758534543013 864.80869320994589 0 0 0 0 -41.11106922934195 23.858145071438152 0 23.858145071438152 -9.8598301383225504 0 0 0 0 -38.230140522602596 296.5719329769272 0 296.5719329769272 1114.4259901800942 0 0 0 0 0.55089933381532319 339.71756847004508 0 339.71756847004508 964.54961568944964 0 0 0 0 -1104.1643503310916 1385.5312959046569 0 1385.5312959046569 257.90755046342747 0 0 0 0 752.59022052423097 -517.62256896560393 0 -517.62256896560393 -815.22708146672085 0 0 0 0 167.40327644732588 119.49221441543523 0 119.49221441543523 -192.05078351749398 0 0 0 0 -51.721070019266335 -119.76462357319906 0 -119.76462357319906 884.54380147093616 0 0 0 0 -423.15857016485825 634.73757137269786 0 634.73757137269786 1367.1068667352611 0 0 0 0 -53.002932190461649 28.115644742571718 0 28.115644742571718 -10.957000474993556 0 0 0 0 270.30316146675614 205.68201460206546 0 205.68201460206546 762.40821873865934 0 0 0 0 20.536745290097315 148.61616302346374 0 148.61616302346374 1063.532697052864 0 0 0 0 -6.6307809072381474 7.6199482154891882 0 7.6199482154891882 -6.947009038832654 0 0 0 0 -2.5359734463745554 448.21838795601661 0 448.21838795601661 613.73925602913368 0 0 0 0 -893.99563327907526 1104.9392566200149 0 1104.9392566200149 -244.79050109579475 0 0 0 0 357.20352300380546 41.773675297972659 0 41.773675297972659 536.59599274822176 0 0 0 0 -148.26965276824194 -86.708789403082847 0 -86.708789403082847 187.12002824542651 0 0 0 0 -324.63916623445039 1017.2698300568163 0 1017.2698300568163 -1228.55425925503 0 0 0 0 420.88355960859917 867.33734609634848 0 867.33734609634848 -1336.8589138008465 0 0 0 0 485.66012357361069 37.200594571957367 0 37.200594571957367 -233.22454137232853 0 0 0 0 190.18335952957568 836.76169791094617 0 836.76169791094617 -1158.0591949129339 0 0 0 0 240.45412793674041 217.0365214542926 0 217.0365214542926 -813.15824023942696 0 0 0 0 -121.6404569085571 614.25648080557994 0 614.25648080557994 -34.409300197432458 0 0 0 0 501.14590527422843 349.67830941903958 0 349.67830941903958 76.015412875465699 0 0 0 0 168.18404673972691 977.45413637604543 0 977.45413637604543 830.92004386709596 0 0 0 0 -602.36052327725338 248.12119274153156 0 248.12119274153156 364.38141337742127 0 0 0 0 -284.77432430163026 49.857994896907257 0 49.857994896907257 -265.15635461907186 0 0 0 0 -563.13924842732376 317.23695947626766 0 317.23695947626766 257.11480122608918 0 0 0 0 -368.38454728444049 293.12172161073067 0 293.12172161073067 162.8871482722252 0 0 0 0 110.05138807816547 274.156053572573 0 274.156053572573 141.26508006315453 0 0 0 0 -533.44871600868646 391.65914493169566 0 391.65914493169566 -615.17558356750305 0 0 0 0 41.899501356718247 251.17865485678021 0 251.17865485678021 -601.35966789238955 0 0 0 0 -395.46884366685708 490.60059924243302 0 490.60059924243302 -616.08755980765272 0 0 0 0 -460.09546848868195 562.8036680587993 0 562.8036680587993 -229.77258357813116 0 0 0 0 -493.9873427814382 498.14256681183633 0 498.14256681183633 -26.923159931360715 0 0 0 0 -421.40031101474597 560.72112053552701 0 560.72112053552701 24.675205078634463 0 0 0 0 -577.34530311099661 297.74524548415502 0 297.74524548415502 -18.714673886546734 0 0 0 0 -747.20770375393113 452.71736066951189 0 452.71736066951189 473.29317135070596 0 0 0 0 -564.82724773598602 474.87682278210195 0 474.87682278210195 337.11609617355134 0 0 0 0 -753.63768060143047 506.85509164587711 0 506.85509164587711 366.56481821624038 0 0 0 0 -559.26888812259676 436.04636006672808 0 436.04636006672808 257.20376101863076 0 0 0 0 -360.54670445411466 502.64994689314881 0 502.64994689314881 273.26706726583507 0 0 0 0 -573.41862572096579 580.99206496946317 0 580.99206496946317 300.45942411501528 0 0 0 0 -81.892045845790562 224.5095373275758 0 224.5095373275758 364.03573975225299 0 0 0 0 -192.02167477249168 573.05279527954917 0 573.05279527954917 -7.639286225043179 0 0 0 0 95.350901992496802 185.78188129873888 0 185.78188129873888 216.19175954629463 0 0 0 0 -804.90965105002397 677.41460849833493 0 677.41460849833493 595.77142198986439 0 0 0 0 -573.63371753587455 602.92344894098528 0 602.92344894098528 408.21673059504974 0 0 0 0 -834.08062789183168 789.60628180247295 0 789.60628180247295 274.42643293981746 0 0 0 0 -1258.0190792562498 232.3289397435492 0 232.3289397435492 766.17132050327609 0 0 0 0 -219.40470604234724 -59.159389122720313 0 -59.159389122720313 698.65531226038729 0 0 0 0 -882.62738060954143 131.83668982473137 0 131.83668982473137 850.43302111820958 0 0 0 0 -258.11732389958343 150.80811310298577 0 150.80811310298577 343.54501117520704 0 0 0 0 -952.17423441990104 535.91737617846047 0 535.91737617846047 496.11585264842142 0 0 0 0 524.1460837291088 361.77198137640517 0 361.77198137640517 424.77525125620741 0 0 0 0 194.54561434184143 923.66314698572569 0 923.66314698572569 1110.7181280814443 0 0 0 0 -320.59230669324097 278.41556239238616 0 278.41556239238616 734.0162572827976 0 0 0 0 407.01724325123359 -555.66877212562031 0 -555.66877212562031 1214.0723526026713 0 0 0 0 -526.20272276079049 900.95685978223992 0 900.95685978223992 -1127.182258925528 0 0 0 0 490.06829184337312 1976.0691418508868 0 1976.0691418508868 -2858.6068689678359 0 0 0 0 -437.39160004255245 558.68386944209578 0 558.68386944209578 -1265.292105201559 0 0 0 0 201.55205706882407 1796.7948755067337 0 1796.7948755067337 -1184.8535323038668 0 0 0 0 -13.928621132030912 11.673372564523646 0 11.673372564523646 -7.5738127559841928 0 0 0 0 -110.41215315961745 970.25935832570576 0 970.25935832570576 -780.07889391201388 0 0 0 0 70.179449570016004 1024.514173058411 0 1024.514173058411 -1176.4073552649443 0 0 0 0 -402.56495148552494 -362.9245176321765 0 -362.9245176321765 588.0694709023519 0 0 0 0 656.26280019704427 768.46408452572905 0 768.46408452572905 -737.18063556029165 0 0 0 0 17.770449884447999 45.501541291882148 0 45.501541291882148 31.399717682529854 0 0 0 0 4.846963910561584 17.152444444440391 0 17.152444444440391 11.638102606807649 0 0 0 0 -899.5362926057569 697.09312396411497 0 697.09312396411497 -349.41561249584629 0 0 0 0 -187.82955389289418 779.09324592177654 0 779.09324592177654 -1094.9416392102157 0 0 0 0 33.147439098829636 134.87216555735358 0 134.87216555735358 -53.343184173056216 0 0 0 0 11.332086156217599 81.932255334163727 0 81.932255334163727 66.16843708712068 0 0 0 0 -307.02721788352028 162.97054654832141 0 162.97054654832141 7.5982973039426724 0 0 0 0 44.192834734072676 168.35336120154898 0 168.35336120154898 46.685792540665716 0 0 0 0 297.65841452328459 99.740985514863496 0 99.740985514863496 -155.73323174381949 0 0 0 0 -7.8704341991370086 46.123144351249778 0 46.123144351249778 -39.124948366064899 0 0 0 0 -10.719850665420893 19.35294212146421 0 19.35294212146421 -37.725972859838066 0 0 0 0 19.753028695515241 89.136971008923865 0 89.136971008923865 29.496199632963908 0 0 0 0 17.194399982719915 105.14821149431009 0 105.14821149431009 12.442111089912942 0 0 0 0 -12.349194527043437 116.2557431927662 0 116.2557431927662 27.305624933185754 0 0 0 0 -296.89678886064212 204.34864864522024 0 204.34864864522024 -408.37672962449506 0 0 0 0 -339.59186885377858 120.87504563895345 0 120.87504563895345 72.555165243418742 0 0 0 0 -370.44869121607917 701.88887380795131 0 701.88887380795131 -285.95689040222351 0 0 0 0 -1175.5194033050211 678.57493995744153 0 678.57493995744153 -252.49601743653693 0 0 0 0 -48.07772079014012 355.18447044239997 0 355.18447044239997 -423.95162344043274 0 0 0 0 -171.60858696451032 60.273475121868614 0 60.273475121868614 0.92438774448055483 0 0 0 0 -92.171746552339755 -160.19828765277271 0 -160.19828765277271 71.218115018493336 0 0 0 0 -1791.6020543192062 1473.162691214442 0 1473.162691214442 -45.84934068799339 0 0 0 0 396.07797229237622 635.11388692338733 0 635.11388692338733 -1651.8014176908946 0 0 0 0 651.32464268811236 -183.89750699461092 0 -183.89750699461092 -147.01879728982021 0 0 0 0 -1908.8982794014883 437.25403185983487 0 437.25403185983487 383.08991402365427 0 0 0 0 0.076003869916462463 29.697214057281684 0 29.697214057281684 28.205320594690029 0 0 0 0 186.86854709258478 -372.89862669697322 0 -372.89862669697322 328.49170917625452 0 0 0 0 -116.24748992835521 726.00267083633844 0 726.00267083633844 -809.43109794210613 0 0 0 0 -108.6485438496602 118.23022730229968 0 118.23022730229968 439.00117458673049 0 0 0 0 256.94626452447847 -52.812458249696647 0 -52.812458249696647 362.15801711327367 0 0 0 0 -0.78578577804131555 0.98406367370044379 0 0.98406367370044379 11.081277642860506 0 0 0 0 177.38469567275024 -112.05316042237973 0 -112.05316042237973 512.60699204970297 0 0 0 0 -19.918169903815453 16.498208067043855 0 16.498208067043855 -1.0481263170553632 0 0 0 0 -2.7889811203203863 73.984317033124171 0 73.984317033124171 12.399087614678137 0 0 0 0 -160.44544585188771 505.24244601567307 0 505.24244601567307 -720.7861614430476 0 0 0 0 279.27271150534943 451.75364879173503 0 451.75364879173503 -993.50813113187178 0 0 0 0 183.81869751369231 537.49514339618327 0 537.49514339618327 -1040.316858825232 0 0 0 0 58.18703127282788 953.81475428341219 0 953.81475428341219 -2418.7619401317206 0 0 0 0 -5.9275378180475968 5.6935166260938814 0 5.6935166260938814 -2.5030839690015867 0 0 0 0 275.53959737675905 270.4323960519323 0 270.4323960519323 -537.66829074011548 0 0 0 0 180.45648455100309 861.59087435615038 0 861.59087435615038 -446.76503183251771 0 0 0 0 -0.45462839541141875 1148.8825183638364 0 1148.8825183638364 -1073.3818390148772 0 0 0 0 -0.018893050131737255 74.702830185315179 0 74.702830185315179 69.68794331996105 0 0 0 0 -7.8331292017126088 3.8940153474486809 0 3.8940153474486809 -5.3171690078529039 0 0 0 0 344.012696935024 101.01604332894021 0 101.01604332894021 -2690.6737280258858 0 0 0 0 -2.7889811203203863 4.8595956564513472 0 4.8595956564513472 1.3930946127420611 0 0 0 0 0.0059059735612162958 73.453274349612499 0 73.453274349612499 -56.160870756397344 0 0 0 0 6.2881524453287625 2.8984283797462069 0 2.8984283797462069 4.1867926881840205 0 0 0 0 -312.1279683837638 150.71613681007511 0 150.71613681007511 1883.0187014282901 0 0 0 0 0.87534998473645087 933.82481271861491 0 933.82481271861491 1849.9243722501997 0 0 0 0 0.14588100856389019 -1.3917303739430054 0 -1.3917303739430054 2.6101109847578279 0 0 0 0 161.99822945013875 -728.48671939992346 0 -728.48671939992346 1570.670637253399 0 0 0 0 -0.34326591221099534 -0.044427984213129434 0 -0.044427984213129434 1.3454837253672167 0 0 0 0 65.321206380153853 -88.799083990788859 0 -88.799083990788859 846.59576768498664 0 0 0 0 15.464228810624263 15.783076574149874 0 15.783076574149874 7.0081827724459629 0 0 0 0 43.217487186775543 -105.09604752486484 0 -105.09604752486484 834.81864249092541 0 0 0 0 22.635824623866938 -220.54997023983378 0 -220.54997023983378 817.07852676295443 0 0 0 0 -273.12819578527706 212.78640052775881 0 212.78640052775881 531.9749674218001 0 0 0 0 252.61975788384734 -92.808802665729672 0 -92.808802665729672 472.91951155525749 0 0 0 0 -222.13392778382695 252.98707924081009 0 252.98707924081009 334.70836363692433 0 0 0 0 -380.65195061318809 475.39915674515578 0 475.39915674515578 287.85581245311278 0 0 0 0 -70.775282690636232 480.88927407588926 0 480.88927407588926 435.56412667319091 0 0 0 0 -297.89781939052045 328.25947794176682 0 328.25947794176682 681.0952903960233 0 0 0 0 -192.23305517503468 678.65695585329559 0 678.65695585329559 -47.14750770361934 0 0 0 0 -274.05588834630908 351.00118979500803 0 351.00118979500803 362.76147034479072 0 0 0 0 -392.63856212752398 388.85745283353799 0 388.85745283353799 -37.308552748178045 0 0 0 0 -326.9026411169325 566.80091059800361 0 566.80091059800361 264.65211485986811 0 0 0 0 -345.12946784617088 639.23124537861077 0 639.23124537861077 -151.19576736602176 0 0 0 0 -319.85175428997627 408.60114739944208 0 408.60114739944208 -349.63913072480136 0 0 0 0 44.871431576873874 638.01545478598746 0 638.01545478598746 -414.52880509642637 0 0 0 0 -77.434223236981779 338.27852396446178 0 338.27852396446178 83.055822316251579 0 0 0 0 0.52457571064785868 708.51607989627951 0 708.51607989627951 554.35038619141778 0 0 0 0 -269.48853157709163 503.81580211283153 0 503.81580211283153 497.81182638902828 0 0 0 0 101.94220021583533 172.58423708225837 0 172.58423708225837 412.86489441941376 0 0 0 0 1.3592029291758081 1001.9064912259091 0 1001.9064912259091 1515.7254415022035 0 0 0 0 23.669671103867586 58.406537303388177 0 58.406537303388177 -2.8467811643786263 0 0 0 0 -25.685566320071075 21.736466902094072 0 21.736466902094072 -14.466935895986552 0 0 0 0 28.629907199328557 7.7509212285994238 0 7.7509212285994238 0.58951439823117369 0 0 0 0 32.420338482836087 47.704530517909006 0 47.704530517909006 -31.098366588077624 0 0 0 0 0.41584749891177353 38.280804165508641 0 38.280804165508641 -53.392875596315235 0 0 0 0 57.312872913564206 46.245562427968252 0 46.245562427968252 -50.66570934608535 0 0 0 0 73.231686211787746 79.944331321305071 0 79.944331321305071 -61.359281809844106 0 0 0 0 -67.440386530244723 -33.418413839943241 0 -33.418413839943241 -10.025816216904786 0 0 0 0 -16.384840568111684 22.236194963872663 0 22.236194963872663 -33.599290213970704 0 0 0 0 570.27355094734958 336.34546436261371 0 336.34546436261371 -376.53302376340434 0 0 0 0 5.6041033959627384 -12.649963608484541 0 -12.649963608484541 -29.663563149457332 0 0 0 0 246.38470548948681 57.689840994069527 0 57.689840994069527 -125.10949812404579 0 0 0 0 41.356784572468314 71.288729286006856 0 71.288729286006856 30.550506837695139 0 0 0 0 123.8916682642157 199.64786433440895 0 199.64786433440895 60.032784510771307 0 0 0 0 -44.875603716852595 42.079929647108671 0 42.079929647108671 -33.780114619593064 0 0 0 0 -83.215548083251633 -42.55832700555402 0 -42.55832700555402 159.1640647590466 0 0 0 0 472.72501012430803 1527.8754330791185 0 1527.8754330791185 -400.48279156382341 0 0 0 0 -1417.4932626614464 2204.8433944553253 0 2204.8433944553253 -996.28518654235813 0 0 0 0 -53.573151838052809 52.093254850065804 0 52.093254850065804 -44.198332441201529 0 0 0 0 657.17954003838349 738.77215512126077 0 738.77215512126077 -218.72964584583679 0 0 0 0 115.07815770743764 1124.3377459253097 0 1124.3377459253097 974.02807016816223 0 0 0 0 577.60390456236928 891.45016943856535 0 891.45016943856535 27.633155244118825 0 0 0 0 735.86039632228494 1470.6960463584401 0 1470.6960463584401 1014.6394152538996 0 0 0 0 -0.47701726703962777 1181.5914854359289 0 1181.5914854359289 806.46670573202209 0 0 0 0 403.90120946234492 676.79395836675758 0 676.79395836675758 1234.265626358705 0 0 0 0 0.71621337549004238 1428.7021088411057 0 1428.7021088411057 -683.30778393625951 0 0 0 0 24.938478858181043 1072.4381511997854 0 1072.4381511997854 11.575800625978445 0 0 0 0 579.4152267075624 1196.6554399509005 0 1196.6554399509005 -936.87332605455595 0 0 0 0 171.29603104857961 1418.4275539339214 0 1418.4275539339214 -1028.9319396325227 0 0 0 0 263.49291093484499 1011.2581569464237 0 1011.2581569464237 -1133.6717352946798 0 0 0 0 -0.6562173392349151 1562.3006321489081 0 1562.3006321489081 -1680.6152239845032 0 0 0 0 475.00217663035437 556.1874959065608 0 556.1874959065608 -3430.1467260437312 0 0 0 0 372.09238288583583 708.69993788614647 0 708.69993788614647 -1060.4361727935539 0 0 0 0 0.038394688448626965 998.75411806486863 0 998.75411806486863 789.03887457678502 0 0 0 0 -3.8015197464883954 5.3991645279718057 0 5.3991645279718057 -4.4309566484665126 0 0 0 0 -30.828754511108855 497.60510484812585 0 497.60510484812585 86.540229734986497 0 0 0 0 -1200.1666217412567 1768.669755768904 0 1768.669755768904 1467.3768336775283 0 0 0 0 -8.9998513656525461 12.288940350116718 0 12.288940350116718 -6.6171023325070166 0 0 0 0 419.0297523461486 1074.1161047728601 0 1074.1161047728601 -417.19153917662697 0 0 0 0 508.40208444141899 977.46810337046554 0 977.46810337046554 -1029.3979191985418 0 0 0 0 650.01842943458905 942.51723984065575 0 942.51723984065575 -1045.0121434880421 0 0 0 0 -54.281046301308379 1240.3620397527993 0 1240.3620397527993 -963.52540107738605 0 0 0 0 558.37717734866601 1158.8635674893594 0 1158.8635674893594 -1543.2724288673271 0 0 0 0 260.28251217678189 1361.0535978551416 0 1361.0535978551416 -392.83497894311404 0 0 0 0 224.78454065972619 1174.5123303267501 0 1174.5123303267501 -968.43528309219255 0 0 0 0 -1147.550738799735 1195.8256798422008 0 1195.8256798422008 -326.14802903430973 0 0 0 0 -1080.6918791799399 1497.9839174543959 0 1497.9839174543959 -357.01354532866389 0 0 0 0 -55.181497490122894 51.083775979526393 0 51.083775979526393 -43.967079102791757 0 0 0 0 -2020.0529749221241 1044.9361618447492 0 1044.9361618447492 -352.12893138845538 0 0 0 0 -1126.0782268015319 1812.8307385236803 0 1812.8307385236803 -1151.6846632512807 0 0 0 0 -714.26577663863281 586.45960555780766 0 586.45960555780766 -1268.3697928921247 0 0 0 0 -943.53204417121015 1625.1529383398083 0 1625.1529383398083 -1227.941398310943 0 0 0 0 -6.5669401532174163 9.220287963403166 0 9.220287963403166 -12.004123450842826 0 0 0 0 477.43640898970625 281.23709905293435 0 281.23709905293435 -770.18167903587164 0 0 0 0 -3266.9573420050874 1079.5444862083241 0 1079.5444862083241 70.045719129069766 0 0 0 0 -644.24730138009181 534.69357720480366 0 534.69357720480366 171.33884179782763 0 0 0 0 -1279.4768515505275 1265.6414769032672 0 1265.6414769032672 -623.21921267279231 0 0 0 0 -79.957268210971961 45.387820116549847 0 45.387820116549847 85.128426811276881 0 0 0 0 178.35948948213627 216.22921790721557 0 216.22921790721557 88.115619580254133 0 0 0 0 85.862826413736911 179.42901693469321 0 179.42901693469321 -511.49195403101476 0 0 0 0 93.613962878418533 252.09153518754783 0 252.09153518754783 98.932155667476763 0 0 0 0 -139.03450011942215 398.50855407840282 0 398.50855407840282 386.54796674568934 0 0 0 0 -147.12202409852034 924.24872417766528 0 924.24872417766528 -703.17535514556948 0 0 0 0 -673.71962272754899 744.2842023115154 0 744.2842023115154 264.59819457842968 0 0 0 0 -53.268417389587796 51.901212399235902 0 51.901212399235902 -45.285415477629073 0 0 0 0 -847.7160146136157 1587.8315316050575 0 1587.8315316050575 -373.36900541522846 0 0 0 0 -358.16482593877299 1131.8230998307736 0 1131.8230998307736 -304.53623553778743 0 0 0 0 -649.66372022290307 1657.4142342693594 0 1657.4142342693594 -225.54743288665486 0 0 0 0 -563.74210915320145 1758.7274723358496 0 1758.7274723358496 -681.12899256320452 0 0 0 0 -690.79616014166095 1499.5616089934774 0 1499.5616089934774 -702.62066318451616 0 0 0 0 -427.03497102130859 1651.615672013173 0 1651.615672013173 -977.55230455199489 0 0 0 0 -391.8898279623354 1754.2801789238583 0 1754.2801789238583 -704.37429923017044 0 0 0 0 -556.23255859049095 1506.186960528612 0 1506.186960528612 -820.94589709469801 0 0 0 0 -503.88176395730989 1604.5166764657624 0 1604.5166764657624 -710.11656316995141 0 0 0 0 -949.17380467278417 1289.0008268688325 0 1289.0008268688325 -713.3364203881647 0 0 0 0 -1407.9802237218028 1223.7837406360195 0 1223.7837406360195 -351.13563378300751 0 0 0 0 -734.69232164360437 1519.4883150403712 0 1519.4883150403712 -467.91232532622234 0 0 0 0 -1349.7053898505001 994.37517914524415 0 994.37517914524415 -374.39271835675754 0 0 0 0 -1208.8274062162236 848.73113183775422 0 848.73113183775422 -465.66720692391391 0 0 0 0 -1005.8783559358599 490.51161283452711 0 490.51161283452711 -2304.6701052069257 0 0 0 0 -6.1217271139510672 8.391682738263853 0 8.391682738263853 -12.425391604511418 0 0 0 0 -2276.5297037337587 827.67001284864818 0 827.67001284864818 58.77063199414988 0 0 0 0 -1959.3565867502948 1915.7883094041699 0 1915.7883094041699 -905.18905865662964 0 0 0 0 -1285.1640472629224 1228.7796529594416 0 1228.7796529594416 -223.36634331871755 0 0 0 0 -971.39052159085986 1124.7979220675261 0 1124.7979220675261 -1090.9395125382871 0 0 0 0 -1209.6327147202974 1475.5100746299504 0 1475.5100746299504 -789.39439114504057 0 0 0 0 -820.26717228419875 1182.3978855569949 0 1182.3978855569949 -582.65056242943683 0 0 0 0 -1097.7167442290711 989.65535454450696 0 989.65535454450696 -699.16943552036537 0 0 0 0 -1100.3281478227145 822.50731843886024 0 822.50731843886024 -165.57604012396769 0 0 0 0 -835.74336530712026 -13.701218749731197 0 -13.701218749731197 453.75070304724795 0 0 0 0 -1398.8923963420966 1066.2990131895567 0 1066.2990131895567 -358.8346779623389 0 0 0 0 -103.21229291318741 218.45831867709785 0 218.45831867709785 -884.71693791837606 0 0 0 0 -7.3465621568646498 2.1338700820309455 0 2.1338700820309455 0.48304582412799846 0 0 0 0 -504.39099592574712 345.40159551392526 0 345.40159551392526 86.60382348902931 0 0 0 0 -328.71104431479762 858.78800233286893 0 858.78800233286893 -871.67085802010115 0 0 0 0 -437.89773311083263 1010.1590173190561 0 1010.1590173190561 -753.76811669508606 0 0 0 0 -185.09579175715044 1380.5096363793782 0 1380.5096363793782 -1018.6024752469893 0 0 0 0 187.55389979976462 1194.6570769009195 0 1194.6570769009195 -926.20647084992379 0 0 0 0 55.824896441656165 1549.4259713800493 0 1549.4259713800493 -1183.3823739464315 0 0 0 0 -37.938190118489729 1541.2898029260505 0 1541.2898029260505 -991.82038604933769 0 0 0 0 -318.78257416788256 1704.6959636001266 0 1704.6959636001266 -1131.8553324460227 0 0 0 0 -195.81131407365319 1729.9673500823737 0 1729.9673500823737 -1211.1859695456224 0 0 0 0 -140.39651133770531 1609.0480007276601 0 1609.0480007276601 -981.749062122326 0 0 0 0 -326.99319829839806 1424.8385705671681 0 1424.8385705671681 -963.85165438615513 0 0 0 0 -674.4377022522167 1454.0763466248973 0 1454.0763466248973 -841.09107035442139 0 0 0 0 334.89382246221066 2880.4955401795378 0 2880.4955401795378 -983.10163574659418 0 0 0 0 -338.82727033141418 1669.578784002777 0 1669.578784002777 -1184.287404336239 0 0 0 0 -621.84128052911183 2111.97465394342 0 2111.97465394342 -1313.1778776628344 0 0 0 0 -334.57516029357794 1873.315394172896 0 1873.315394172896 -954.98764052834304 0 0 0 0 -340.27005850782734 1947.2768333066342 0 1947.2768333066342 -1503.5550296037545 0 0 0 0 -247.39094502416992 1763.2230734664918 0 1763.2230734664918 -1072.803691328867 0 0 0 0 -97.876076987959095 1799.8350674302201 0 1799.8350674302201 -1282.2680465688409 0 0 0 0 21.326792179905169 1676.5748412749854 0 1676.5748412749854 -1309.9533275192516 0 0 0 0 -479.95587407116545 1087.1714223211384 0 1087.1714223211384 -1989.7675286416306 0 0 0 0 -836.53747943051712 1429.5596124378862 0 1429.5596124378862 -2065.0621852452678 0 0 0 0 1.5351790195838078 11.90310887612597 0 11.90310887612597 8.6791615670098849 0 0 0 0 -1030.954162396647 1317.1486628586645 0 1317.1486628586645 -1297.540453805268 0 0 0 0 -197.7652862020615 116.5250238209651 0 116.5250238209651 -400.71573797398014 0 0 0 0 -203.49622368932614 1056.4154207607717 0 1056.4154207607717 361.41121071811358 0 0 0 0 2.8744888029770266 6.6046984479783077 0 6.6046984479783077 2.9720699805784534 0 0 0 0 619.39749795699208 1761.6106901883077 0 1761.6106901883077 -2163.2148462690966 0 0 0 0 1653.610811615923 866.71949118704651 0 866.71949118704651 289.98438999216523 0 0 0 0 256.36858482092521 574.44510126591922 0 574.44510126591922 264.34304298041388 0 0 0 0 -9.3779567818295675 15.877332306368473 0 15.877332306368473 -12.045515794362643 0 0 0 0 1148.3717370830636 1335.8442984025241 0 1335.8442984025241 661.30930525626172 0 0 0 0 171.29136885190383 985.08041612008856 0 985.08041612008856 900.56652936071623 0 0 0 0 162.31787487524707 230.04690938591011 0 230.04690938591011 901.34843245949378 0 0 0 0 -5.0589124776164454 8.9383177892231416 0 8.9383177892231416 -6.2529362412768137 0 0 0 0 -978.0580395795987 1504.9125950804737 0 1504.9125950804737 334.95551486256591 0 0 0 0 1642.401927466839 1601.5265301396357 0 1601.5265301396357 -664.62938188721273 0 0 0 0 -974.47029031546845 2174.5582277607828 0 2174.5582277607828 -655.61617993641994 0 0 0 0 -685.96022088636528 1491.5384969897859 0 1491.5384969897859 516.68925924727228 0 0 0 0 17.86641617747955 1129.3002123940823 0 1129.3002123940823 -140.2644383968327 0 0 0 0 256.78365840823244 496.26420874110408 0 496.26420874110408 269.9893382921 0 0 0 0 -350.09897110870952 1259.5189577525362 0 1259.5189577525362 152.73563225776888 0 0 0 0 251.50519412038898 643.42817359381945 0 643.42817359381945 628.36336487306107 0 0 0 0 1245.9696274866619 1167.9144205790199 0 1167.9144205790199 467.35449948738096 0 0 0 0 930.41010812389868 386.45295356097995 0 386.45295356097995 426.20215298952098 0 0 0 0 -54.206006727301315 50.255577911793225 0 50.255577911793225 -48.028021054802565 0 0 0 0 37.030323702223541 189.27752768028586 0 189.27752768028586 54.623013714823173 0 0 0 0 -43.711787490946278 60.359642007911333 0 60.359642007911333 -27.287317837028468 0 0 0 0 20.009834027492616 99.407121725726029 0 99.407121725726029 19.5039582019308 0 0 0 0 -100.19944750477953 334.35634810147167 0 334.35634810147167 2036.7915062328684 0 0 0 0 -2428.9840971932863 149.55249784572516 0 149.55249784572516 -1765.6106652153539 0 0 0 0 25.824439565812639 28.096163420105142 0 28.096163420105142 -18.335515454546311 0 0 0 0 -597.95024280567304 1198.119360111581 0 1198.119360111581 1512.0722402894753 0 0 0 0 93.563894178994815 346.29229694512469 0 346.29229694512469 557.50893838057527 0 0 0 0 700.16694737227226 831.72194104426308 0 831.72194104426308 575.92343117108021 0 0 0 0 114.47417794517241 1315.5645267266955 0 1315.5645267266955 366.77839406260318 0 0 0 0 -682.05437538908154 1042.2173529328938 0 1042.2173529328938 1430.323441365741 0 0 0 0 166.23847736632888 1088.6911890395422 0 1088.6911890395422 -33.611284188882564 0 0 0 0 -4.4909475181563607 7.805534779393227 0 7.805534779393227 -4.632296952648943 0 0 0 0 -736.63243456929922 995.03614043546258 0 995.03614043546258 713.50785619484668 0 0 0 0 1584.7597885898285 1277.2710516719235 0 1277.2710516719235 359.13783730770865 0 0 0 0 283.58771475530739 700.91467473743978 0 700.91467473743978 700.35387305253244 0 0 0 0 -200.08200854265306 940.08827349766216 0 940.08827349766216 417.07766426025228 0 0 0 0 482.45657832555298 601.11245074431645 0 601.11245074431645 179.40729163208744 0 0 0 0 812.24577702474198 954.67157591181603 0 954.67157591181603 176.21096451119229 0 0 0 0 -12.131503731790872 1604.1948825293002 0 1604.1948825293002 286.41728015262925 0 0 0 0 125.04031158475846 924.01102642710612 0 924.01102642710612 413.8618049203269 0 0 0 0 343.03606242360547 1488.4498866627619 0 1488.4498866627619 868.60814282712818 0 0 0 0 669.24044855759712 1434.724093673678 0 1434.724093673678 874.9037065985558 0 0 0 0 859.15872720270272 913.03848516552534 0 913.03848516552534 199.85339391621528 0 0 0 0 1259.6186617000822 700.81525162128492 0 700.81525162128492 147.82383046245377 0 0 0 0 1146.9390922644525 921.19695646791661 0 921.19695646791661 544.17844321090524 0 0 0 0 2011.8884422972915 1236.6604477225483 0 1236.6604477225483 514.18818844497628 0 0 0 0 1084.9818134292436 1180.5773858563989 0 1180.5773858563989 514.40143315348541 0 0 0 0 1344.2601343507849 688.97507602968108 0 688.97507602968108 754.72957786906045 0 0 0 0 1767.5281969579664 1214.8285233990173 0 1214.8285233990173 1032.1971731131998 0 0 0 0 1139.0796514446774 518.14847117650424 0 518.14847117650424 920.53850068911561 0 0 0 0 1592.1715833995768 1374.0998964856408 0 1374.0998964856408 1169.8753729646414 0 0 0 0 2281.3096963608259 468.74252069652721 0 468.74252069652721 2023.7771633159718 0 0 0 0 -157.94683710134996 1368.4591049070295 0 1368.4591049070295 3139.7659353414492 0 0 0 0 -194.90603586721863 499.25333472409784 0 499.25333472409784 1278.2313018935383 0 0 0 0 3758.7423603017669 2753.8975779316097 0 2753.8975779316097 660.28213558375137 0 0 0 0 791.99509897155804 -205.63666340021882 0 -205.63666340021882 -1542.8071951594902 0 0 0 0 -12.487795252549915 21.066132996898965 0 21.066132996898965 -4.389688687637431 0 0 0 0 3399.7727943042992 6346.442718923965 0 6346.442718923965 -3805.9454024903534 0 0 0 0 713.55403036720236 3334.6776520282147 0 3334.6776520282147 854.82851891527025 0 0 0 0 604.9740101818752 3522.8197325285873 0 3522.8197325285873 3501.3420306991029 0 0 0 0 -667.67807336611259 1660.269739597431 0 1660.269739597431 2441.9840410830802 0 0 0 0 964.66302877207636 1836.4821046542638 0 1836.4821046542638 1326.1203535176755 0 0 0 0 1551.3180410682398 2271.0436356911523 0 2271.0436356911523 1232.684634050951 0 0 0 0 265.90244733837608 331.16351649662101 0 331.16351649662101 603.5643036845504 0 0 0 0 961.63451943539258 853.74822910760849 0 853.74822910760849 611.22939262026921 0 0 0 0 734.60272308188723 883.31353139870407 0 883.31353139870407 593.53942687503877 0 0 0 0 997.06937211974764 480.8347382250322 0 480.8347382250322 -57.923411569092423 0 0 0 0 -1157.899238070313 905.75434700905316 0 905.75434700905316 451.95353199905367 0 0 0 0 111.06647108857214 610.84306050911255 0 610.84306050911255 458.72286580702348 0 0 0 0 336.10614031973273 -273.70809644976543 0 -273.70809644976543 -982.55343410174828 0 0 0 0 308.93006768353007 -156.32013306518274 0 -156.32013306518274 1058.4567153962416 0 0 0 0 620.4435301000849 157.3512587899495 0 157.3512587899495 -33.690219952361076 0 0 0 0 -0.65259497485382667 1.7086949216034668 0 1.7086949216034668 1.1547892033202345 0 0 0 0 -185.4453320886023 773.43674148799619 0 773.43674148799619 -583.91204891829693 0 0 0 0 -395.43956875029471 224.17643465011133 0 224.17643465011133 -268.07706734495878 0 0 0 0 -234.01221801256179 106.55848697110923 0 106.55848697110923 -255.03752622932734 0 0 0 0 -442.80165208889957 80.129609487943526 0 80.129609487943526 -38.514876042710966 0 0 0 0 -473.3133067026647 152.62866144767759 0 152.62866144767759 -64.310856221869471 0 0 0 0 -406.06461216523894 288.28273844304204 0 288.28273844304204 -163.10692129810923 0 0 0 0 -351.7794254905566 195.49997759389771 0 195.49997759389771 -339.02905934564478 0 0 0 0 -213.1815225307073 703.42994566979178 0 703.42994566979178 107.54100197771913 0 0 0 0 -156.57862077967002 926.94890487005614 0 926.94890487005614 706.8614879017332 0 0 0 0 -393.36754791387648 635.56086826145474 0 635.56086826145474 357.00334262975957 0 0 0 0 -423.6316569674018 238.82033994694211 0 238.82033994694211 -15.471510541778116 0 0 0 0 -423.96134403517499 508.24369337243843 0 508.24369337243843 303.23950892550056 0 0 0 0 -693.336098829197 398.2512381557317 0 398.2512381557317 -196.51740035854891 0 0 0 0 -539.38576119548725 416.22979878698516 0 416.22979878698516 -200.09148517627909 0 0 0 0 -352.84183903788653 699.07609751572454 0 699.07609751572454 -817.04972459829514 0 0 0 0 -381.91783729191047 438.93898549828282 0 438.93898549828282 -614.65407982905162 0 0 0 0 -641.42817321287293 1006.195508638295 0 1006.195508638295 -1160.0273559772977 0 0 0 0 -746.56505054865556 395.46542824260541 0 395.46542824260541 -270.45627075590892 0 0 0 0 -935.29224842248368 665.20316624961561 0 665.20316624961561 -388.87617879630125 0 0 0 0 -449.10916000201541 571.71542072019656 0 571.71542072019656 -862.08578046277398 0 0 0 0 -1531.1935733712162 884.25864061361062 0 884.25864061361062 6.572096910320397 0 0 0 0 -933.50497611967876 308.18573174520861 0 308.18573174520861 -40.094251764152432 0 0 0 0 4.6773142594029196 223.05581184936455 0 223.05581184936455 -127.07665107093635 0 0 0 0 -592.1688837684851 -20.511165887874085 0 -20.511165887874085 -66.732700083099189 0 0 0 0 -28.91914573260874 226.08643229800509 0 226.08643229800509 18.078136879441445 0 0 0 0 -159.65551153432443 270.9564064967858 0 270.9564064967858 15.069422462052898 0 0 0 0 -170.29012923140544 120.62351696641417 0 120.62351696641417 -142.42443349020323 0 0 0 0 -276.56383947702852 161.43499414095277 0 161.43499414095277 -68.620584846677957 0 0 0 0 -227.47297991649975 116.14231622074658 0 116.14231622074658 -76.633210217914893 0 0 0 0 -591.2607991383029 125.22817293813387 0 125.22817293813387 -44.532029986090492 0 0 0 0 -535.94751447555609 187.42653628165135 0 187.42653628165135 -142.81557478349714 0 0 0 0 -544.81365170692152 33.061360562642221 0 33.061360562642221 -63.111936232962762 0 0 0 0 -11.743112590320493 3.458187116575175 0 3.458187116575175 3.4144145752381974 0 0 0 0 -655.93572598192259 203.70354120934644 0 203.70354120934644 -321.40206616717933 0 0 0 0 -2098.775782434288 2545.3936124938791 0 2545.3936124938791 -2704.2490123029711 0 0 0 0 -6.8259308487606063 10.795238555039589 0 10.795238555039589 -3.199894021896057 0 0 0 0 -40.64973789890746 -122.6556161816668 0 -122.6556161816668 343.54326755471993 0 0 0 0 -93.748245647162548 100.24273518803238 0 100.24273518803238 251.26570199731214 0 0 0 0 -24.630188137641198 -1.6266854312538044 0 -1.6266854312538044 -5.4907079262331706 0 0 0 0 -33.707598830289498 5.140086029255599 0 5.140086029255599 102.32399768079631 0 0 0 0 -93.653150201796961 232.0066802999936 0 232.0066802999936 28.882236447389005 0 0 0 0 -230.99916070367181 214.27205066887109 0 214.27205066887109 456.22206003099564 0 0 0 0 -2759.9940349201497 2982.6110652731149 0 2982.6110652731149 -2527.2573029543855 0 0 0 0 -1964.4817421554762 -124.82707832066808 0 -124.82707832066808 763.15763055582647 0 0 0 0 -279.26466496475041 1516.6657547740979 0 1516.6657547740979 -3853.6498880398285 0 0 0 0 -2248.5045549475763 1558.0276913244561 0 1558.0276913244561 -626.19971821515355 0 0 0 0 -10.812739532888912 7.3047815851989526 0 7.3047815851989526 8.1590163092988632 0 0 0 0 -766.32503268144501 1454.5608026177215 0 1454.5608026177215 -675.29200198149192 0 0 0 0 -518.9480606259749 684.02786152881163 0 684.02786152881163 -1253.8018862491299 0 0 0 0 -969.31559846756863 1371.1764344403418 0 1371.1764344403418 -918.3252193377557 0 0 0 0 -1085.9290407897061 858.08235611862983 0 858.08235611862983 -1016.0437783965317 0 0 0 0 -985.00568393040885 1418.6519200628318 0 1418.6519200628318 -992.63422879752761 0 0 0 0 -894.61715875532536 1310.547881822713 0 1310.547881822713 -1094.5493384475121 0 0 0 0 -956.17197177260823 1290.2571750513343 0 1290.2571750513343 -863.37762080132961 0 0 0 0 -2.1404201874279636 3.8464554666535946 0 3.8464554666535946 3.3287899281816067 0 0 0 0 -973.88019268706557 1457.23477395386 0 1457.23477395386 -1229.147793272874 0 0 0 0 -730.44520591903074 762.7013001330979 0 762.7013001330979 -864.8841782847885 0 0 0 0 -1029.5824673997995 1106.7517257026484 0 1106.7517257026484 -1301.3336196192213 0 0 0 0 -1338.2456818848586 1051.9083586511842 0 1051.9083586511842 -806.51480147968687 0 0 0 0 -999.21261069804314 1253.8819607263868 0 1253.8819607263868 -530.60285364679294 0 0 0 0 -1004.7426332593968 1246.47812047568 0 1246.47812047568 -866.52946840791265 0 0 0 0 -1001.562300606689 1185.2578212501103 0 1185.2578212501103 -907.8464744925659 0 0 0 0 -908.56623984386533 1284.477892299743 0 1284.477892299743 -360.25841814322484 0 0 0 0 -1061.7126982593759 1116.0206579594324 0 1116.0206579594324 -529.20641819035518 0 0 0 0 -1146.5555359784503 1184.7251162083903 0 1184.7251162083903 -716.97173558181385 0 0 0 0 -1182.39694795166 1081.2740902977603 0 1081.2740902977603 -550.11205701550352 0 0 0 0 -1058.069286146143 1237.5830820006813 0 1237.5830820006813 -403.49726974406803 0 0 0 0 -1227.9235826655058 1017.0368631624078 0 1017.0368631624078 -725.12671334823744 0 0 0 0 -1287.0425180132297 1022.729249549142 0 1022.729249549142 -288.22873166402132 0 0 0 0 -1241.7206446756099 913.60950508845417 0 913.60950508845417 -362.93006402707897 0 0 0 0 -3.1699968001785805 6.1293859499103576 0 6.1293859499103576 7.0212568194918958 0 0 0 0 -1274.6819274968166 1257.447144502421 0 1257.447144502421 -726.84461482167535 0 0 0 0 -1327.1957603120391 1149.1220772218658 0 1149.1220772218658 -984.85671727146837 0 0 0 0 -3.4397557110709442 3.3253458098608348 0 3.3253458098608348 4.0469380269902899 0 0 0 0 -1453.71663811287 1420.1911996990166 0 1420.1911996990166 -1023.9067092179348 0 0 0 0 -1111.4082047607008 682.44084403523811 0 682.44084403523811 234.69386545226735 0 0 0 0 -1538.0226874786022 1105.5749432876 0 1105.5749432876 150.78087343418156 0 0 0 0 -1367.370504311868 1162.8159773999741 0 1162.8159773999741 13.550405907109962 0 0 0 0 -1306.8820643573454 1157.0173870861181 0 1157.0173870861181 -3.0551953147660242 0 0 0 0 -1385.2383381206546 1206.846087772552 0 1206.846087772552 10.981275839440059 0 0 0 0 -1547.9964347030145 1222.7455753982795 0 1222.7455753982795 -242.12384386245685 0 0 0 0 -1511.9065677404287 1109.8894627667905 0 1109.8894627667905 100.34271607715709 0 0 0 0 -1336.8905313514551 1197.5054265028666 0 1197.5054265028666 -4.2968324556495645 0 0 0 0 -1938.4772576910109 1176.1830459011835 0 1176.1830459011835 -0.3285122647866956 0 0 0 0 -851.35775060853848 1213.2152021711372 0 1213.2152021711372 0.12695623440231429 0 0 0 0 -1331.6566867216898 1264.5291689303322 0 1264.5291689303322 -0.012277955676836427 0 0 0 0 -1034.506701871338 1050.6346877902433 0 1050.6346877902433 77.322443237942935 0 0 0 0 -940.47071354131913 1180.5129555682324 0 1180.5129555682324 -48.354443666925363 0 0 0 0 -1254.3743837044894 1246.0410989184384 0 1246.0410989184384 124.92383514806534 0 0 0 0 -1265.580613741753 1208.7285301139418 0 1208.7285301139418 -64.431051174164168 0 0 0 0 -1247.5035841357003 1118.724792298678 0 1118.724792298678 -208.66301812950405 0 0 0 0 -1235.7302186244851 1187.9960131428379 0 1187.9960131428379 -26.894412642228417 0 0 0 0 -738.26058951416053 1301.418793497789 0 1301.418793497789 -98.939365126745543 0 0 0 0 -946.4502521702525 1240.8506599556713 0 1240.8506599556713 -109.0681975699481 0 0 0 0 -600.5141928091798 1159.1251381223847 0 1159.1251381223847 -207.65004709419736 0 0 0 0 -775.26589603202592 999.48872177779413 0 999.48872177779413 279.54077023580248 0 0 0 0 -959.44552545362285 1056.0463172685563 0 1056.0463172685563 183.71290382093866 0 0 0 0 -494.90145097536879 1137.3581746148775 0 1137.3581746148775 55.076999982775305 0 0 0 0 -408.99502960369318 811.33372670918652 0 811.33372670918652 365.45384021059726 0 0 0 0 -141.08207652323472 1095.1727429093062 0 1095.1727429093062 0.46716440800810233 0 0 0 0 -450.56426105166611 829.03660274553113 0 829.03660274553113 211.4331559495331 0 0 0 0 1772.3633840496259 901.4326032620047 0 901.4326032620047 -0.20233226512937108 0 0 0 0 586.79743890294048 741.18693355483265 0 741.18693355483265 7.4064751632831758 0 0 0 0 605.87801379090706 514.35882762278584 0 514.35882762278584 354.1959098760708 0 0 0 0 1426.9596133398445 835.72341328723633 0 835.72341328723633 103.74788642555359 0 0 0 0 247.5659252858095 446.07811618772394 0 446.07811618772394 320.86200108288904 0 0 0 0 177.01645744913549 866.9169436941811 0 866.9169436941811 92.569184530882922 0 0 0 0 90.039020714641083 563.53067400763757 0 563.53067400763757 60.356319902581163 0 0 0 0 -3.9395368209153787 12.427627633054001 0 12.427627633054001 -9.4447830008168125 0 0 0 0 444.34359978558496 840.27374610847619 0 840.27374610847619 139.68763101321747 0 0 0 0 1114.9743336378233 794.92470617883373 0 794.92470617883373 338.97289481313783 0 0 0 0 -1.7409674309127467 6.0829210927970081 0 6.0829210927970081 -4.9178434706026906 0 0 0 0 1211.7487118915815 489.1332644422946 0 489.1332644422946 375.06576164957369 0 0 0 0 739.2109788430389 1711.7632656976202 0 1711.7632656976202 -850.05734481955005 0 0 0 0 2181.39156455798 996.07494362850775 0 996.07494362850775 -496.82783296062553 0 0 0 0 -531.27331710809085 1287.8036138921598 0 1287.8036138921598 -998.07934918901628 0 0 0 0 -1063.5453232391374 1511.9008154307157 0 1511.9008154307157 -932.37907579471357 0 0 0 0 -1376.9002643648419 934.06372479295533 0 934.06372479295533 162.38039223020314 0 0 0 0 -1785.1777048737313 1265.6199114158444 0 1265.6199114158444 -96.089545133436332 0 0 0 0 -811.38898445246014 1109.7034998774106 0 1109.7034998774106 -215.14100868335663 0 0 0 0 -649.99622489680769 1391.9000793279629 0 1391.9000793279629 -569.18108285114431 0 0 0 0 -579.73936323430826 1104.6204220444852 0 1104.6204220444852 -593.96861137814994 0 0 0 0 -778.81446528289234 1299.2441609775196 0 1299.2441609775196 -864.60918654371926 0 0 0 0 -797.36525784440164 1164.2919614162206 0 1164.2919614162206 -768.77280390949454 0 0 0 0 -681.03568495152649 1180.4037359630784 0 1180.4037359630784 -1007.0722830888699 0 0 0 0 -830.10976125460002 1283.6443043191248 0 1283.6443043191248 -844.27870753003663 0 0 0 0 -1095.2482170126605 1197.6453417068115 0 1197.6453417068115 -1010.2551373517399 0 0 0 0 -797.91681258715835 1250.8440998856458 0 1250.8440998856458 -1003.2201690607617 0 0 0 0 -711.51666148775985 1230.8398462162295 0 1230.8398462162295 -1358.567537445575 0 0 0 0 -697.94496305511348 1342.0885179344223 0 1342.0885179344223 -1008.0723875078256 0 0 0 0 -409.02312397118658 1312.1870881241339 0 1312.1870881241339 -1356.1786322704911 0 0 0 0 -247.95773562628892 1625.6581773114231 0 1625.6581773114231 -866.81846478802618 0 0 0 0 83.787941704897094 1573.0936400088904 0 1573.0936400088904 -1118.5027745103143 0 0 0 0 26.097115061187651 1614.8232238221099 0 1614.8232238221099 -855.52966926281806 0 0 0 0 -701.54257410348509 1360.951893986261 0 1360.951893986261 -656.70635124712862 0 0 0 0 94.057367486260773 1627.6778285056389 0 1627.6778285056389 -935.00438897297136 0 0 0 0 285.37394789593236 1306.3816621087353 0 1306.3816621087353 -817.86213160293119 0 0 0 0 599.64033560875396 980.4735697458018 0 980.4735697458018 -446.34969854055089 0 0 0 0 994.84883871818602 743.86275425406347 0 743.86275425406347 -548.08917920877866 0 0 0 0 794.51152117762103 595.1219850467096 0 595.1219850467096 -337.62354245752795 0 0 0 0 1393.222069717187 347.45806742753484 0 347.45806742753484 -236.85147002019221 0 0 0 0 1000.4906554881163 868.83325073000015 0 868.83325073000015 -45.024947475845693 0 0 0 0 1030.5934982390609 786.64664273196831 0 786.64664273196831 -446.96286684312207 0 0 0 0 945.7369060277706 1103.489728006869 0 1103.489728006869 -746.32440995689103 0 0 0 0 317.36947425131802 1392.4372536424926 0 1392.4372536424926 -629.37079164908209 0 0 0 0 742.98450823075109 1037.0922342546328 0 1037.0922342546328 -649.78061562121729 0 0 0 0 336.93861225075671 1395.5949504641612 0 1395.5949504641612 -779.51365293757044 0 0 0 0 293.84274836361146 1303.3788321294596 0 1303.3788321294596 -914.80813728082285 0 0 0 0 102.84002082423831 1221.0386383034493 0 1221.0386383034493 -797.87884225309244 0 0 0 0 408.82351288322207 893.50617483624501 0 893.50617483624501 -466.89003493616474 0 0 0 0 259.1462867702794 548.36159484425298 0 548.36159484425298 -448.29063765652245 0 0 0 0 -115.72513745147444 268.66156446006789 0 268.66156446006789 -654.62330949347233 0 0 0 0 76.113548964931397 -52.108855877944734 0 -52.108855877944734 -42.09106006922957 0 0 0 0 -76.879809919453692 14.867394583226996 0 14.867394583226996 -65.103645671566483 0 0 0 0 92.069483127892454 -30.847732914762673 0 -30.847732914762673 -144.42020297223644 0 0 0 0 9.8786098015973209 7.4863510792112322 0 7.4863510792112322 -4.82917709748466 0 0 0 0 -43.012697506885161 82.922956875845557 0 82.922956875845557 -15.061462709767511 0 0 0 0 35.422456888931947 17.07746568434402 0 17.07746568434402 -3.4360344428634448 0 0 0 0 -0.43836478197175666 -2.1181305622919808 0 -2.1181305622919808 1.7172065096696514 0 0 0 0 911.90562797999883 357.7833228064701 0 357.7833228064701 99.285490498783474 0 0 0 0 -16.327220753300935 -127.315981350519 0 -127.315981350519 79.797118471295107 0 0 0 0 11.224579141860602 6.3159609633626985 0 6.3159609633626985 2.0726947599423511 0 0 0 0 1346.3609709991288 -241.38120663852897 0 -241.38120663852897 33.757576927448099 0 0 0 0 1247.5649621866178 1655.24705416098 0 1655.24705416098 -871.25023084093118 0 0 0 0 154.99738123592397 328.88658253126414 0 328.88658253126414 -2126.8674000143073 0 0 0 0 -12.881922325439518 264.9178548855125 0 264.9178548855125 -1279.9638195437801 0 0 0 0 -20.338743164982588 -6.0273141731777287 0 -6.0273141731777287 -351.22210625575099 0 0 0 0 232.89765756949782 15.028654049616307 0 15.028654049616307 -1126.5593038836305 0 0 0 0 1035.0817542992881 1354.8552344289201 0 1354.8552344289201 1451.4047001405779 0 0 0 0 970.83723619906232 798.53901554209733 0 798.53901554209733 1220.6275885542018 0 0 0 0 -7.3055359914726239 13.660382467366276 0 13.660382467366276 -10.070742109940113 0 0 0 0 1359.973059852462 1895.3115885402367 0 1895.3115885402367 1231.6154958164116 0 0 0 0 1304.3569896968256 1118.5446264555721 0 1118.5446264555721 445.78220482345205 0 0 0 0 964.81411612720694 753.38302806718275 0 753.38302806718275 374.68681387527613 0 0 0 0 1002.4053603123466 907.11728615756147 0 907.11728615756147 707.99758264819684 0 0 0 0 968.36127535039122 757.46156520576915 0 757.46156520576915 347.86552848748397 0 0 0 0 949.74807634319586 706.91070128609135 0 706.91070128609135 237.4745384358539 0 0 0 0 1098.959954792168 806.37795432068378 0 806.37795432068378 88.691476479172707 0 0 0 0 1096.8664200955245 829.8963814968447 0 829.8963814968447 -84.705413808173034 0 0 0 0 1147.5286593994824 1014.0812428818026 0 1014.0812428818026 376.87135831988417 0 0 0 0 1156.9154008334735 1014.7910992604448 0 1014.7910992604448 326.0631912558747 0 0 0 0 1483.6291877471085 1289.5052460011211 0 1289.5052460011211 193.18519972544163 0 0 0 0 2001.8173025657889 1661.5075198329287 0 1661.5075198329287 -992.67934782058001 0 0 0 0 1751.8702859762125 -8.017910675436724 0 -8.017910675436724 -2876.5757091887062 0 0 0 0 498.76672280661296 -1884.4711728528491 0 -1884.4711728528491 -93.398586091934703 0 0 0 0 1761.796599599802 157.79781624590578 0 157.79781624590578 -127.98580601561116 0 0 0 0 1369.3455586915079 839.82012264418881 0 839.82012264418881 -957.24339501839131 0 0 0 0 1337.9645040282339 772.29751606602804 0 772.29751606602804 -70.947328145382926 0 0 0 0 1028.0692153091513 718.96032061742881 0 718.96032061742881 47.47061969875358 0 0 0 0 1174.4481336574245 631.22284096722433 0 631.22284096722433 -130.79645210009767 0 0 0 0 1053.5745114903257 743.43811769059539 0 743.43811769059539 -204.60956561844796 0 0 0 0 979.59486622738768 635.56619682442397 0 635.56619682442397 -130.29677190838083 0 0 0 0 2177.7353891155799 680.98072820740344 0 680.98072820740344 -122.31485317330225 0 0 0 0 967.74314672627952 648.965891593165 0 648.965891593165 1657.0895445909118 0 0 0 0 1114.8100759626541 413.29521795813343 0 413.29521795813343 -118.91885855491182 0 0 0 0 1100.674976100272 463.18128550589608 0 463.18128550589608 104.0578517599497 0 0 0 0 1102.6418986123608 758.02293161733542 0 758.02293161733542 -364.03507604704646 0 0 0 0 764.91865057664108 774.21963866265287 0 774.21963866265287 -145.80277989170281 0 0 0 0 1013.9858413065667 654.06159005736117 0 654.06159005736117 -108.21940357261337 0 0 0 0 912.01027607878495 864.68263975638547 0 864.68263975638547 -90.398901547741843 0 0 0 0 1113.3708833716955 683.25245053891558 0 683.25245053891558 -5.7169447510896134 0 0 0 0 944.08923920262896 706.97928919869446 0 706.97928919869446 357.89953037895611 0 0 0 0 1007.2989140697318 724.96512584051379 0 724.96512584051379 317.11773421452381 0 0 0 0 1008.189307507404 737.1079971367144 0 737.1079971367144 472.57034436469985 0 0 0 0 1032.3851933162223 713.99285914364737 0 713.99285914364737 286.03192648969707 0 0 0 0 1069.1671958535444 1360.365346347091 0 1360.365346347091 -0.53881949240530957 0 0 0 0 895.5577409823818 719.85722711963899 0 719.85722711963899 364.2419441242746 0 0 0 0 870.03240143939911 781.68630524913169 0 781.68630524913169 346.03822527013926 0 0 0 0 1028.5570890282397 908.04501838832584 0 908.04501838832584 18.146184129072935 0 0 0 0 506.01068631979433 1086.277496393106 0 1086.277496393106 421.51133092142118 0 0 0 0 220.01635593699029 514.30460686556034 0 514.30460686556034 276.12398442877657 0 0 0 0 -2.9814204113048817 10.289756111907579 0 10.289756111907579 -7.3533997327235738 0 0 0 0 471.18166975743225 1304.2716560294321 0 1304.2716560294321 61.004705450039182 0 0 0 0 676.99852904731961 841.66360559552049 0 841.66360559552049 276.53252511445316 0 0 0 0 -979.88156094093574 346.03804293544817 0 346.03804293544817 238.24807829079054 0 0 0 0 -0.13219606851555454 3.5123823903507656 0 3.5123823903507656 -3.139506656810056 0 0 0 0 2152.5796492277586 1324.4298482797531 0 1324.4298482797531 -9.4338296003843425 0 0 0 0 846.77245441126433 1900.6992558419952 0 1900.6992558419952 1622.5684227193851 0 0 0 0 1362.3303530868579 1097.0596203073574 0 1097.0596203073574 -557.61198169985437 0 0 0 0 11.426338478143975 8.6355799659459365 0 8.6355799659459365 -0.93613625378136622 0 0 0 0 1013.2054915556073 -159.04367233477387 0 -159.04367233477387 -2610.4615399880931 0 0 0 0 1335.11168448643 1145.2384421667375 0 1145.2384421667375 184.08435224361165 0 0 0 0 1120.9064014373143 621.5018638280817 0 621.5018638280817 328.01324943295913 0 0 0 0 632.62940462931874 61.046710587623238 0 61.046710587623238 -37.69474572641775 0 0 0 0 93.688571137019608 836.29660261621393 0 836.29660261621393 911.00608178618131 0 0 0 0 614.94491470587673 -12.618071348500962 0 -12.618071348500962 -289.51940303149604 0 0 0 0 -132.63598547103174 1056.7734545621206 0 1056.7734545621206 1273.2135326770949 0 0 0 0 -150.3044492736808 866.30510076961946 0 866.30510076961946 26.284622067381861 0 0 0 0 -30.4901209665789 31.269088986451933 0 31.269088986451933 -20.137983348500029 0 0 0 0 686.08227245384478 378.92823643011798 0 378.92823643011798 -2016.1737905523551 0 0 0 0 21.73597894482026 17.082770460335354 0 17.082770460335354 -3.1741107394726189 0 0 0 0 -670.33713684882969 699.38740510373464 0 699.38740510373464 -536.13489556177592 0 0 0 0 105.90131125183689 532.7273583989263 0 532.7273583989263 -246.09983337404265 0 0 0 0 -90.676426608522888 2010.2489514393492 0 2010.2489514393492 -311.03937245307316 0 0 0 0 -37.726295565327746 1167.828219198178 0 1167.828219198178 -1262.8954214635523 0 0 0 0 -933.92646023599082 2829.2191299666374 0 2829.2191299666374 -1070.3222580487709 0 0 0 0 -787.02529228715139 1681.2620791176396 0 1681.2620791176396 -0.61885640098626027 0 0 0 0 3.1855941174799227 2896.8436095403849 0 2896.8436095403849 -2954.3853100088891 0 0 0 0 -472.86313784380036 582.49187213289406 0 582.49187213289406 -1861.9055858336251 0 0 0 0 406.68776013629395 1674.016530055349 0 1674.016530055349 -5420.8261804017238 0 0 0 0 -13.331254632199595 4854.3156844538871 0 4854.3156844538871 -459.80401915959374 0 0 0 0 -13.215510467758122 14.857182986299634 0 14.857182986299634 -9.8550687621151951 0 0 0 0 10.26980044181272 11.628460977732232 0 11.628460977732232 -5.6217876441359209 0 0 0 0 311.62963730006595 78.358026082911238 0 78.358026082911238 -1915.5851267982616 0 0 0 0 61.491001808390138 -253.62927748322545 0 -253.62927748322545 -504.87196543552272 0 0 0 0 1039.5614550487953 525.48822776711313 0 525.48822776711313 -1176.7225840049214 0 0 0 0 -395.70818893233081 -365.37973631243221 0 -365.37973631243221 674.79805156150542 0 0 0 0 0.63446972022939008 1376.0653687148078 0 1376.0653687148078 1639.6656833200323 0 0 0 0 507.5382705937518 -981.49260007197154 0 -981.49260007197154 -4044.7570680469507 0 0 0 0 -2.2311498097406002 1199.3705089599171 0 1199.3705089599171 -1302.4076457628616 0 0 0 0 0.87916647922975244 282.16010686738082 0 282.16010686738082 -196.6356111572386 0 0 0 0 -3111.7647006781772 295.95521743682912 0 295.95521743682912 1169.7035325843026 0 0 0 0 -4.1609753312379212 6.0477349276444841 0 6.0477349276444841 -7.5841347207085619 0 0 0 0 -550.96354414752568 97.085960981312383 0 97.085960981312383 833.32543529167015 0 0 0 0 274.7832367116207 867.99492154650761 0 867.99492154650761 -425.06785079972178 0 0 0 0 3827.5100238723389 -1177.896162885052 0 -1177.896162885052 -1624.5515942638594 0 0 0 0 -6.658228067347352 5.7764531601076001 0 5.7764531601076001 -5.30543011990585 0 0 0 0 -731.12026236682141 -30.652114875603729 0 -30.652114875603729 -701.05022600844677 0 0 0 0 902.70502718933858 58.997887466124666 0 58.997887466124666 -947.32207754372939 0 0 0 0 85.554087254422484 708.26344998672721 0 708.26344998672721 -11.149645782505104 0 0 0 0 -25.150971352560703 29.564306831159726 0 29.564306831159726 -20.09432069289528 0 0 0 0 364.87888310456037 215.8140839546686 0 215.8140839546686 -1374.4246466949553 0 0 0 0 230.50768469967807 -216.98263478524132 0 -216.98263478524132 -1581.2402001626615 0 0 0 0 535.2603870231469 -471.33441707857492 0 -471.33441707857492 -2674.3639114795806 0 0 0 0 -296.0871505564719 -62.897757924227335 0 -62.897757924227335 -800.96946342862793 0 0 0 0 -0.057503219899274427 17.927282775523608 0 17.927282775523608 -16.545944044678421 0 0 0 0 -340.27891908457968 150.52109426166862 0 150.52109426166862 190.09939725327422 0 0 0 0 142.06127962718892 133.28749045407312 0 133.28749045407312 -73.67767300887499 0 0 0 0 180.65170773938007 -119.71426205230091 0 -119.71426205230091 -179.91616072945908 0 0 0 0 5.8171629578313286 27.543598928504622 0 27.543598928504622 -27.885949827615178 0 0 0 0 12.953737898653287 28.839012903714504 0 28.839012903714504 -21.059484450107803 0 0 0 0 58.779587489320505 9.1789254262359634 0 9.1789254262359634 -17.566503594112305 0 0 0 0 53.284017815067273 53.940223642915953 0 53.940223642915953 -46.19384411496867 0 0 0 0 60.049748814330087 99.395466350899369 0 99.395466350899369 -36.766046330871177 0 0 0 0 6.533242274580914 13.689201552550848 0 13.689201552550848 -13.145806414166771 0 0 0 0 134.75486349897255 -68.049736959008442 0 -68.049736959008442 -124.48917738735327 0 0 0 0 188.02729067397013 117.27327459343906 0 117.27327459343906 -67.380288540545735 0 0 0 0 87.452311422324044 18.726789466055891 0 18.726789466055891 -30.491791468412202 0 0 0 0 185.34317903136798 100.51929527466473 0 100.51929527466473 -88.610769596067257 0 0 0 0 -61.64740921316843 28.443108311126707 0 28.443108311126707 0.29747927121934481 0 0 0 0 49.820005562012511 23.756422363327232 0 23.756422363327232 -6.699921551272169 0 0 0 0 57.938923903338946 49.694137786054853 0 49.694137786054853 -43.933483611544943 0 0 0 0 -57.326644252418191 195.16106107935047 0 195.16106107935047 -108.90407606068766 0 0 0 0 -0.48973172926343977 170.55916171166609 0 170.55916171166609 -139.45962448749196 0 0 0 0 -178.04734188281873 269.22695625513734 0 269.22695625513734 -146.65840983298403 0 0 0 0 11.351096924633993 8.6273984593457982 0 8.6273984593457982 -7.809715317052536 0 0 0 0 -189.45524649467552 110.63765970832173 0 110.63765970832173 -47.889448110989179 0 0 0 0 73.22640333630261 -151.73224769803346 0 -151.73224769803346 -40.156092464816538 0 0 0 0 349.34000605759866 -191.44476539521565 0 -191.44476539521565 -456.85194433380821 0 0 0 0 -38.11042263232644 27.748485404582766 0 27.748485404582766 -8.1807697773884129 0 0 0 0 -74.525610609496653 180.85734003098332 0 180.85734003098332 160.85037989725242 0 0 0 0 103.948552325739 -135.37036220094888 0 -135.37036220094888 -372.4327640516276 0 0 0 0 412.91230311954132 -141.87657647147716 0 -141.87657647147716 -476.21435057770577 0 0 0 0 -61.693555360122723 26.550405434823233 0 26.550405434823233 -7.7709241023879727 0 0 0 0 -533.28010341882327 -348.23879401983868 0 -348.23879401983868 719.72538431857538 0 0 0 0 13.286095403928812 518.05906742272055 0 518.05906742272055 779.35705876380962 0 0 0 0 11.592810503690998 -306.35421226228937 0 -306.35421226228937 -650.7887951641751 0 0 0 0 148.86221658146678 122.18278509139054 0 122.18278509139054 -825.77912272115645 0 0 0 0 -180.4713909240636 751.08717652199994 0 751.08717652199994 -1766.4397895564616 0 0 0 0 147.23196256133633 126.40089170917781 0 126.40089170917781 -819.29679025293444 0 0 0 0 153.28568055782125 66.108212937984717 0 66.108212937984717 -274.17967127027805 0 0 0 0 540.39198361471426 160.97639332945255 0 160.97639332945255 -484.20885759431258 0 0 0 0 1072.5275874373401 -12.394008809453226 0 -12.394008809453226 210.12791323420242 0 0 0 0 632.502176655933 399.0856848192343 0 399.0856848192343 -22.381790785249905 0 0 0 0 754.06593651583535 -124.87159381982929 0 -124.87159381982929 -163.88396377130266 0 0 0 0 2364.2662927922629 237.83326141596626 0 237.83326141596626 -503.10729546906077 0 0 0 0 -1094.8158720772662 205.74040457060619 0 205.74040457060619 -31.327926371537615 0 0 0 0 -2889.2367850495539 605.06914159431471 0 605.06914159431471 724.9883668236871 0 0 0 0 -0.49305571657950398 7.7368618590699612 0 7.7368618590699612 -4.9492718213213038 0 0 0 0 -326.86580867052908 -92.025247781119106 0 -92.025247781119106 121.2688830778352 0 0 0 0 60.745976479020101 87.325626571506291 0 87.325626571506291 -30.530767266231123 0 0 0 0 8.4623750981299963 8.2810040239746456 0 8.2810040239746456 -6.2898081181168379 0 0 0 0 -448.09402750164736 145.32993390058982 0 145.32993390058982 -728.64030327169166 0 0 0 0 -959.11118135376364 1805.2817371292731 0 1805.2817371292731 297.34649455816543 0 0 0 0 235.66776159133769 307.15340915133493 0 307.15340915133493 61.388956505368697 0 0 0 0 466.10716722666439 51.202370621307637 0 51.202370621307637 -232.06086925818818 0 0 0 0 1335.4775184435493 801.00195510739286 0 801.00195510739286 -250.40181792111252 0 0 0 0 14.988761690234242 715.76458381727571 0 715.76458381727571 -122.26725766530581 0 0 0 0 304.78997911138504 -247.08856788674166 0 -247.08856788674166 -316.93015145201571 0 0 0 0 -39.483892159769312 22.058386797973071 0 22.058386797973071 -162.6541416399923 0 0 0 0 49.959481130055792 7.4698061851086095 0 7.4698061851086095 105.59669260540977 0 0 0 0 -14.106345923653862 55.237375860669999 0 55.237375860669999 244.58741654119513 0 0 0 0 2.9812306715165278 68.254919861134681 0 68.254919861134681 -10.122322789846976 0 0 0 0 35.518862307839015 15.751630907664662 0 15.751630907664662 -52.208958599405719 0 0 0 0 14.794570881509571 40.490097211499233 0 40.490097211499233 165.50691845850452 0 0 0 0 43.575677276567149 83.969883349149313 0 83.969883349149313 114.37363533774624 0 0 0 0 26.810014351663995 96.381513247411931 0 96.381513247411931 173.17678550010896 0 0 0 0 26.87178386766027 40.591652887771488 0 40.591652887771488 114.65847789141117 0 0 0 0 -3.5106395109161213 4.0628421554376075 0 4.0628421554376075 -4.8739431589971076 0 0 0 0 37.573918157570006 26.719534188654507 0 26.719534188654507 -48.080800022609765 0 0 0 0 263.72803903646127 488.93038126901956 0 488.93038126901956 -539.36419162344828 0 0 0 0 -161.15605927849538 222.73439684072218 0 222.73439684072218 88.412183040403761 0 0 0 0 21.710165110474918 -5.4988640540104825 0 -5.4988640540104825 208.67583717079833 0 0 0 0 -2.9946267953928327 23.740524856169941 0 23.740524856169941 196.41718391035101 0 0 0 0 13.083249448478455 48.281608190736733 0 48.281608190736733 158.06177285226295 0 0 0 0 118.74197130531684 21.615921805176185 0 21.615921805176185 164.7736918576993 0 0 0 0 44.818118164752377 55.654786588958814 0 55.654786588958814 97.594634240842424 0 0 0 0 -10.251078650602722 34.640540945430985 0 34.640540945430985 150.93089222552953 0 0 0 0 -7.7935139693072415 37.247168217640137 0 37.247168217640137 102.5774883472186 0 0 0 0 12.849195888200484 3.2022454832185758 0 3.2022454832185758 120.15073381521506 0 0 0 0 32.752661107868335 14.932897936552763 0 14.932897936552763 125.80582787789172 0 0 0 0 15.63983512559571 -2.4633584743824031 0 -2.4633584743824031 58.818849893839797 0 0 0 0 4.349074606288923 22.912450979347341 0 22.912450979347341 58.929944207017797 0 0 0 0 -14.596249000533135 12.42086516454583 0 12.42086516454583 49.803853939607507 0 0 0 0 -61.173071848330437 52.237143984966679 0 52.237143984966679 37.153234951867489 0 0 0 0 -79.633533370029909 90.236386712240346 0 90.236386712240346 90.644883452681825 0 0 0 0 29.343630652467255 31.729077773721656 0 31.729077773721656 107.72398718539625 0 0 0 0 35.061858807166573 42.695596336357994 0 42.695596336357994 103.38140718854265 0 0 0 0 30.205921599477733 14.419398863879906 0 14.419398863879906 67.432969814515673 0 0 0 0 16.651683835138101 22.808812414601562 0 22.808812414601562 115.87765682474128 0 0 0 0 22.660996428792714 25.646231825274299 0 25.646231825274299 115.47173111649863 0 0 0 0 44.599982956264284 34.750802312890301 0 34.750802312890301 43.993425111533725 0 0 0 0 37.31936867443801 44.190964250483376 0 44.190964250483376 51.716046963207191 0 0 0 0 35.055162960332382 50.803497000859352 0 50.803497000859352 79.747525213806512 0 0 0 0 38.57913999727316 36.525570582758519 0 36.525570582758519 71.556238356242829 0 0 0 0 25.435536253138707 46.556677098229557 0 46.556677098229557 81.471714332627016 0 0 0 0 35.16194240855657 29.200036405112769 0 29.200036405112769 75.59046408868744 0 0 0 0 30.77048824330268 46.769553872087272 0 46.769553872087272 90.992103435739409 0 0 0 0 38.219010500692093 69.779104908862791 0 69.779104908862791 77.905173918989021 0 0 0 0 27.679540674187592 42.78891168894188 0 42.78891168894188 86.186330004740739 0 0 0 0 81.65029074809172 231.24467193635792 0 231.24467193635792 26.68793689244194 0 0 0 0 -95.428806592123692 245.05061010969439 0 245.05061010969439 33.440152763185324 0 0 0 0 -28.816560543041305 92.726346447157994 0 92.726346447157994 -1.5676347085391171 0 0 0 0 25.349613347821645 67.209757439327689 0 67.209757439327689 33.924250342358704 0 0 0 0 -100.36226564384924 207.37072360664024 0 207.37072360664024 -63.197079309553374 0 0 0 0 5.5255677940449139 18.428855657661501 0 18.428855657661501 6.3950518522509228 0 0 0 0 -38.308604719546565 158.21832706397254 0 158.21832706397254 42.052228336702683 0 0 0 0 77.894829887543892 -75.461037652945379 0 -75.461037652945379 225.11175069690216 0 0 0 0 190.91701464805465 103.02507402138872 0 103.02507402138872 -13.688742264232133 0 0 0 0 24.134225124985079 63.523619168874433 0 63.523619168874433 49.167645214242299 0 0 0 0 68.889105407738498 209.27740904995881 0 209.27740904995881 -238.66853982157772 0 0 0 0 24.594134940168715 26.042638793998776 0 26.042638793998776 10.302704702800838 0 0 0 0 3.247348962525912 11.391004997907416 0 11.391004997907416 23.047441853649389 0 0 0 0 25.811186297080894 22.425197141288663 0 22.425197141288663 0.72195195843232796 0 0 0 0 36.200816229326847 16.966662315790018 0 16.966662315790018 -71.634573509654729 0 0 0 0 -0.42996388409846986 -61.773189458705019 0 -61.773189458705019 12.021807113385876 0 0 0 0 221.62967818063112 47.943198792214389 0 47.943198792214389 -361.71998041536608 0 0 0 0 38.182291823728434 26.916200112797611 0 26.916200112797611 7.1562901524322342 0 0 0 0 -241.79625907616582 1108.2075428707612 0 1108.2075428707612 -1324.4580652375589 0 0 0 0 667.09761981010706 1840.6629200629832 0 1840.6629200629832 -3085.9722870314727 0 0 0 0 15.264769564406276 5.8904882645345822 0 5.8904882645345822 2.590049465067807 0 0 0 0 589.49628750722331 -610.07597850139427 0 -610.07597850139427 -258.98052952531725 0 0 0 0 1148.5390196391636 168.54923621099442 0 168.54923621099442 -2366.4665577811975 0 0 0 0 -106.39463371588045 -671.39829188449221 0 -671.39829188449221 967.82818855371443 0 0 0 0 5.6283851821589277 7.7525620218042661 0 7.7525620218042661 5.6744657821758722 0 0 0 0 -897.30075665093955 -475.86160927710444 0 -475.86160927710444 3345.8485056482532 0 0 0 0 -5.3350678821072579 27.175405880210377 0 27.175405880210377 -7.8582206059308533 0 0 0 0 90.730395534356035 -136.42420903423044 0 -136.42420903423044 -89.216443242272362 0 0 0 0 -290.49128514831045 -367.9682804706099 0 -367.9682804706099 712.11144539281668 0 0 0 0 -676.02486622110155 640.11774286472064 0 640.11774286472064 -402.00892786832173 0 0 0 0 -143.04556643056185 1610.7805180704891 0 1610.7805180704891 542.79396663946682 0 0 0 0 -706.52990317164267 1458.4955493482266 0 1458.4955493482266 -877.66702383192023 0 0 0 0 -234.14541598135838 411.09634028954315 0 411.09634028954315 -134.23779108695817 0 0 0 0 -408.70516280546508 702.39887439318045 0 702.39887439318045 -452.59640655983821 0 0 0 0 -1403.5623363368099 1151.4229562231958 0 1151.4229562231958 1291.7269747151586 0 0 0 0 -526.05717373310699 279.40877955464384 0 279.40877955464384 882.09928561915876 0 0 0 0 -712.7859180823134 1785.0215603523684 0 1785.0215603523684 -1343.7957228548185 0 0 0 0 0.98577116366934092 21.896975330263899 0 21.896975330263899 21.549047002180515 0 0 0 0 54.755961130236187 680.07643204602982 0 680.07643204602982 187.10091553740494 0 0 0 0 -1010.1186871280879 705.25648496102076 0 705.25648496102076 664.35362833969702 0 0 0 0 -519.76161159283629 875.36819032516723 0 875.36819032516723 -521.4741330693505 0 0 0 0 -598.22397405584252 946.97037420026027 0 946.97037420026027 182.17022453343088 0 0 0 0 -496.21446823083716 1266.3776962539341 0 1266.3776962539341 -553.05756123810716 0 0 0 0 -227.94801027659742 1194.0477532078112 0 1194.0477532078112 -1281.5195682905178 0 0 0 0 -250.19757826825025 1348.8817070921359 0 1348.8817070921359 -526.09246980023454 0 0 0 0 -943.86341108734541 2632.4923693973615 0 2632.4923693973615 -2813.6905875591474 0 0 0 0 -1317.2224783915735 1595.6259731674945 0 1595.6259731674945 -190.72338873885747 0 0 0 0 -2755.1292929647316 2025.5815079330205 0 2025.5815079330205 418.85025605157716 0 0 0 0 -369.98122080009671 427.62380055779067 0 427.62380055779067 -706.09367732710962 0 0 0 0 -182.89255765446433 340.90560174077837 0 340.90560174077837 1542.1030460263128 0 0 0 0 -85.421126483059396 24.453920154728763 0 24.453920154728763 -1.7628845655144847 0 0 0 0 -294.69387788762833 -1538.8062117125664 0 -1538.8062117125664 -4453.2427384775219 0 0 0 0 239.03590092121249 321.199365500157 0 321.199365500157 -1777.526156587468 0 0 0 0 16.097126474116521 2189.6169967496971 0 2189.6169967496971 -4515.6247177214536 0 0 0 0 -950.76791633718494 -1369.1529312853672 0 -1369.1529312853672 1032.5837219637178 0 0 0 0 991.22809799142306 1192.2034779843234 0 1192.2034779843234 -1171.4502939574886 0 0 0 0 109.75956378766932 -423.8020693155122 0 -423.8020693155122 -1712.2876862908888 0 0 0 0 -399.95063786757146 -2207.7825868534746 0 -2207.7825868534746 -176.45451236795634 0 0 0 0 -1016.6367935630697 2961.9271040864987 0 2961.9271040864987 -5093.023287320204 0 0 0 0 -1175.0090617892347 -33.188654916564701 0 -33.188654916564701 1283.0946972241509 0 0 0 0 -175.90051486297307 -108.6648138648452 0 -108.6648138648452 -97.586112204095116 0 0 0 0 -34.777299889149717 15.743108426017812 0 15.743108426017812 -6.5926391918713776 0 0 0 0 -475.37629687200388 742.50635079672793 0 742.50635079672793 1230.477186907854 0 0 0 0 -949.07862588387366 145.2194945529136 0 145.2194945529136 480.92210039525526 0 0 0 0 -2447.643978617024 705.0308337604547 0 705.0308337604547 856.75600310627487 0 0 0 0 -37.782386962520739 12.716841324574915 0 12.716841324574915 -3.0788187118183252 0 0 0 0 -1543.7178552324767 3778.952059710653 0 3778.952059710653 -5615.2089703595848 0 0 0 0 -795.59826057525788 3352.9439558640588 0 3352.9439558640588 -5911.2909645477484 0 0 0 0 -1412.593008818214 65.051970845088363 0 65.051970845088363 2221.1555601662776 0 0 0 0 -891.54496402233053 3111.8419748694869 0 3111.8419748694869 -5051.6555133555594 0 0 0 0 -293.36837459292599 2857.4626379039532 0 2857.4626379039532 -5536.242122071475 0 0 0 0 -386.32720942550077 -2174.0539053042885 0 -2174.0539053042885 -1198.497585937992 0 0 0 0 -3112.0628001761943 3845.7975291330949 0 3845.7975291330949 -4345.0958987733466 0 0 0 0 1333.781882090685 -1092.2576968972608 0 -1092.2576968972608 -3572.3837859813939 0 0 0 0 -3278.4192058611702 213.54824115295969 0 213.54824115295969 -2700.4128381096234 0 0 0 0 -307.17866445345135 -157.89416000868368 0 -157.89416000868368 -4169.0141951886762 0 0 0 0 -2477.5423788557819 2782.7759933029593 0 2782.7759933029593 -1528.6655312963194 0 0 0 0 -968.2031234173528 943.15639995286983 0 943.15639995286983 -20.679141944332514 0 0 0 0 -1519.6371760445836 976.00059082476218 0 976.00059082476218 241.99496497284417 0 0 0 0 -1576.2239916614817 272.84976750340138 0 272.84976750340138 768.48678682529862 0 0 0 0 -2388.0215123819794 984.43213105633254 0 984.43213105633254 1372.0011848256108 0 0 0 0 -777.46505169381999 45.486806482353131 0 45.486806482353131 729.93846617747477 0 0 0 0 -742.02990228735644 308.00263534189162 0 308.00263534189162 650.66027975316683 0 0 0 0 266.1199762283868 -272.08715717385348 0 -272.08715717385348 982.78416229320283 0 0 0 0 -823.70436009485275 473.69561135370168 0 473.69561135370168 255.09056901041185 0 0 0 0 -616.02279646661555 342.4642351808252 0 342.4642351808252 321.1413095635944 0 0 0 0 -248.3407339289115 -0.84895527596381726 0 -0.84895527596381726 471.8463450538402 0 0 0 0 -1098.3845984428303 642.31619603660602 0 642.31619603660602 506.13198215040029 0 0 0 0 -982.26398078958664 652.25736264186708 0 652.25736264186708 411.63680435747665 0 0 0 0 -189.13393433394231 319.28343620795931 0 319.28343620795931 602.47557320908527 0 0 0 0 146.9900829860062 400.83187008390996 0 400.83187008390996 106.42951746653125 0 0 0 0 147.07343366549685 131.28353257990238 0 131.28353257990238 612.49642234768544 0 0 0 0 14.311983880616026 160.98897637532355 0 160.98897637532355 626.81955118787664 0 0 0 0 347.82666252519266 540.80552664906281 0 540.80552664906281 761.52880500040192 0 0 0 0 -130.92283264318758 465.18167931894095 0 465.18167931894095 186.11598185564799 0 0 0 0 112.94211598196853 318.32256433271687 0 318.32256433271687 -57.399006787789403 0 0 0 0 -50.990076262314687 446.02816145527322 0 446.02816145527322 101.99827174144048 0 0 0 0 -50.489640406187391 305.41275243927521 0 305.41275243927521 -180.72437166915915 0 0 0 0 79.771147295918126 511.1359416479936 0 511.1359416479936 -363.17009077568946 0 0 0 0 -186.93583797375322 630.74953960138737 0 630.74953960138737 -323.14912091354927 0 0 0 0 -31.420273530311533 443.7155660171411 0 443.7155660171411 -108.76396706427113 0 0 0 0 279.95114907606569 854.8433353732737 0 854.8433353732737 -258.64041008886124 0 0 0 0 -227.53986627779886 378.2623136235452 0 378.2623136235452 -420.31312279954 0 0 0 0 290.6049883165432 611.80119670420243 0 611.80119670420243 -896.38443483517767 0 0 0 0 -665.70822364247215 793.91323908800769 0 793.91323908800769 6.1013333070950466 0 0 0 0 -1080.3506410038717 760.32790126449254 0 760.32790126449254 342.94775238347211 0 0 0 0 -284.03847300282359 470.40156804543221 0 470.40156804543221 105.13820726461563 0 0 0 0 -590.98208882474319 756.21219631301756 0 756.21219631301756 10.176987594350067 0 0 0 0 -1073.3292841154653 1396.8188165876854 0 1396.8188165876854 -828.92170187871307 0 0 0 0 -1867.6382050080356 845.13258655170284 0 845.13258655170284 470.74559019139269 0 0 0 0 -1331.4922940771703 -39.042406998218212 0 -39.042406998218212 444.85863634866837 0 0 0 0 226.87687784367517 213.43979365993437 0 213.43979365993437 170.61986964080279 0 0 0 0 -738.40765726792961 326.66425287102174 0 326.66425287102174 311.23006039152824 0 0 0 0 80.708331790472585 430.91079425170756 0 430.91079425170756 198.75751893976849 0 0 0 0 -775.24272480458967 522.15265158615512 0 522.15265158615512 419.98767696496361 0 0 0 0 -1060.9749655558633 611.04297535084652 0 611.04297535084652 452.09683610964566 0 0 0 0 -1118.936464625679 796.90434550839745 0 796.90434550839745 317.72131824301323 0 0 0 0 -697.1396912938726 586.24644997244468 0 586.24644997244468 396.911331416748 0 0 0 0 -558.2026962104228 729.04342454238213 0 729.04342454238213 154.37724070576951 0 0 0 0 -310.02426482830197 435.88123223873117 0 435.88123223873117 250.72354263556917 0 0 0 0 -206.8803834004957 626.1787504819622 0 626.1787504819622 60.421980563274701 0 0 0 0 242.64781647228301 589.10417256472283 0 589.10417256472283 20.522905205070856 0 0 0 0 -251.2911884036439 553.83120971727476 0 553.83120971727476 144.9284178711564 0 0 0 0 488.10163280006236 544.92658002321696 0 544.92658002321696 -265.69255526216148 0 0 0 0 77.712820850987782 493.44825125320403 0 493.44825125320403 -95.245229537569685 0 0 0 0 -552.04231735260691 826.21875012086821 0 826.21875012086821 -37.755179485451663 0 0 0 0 89.125331317885866 707.96714043192333 0 707.96714043192333 -1081.9785782625331 0 0 0 0 -997.89879027288453 1032.6716391469936 0 1032.6716391469936 -88.910896967689041 0 0 0 0 -2788.3654985432167 29.185759769838114 0 29.185759769838114 102.62272234950797 0 0 0 0 -1354.2671132626529 287.63197320884501 0 287.63197320884501 -49.281521287572104 0 0 0 0 1467.9934701961993 294.59957660979126 0 294.59957660979126 -213.73818536092585 0 0 0 0 -316.96559530192826 670.27635206647756 0 670.27635206647756 -652.23057337595674 0 0 0 0 1.0775913267099706 15.78533540193774 0 15.78533540193774 -11.446560750985839 0 0 0 0 976.51723878894336 571.93153906647785 0 571.93153906647785 34.617262080337241 0 0 0 0 540.25007306723637 290.73788577380765 0 290.73788577380765 80.285276637121569 0 0 0 0 881.2196278311776 142.29366747651693 0 142.29366747651693 29.619734480365878 0 0 0 0 292.20961730879208 423.69232296137488 0 423.69232296137488 72.941132464489783 0 0 0 0 740.94981683388869 455.93672018117286 0 455.93672018117286 -126.76851972573786 0 0 0 0 574.71755932818633 297.30318677806645 0 297.30318677806645 107.2078356493148 0 0 0 0 574.25660073454492 280.88026739538327 0 280.88026739538327 -7.0147249691326579 0 0 0 0 681.01213358348468 -411.42526352872665 0 -411.42526352872665 -55.555413337046048 0 0 0 0 -1920.2505827259083 1759.5329777697625 0 1759.5329777697625 -562.62030715869332 0 0 0 0 -206.56230791856797 -1215.0785198204685 0 -1215.0785198204685 -696.40369445846136 0 0 0 0 -1601.816495232335 -440.62426820823021 0 -440.62426820823021 710.86641136251274 0 0 0 0 -26.817036063434728 24.672145830330294 0 24.672145830330294 -11.877915697047143 0 0 0 0 -10.655230261865668 18.853715930989718 0 18.853715930989718 -1.5828983927251556 0 0 0 0 -220.9567594320506 168.90234378768218 0 168.90234378768218 948.32458457711618 0 0 0 0 -5.8906771481197211 231.96106583227811 0 231.96106583227811 41.690447713664071 0 0 0 0 -24.488185393791355 18.817613186496601 0 18.817613186496601 -1.1502237436216092 0 0 0 0 -22.401476252167917 29.146996164851259 0 29.146996164851259 6.0977680131020122 0 0 0 0 55.352189191129582 52.658086951923906 0 52.658086951923906 38.098893049958861 0 0 0 0 -20.484264628568781 95.568458450041362 0 95.568458450041362 15.059149159675144 0 0 0 0 396.10294274074261 353.14801241950499 0 353.14801241950499 182.54967113558087 0 0 0 0 630.50677165413072 324.03372601159208 0 324.03372601159208 145.18285631045728 0 0 0 0 80.939248447716864 427.54087472849869 0 427.54087472849869 247.88639389649325 0 0 0 0 -13.000915526204302 8.4316987108383472 0 8.4316987108383472 -3.1706455053336811 0 0 0 0 -62.73168209263531 8.7104674990405329 0 8.7104674990405329 17.814296647760784 0 0 0 0 -146.59598399628521 154.86771040521126 0 154.86771040521126 -16.77922652176494 0 0 0 0 168.71090073638152 450.27951611862954 0 450.27951611862954 203.03211164849927 0 0 0 0 -34.400318873006256 25.815606389035096 0 25.815606389035096 -11.52074530695532 0 0 0 0 -31.407328956880519 -20.19086589870858 0 -20.19086589870858 49.069031215476571 0 0 0 0 -56.42388528882293 44.113818652869668 0 44.113818652869668 -9.3154983374406584 0 0 0 0 22.294180967124703 5.0065775623370428 0 5.0065775623370428 -11.139052929444006 0 0 0 0 62.414202670697705 72.700610961055645 0 72.700610961055645 53.983297636004863 0 0 0 0 -26.032708819056424 13.944463675892834 0 13.944463675892834 13.835469210986815 0 0 0 0 176.60936494090856 75.229794070844946 0 75.229794070844946 -0.29069744823209476 0 0 0 0 -12.991075753600747 27.586154949460166 0 27.586154949460166 -2.0790975378315295 0 0 0 0 31.331630705504722 -43.072169086508438 0 -43.072169086508438 -63.7229117640818 0 0 0 0 31.838247194008545 -35.71016597893049 0 -35.71016597893049 37.878028272883967 0 0 0 0 -52.115222588130564 14.438606553470891 0 14.438606553470891 -45.784911247726995 0 0 0 0 -365.84768189891929 172.73431599658397 0 172.73431599658397 -73.004795993329026 0 0 0 0 -101.31456402334152 -71.841697011972428 0 -71.841697011972428 -92.019077161268797 0 0 0 0 -333.4231339531907 -8.3777780620803242 0 -8.3777780620803242 2.1424109594881884 0 0 0 0 6.2969397131964797 36.891126532922499 0 36.891126532922499 -123.66446061765237 0 0 0 0 -508.66798582601768 -60.319779916113475 0 -60.319779916113475 -36.922253158714739 0 0 0 0 96.399903092053137 -84.507805742650817 0 -84.507805742650817 -110.63343458511372 0 0 0 0 -3.1438059957826425 -2.0718492023374182 0 -2.0718492023374182 -0.86306507858733283 0 0 0 0 -321.45922791584962 673.34023604167669 0 673.34023604167669 -1070.4615657247923 0 0 0 0 -1007.7681698765955 357.15949420108882 0 357.15949420108882 -18.41823017851857 0 0 0 0 -449.85642692341207 150.61874553587404 0 150.61874553587404 -7.1872257264403743 0 0 0 0 -456.72189828555383 540.93131600244112 0 540.93131600244112 -261.51070429719402 0 0 0 0 -204.49395662641314 394.72267629822159 0 394.72267629822159 -149.31753636158828 0 0 0 0 -73.555523557508423 309.65820484887081 0 309.65820484887081 -289.31529700964165 0 0 0 0 -60.496462516935026 309.63494987396552 0 309.63494987396552 -166.59073957467626 0 0 0 0 -34.551804447342874 238.24785472035001 0 238.24785472035001 -120.23312476791034 0 0 0 0 -47.133846729935613 238.51559174613794 0 238.51559174613794 -105.34058927907608 0 0 0 0 4.6428791044695856 24.893458146167262 0 24.893458146167262 7.8247746083212881 0 0 0 0 -18.9868976107864 193.10512938825559 0 193.10512938825559 -127.239060415719 0 0 0 0 94.549097534545581 117.50971447780466 0 117.50971447780466 -105.80330589541245 0 0 0 0 -72.489840809590532 157.36441491048754 0 157.36441491048754 -145.20086119675034 0 0 0 0 -86.329386682678887 228.23569135129583 0 228.23569135129583 -507.08370036655833 0 0 0 0 422.04925708688097 283.71096342603414 0 283.71096342603414 -42.557949069552706 0 0 0 0 266.30680865748946 -148.68006174052607 0 -148.68006174052607 -800.77925770041475 0 0 0 0 30.103237423544073 60.9352016309237 0 60.9352016309237 45.291080292534986 0 0 0 0 161.51393661056863 310.41481657778786 0 310.41481657778786 273.72260359480424 0 0 0 0 136.82422718188536 172.29578285083699 0 172.29578285083699 108.57841768332582 0 0 0 0 275.41075596857081 48.19862228090642 0 48.19862228090642 -262.96947181255382 0 0 0 0 -40.179897518824873 -45.580585558593157 0 -45.580585558593157 168.87561764319253 0 0 0 0 4.3458217329898616 -181.91190185164305 0 -181.91190185164305 -49.500978868531092 0 0 0 0 -118.80685720162001 -150.79382242380234 0 -150.79382242380234 31.91496556592756 0 0 0 0 -1224.8165270409881 -546.07259532170428 0 -546.07259532170428 -81.228819561514683 0 0 0 0 -1010.2202802953907 1287.0105965981493 0 1287.0105965981493 -713.85605231850059 0 0 0 0 -648.85721696729161 -127.01463050234452 0 -127.01463050234452 395.50068655090581 0 0 0 0 -275.17878204823501 708.56418974741246 0 708.56418974741246 641.41928908435511 0 0 0 0 1556.681656999579 1013.0509434798623 0 1013.0509434798623 -1311.7377496668778 0 0 0 0 -3.1296782000006829 6.5984787070241318 0 6.5984787070241318 -14.202183874734089 0 0 0 0 -675.68255239879363 -201.44456560297112 0 -201.44456560297112 -68.760505505502806 0 0 0 0 671.18909173180145 80.866175333052524 0 80.866175333052524 145.23889680481079 0 0 0 0 -918.67396612211087 -54.157655822775268 0 -54.157655822775268 115.67169670411749 0 0 0 0 -12.696852163622026 8.4667656722344162 0 8.4667656722344162 -6.1103551849775215 0 0 0 0 671.66336855291593 764.23815601851311 0 764.23815601851311 -1572.8424988277111 0 0 0 0 241.43784125866296 1281.0479867705617 0 1281.0479867705617 -1260.2318800890353 0 0 0 0 -1454.0857145808986 881.0036546936899 0 881.0036546936899 1126.2305052862648 0 0 0 0 -1266.759458786677 129.94617956332513 0 129.94617956332513 783.3089211399456 0 0 0 0 -903.31957586979479 223.76103634445099 0 223.76103634445099 695.45532090082997 0 0 0 0 -918.57368561007024 297.2496865767389 0 297.2496865767389 729.34362050832715 0 0 0 0 -913.98949593133875 208.72836968857882 0 208.72836968857882 740.88591809154605 0 0 0 0 -874.08187691499188 214.16768157324259 0 214.16768157324259 611.5268578009709 0 0 0 0 -869.22148054570425 175.26775013640872 0 175.26775013640872 692.69745457523095 0 0 0 0 -767.35016282935976 400.43261818519386 0 400.43261818519386 925.38817055958498 0 0 0 0 -708.86662153273937 325.50098247321148 0 325.50098247321148 1073.174031753093 0 0 0 0 -765.66104747937061 154.7363066716498 0 154.7363066716498 642.49299062750652 0 0 0 0 -679.25981490782578 302.20542992505943 0 302.20542992505943 949.40599424071843 0 0 0 0 -462.59852280245832 -155.64763907577071 0 -155.64763907577071 93.07631334765756 0 0 0 0 -113.35145178642415 251.4176722049524 0 251.4176722049524 51.241344619287702 0 0 0 0 116.77471826024703 89.757056448481308 0 89.757056448481308 -63.4544926614617 0 0 0 0 -322.84184590195946 202.31512554521032 0 202.31512554521032 1241.5766691065801 0 0 0 0 220.92782786604948 932.06384435987275 0 932.06384435987275 362.1537570798755 0 0 0 0 -372.89814897783799 315.04866939492058 0 315.04866939492058 879.61048160643259 0 0 0 0 -177.72553361755308 571.72108782641499 0 571.72108782641499 1080.1111857823562 0 0 0 0 -166.76732489300957 765.72122715081787 0 765.72122715081787 1796.1615270961775 0 0 0 0 924.49893193952448 1856.5036822776092 0 1856.5036822776092 1508.7829714710097 0 0 0 0 872.16341219004244 3007.0690082599685 0 3007.0690082599685 2941.5758845027885 0 0 0 0 4503.1892476538778 78.447811839359929 0 78.447811839359929 -4215.5262582775613 0 0 0 0 -9.4639138841594104 198.82943340452766 0 198.82943340452766 -96.75218416073767 0 0 0 0 65.845319034845915 92.994905397177746 0 92.994905397177746 -7.7918283689090799 0 0 0 0 -47.21127172128763 247.55834210633475 0 247.55834210633475 -44.8470515316003 0 0 0 0 -47.245590231381357 229.5996490546604 0 229.5996490546604 -81.556195885546913 0 0 0 0 8.0188038255873835 129.32290571542399 0 129.32290571542399 36.632347888407821 0 0 0 0 54.950081326562113 102.71941941007358 0 102.71941941007358 33.524250221467355 0 0 0 0 -1044.7506338388921 -510.72400229093182 0 -510.72400229093182 -290.66038051786745 0 0 0 0 117.38808120093745 54.537012018117821 0 54.537012018117821 -65.698338314752618 0 0 0 0 -65.917506808487815 184.60633190633416 0 184.60633190633416 -109.3421517021925 0 0 0 0 -210.46543070428015 278.26181097757944 0 278.26181097757944 21.126681800262304 0 0 0 0 -252.85280944715487 398.40007711523504 0 398.40007711523504 -153.60210730001199 0 0 0 0 -52.02062863914739 28.366163968033788 0 28.366163968033788 9.0830223887650092 0 0 0 0 -126.89831990379025 281.62611202432163 0 281.62611202432163 -262.95194947850541 0 0 0 0 -124.82364564759337 351.30467069746373 0 351.30467069746373 -136.76205261602445 0 0 0 0 -55.718222060491826 610.31874505352243 0 610.31874505352243 -1414.085295905963 0 0 0 0 -20.497239834654124 -2.3605446194720798 0 -2.3605446194720798 -1.9084211611737132 0 0 0 0 -1221.6026750423189 670.27904774897615 0 670.27904774897615 478.42066091452216 0 0 0 0 17.586005316697992 77.618875050335191 0 77.618875050335191 -529.8123257830739 0 0 0 0 -288.75021046767506 209.22737642711945 0 209.22737642711945 -140.86637845769292 0 0 0 0 -211.18006303352013 -379.67036609933712 0 -379.67036609933712 983.06079357028284 0 0 0 0 0.72127791747647052 7.3333127194628389 0 7.3333127194628389 13.303232922961655 0 0 0 0 -214.04585990056512 408.28261461060174 0 408.28261461060174 -644.9808375890716 0 0 0 0 -465.18261062418242 512.48786169937921 0 512.48786169937921 207.92028286258574 0 0 0 0 -36.063655342597485 567.03200339992873 0 567.03200339992873 -295.9398241884046 0 0 0 0 -415.28374432172131 114.75905587360467 0 114.75905587360467 34.832084295863751 0 0 0 0 -358.24581682233111 227.8003531282302 0 227.8003531282302 82.003544190782122 0 0 0 0 -443.84079713464598 244.54627219102986 0 244.54627219102986 420.33918216394522 0 0 0 0 -1.4228684129172109 30.197478624633561 0 30.197478624633561 -2.2823242094225407 0 0 0 0 -357.03129695071402 524.24009625778854 0 524.24009625778854 -5.1620224747166503 0 0 0 0 -339.79251328101964 367.73669404754764 0 367.73669404754764 189.23406039894326 0 0 0 0 -381.36411134926675 281.72935761002736 0 281.72935761002736 41.349481586512411 0 0 0 0 -336.57360031464486 283.57704372744774 0 283.57704372744774 32.03675232661044 0 0 0 0 -352.78848311252659 229.84518391854908 0 229.84518391854908 -89.274239724953077 0 0 0 0 -439.7566025662527 278.4103072947255 0 278.4103072947255 46.853212423771765 0 0 0 0 -62.279545991985742 76.657315144732067 0 76.657315144732067 -29.663572214983702 0 0 0 0 -11.498862258773073 18.031281986855788 0 18.031281986855788 -21.592222335803854 0 0 0 0 -583.33381789075793 1060.3679705495088 0 1060.3679705495088 -691.65120235424547 0 0 0 0 -650.60145979540539 34.012630887009436 0 34.012630887009436 788.8080297804554 0 0 0 0 -120.66096961614312 73.608204831296462 0 73.608204831296462 105.65809478264418 0 0 0 0 -840.95185461813526 14.124138169368962 0 14.124138169368962 -497.930158232135 0 0 0 0 -320.85356320210485 352.33992984498218 0 352.33992984498218 -838.52555478204158 0 0 0 0 -260.23740841537074 179.17935772880446 0 179.17935772880446 -522.31401841310435 0 0 0 0 -236.18045903975144 83.013740800146479 0 83.013740800146479 -291.62885461519181 0 0 0 0 -114.2877788519836 302.98574704104976 0 302.98574704104976 -375.94726111518685 0 0 0 0 -340.9697459480667 350.41239294192928 0 350.41239294192928 32.620518963172799 0 0 0 0 -113.48684959986713 236.23222897967935 0 236.23222897967935 -73.990279448218644 0 0 0 0 -64.331919051225668 131.28227247394898 0 131.28227247394898 -341.80121021569357 0 0 0 0 -71.185395940607123 46.744946494873147 0 46.744946494873147 -117.04555134983093 0 0 0 0 -110.18147219529783 213.83227270102361 0 213.83227270102361 -180.35371850527008 0 0 0 0 -113.94289053445391 243.81833063512022 0 243.81833063512022 -65.803221273556119 0 0 0 0 -68.379685067084381 65.852250726629194 0 65.852250726629194 -29.775322773664797 0 0 0 0 -327.27293962505064 153.78010008877027 0 153.78010008877027 -322.64840738954808 0 0 0 0 -62.219242823714012 204.27088479308441 0 204.27088479308441 -87.762232887733262 0 0 0 0 206.49448750091688 354.15906974211612 0 354.15906974211612 405.97333016317862 0 0 0 0 7.6749578708907507 6.0317121356028309 0 6.0317121356028309 -21.353184061071417 0 0 0 0 -151.17369464328658 222.0002195745401 0 222.0002195745401 -78.572147195423895 0 0 0 0 11.099792778002531 32.731756218442541 0 32.731756218442541 -89.176917856088096 0 0 0 0 21.204940295479901 97.592245902538707 0 97.592245902538707 -290.94017245947907 0 0 0 0 -6.2192146834136253 21.837848430389755 0 21.837848430389755 -7.9159550492963717 0 0 0 0 -31.903218421219208 91.255565475119511 0 91.255565475119511 -134.12159698928008 0 0 0 0 -64.026181602326687 109.41252027645533 0 109.41252027645533 -109.25602696063288 0 0 0 0 135.35524013993563 239.86974591799662 0 239.86974591799662 -113.93656813711459 0 0 0 0 -52.085475622589001 161.52634483650036 0 161.52634483650036 -15.403220125648659 0 0 0 0 -33.140423963632202 197.9431071504514 0 197.9431071504514 -117.25877661312188 0 0 0 0 8.1018534029426519 582.95882862892904 0 582.95882862892904 182.00010520842261 0 0 0 0 -128.04832428586815 303.36481464378448 0 303.36481464378448 185.61248547126888 0 0 0 0 94.386531658048625 73.471655036213633 0 73.471655036213633 -103.46334725152701 0 0 0 0 7.2508475357099087 136.69383299189212 0 136.69383299189212 239.40706352067355 0 0 0 0 36.2227127953538 92.92256388111673 0 92.92256388111673 139.76358353710384 0 0 0 0 -153.1800861310694 58.321394054510165 0 58.321394054510165 297.61214306979673 0 0 0 0 -129.32466245312389 150.43225367466221 0 150.43225367466221 130.75480096615502 0 0 0 0 -39.617662311060158 32.654790085372973 0 32.654790085372973 121.63438016840189 0 0 0 0 -447.06419052369893 -41.761785831273301 0 -41.761785831273301 489.25129260921676 0 0 0 0 -73.562180080007238 375.37696096635045 0 375.37696096635045 601.76650782578508 0 0 0 0 -192.03751554094924 -90.308262968494091 0 -90.308262968494091 -97.036248731368687 0 0 0 0 -581.70214324652625 158.4922176990658 0 158.4922176990658 -200.15497907908866 0 0 0 0 3.2202427355613992 41.184403667923803 0 41.184403667923803 -19.17191031339209 0 0 0 0 624.27025151838461 777.9418758408101 0 777.9418758408101 375.67969858521246 0 0 0 0 11.002616157909856 19.348887837299031 0 19.348887837299031 1.4616653155872541 0 0 0 0 -332.34468423355429 -151.71599235628673 0 -151.71599235628673 175.2080379082181 0 0 0 0 -177.60984065052435 -25.43912737746723 0 -25.43912737746723 153.68027693760814 0 0 0 0 -373.23785120015964 -121.50285775502562 0 -121.50285775502562 110.91506847005803 0 0 0 0 -347.45357559721742 166.36179804513813 0 166.36179804513813 -232.48929196302197 0 0 0 0 -567.0853796878946 374.519297255727 0 374.519297255727 -196.73762001015348 0 0 0 0 -635.42633728323563 126.68349213582405 0 126.68349213582405 29.564893800787104 0 0 0 0 68.365664635679423 222.20281834896741 0 222.20281834896741 418.68278330935573 0 0 0 0 52.342397623594124 79.788787457901819 0 79.788787457901819 -39.670046485795339 0 0 0 0 -83.510793873429066 190.10905460604408 0 190.10905460604408 528.8193833872283 0 0 0 0 -41.480206619562523 227.94010094448458 0 227.94010094448458 439.47276293278992 0 0 0 0 91.093924152824911 132.72366845738361 0 132.72366845738361 291.43728158727754 0 0 0 0 -201.25522185897898 -70.058713480981169 0 -70.058713480981169 244.74023189254513 0 0 0 0 -7.2591611470670614 62.442113597302523 0 62.442113597302523 283.73973999989539 0 0 0 0 -240.22256637891405 165.17124568240797 0 165.17124568240797 -20.747391764307395 0 0 0 0 124.91535881761956 -3.5956182202280615 0 -3.5956182202280615 92.969201100782811 0 0 0 0 30.841148215419963 69.387004676229651 0 69.387004676229651 33.685344791884347 0 0 0 0 -429.42797856763082 96.957889331323713 0 96.957889331323713 -33.278854472358944 0 0 0 0 -373.0302998223342 403.32486782441265 0 403.32486782441265 451.74737426065258 0 0 0 0 -55.964609149107559 89.319137908750889 0 89.319137908750889 -19.1033778625944 0 0 0 0 22.776773604372053 49.196196435422564 0 49.196196435422564 -35.358721748918128 0 0 0 0 60.865331421082374 -69.4095313361031 0 -69.4095313361031 907.80589764012257 0 0 0 0 -101.88683093810687 458.3192298905924 0 458.3192298905924 564.51903676174697 0 0 0 0 -724.18136269538081 597.47764440233004 0 597.47764440233004 594.42938685894478 0 0 0 0 84.876927930294187 195.65845048660412 0 195.65845048660412 225.01690212501853 0 0 0 0 46.527878505924292 81.3447753488486 0 81.3447753488486 -52.180853153196551 0 0 0 0 97.214657657823409 -54.956463591865031 0 -54.956463591865031 526.15536478910508 0 0 0 0 156.55551509678116 437.02859063662618 0 437.02859063662618 395.26469316831208 0 0 0 0 324.14132855155913 103.91364610582241 0 103.91364610582241 208.74227042595157 0 0 0 0 43.287811955233337 55.099800841329852 0 55.099800841329852 187.3515875992307 0 0 0 0 57.542266705095244 183.7126347174526 0 183.7126347174526 291.60140199770103 0 0 0 0 58.695937040247372 87.791414926970901 0 87.791414926970901 192.30961897940142 0 0 0 0 77.107820935631025 64.331850275746547 0 64.331850275746547 67.157499399269 0 0 0 0 -23.945850010767856 20.631603017875648 0 20.631603017875648 16.127058093975833 0 0 0 0 119.55348798767955 -0.75913799511909019 0 -0.75913799511909019 164.50974166571177 0 0 0 0 135.77216255931489 48.045288296951185 0 48.045288296951185 45.514137860911433 0 0 0 0 -551.80433132819599 31.455084653440281 0 31.455084653440281 172.22479987547558 0 0 0 0 -1193.8556845509884 397.22174942345009 0 397.22174942345009 628.57487343924004 0 0 0 0 -580.24035674356855 123.70351815826143 0 123.70351815826143 283.31217179156374 0 0 0 0 -141.10824193412554 210.99448253723676 0 210.99448253723676 278.34368521368015 0 0 0 0 -578.39267568187279 159.96522665638622 0 159.96522665638622 413.79416195460362 0 0 0 0 -187.80888655773015 42.871049202338327 0 42.871049202338327 201.67639825599326 0 0 0 0 -80.439529957686318 -75.729721603536746 0 -75.729721603536746 39.933674720814452 0 0 0 0 -1346.4823973259481 1545.3901914824964 0 1545.3901914824964 435.64938160185557 0 0 0 0 -639.69648305722512 3.3051192729108152 0 3.3051192729108152 137.48272951151012 0 0 0 0 -1181.6304302169592 415.9332428422058 0 415.9332428422058 40.219308974628802 0 0 0 0 -266.57006461803394 814.18733021529624 0 814.18733021529624 -1250.4129375987832 0 0 0 0 -10.323431062370446 2.7163405931902105 0 2.7163405931902105 -1.1177068110594632 0 0 0 0 -1286.2368828789768 551.74094660459377 0 551.74094660459377 -490.33968877553707 0 0 0 0 -971.30706735365675 944.64192082051886 0 944.64192082051886 -857.92057609555195 0 0 0 0 -385.50058764473215 500.21451420465746 0 500.21451420465746 -540.14911375014344 0 0 0 0 -577.90052217783523 720.92024085117737 0 720.92024085117737 -784.65878847133717 0 0 0 0 -800.36048738165118 270.38629728509113 0 270.38629728509113 -356.75652824706049 0 0 0 0 -85.19694401796005 630.30071916474844 0 630.30071916474844 -1065.943948767439 0 0 0 0 -40.293528851067094 426.04539945488796 0 426.04539945488796 -707.09373463899828 0 0 0 0 -400.84249072613602 212.54449299670523 0 212.54449299670523 -21.002257658707094 0 0 0 0 275.98177117868181 224.29141870183958 0 224.29141870183958 -315.10377324157162 0 0 0 0 7.1421346304425697 10.79938431116377 0 10.79938431116377 3.2642533778586653 0 0 0 0 11.748467796103796 30.840606298726925 0 30.840606298726925 188.70763392504887 0 0 0 0 -38.729460450245512 34.024577513312529 0 34.024577513312529 110.16269779781408 0 0 0 0 -98.249647066812031 5.3472079426719574 0 5.3472079426719574 189.95456076300616 0 0 0 0 71.617055123944738 124.26197441047407 0 124.26197441047407 106.93875196067893 0 0 0 0 -42.942991397962032 95.848786181406467 0 95.848786181406467 173.69210472410487 0 0 0 0 -78.812187712319428 168.5969617566152 0 168.5969617566152 301.25319128656702 0 0 0 0 25.967085954112918 101.82339679580036 0 101.82339679580036 160.08677456982696 0 0 0 0 40.576517805795987 63.744332555977309 0 63.744332555977309 -13.283860226681384 0 0 0 0 53.933351888064863 -390.03614296161868 0 -390.03614296161868 -963.74934395891614 0 0 0 0 97.806892466749559 147.27996132503176 0 147.27996132503176 164.94550008320948 0 0 0 0 -30.810186748960405 136.0914894589805 0 136.0914894589805 182.74114092893433 0 0 0 0 -45.795312784131966 69.984943427349208 0 69.984943427349208 107.19994285452412 0 0 0 0 -34.259621055200114 179.50422214731225 0 179.50422214731225 -59.228325717500411 0 0 0 0 -76.159103433426935 264.71309857853339 0 264.71309857853339 -100.56793416882283 0 0 0 0 -123.01644979482808 176.98456099798204 0 176.98456099798204 29.540214741587988 0 0 0 0 -47.638689162682567 100.89466759670177 0 100.89466759670177 37.221749994670972 0 0 0 0 -151.9626215470671 225.73799998376489 0 225.73799998376489 -3.5121970698528457 0 0 0 0 -236.75333662886987 188.22174166014884 0 188.22174166014884 0.58602284382504877 0 0 0 0 -232.1083592483119 314.23709834410693 0 314.23709834410693 -43.819315653323429 0 0 0 0 -321.62690689955105 709.7193481725601 0 709.7193481725601 -411.31724540007417 0 0 0 0 -315.11399431077007 505.70372902965755 0 505.70372902965755 -79.489927475719014 0 0 0 0 -547.0603026065437 424.95760668918956 0 424.95760668918956 -80.80132528001559 0 0 0 0 -980.70220567606884 826.59635622610222 0 826.59635622610222 -226.38830827253696 0 0 0 0 -43.315874090458237 712.25524783364381 0 712.25524783364381 -508.28805726830615 0 0 0 0 -365.2012679659274 1051.3627885803944 0 1051.3627885803944 -762.73160196442041 0 0 0 0 308.15694138994149 900.89347182837082 0 900.89347182837082 -952.2494236950879 0 0 0 0 -414.11687074301153 616.12790870200843 0 616.12790870200843 -840.43305092304945 0 0 0 0 -1356.4416423569492 1003.0866992022347 0 1003.0866992022347 -384.76888901030179 0 0 0 0 -77.933164091195067 665.28269786325836 0 665.28269786325836 -488.45895537163597 0 0 0 0 250.09032164734526 567.48554913314001 0 567.48554913314001 -612.25596950613544 0 0 0 0 228.46801807950942 339.79031050199501 0 339.79031050199501 -325.82267193653388 0 0 0 0 -161.37235614957171 652.91038518082496 0 652.91038518082496 -447.87207994627533 0 0 0 0 21.049302548624837 448.68642947200715 0 448.68642947200715 -301.47418701832066 0 0 0 0 -23.944790520571587 616.69774140634036 0 616.69774140634036 -565.91260784544284 0 0 0 0 -183.6614129334921 360.26656638053828 0 360.26656638053828 -427.85281748294074 0 0 0 0 -222.36594764557958 528.40534804620256 0 528.40534804620256 -700.99012685514754 0 0 0 0 -506.77600704593351 322.55757835811528 0 322.55757835811528 -392.61524894766626 0 0 0 0 -473.67606747155151 231.00258064649825 0 231.00258064649825 -257.03611443829141 0 0 0 0 -423.40081155898224 514.6988583655766 0 514.6988583655766 -534.7182911877826 0 0 0 0 -394.01077004172839 314.3126465495734 0 314.3126465495734 -280.60807633533841 0 0 0 0 -152.56216145056896 312.05335898379781 0 312.05335898379781 -383.79634016953059 0 0 0 0 -268.63426445193181 219.8949298554071 0 219.8949298554071 -279.86269868569798 0 0 0 0 -267.55943895475502 80.296318098698976 0 80.296318098698976 -71.354691271641059 0 0 0 0 -164.98976858017704 174.79359398696397 0 174.79359398696397 -149.69594706021599 0 0 0 0 -140.81875220491202 189.06636756933585 0 189.06636756933585 -238.684133619965 0 0 0 0 -122.22963903068012 60.773842451235396 0 60.773842451235396 -82.608489699079655 0 0 0 0 1.581756222563854 297.58075196449499 0 297.58075196449499 -239.5705204687838 0 0 0 0 -58.920102431191481 425.07093849856756 0 425.07093849856756 -401.10274051150918 0 0 0 0 346.74951738939126 249.12363149694283 0 249.12363149694283 -172.85694584361045 0 0 0 0 157.56680095092452 92.476606029042159 0 92.476606029042159 42.688938451028662 0 0 0 0 183.53688594362029 345.56545993718464 0 345.56545993718464 -227.12841432087589 0 0 0 0 -45.824153941601253 199.71863391091028 0 199.71863391091028 -8.6071574533416424 0 0 0 0 -128.76363933132234 26.130419415785582 0 26.130419415785582 41.661481349699898 0 0 0 0 -70.332559908543772 1.0507867356209317 0 1.0507867356209317 -14.093436648952775 0 0 0 0 27.010709165602748 164.37863770126569 0 164.37863770126569 -149.75999888173385 0 0 0 0 132.45467632492546 10.149264151934403 0 10.149264151934403 71.797599714627722 0 0 0 0 27.45903436136723 101.40954630271881 0 101.40954630271881 10.506502750882646 0 0 0 0 244.4092039889847 352.80509090801024 0 352.80509090801024 214.87307300227985 0 0 0 0 458.92258171200956 235.4643916328132 0 235.4643916328132 261.76827771378157 0 0 0 0 -2.0762635042576534 16.743684263331176 0 16.743684263331176 -28.572499290354301 0 0 0 0 333.35164535783406 184.24761129793478 0 184.24761129793478 312.14036631031195 0 0 0 0 480.20146854820632 688.72682411025016 0 688.72682411025016 611.31160446262584 0 0 0 0 -105.58358572824363 10.267952222173335 0 10.267952222173335 149.39186131252791 0 0 0 0 11.028732986739669 -39.616279711948664 0 -39.616279711948664 115.93603935994906 0 0 0 0 0.93295610756103997 23.453378146259638 0 23.453378146259638 117.32052816376381 0 0 0 0 0.14658928875726929 18.365101279609874 0 18.365101279609874 -29.431596899478222 0 0 0 0 363.60246082385129 1077.4381536675937 0 1077.4381536675937 536.42278302827617 0 0 0 0 -2.1626813876099504 5.102621872512529 0 5.102621872512529 2.0913014391302909 0 0 0 0 -644.49536891725074 1167.7910992186517 0 1167.7910992186517 -511.23118931209319 0 0 0 0 1166.3155341607417 499.54796659357089 0 499.54796659357089 -496.99642133226735 0 0 0 0 396.45979091883055 507.03120578473317 0 507.03120578473317 -216.70866705945809 0 0 0 0 559.95754061031403 283.10153761199035 0 283.10153761199035 7.7806256270851009 0 0 0 0 220.08515768438519 368.84091708763299 0 368.84091708763299 146.16679543576902 0 0 0 0 -1245.586292792721 842.53385187187996 0 842.53385187187996 -1251.5434466400766 0 0 0 0 -74.810714540799381 22.045961489166075 0 22.045961489166075 30.988122565562662 0 0 0 0 -10.359230295360376 -3.4173455297172666 0 -3.4173455297172666 -25.158038157277815 0 0 0 0 -83.294685735789244 68.025950764582376 0 68.025950764582376 -101.26521534120548 0 0 0 0 -51.700519182437631 9.4070895255264873 0 9.4070895255264873 15.711625184209225 0 0 0 0 -29.897735344260582 29.50563810771564 0 29.50563810771564 20.724509745574323 0 0 0 0 -93.986990261590108 112.39360890128592 0 112.39360890128592 100.50172024502535 0 0 0 0 -94.28928647369321 94.77261430757062 0 94.77261430757062 211.36949333736266 0 0 0 0 -82.097981690429151 96.020501838804194 0 96.020501838804194 -28.225745667819865 0 0 0 0 -178.87776823090826 111.03124261766789 0 111.03124261766789 -20.793794157361845 0 0 0 0 -96.711392732016975 110.11242132833286 0 110.11242132833286 -29.712078307537013 0 0 0 0 -134.29833064957347 67.213208537265018 0 67.213208537265018 -44.159408420033287 0 0 0 0 -72.05586830250104 20.054179538157769 0 20.054179538157769 5.5404371114454989 0 0 0 0 -90.402244886616245 63.857954996208719 0 63.857954996208719 -78.991494892747141 0 0 0 0 -157.71158443303284 42.426677117218787 0 42.426677117218787 -15.614876218678546 0 0 0 0 -80.598660930074402 -72.200351013845648 0 -72.200351013845648 -59.284224888477183 0 0 0 0 46.330187989755359 14.396489905695489 0 14.396489905695489 -60.479391009663232 0 0 0 0 8.9556369035914187 38.030891196405094 0 38.030891196405094 -43.912073134731713 0 0 0 0 116.23582098605766 53.85904649143049 0 53.85904649143049 -228.72935613919981 0 0 0 0 17.122320988423205 31.851817788347375 0 31.851817788347375 -65.974210413595131 0 0 0 0 -127.50828931275464 45.844394582658424 0 45.844394582658424 35.706713878069422 0 0 0 0 -126.68069300751085 14.635476428287802 0 14.635476428287802 -186.16668844188098 0 0 0 0 -275.3804232430266 28.278535448829643 0 28.278535448829643 -120.06076540311915 0 0 0 0 -517.2633335665596 44.506096341443481 0 44.506096341443481 -262.7653451274382 0 0 0 0 -241.81611642899225 104.91901963533019 0 104.91901963533019 -285.08373557213054 0 0 0 0 -357.91449833393563 81.163076340031694 0 81.163076340031694 -135.41788807726698 0 0 0 0 -194.50242858444108 63.449350894792587 0 63.449350894792587 -169.24402425462904 0 0 0 0 -238.20267264778522 27.469017557057668 0 27.469017557057668 -32.03355728983297 0 0 0 0 -140.59348675442743 -17.60904769867193 0 -17.60904769867193 -66.340677154352306 0 0 0 0 -121.9992353186899 20.448751644937147 0 20.448751644937147 10.827635281137191 0 0 0 0 -180.46810200910841 -7.7184162547055166 0 -7.7184162547055166 -9.5771947242028546 0 0 0 0 -100.33120769675588 13.909264758287463 0 13.909264758287463 -4.8593777581663744 0 0 0 0 -202.21568547814968 -35.5757305813313 0 -35.5757305813313 2.1447525657422375 0 0 0 0 -160.94550504205108 35.933558879769407 0 35.933558879769407 -7.99539398818888 0 0 0 0 -141.23371302513988 -53.106264068017481 0 -53.106264068017481 -56.969964770862134 0 0 0 0 -87.108418430638267 -29.549918626296858 0 -29.549918626296858 12.024037688795943 0 0 0 0 -142.09844117394823 108.21537497488316 0 108.21537497488316 111.72262647221942 0 0 0 0 -142.53969785915979 94.425007569618174 0 94.425007569618174 -103.05125891210628 0 0 0 0 -224.39955068778363 -28.354455973436416 0 -28.354455973436416 -3.077867962536402 0 0 0 0 -16.63605702023613 2.5791205744703234 0 2.5791205744703234 -1.3009207838046564 0 0 0 0 -178.35068375556148 98.9820390232926 0 98.9820390232926 -53.484956907486776 0 0 0 0 -123.41724130682996 110.81047473152285 0 110.81047473152285 -83.322564978181617 0 0 0 0 -138.14532240392873 67.357071311023901 0 67.357071311023901 -55.591699313634308 0 0 0 0 -221.63949244876494 -26.988400534286484 0 -26.988400534286484 -36.290763189375866 0 0 0 0 -12.805645886743832 14.115838202151707 0 14.115838202151707 -1.6716523170024118 0 0 0 0 -184.49340505178225 33.714520108147553 0 33.714520108147553 18.39502526918659 0 0 0 0 -75.48255631513041 4.903575647274323 0 4.903575647274323 14.246953413269438 0 0 0 0 -107.36684491102642 52.56342238477373 0 52.56342238477373 -50.841943928870023 0 0 0 0 -93.922628119433284 65.940029971525291 0 65.940029971525291 -74.836218255251879 0 0 0 0 -82.511080010735895 61.079861984100717 0 61.079861984100717 -77.558325275022071 0 0 0 0 -2.9145858943006431 -5.360013545325188 0 -5.360013545325188 -10.955250376931872 0 0 0 0 -1196.7298596397377 1124.141841581637 0 1124.141841581637 -786.71631899349813 0 0 0 0 -90.878938546695281 72.867283049068647 0 72.867283049068647 -83.837363565107808 0 0 0 0 -1218.2576287866104 1010.0207383813104 0 1010.0207383813104 -820.49889161701867 0 0 0 0 -1510.1346631676643 1285.3268987178089 0 1285.3268987178089 -580.2072131200257 0 0 0 0 -1407.4700570011555 1021.5649919335774 0 1021.5649919335774 -34.904688103706576 0 0 0 0 -1328.2672254700374 1157.415084256143 0 1157.415084256143 -950.06689748413919 0 0 0 0 -1197.9687554079501 1109.0863087312464 0 1109.0863087312464 -968.75690914344159 0 0 0 0 -1806.7595649974828 973.82876128024509 0 973.82876128024509 213.41310629183863 0 0 0 0 -1341.8061073618883 875.27706137903442 0 875.27706137903442 193.54210304727894 0 0 0 0 -1495.9066292375719 681.84453656792175 0 681.84453656792175 18.179212287403061 0 0 0 0 -1088.3369425762048 681.35372463152726 0 681.35372463152726 -364.85120138703496 0 0 0 0 -1453.8550328804777 607.70974396717065 0 607.70974396717065 -44.144953259325121 0 0 0 0 -1142.6457320045083 263.17138863683795 0 263.17138863683795 264.99784917693614 0 0 0 0 -1890.6357526212742 379.05485255316307 0 379.05485255316307 499.95167874632898 0 0 0 0 -571.50464027897397 156.23617144855234 0 156.23617144855234 -11.796004263916984 0 0 0 0 -964.38723834584198 522.75006129239955 0 522.75006129239955 -349.8870208865992 0 0 0 0 -65.161399718170287 204.22340539045399 0 204.22340539045399 -7.4371276407218829 0 0 0 0 -281.28874812128197 101.9122717111095 0 101.9122717111095 -83.057935802717793 0 0 0 0 -1092.945384021099 707.42705085880425 0 707.42705085880425 -329.94696864577418 0 0 0 0 -3.6064412030467139 -1.28487845751593 0 -1.28487845751593 -1.8606881294238633 0 0 0 0 -273.466220364322 137.39027410849485 0 137.39027410849485 48.721272057649912 0 0 0 0 -143.33206572532799 55.804611497333099 0 55.804611497333099 2.6585153028136119 0 0 0 0 56.0831701529969 107.6819324672615 0 107.6819324672615 -33.785638957866468 0 0 0 0 -43.210462299255596 619.20820889811148 0 619.20820889811148 -153.81356329067785 0 0 0 0 -296.93281085279159 780.99313915893435 0 780.99313915893435 246.24961005618388 0 0 0 0 -181.8799489265366 938.24884206076968 0 938.24884206076968 41.681890853345976 0 0 0 0 647.59372908382647 1173.0111838786979 0 1173.0111838786979 -429.08226021354494 0 0 0 0 -21.949184838194924 8.7450004933489254 0 8.7450004933489254 153.0036891674099 0 0 0 0 -26.087394814469576 13.82397083318665 0 13.82397083318665 -4.3234417702154389 0 0 0 0 -1230.973539059778 1312.4371596348356 0 1312.4371596348356 -318.21675462866551 0 0 0 0 27.851231643158826 -12.650585267387214 0 -12.650585267387214 -0.96153171494370326 0 0 0 0 -20.409308578600758 -81.951481647993205 0 -81.951481647993205 102.32196848419699 0 0 0 0 -14.116505949361311 7.1091971017442575 0 7.1091971017442575 -1.8960038191470687 0 0 0 0 -662.38842624488643 866.6521422044334 0 866.6521422044334 -880.52217786539404 0 0 0 0 -121.67256567507138 -519.2733858825959 0 -519.2733858825959 828.53607935251785 0 0 0 0 -1568.9807266198113 -140.43429361677408 0 -140.43429361677408 1282.4440201808829 0 0 0 0 947.62426362318183 -224.54798965825285 0 -224.54798965825285 73.149817564757541 0 0 0 0 -1496.989689104128 -169.34616117361293 0 -169.34616117361293 756.90855616997578 0 0 0 0 -1528.4492495948821 157.60054149379857 0 157.60054149379857 634.53426053747535 0 0 0 0 -2864.8260178323399 763.06721182948968 0 763.06721182948968 877.00369042539023 0 0 0 0 -2917.2426801679248 782.40737768058898 0 782.40737768058898 -0.069916680920869112 0 0 0 0 -2257.4400558336929 652.61338703281217 0 652.61338703281217 -640.0921101489912 0 0 0 0 -2006.3144466696904 1018.1548825586433 0 1018.1548825586433 248.1385944653739 0 0 0 0 -2220.8449393739465 1438.050888110185 0 1438.050888110185 -355.41777747900051 0 0 0 0 -41.912202992451057 -19.563230982974346 0 -19.563230982974346 -71.123201400037942 0 0 0 0 -4.2191131179828432 6.4028296733781929 0 6.4028296733781929 -2.9592304183561282 0 0 0 0 80.840374724821231 85.223321126195515 0 85.223321126195515 -919.52763779983798 0 0 0 0 -59.7115274943244 -43.559751699413027 0 -43.559751699413027 150.92483381196507 0 0 0 0 -228.61868280784984 316.65561814703688 0 316.65561814703688 44.021474323963048 0 0 0 0 -8.9071555231312232 258.17112459592499 0 258.17112459592499 16.804361356378649 0 0 0 0 654.51569081135676 775.95421250187064 0 775.95421250187064 513.67494238131621 0 0 0 0 -0.83121686235824654 12.335443793707668 0 12.335443793707668 -21.457533971679339 0 0 0 0 368.57152951868193 510.15135701090912 0 510.15135701090912 611.71116385766072 0 0 0 0 77.700833168382815 267.20053470337007 0 267.20053470337007 249.38328049953998 0 0 0 0 340.11555371417217 157.98266673215403 0 157.98266673215403 229.68472583210678 0 0 0 0 705.64172766689444 463.2479111246721 0 463.2479111246721 214.87616365969097 0 0 0 0 -193.11288971041313 864.82207718853351 0 864.82207718853351 562.85918546091125 0 0 0 0 116.67870833490997 281.08472382744367 0 281.08472382744367 514.33599101487198 0 0 0 0 114.5675522182828 189.1488093314365 0 189.1488093314365 -359.5166564600222 0 0 0 0 -10.017548540017742 83.650411104972591 0 83.650411104972591 145.817101173845 0 0 0 0 28.936043508243074 79.098488895796436 0 79.098488895796436 -432.28390751079132 0 0 0 0 -16.675669048828908 12.048517318824736 0 12.048517318824736 -4.5451144652848114 0 0 0 0 292.89829908713 -818.13307766006619 0 -818.13307766006619 102.23439138260437 0 0 0 0 1.1674899066675124 4.4727218010738738 0 4.4727218010738738 -9.3331728549812851 0 0 0 0 17.34755751056673 29.500796776625066 0 29.500796776625066 82.65027189211105 0 0 0 0 23.977227955801936 10.91685839859565 0 10.91685839859565 118.73970985702181 0 0 0 0 47.20372094205959 73.992155755688145 0 73.992155755688145 0.32977076072711498 0 0 0 0 2.7342295573907904 54.893397928350169 0 54.893397928350169 91.477329791261582 0 0 0 0 69.665871404829886 56.716850951321248 0 56.716850951321248 90.870440359140048 0 0 0 0 -159.42837492718536 78.539568817141117 0 78.539568817141117 238.63403144748008 0 0 0 0 -91.919159936905999 148.21194823562109 0 148.21194823562109 0.043831286420754623 0 0 0 0 -110.49245213384802 169.15683274514231 0 169.15683274514231 134.49386808991403 0 0 0 0 -130.81344432261358 227.28231203980977 0 227.28231203980977 -0.043579816051300041 0 0 0 0 827.9776113694279 328.6878580895318 0 328.6878580895318 -234.18883497657953 0 0 0 0 -0.29940144585678752 0.58472562239801107 0 0.58472562239801107 4.5340359697239592 0 0 0 0 -342.24670025333398 277.35689765929419 0 277.35689765929419 86.151185407732555 0 0 0 0 163.77320372588565 503.49765452624706 0 503.49765452624706 -111.79332167236134 0 0 0 0 315.16293601477628 642.40138673882757 0 642.40138673882757 -0.0098772920009818268 0 0 0 0 418.52866017967972 528.6914831446702 0 528.6914831446702 -307.3171116841695 0 0 0 0 111.6159287132723 275.94387516046118 0 275.94387516046118 -177.25899238367128 0 0 0 0 194.78764164228414 588.51033691586053 0 588.51033691586053 -103.37176399903547 0 0 0 0 257.44943400372722 514.53416486451897 0 514.53416486451897 -336.94361344297067 0 0 0 0 115.06098734698389 527.54801390631474 0 527.54801390631474 -346.92935859969293 0 0 0 0 202.99889101990266 463.05792530646431 0 463.05792530646431 -312.56492839157363 0 0 0 0 78.191617501117435 450.34471817675512 0 450.34471817675512 -342.58120217901887 0 0 0 0 249.50957499127071 483.71067851955013 0 483.71067851955013 -416.4699758538336 0 0 0 0 240.9808627668499 444.83443720860214 0 444.83443720860214 -264.75032723796903 0 0 0 0 275.36645051666164 451.16866938767635 0 451.16866938767635 -336.29708462076087 0 0 0 0 72.882988232213393 -294.6852231063458 0 -294.6852231063458 -500.27734438038897 0 0 0 0 0.052158979484488555 3.3501147933945816 0 3.3501147933945816 13.743184102878217 0 0 0 0 -226.86176730598163 321.79959734635486 0 321.79959734635486 -161.15615788254217 0 0 0 0 -384.54440928256008 543.02394245809046 0 543.02394245809046 -243.50092177832266 0 0 0 0 -267.80322746447564 422.09173404508692 0 422.09173404508692 -357.8073081918119 0 0 0 0 -147.21598347632971 599.56415165070939 0 599.56415165070939 -363.33992024636245 0 0 0 0 -1188.0283562611367 610.13473716122826 0 610.13473716122826 -28.202232919138623 0 0 0 0 -764.15078070271193 372.32601456029806 0 372.32601456029806 -248.19432834607869 0 0 0 0 -1171.5048893731837 786.2991163948318 0 786.2991163948318 -87.500870646181284 0 0 0 0 -3.6150773642413228 6.7694612675738455 0 6.7694612675738455 25.485055829149701 0 0 0 0 -537.28381831691149 724.69674126533209 0 724.69674126533209 -299.90438555234869 0 0 0 0 -1375.1449006504081 1350.2752582885514 0 1350.2752582885514 -520.72355745956884 0 0 0 0 -2576.536215879838 225.39856586718815 0 225.39856586718815 -47.045221260385006 0 0 0 0 -502.73028695682297 778.15273121932842 0 778.15273121932842 -68.502611538191559 0 0 0 0 -484.52257455990184 666.74961515674659 0 666.74961515674659 -878.69208334469295 0 0 0 0 196.6624413928912 145.64472679873143 0 145.64472679873143 205.9887740752456 0 0 0 0 445.98217013428075 552.16132972463674 0 552.16132972463674 -466.74462416105962 0 0 0 0 -526.0368262433758 762.39185315257964 0 762.39185315257964 -266.41455782545381 0 0 0 0 109.61064770137818 578.35333904896106 0 578.35333904896106 -392.30047526922135 0 0 0 0 -362.51054911558458 674.12063360057073 0 674.12063360057073 -321.318167984311 0 0 0 0 93.591578608706186 496.8544703045045 0 496.8544703045045 -404.38727433003805 0 0 0 0 91.854668564030362 518.81169519751711 0 518.81169519751711 -312.30073340177478 0 0 0 0 229.46681236485711 455.99272756412392 0 455.99272756412392 -125.12140776400338 0 0 0 0 250.77034253827151 398.07683333083696 0 398.07683333083696 -304.41690273069526 0 0 0 0 12.119883556907553 467.43324407461114 0 467.43324407461114 -166.15261944712256 0 0 0 0 262.64356022480843 372.41842477940372 0 372.41842477940372 -102.9422872534924 0 0 0 0 339.31330894506755 409.09813743585255 0 409.09813743585255 -301.27206294809002 0 0 0 0 294.01570962187247 322.50057926514455 0 322.50057926514455 136.3749153513927 0 0 0 0 266.03287512542374 452.84843226704106 0 452.84843226704106 173.30528681934811 0 0 0 0 265.89437095481844 459.88267946259293 0 459.88267946259293 -190.71051387154148 0 0 0 0 273.72800810525587 271.8614990751812 0 271.8614990751812 -39.92859830603993 0 0 0 0 153.60536308739756 350.73536655012867 0 350.73536655012867 626.53631459566532 0 0 0 0 310.60195715425652 404.30745757878321 0 404.30745757878321 427.01449727457657 0 0 0 0 137.6545100136268 447.18627379504687 0 447.18627379504687 417.50441294712073 0 0 0 0 197.65255719083734 268.24397338072049 0 268.24397338072049 432.79738512338372 0 0 0 0 206.4222059364165 393.84594473863399 0 393.84594473863399 464.73313616404994 0 0 0 0 205.91130777658853 328.3564029184555 0 328.3564029184555 890.44213648760342 0 0 0 0 361.50432910375457 432.17066747217905 0 432.17066747217905 440.92855772588518 0 0 0 0 17.533782317917883 10.143307119749352 0 10.143307119749352 16.828498340473743 0 0 0 0 17.717686672734999 5.2496003802516498 0 5.2496003802516498 0.26041980990385127 0 0 0 0 6.5504957678281173 6.9902129159754054 0 6.9902129159754054 -0.62753116738842607 0 0 0 0 17.931945203701616 13.624374566526967 0 13.624374566526967 23.26680579152162 0 0 0 0 -8.3761884315507302 2.3590392577088437 0 2.3590392577088437 7.3486119605981344 0 0 0 0 35.140114489349799 37.371403053934046 0 37.371403053934046 51.471001672471175 0 0 0 0 41.589115256017067 49.65585456005283 0 49.65585456005283 37.401896298717475 0 0 0 0 54.180767966801795 113.21740430744831 0 113.21740430744831 100.82952829827263 0 0 0 0 59.24796958463412 38.384768995383638 0 38.384768995383638 44.519127151477733 0 0 0 0 56.787965108113895 18.533625808591751 0 18.533625808591751 -4.9964503971277736 0 0 0 0 -70.440310683203279 24.922041554265888 0 24.922041554265888 13.83082685622503 0 0 0 0 2.1510163673010538 -13.608571537763055 0 -13.608571537763055 -16.459021998904063 0 0 0 0 -11.945720807394537 -1.9438707092631375 0 -1.9438707092631375 21.015719093906227 0 0 0 0 -70.079804526285443 37.345095019700238 0 37.345095019700238 0.4670658180693863 0 0 0 0 -113.58078940417909 12.688542114679876 0 12.688542114679876 21.189108835475054 0 0 0 0 -320.54511852424366 27.442271194726345 0 27.442271194726345 128.50234487760463 0 0 0 0 115.41120485627471 82.37047390533553 0 82.37047390533553 -84.06525651596894 0 0 0 0 -3.7168127209334614 5.7168058652075899 0 5.7168058652075899 -3.0894497512836523 0 0 0 0 -357.78608713262656 -70.013783455833618 0 -70.013783455833618 184.2445157195325 0 0 0 0 -585.16327376246772 607.22215655690525 0 607.22215655690525 -533.13321502337931 0 0 0 0 -870.82413564156286 297.42739438253375 0 297.42739438253375 43.190599599009147 0 0 0 0 -1591.1532778754172 659.01903321185091 0 659.01903321185091 -339.69835181921371 0 0 0 0 117.28668262197425 -139.63512257183902 0 -139.63512257183902 -52.247376825602259 0 0 0 0 88.836200242032646 -100.68394136497227 0 -100.68394136497227 116.92183677285357 0 0 0 0 -11.399884571367991 10.477545817018324 0 10.477545817018324 -0.64565106342215017 0 0 0 0 3.4732696200183781 -2.4362860695268864 0 -2.4362860695268864 2.2004497864188011 0 0 0 0 -843.18306762340353 265.512963283094 0 265.512963283094 507.97472141425533 0 0 0 0 164.47125608818169 93.99747037680936 0 93.99747037680936 308.88829821892432 0 0 0 0 -263.09328688288588 105.72903013543691 0 105.72903013543691 347.13617965521553 0 0 0 0 -416.10792306162057 351.16936164184881 0 351.16936164184881 228.10816191078629 0 0 0 0 -888.45991544155822 375.80993096253951 0 375.80993096253951 811.25866052518541 0 0 0 0 -795.57854722837044 628.98539932904714 0 628.98539932904714 102.81594349422085 0 0 0 0 -629.73295025762286 97.338500802195995 0 97.338500802195995 -69.620760519901523 0 0 0 0 -743.24406174688193 419.63028264626337 0 419.63028264626337 354.33406344526884 0 0 0 0 -772.68597391219623 70.283391715083781 0 70.283391715083781 670.9027207895997 0 0 0 0 313.12170498228261 -296.636232689998 0 -296.636232689998 521.19864505381702 0 0 0 0 632.9406684256719 943.62557437909709 0 943.62557437909709 1227.962486637316 0 0 0 0 1132.817692589455 404.81330158050696 0 404.81330158050696 276.31483730277978 0 0 0 0 2.4711330582617066 3.3347475907959279 0 3.3347475907959279 -1.0491812831741925 0 0 0 0 -9.3308824181813179 -0.19892366501153447 0 -0.19892366501153447 64.10352294362383 0 0 0 0 151.81852351101043 694.33202503793291 0 694.33202503793291 1298.3662985700503 0 0 0 0 104.37700544141626 315.69367721774324 0 315.69367721774324 1365.7044045474613 0 0 0 0 482.5259361470512 643.85101619028137 0 643.85101619028137 649.86393639247399 0 0 0 0 436.80268533295384 755.55170248894137 0 755.55170248894137 820.90887504580314 0 0 0 0 371.15509519655643 519.26512927825388 0 519.26512927825388 437.45790660071361 0 0 0 0 282.20248620344137 496.59054006288352 0 496.59054006288352 903.86263906527165 0 0 0 0 402.51000092114555 421.2707077718951 0 421.2707077718951 527.37841558823129 0 0 0 0 418.79934613305159 349.93894594715675 0 349.93894594715675 114.50549785715702 0 0 0 0 306.79663238127978 506.82913758810901 0 506.82913758810901 406.79305325276073 0 0 0 0 144.27337101105968 339.38872618289315 0 339.38872618289315 128.78353409699048 0 0 0 0 415.68426813873702 194.91174036552547 0 194.91174036552547 169.47237334324745 0 0 0 0 115.02621182863913 205.91758524844772 0 205.91758524844772 418.95578406040295 0 0 0 0 40.572513313795753 211.7052490348251 0 211.7052490348251 106.56027287618781 0 0 0 0 269.4576902912404 387.87690324804134 0 387.87690324804134 -103.28559024279821 0 0 0 0 374.73010654510472 442.30907028064394 0 442.30907028064394 -81.042079374194145 0 0 0 0 244.56195435203881 332.61685934619163 0 332.61685934619163 121.75394120550482 0 0 0 0 303.33326439744997 400.06050288854749 0 400.06050288854749 -250.95266998693114 0 0 0 0 145.49627318055718 296.76312768431671 0 296.76312768431671 -119.97580523506258 0 0 0 0 65.076223057474635 389.70755412152721 0 389.70755412152721 -209.6545779943408 0 0 0 0 -315.34204263126924 373.67415724686452 0 373.67415724686452 -142.05697032113676 0 0 0 0 -73.150140770680082 243.26185980017908 0 243.26185980017908 -136.86885192424415 0 0 0 0 -416.21937784921306 339.33387302092342 0 339.33387302092342 233.46534649422392 0 0 0 0 -100.52649435886724 401.63945754765882 0 401.63945754765882 -122.89139908302059 0 0 0 0 -1026.1411255038279 745.08850985610479 0 745.08850985610479 434.33756629319396 0 0 0 0 -471.4226471701279 572.08339823282768 0 572.08339823282768 -289.44256870941899 0 0 0 0 -662.4489651376249 410.6806626965772 0 410.6806626965772 -101.16867411621934 0 0 0 0 -314.50282115518814 374.3989709391044 0 374.3989709391044 -246.12630994356005 0 0 0 0 -492.82831175880347 277.99695589338808 0 277.99695589338808 -140.50876426733157 0 0 0 0 -320.00326867472245 378.27909672501846 0 378.27909672501846 -128.90241456341028 0 0 0 0 -81.419012394993842 300.87889454702963 0 300.87889454702963 -187.09439463684612 0 0 0 0 -308.37236380836475 328.52712253906066 0 328.52712253906066 -133.3909272172632 0 0 0 0 218.24141516467716 390.9388115756592 0 390.9388115756592 -251.9254784220102 0 0 0 0 137.17279557936672 432.58276459567423 0 432.58276459567423 -249.58825073570461 0 0 0 0 -78.146662832280981 399.93770580137834 0 399.93770580137834 -197.85731122922152 0 0 0 0 113.76658880782998 323.59497166531219 0 323.59497166531219 -222.21615390683291 0 0 0 0 -98.035654986620102 415.7302377155429 0 415.7302377155429 -151.79434405535721 0 0 0 0 95.40639424730216 421.90053615780926 0 421.90053615780926 -201.10596888282453 0 0 0 0 188.42353503445156 511.54146555295301 0 511.54146555295301 -221.10067574627465 0 0 0 0 101.47232540745426 426.22585645995423 0 426.22585645995423 -249.96575973524523 0 0 0 0 74.216380414065952 517.99992101756288 0 517.99992101756288 -104.18235074960103 0 0 0 0 119.23041742636087 494.14624860136973 0 494.14624860136973 -220.91554095366166 0 0 0 0 -104.44089613978031 443.5475900959791 0 443.5475900959791 -87.311184512935142 0 0 0 0 59.124691191954753 568.28222713011201 0 568.28222713011201 -0.056548366665083449 0 0 0 0 -513.91656858456622 405.65603669393022 0 405.65603669393022 -20.602794026752235 0 0 0 0 -120.86327570377591 458.8681029612053 0 458.8681029612053 -91.092991089477437 0 0 0 0 -341.13244707798663 398.76901390047715 0 398.76901390047715 -48.132770997253829 0 0 0 0 -143.23153922273843 512.80209977057712 0 512.80209977057712 -0.097636909005814232 0 0 0 0 -340.14308924868436 405.47214673817962 0 405.47214673817962 -31.846911509608617 0 0 0 0 -480.24547401845973 472.36453361859458 0 472.36453361859458 0.019751966211484902 0 0 0 0 -501.23121900474882 432.19697092039951 0 432.19697092039951 -20.444464587679249 0 0 0 0 -548.7920559261056 405.84220726656713 0 405.84220726656713 4.5822122630270314 0 0 0 0 -620.59590446199263 474.74915364536355 0 474.74915364536355 0.10778042039601132 0 0 0 0 -635.48113113976842 477.03512825115467 0 477.03512825115467 99.040363178108237 0 0 0 0 -664.83352400628155 535.45564665741404 0 535.45564665741404 -0.031632060818083119 0 0 0 0 -537.67902775209768 374.18380840362079 0 374.18380840362079 -9.7381551755752298 0 0 0 0 -581.16424528154403 404.89781147604663 0 404.89781147604663 -26.100930683456681 0 0 0 0 -10.438403192626801 3.0716835270492169 0 3.0716835270492169 13.102957203056235 0 0 0 0 -929.13141368374181 405.68288478884642 0 405.68288478884642 -423.31900796732225 0 0 0 0 -570.75998965768633 423.75513251722805 0 423.75513251722805 -263.46615618592477 0 0 0 0 -563.94826542582587 464.49750476436748 0 464.49750476436748 -232.89887440664461 0 0 0 0 -662.32617926245689 368.34316430386389 0 368.34316430386389 -45.702176861617772 0 0 0 0 897.25931131324978 548.86967704783456 0 548.86967704783456 -658.92190491824294 0 0 0 0 0.31028263928144639 1.4884338535284485 0 1.4884338535284485 -3.4584443603044406 0 0 0 0 536.58434390345064 -260.60329270959483 0 -260.60329270959483 870.07623926200904 0 0 0 0 723.48961506694286 154.81975103179502 0 154.81975103179502 -106.85276202604291 0 0 0 0 2.5541033549290475 -1.1818079885701422 0 -1.1818079885701422 -2.2867293249798308 0 0 0 0 123.3128796250021 258.11805000550521 0 258.11805000550521 0.13115882557986408 0 0 0 0 531.55109246071379 303.52991821484932 0 303.52991821484932 39.45818925081403 0 0 0 0 476.00163009443804 285.37786289230644 0 285.37786289230644 60.86639861157164 0 0 0 0 503.04679062370997 268.40838729705138 0 268.40838729705138 -2.5312218819160472 0 0 0 0 2.5328082729203985 2.2320000305673346 0 2.2320000305673346 5.0594816794700819 0 0 0 0 1169.4516450045357 -436.75655263194494 0 -436.75655263194494 72.369421371200588 0 0 0 0 -147.28161300885768 76.363928823950118 0 76.363928823950118 144.10524392148363 0 0 0 0 478.0100538714978 288.09704932066234 0 288.09704932066234 64.199624598615628 0 0 0 0 -2438.6319401815445 669.89962718808965 0 669.89962718808965 -230.50842997910513 0 0 0 0 -2775.8401815489024 483.62991941327891 0 483.62991941327891 412.7069444997469 0 0 0 0 -2.4880710849799996 2.1395652205172269 0 2.1395652205172269 -3.1654594504867077 0 0 0 0 -1893.8264818030411 814.67051953843838 0 814.67051953843838 -0.2100625815874082 0 0 0 0 -1357.7120797512725 227.04347014487576 0 227.04347014487576 424.9944326476616 0 0 0 0 -7.7705030192221258 1.1096262799675003 0 1.1096262799675003 6.2400834432981753 0 0 0 0 -375.3762874168408 -163.78553680672576 0 -163.78553680672576 468.23841631948017 0 0 0 0 -1257.5612236480092 983.19541331892106 0 983.19541331892106 -613.04125996435869 0 0 0 0 -2254.0731764771208 1266.1458921241356 0 1266.1458921241356 -634.38900898008433 0 0 0 0 -1916.7110354167753 621.35969385227145 0 621.35969385227145 -170.68447553712758 0 0 0 0 605.18448918678769 -290.199277006177 0 -290.199277006177 36.920345351973083 0 0 0 0 4.8677260225511212 11.066247082256318 0 11.066247082256318 12.368274301370548 0 0 0 0 -1992.1255220908342 752.30665010891244 0 752.30665010891244 -387.10864093612327 0 0 0 0 8.6759961899833709 8.8167130182553102 0 8.8167130182553102 -12.459864355796697 0 0 0 0 95.458096006956112 45.656299766709708 0 45.656299766709708 -109.55977295036428 0 0 0 0 559.51131125639949 -34.672358795738546 0 -34.672358795738546 -24.882968421152327 0 0 0 0 411.27712588047143 -29.404674122197321 0 -29.404674122197321 173.83016508670698 0 0 0 0 359.06557902530767 -163.08021431852831 0 -163.08021431852831 130.335809893244 0 0 0 0 302.60352422171854 48.565278601759928 0 48.565278601759928 -169.88584065265604 0 0 0 0 360.57066919462159 -138.68629790130944 0 -138.68629790130944 -5.4814893956790911 0 0 0 0 226.45079763627291 65.788001479071681 0 65.788001479071681 -5.6701735509632272 0 0 0 0 121.05116212860594 61.366370483279752 0 61.366370483279752 38.838457229270716 0 0 0 0 256.9816935051058 48.973856173477543 0 48.973856173477543 -277.91280566281057 0 0 0 0 335.47669563476302 -54.764225505117793 0 -54.764225505117793 266.20534435141599 0 0 0 0 302.68773961563056 144.54438458555524 0 144.54438458555524 69.439824642322492 0 0 0 0 398.89200997638545 -75.833394273126032 0 -75.833394273126032 39.620315789252345 0 0 0 0 -31.984692209425702 207.70794915853912 0 207.70794915853912 -277.93734498880076 0 0 0 0 -512.64809334523761 199.90092217543861 0 199.90092217543861 -176.66982817182725 0 0 0 0 -762.42549859380597 756.34294551151288 0 756.34294551151288 -223.65526260966726 0 0 0 0 -7.6570040616552433 619.69941816609025 0 619.69941816609025 -639.93673264503013 0 0 0 0 -164.16616407629772 285.63906772868359 0 285.63906772868359 -216.18097994665368 0 0 0 0 133.0239337171588 133.2326758694835 0 133.2326758694835 -302.1086261975579 0 0 0 0 12.014552190274117 323.00594253098825 0 323.00594253098825 -311.98633238023103 0 0 0 0 -8.4685736836181604 117.57233227524557 0 117.57233227524557 -150.46908084915776 0 0 0 0 105.75039442229172 107.38497105365605 0 107.38497105365605 -103.9515341350052 0 0 0 0 296.42274945764075 84.192643230126123 0 84.192643230126123 -233.86735073922318 0 0 0 0 284.86840682293405 46.537971286496031 0 46.537971286496031 -4.422764069866389 0 0 0 0 233.92234029923566 22.690350247401511 0 22.690350247401511 -146.27504184456484 0 0 0 0 -21.364692841336364 249.64040381581799 0 249.64040381581799 -142.02764931008278 0 0 0 0 0.27937780891168984 0.94926675197081423 0 0.94926675197081423 0.34878742684884401 0 0 0 0 304.72033540040138 93.028166517033242 0 93.028166517033242 -168.34701005544048 0 0 0 0 193.24084227414278 127.82918251710362 0 127.82918251710362 -165.01332442301646 0 0 0 0 207.93874794082149 162.99868442660954 0 162.99868442660954 -116.940320672089 0 0 0 0 10.718966479983575 1.5974133065422649 0 1.5974133065422649 2.8261478520153105 0 0 0 0 23.812377111104112 29.196213207368316 0 29.196213207368316 -1.1192920108426279 0 0 0 0 124.10473051026202 42.938381970627233 0 42.938381970627233 -12.962904401880223 0 0 0 0 372.09359781111561 66.572233308346767 0 66.572233308346767 -165.92612054545316 0 0 0 0 474.12678851329292 -146.26658029058672 0 -146.26658029058672 8.8785495587217156 0 0 0 0 -1502.0056499041466 324.9456212610894 0 324.9456212610894 -98.025983034764067 0 0 0 0 -1874.608962930688 727.48559133964591 0 727.48559133964591 -170.24634004056469 0 0 0 0 174.26929631299572 -84.438003636947542 0 -84.438003636947542 -20.411220068768216 0 0 0 0 36.064811208917909 37.035278806310089 0 37.035278806310089 3.6302257658806525 0 0 0 0 112.35007697455876 115.40858962862694 0 115.40858962862694 -64.595638512138976 0 0 0 0 -2647.0203259788341 1298.1525325694165 0 1298.1525325694165 277.05553970957408 0 0 0 0 -109.5065194949857 145.55097161251251 0 145.55097161251251 4.2897327901227982 0 0 0 0 109.33993189408648 68.160407499293797 0 68.160407499293797 -67.340199335240868 0 0 0 0 -235.47544638992622 110.92028280383965 0 110.92028280383965 39.577281533339374 0 0 0 0 44.561457171976144 207.57906287740116 0 207.57906287740116 26.339736603113124 0 0 0 0 227.90892109761626 203.3403690709747 0 203.3403690709747 -123.41957899471527 0 0 0 0 74.095493026696204 156.14758697928482 0 156.14758697928482 -136.36124899926654 0 0 0 0 210.48002974579322 155.24926790812242 0 155.24926790812242 -142.90764353582927 0 0 0 0 104.01280159464841 182.99036691942456 0 182.99036691942456 -124.05833389224426 0 0 0 0 142.80257271861774 105.68733775459987 0 105.68733775459987 -78.057740540418308 0 0 0 0 125.21386718970462 226.17569013188768 0 226.17569013188768 -197.32361478711391 0 0 0 0 -124.28710365666302 167.43564786920615 0 167.43564786920615 -92.709806095226668 0 0 0 0 -76.605414969457343 102.84860425888473 0 102.84860425888473 -36.561657666963583 0 0 0 0 -204.14538509188787 -78.75674142101343 0 -78.75674142101343 244.20474810390442 0 0 0 0 6.9419227432797186 15.312026692368015 0 15.312026692368015 31.833736072835961 0 0 0 0 -259.1823434891121 378.07048136243975 0 378.07048136243975 -168.73484488756731 0 0 0 0 -233.630170567596 252.51949458727904 0 252.51949458727904 52.619652451438014 0 0 0 0 -124.13404668659213 -398.27105874320841 0 -398.27105874320841 286.85162487285197 0 0 0 0 102.14614013735876 98.218511871436931 0 98.218511871436931 934.70824410449131 0 0 0 0 -967.93433393935538 1132.5951167452004 0 1132.5951167452004 -517.17569646843185 0 0 0 0 -120.16656518989862 -298.512202322745 0 -298.512202322745 1197.5811556113185 0 0 0 0 -4.1946850402803886 3.3269714250380389 0 3.3269714250380389 9.1820963857394418 0 0 0 0 -767.92513672092218 406.13132353687911 0 406.13132353687911 -225.36100962632918 0 0 0 0 -599.90610538186752 508.08801515174855 0 508.08801515174855 -644.6715718878786 0 0 0 0 -7.3861125027392838 5.7206411274889888 0 5.7206411274889888 15.702364158627176 0 0 0 0 -781.79364630659984 636.13684970637405 0 636.13684970637405 -352.55950320726697 0 0 0 0 -251.51581642438396 581.01957536958071 0 581.01957536958071 197.1595651882235 0 0 0 0 -315.18563391660291 -3.4187547894835006 0 -3.4187547894835006 36.514359437562234 0 0 0 0 -1052.6604329419997 561.98814578664314 0 561.98814578664314 -396.87969991919272 0 0 0 0 -1466.1604739652739 998.33542862156901 0 998.33542862156901 -451.89844319696203 0 0 0 0 -1433.8225311310139 708.6078283587367 0 708.6078283587367 1084.8106316292397 0 0 0 0 -315.06373883500282 -951.20640309721057 0 -951.20640309721057 2112.5078670248549 0 0 0 0 -7.3143995659429546 6.3591851991047861 0 6.3591851991047861 7.7726472093530958 0 0 0 0 -1222.0684918890411 1477.5989164756029 0 1477.5989164756029 -1911.1674563853885 0 0 0 0 -1468.7409974308905 1747.6540008347365 0 1747.6540008347365 -2186.9890494093561 0 0 0 0 -2140.1589725181752 2363.1931939098868 0 2363.1931939098868 -2164.2831352775247 0 0 0 0 -1995.2922988103669 1568.2676276325801 0 1568.2676276325801 -1159.170053572394 0 0 0 0 30.254950801939398 46.32280507371005 0 46.32280507371005 3.6038541250546814 0 0 0 0 -2199.9264513263261 1384.1207079675951 0 1384.1207079675951 -1288.4995764003397 0 0 0 0 -2920.4293986172747 1982.9949060105573 0 1982.9949060105573 -975.55954006059619 0 0 0 0 -2267.257449709809 1427.2113849127782 0 1427.2113849127782 -1209.7337224428775 0 0 0 0 -2390.149400673999 1574.6922261254804 0 1574.6922261254804 -1334.1036268004682 0 0 0 0 -2184.0776544617256 1506.5485186013102 0 1506.5485186013102 -1398.0948226560868 0 0 0 0 -1908.8416185208498 1226.0108347162022 0 1226.0108347162022 -1129.5409284599009 0 0 0 0 -3370.1946452841689 903.73646467771323 0 903.73646467771323 -160.30570291858749 0 0 0 0 10.07453576970148 1.0773185025387875 0 1.0773185025387875 -3.0799049835729875 0 0 0 0 -2349.4448463270455 955.40821670563309 0 955.40821670563309 -194.84348634775961 0 0 0 0 -18.957708934787814 1.5759215465052705 0 1.5759215465052705 3.2984939195173979 0 0 0 0 -892.86956138614289 861.92826638689439 0 861.92826638689439 -1107.8213021868432 0 0 0 0 -1699.8446903407112 829.96524687633064 0 829.96524687633064 -653.74994103814242 0 0 0 0 -1430.4614970904277 975.94049253013509 0 975.94049253013509 -716.28320161301963 0 0 0 0 -2254.0326788376397 783.32240048152744 0 783.32240048152744 -90.253508203197271 0 0 0 0 -1443.7879773803948 1227.020485053843 0 1227.020485053843 -664.53323710951372 0 0 0 0 -585.70153310644037 781.58527074396261 0 781.58527074396261 -903.65828293729282 0 0 0 0 -833.59554819486209 1002.1065720757615 0 1002.1065720757615 -1074.1084031389328 0 0 0 0 -11.486561699106439 16.106872439193154 0 16.106872439193154 20.288592623158024 0 0 0 0 -340.73467798714296 -145.79990334388276 0 -145.79990334388276 1047.7995402916131 0 0 0 0 -91.210675534802363 425.31957442201383 0 425.31957442201383 129.93560704734409 0 0 0 0 -393.60377755589798 -180.50648666611232 0 -180.50648666611232 1259.9970731836293 0 0 0 0 -6.3457616007426267 22.550271740077051 0 22.550271740077051 25.418426242409993 0 0 0 0 -506.39104439505718 613.39517991648245 0 613.39517991648245 -554.37192474366748 0 0 0 0 -521.53971892850223 611.64213224835112 0 611.64213224835112 -356.78491887911514 0 0 0 0 -1067.5723005410096 984.48212343201885 0 984.48212343201885 -425.17078045182279 0 0 0 0 -833.01875567908201 823.14622673218764 0 823.14622673218764 -344.56112902710447 0 0 0 0 -870.27808046387872 890.14684082203894 0 890.14684082203894 -401.03593606546201 0 0 0 0 -877.86373257247033 816.80376821726077 0 816.80376821726077 -279.24728313271771 0 0 0 0 -872.48439019578996 767.89443893837506 0 767.89443893837506 -363.85268193786032 0 0 0 0 -836.03527814073823 861.49657876930723 0 861.49657876930723 -444.6305470810621 0 0 0 0 -701.77778871836199 815.46881003995077 0 815.46881003995077 -370.33429005634389 0 0 0 0 -395.66324799205722 886.04454725452524 0 886.04454725452524 -523.73072178213988 0 0 0 0 -693.1388461492943 722.71566445200733 0 722.71566445200733 -188.11248135771893 0 0 0 0 -876.97173240959091 455.23484046346857 0 455.23484046346857 -811.58092002791818 0 0 0 0 -590.83914820016344 619.48469792499236 0 619.48469792499236 -729.42828113696305 0 0 0 0 -1088.5211568205541 709.20144097678713 0 709.20144097678713 -524.7779937040541 0 0 0 0 -661.32660254505481 -498.30552366657503 0 -498.30552366657503 902.37616504364269 0 0 0 0 -7.8616951469201766 1.6496617853918849 0 1.6496617853918849 0.7973092243922224 0 0 0 0 -705.51524233037094 973.85331507038427 0 973.85331507038427 -1071.2549378973781 0 0 0 0 -97.088099479018922 33.962113669673954 0 33.962113669673954 -4.7252490928669619 0 0 0 0 -676.30482398596541 -219.34273786813719 0 -219.34273786813719 593.28479318789323 0 0 0 0 -650.64881981722829 -239.7399060830794 0 -239.7399060830794 550.41064063762315 0 0 0 0 -527.2316629288398 220.82503096602159 0 220.82503096602159 533.25629806775578 0 0 0 0 -97.76810446807994 26.628354703498871 0 26.628354703498871 -0.9394220674657614 0 0 0 0 -380.70330991503579 255.06997376871004 0 255.06997376871004 934.66076693291416 0 0 0 0 -153.03856500132815 143.00596023097751 0 143.00596023097751 -678.868887826422 0 0 0 0 -638.1074931582807 668.9953225076606 0 668.9953225076606 -26.51490281590668 0 0 0 0 2.6994311864271126 12.070735506413627 0 12.070735506413627 -8.0188830799422703 0 0 0 0 82.799591376435728 194.71187109128005 0 194.71187109128005 340.04019693948067 0 0 0 0 -8.1289265162095035 161.14346950746767 0 161.14346950746767 404.01116123310931 0 0 0 0 -23.176857959172825 4.7967230766734872 0 4.7967230766734872 14.488629899954333 0 0 0 0 -484.83186003342598 -693.92255502921762 0 -693.92255502921762 402.24644362593426 0 0 0 0 -941.39052271027322 -73.422894942574203 0 -73.422894942574203 512.96197804194526 0 0 0 0 -77.105213351422208 38.581468720818521 0 38.581468720818521 205.66293042412144 0 0 0 0 256.42127375309065 346.17443875598838 0 346.17443875598838 253.75706556127807 0 0 0 0 -287.51987579767774 125.76835567918897 0 125.76835567918897 -85.743614543840522 0 0 0 0 -289.50003071193532 500.34351388842333 0 500.34351388842333 -563.11775457285694 0 0 0 0 -14.780945430764021 0.47246367507841569 0 0.47246367507841569 1.3463146883323134 0 0 0 0 -9.3363166266399276 250.82644126517698 0 250.82644126517698 620.08841585219488 0 0 0 0 -42.404207144586508 33.633053857211962 0 33.633053857211962 -70.045022886974039 0 0 0 0 -153.59738943659386 -51.47379357542377 0 -51.47379357542377 77.907418234288343 0 0 0 0 -706.73428253064321 374.58967114273401 0 374.58967114273401 -156.75706288193396 0 0 0 0 -429.28140978626197 353.23992922254547 0 353.23992922254547 -237.58228541571589 0 0 0 0 -421.26499845387025 391.86322615339304 0 391.86322615339304 -160.45168468318298 0 0 0 0 -699.67923403367604 801.28063758509234 0 801.28063758509234 -530.380156195175 0 0 0 0 -945.07241570820952 647.88283746319939 0 647.88283746319939 -176.31929670777481 0 0 0 0 -839.78747564858804 844.66538083757041 0 844.66538083757041 -321.69310645206133 0 0 0 0 -679.39237383030058 428.82174775301246 0 428.82174775301246 -71.487522765644826 0 0 0 0 -1255.7418122102072 706.77654227704625 0 706.77654227704625 -141.65878757703467 0 0 0 0 -781.72725987284184 388.03659909371345 0 388.03659909371345 -139.33411510434235 0 0 0 0 -952.33580040394418 890.47960636697098 0 890.47960636697098 -496.54793165659066 0 0 0 0 -55.995421057798922 42.004985383435269 0 42.004985383435269 24.657204227289185 0 0 0 0 -788.32479589253376 332.79563430146573 0 332.79563430146573 6.7124050717829959 0 0 0 0 -44.034037226885474 47.203876960898128 0 47.203876960898128 3.4849718662378564 0 0 0 0 -33.438232444532332 324.53124316984031 0 324.53124316984031 232.17486102892144 0 0 0 0 -208.0004415187359 -37.949867201066809 0 -37.949867201066809 -14.207900407971465 0 0 0 0 -107.10931442253423 266.23876493229909 0 266.23876493229909 872.77114522265038 0 0 0 0 551.15705537622125 -579.03854307396978 0 -579.03854307396978 47.392144504323369 0 0 0 0 2.8113289810644346 66.459743747895118 0 66.459743747895118 -560.55792509843741 0 0 0 0 124.50036381549626 105.25850253708995 0 105.25850253708995 -106.33809107319394 0 0 0 0 -55.5198400885631 41.580706207110637 0 41.580706207110637 5.1273827373721588 0 0 0 0 -266.04782084928229 -312.91758861578273 0 -312.91758861578273 203.32117600416677 0 0 0 0 -245.27733842922225 16.446582972090255 0 16.446582972090255 414.63198369232123 0 0 0 0 -283.39876980974805 132.81579125398275 0 132.81579125398275 247.26416309294291 0 0 0 0 454.5111691524944 399.01798800866527 0 399.01798800866527 44.654970529329148 0 0 0 0 -197.38822619644998 -129.36084341346759 0 -129.36084341346759 509.31821569800377 0 0 0 0 2.8068380928793175 5.821642472763358 0 5.821642472763358 11.485626767718372 0 0 0 0 -299.69266287474602 167.28052703430876 0 167.28052703430876 755.92188283385622 0 0 0 0 -96.571585878999031 689.96624429263466 0 689.96624429263466 325.33978891318839 0 0 0 0 2.4088032546205795 255.79378678307694 0 255.79378678307694 -444.46011006530898 0 0 0 0 -50.707184180650074 234.40653673167071 0 234.40653673167071 -70.177222724101739 0 0 0 0 -98.510628040130541 200.90147026669001 0 200.90147026669001 268.40353649517056 0 0 0 0 10.105725217923464 310.74765294320969 0 310.74765294320969 -61.422906292966218 0 0 0 0 -105.34471607152227 105.15472328581018 0 105.15472328581018 -139.60687723846058 0 0 0 0 -46.739064102897828 172.576137916687 0 172.576137916687 -251.00266215726515 0 0 0 0 20.297550035720562 19.81340254586344 0 19.81340254586344 23.982686093792836 0 0 0 0 -89.022681227128487 126.83565442759937 0 126.83565442759937 -259.14414458500687 0 0 0 0 -103.1688405689456 95.608711916353059 0 95.608711916353059 -33.010936641323497 0 0 0 0 -92.51800328472018 -20.43615952860273 0 -20.43615952860273 -284.52181400167319 0 0 0 0 -91.483684518985683 120.14240156795859 0 120.14240156795859 24.485764584009303 0 0 0 0 3.6015302408912078 43.919699315761314 0 43.919699315761314 41.963157294136096 0 0 0 0 -99.724732803384541 70.296203389538277 0 70.296203389538277 -29.23892974714272 0 0 0 0 12.197175037075795 728.159271614315 0 728.159271614315 75.894945763808209 0 0 0 0 -529.5008676688667 130.32755004158389 0 130.32755004158389 463.06570530238969 0 0 0 0 4.1440998069975166 4.4664175188494539 0 4.4664175188494539 3.4167700919080914 0 0 0 0 -125.14058839893278 -25.407801968354761 0 -25.407801968354761 -170.49662875017384 0 0 0 0 -45.28497231963982 23.768783006777994 0 23.768783006777994 33.656618282519048 0 0 0 0 -21.837400229863416 17.294391061748712 0 17.294391061748712 2.3032993511520772 0 0 0 0 12.774697532278878 139.74481104380538 0 139.74481104380538 84.170721315895207 0 0 0 0 -88.444007796415121 89.020357523810276 0 89.020357523810276 -45.113198430044577 0 0 0 0 -12.594570618216153 16.508169025663932 0 16.508169025663932 0.89428247376864078 0 0 0 0 34.507813694304787 83.092288185638608 0 83.092288185638608 -64.703612010518555 0 0 0 0 -128.48738353123099 34.930894211156556 0 34.930894211156556 257.35430470203573 0 0 0 0 -55.02470656504115 48.331900283241737 0 48.331900283241737 -11.436244151898222 0 0 0 0 -157.49060396263485 378.68075638751361 0 378.68075638751361 848.05440677081788 0 0 0 0 0.41200799181866543 -0.084082053364653575 0 -0.084082053364653575 1.1153558907986394 0 0 0 0 287.78175540021766 54.999790907750139 0 54.999790907750139 173.35168964229524 0 0 0 0 -49.077493416410647 62.221219836120952 0 62.221219836120952 -11.957642175792103 0 0 0 0 6.1700806862136233 -54.571399594606191 0 -54.571399594606191 294.50768363212774 0 0 0 0 109.01741047656651 56.488897602044744 0 56.488897602044744 144.82155596221855 0 0 0 0 -83.571056274793591 155.85339834622755 0 155.85339834622755 -3.8631639525119681 0 0 0 0 -22.347451554577674 46.632114494670532 0 46.632114494670532 -377.30369799341133 0 0 0 0 185.26878510269586 154.16354649227287 0 154.16354649227287 -439.86004438051896 0 0 0 0 -29.049539603282035 11.670072555852926 0 11.670072555852926 8.0103787800203179 0 0 0 0 308.16355146787464 219.95693318634585 0 219.95693318634585 -725.07032521569454 0 0 0 0 -149.707943334226 434.3382049650827 0 434.3382049650827 -155.29480085489922 0 0 0 0 162.51261505395797 452.42593841739563 0 452.42593841739563 313.99646968959132 0 0 0 0 225.50024907720308 192.00850216713297 0 192.00850216713297 -60.099132228438975 0 0 0 0 -114.36943244673512 95.846926013543452 0 95.846926013543452 3.5293707691889722 0 0 0 0 106.29502575796687 -122.88532183134521 0 -122.88532183134521 210.43471225248868 0 0 0 0 -126.28726560363941 10.544027083554738 0 10.544027083554738 35.250264230751782 0 0 0 0 -19.672459352397709 269.85203674809236 0 269.85203674809236 193.07307261082315 0 0 0 0 -381.3992595175514 249.59084571271524 0 249.59084571271524 510.51585005386733 0 0 0 0 -72.325810453017155 61.531895171252529 0 61.531895171252529 30.552422201465959 0 0 0 0 -164.99342512175645 -437.01674105559141 0 -437.01674105559141 16.646020198408451 0 0 0 0 -127.43828521345904 50.875466929210234 0 50.875466929210234 213.36576490764855 0 0 0 0 32.606205854688596 247.14799650982604 0 247.14799650982604 140.49924965312675 0 0 0 0 -141.11366819444083 63.882324298043386 0 63.882324298043386 -117.35805882270506 0 0 0 0 -134.31957944065289 -50.638528816070902 0 -50.638528816070902 -150.66932576060935 0 0 0 0 -15.673355436723796 138.68632103675918 0 138.68632103675918 79.097574748127954 0 0 0 0 -84.711792823515182 60.027709449667327 0 60.027709449667327 41.860882133964537 0 0 0 0 0.10095944941440393 153.92064995679539 0 153.92064995679539 42.400302987152827 0 0 0 0 53.459568854203098 271.32061473846261 0 271.32061473846261 163.45507635392278 0 0 0 0 89.381333609704598 378.49610584002221 0 378.49610584002221 172.96967381588092 0 0 0 0 15.453087964326187 -0.0028401320778357331 0 -0.0028401320778357331 75.738693502600654 0 0 0 0 3.5333158729880587 5.7980693531098382 0 5.7980693531098382 6.3552656306020339 0 0 0 0 -54.380241474620561 104.10186523012817 0 104.10186523012817 -72.97139305746532 0 0 0 0 3.8392352982463294 79.062154036354087 0 79.062154036354087 3.6023025784596001 0 0 0 0 64.366708657803429 16.2652317073007 0 16.2652317073007 202.31872814190865 0 0 0 0 -41.89302862909426 176.3609079295129 0 176.3609079295129 -174.4224742801016 0 0 0 0 -0.23055328068981851 10.438739622256833 0 10.438739622256833 16.255859939615405 0 0 0 0 -36.720049969437241 251.2272279427707 0 251.2272279427707 -104.90914944185897 0 0 0 0 -235.81965229438794 284.15419098269194 0 284.15419098269194 -94.841165286241448 0 0 0 0 13.775366071549797 50.318118933268124 0 50.318118933268124 27.368971824223991 0 0 0 0 5.2432720191900444 72.832755087300029 0 72.832755087300029 69.998150229381281 0 0 0 0 -17.838089936215674 47.852668757669207 0 47.852668757669207 -26.268611342359193 0 0 0 0 -8.7163651041246553 29.480570154633611 0 29.480570154633611 35.796245912191097 0 0 0 0 93.50384903023587 7.6488439284294145 0 7.6488439284294145 -258.86883429418958 0 0 0 0 -17.218852112655441 109.41801586886868 0 109.41801586886868 -24.335495501109108 0 0 0 0 52.058065933026228 132.54066947959654 0 132.54066947959654 -86.253786673667491 0 0 0 0 -17.855034596921477 37.679948624233504 0 37.679948624233504 9.5987719834397183 0 0 0 0 -10.772895333226188 57.111266188556328 0 57.111266188556328 65.378935947795981 0 0 0 0 -1.3826113793188242 21.726533971472136 0 21.726533971472136 -2.9598879563386262 0 0 0 0 76.331536468911509 -225.02302093519393 0 -225.02302093519393 753.20215097947221 0 0 0 0 0.7270498444668192 24.514920173765859 0 24.514920173765859 32.046662221022416 0 0 0 0 -6.243511648371495 25.349234703442676 0 25.349234703442676 0.31795714784097129 0 0 0 0 2.9240649622224737 326.90961281122873 0 326.90961281122873 1137.8787510167022 0 0 0 0 -1.4264759062080046 1.3779797101498445 0 1.3779797101498445 3.0008380098323642 0 0 0 0 -3.3888409694782666 36.919819108900256 0 36.919819108900256 -8.8651403085393952 0 0 0 0 -6.2366341528759222 46.221624482248444 0 46.221624482248444 82.072042658750433 0 0 0 0 10.79302155678306 192.50290215150744 0 192.50290215150744 536.05460890126415 0 0 0 0 127.18256490364001 582.52219633311324 0 582.52219633311324 344.95715887607366 0 0 0 0 84.344774453824357 402.78300333706284 0 402.78300333706284 102.23197118889948 0 0 0 0 209.34816495823179 408.64501394932449 0 408.64501394932449 485.60329920904769 0 0 0 0 311.71147620080956 509.19404346089141 0 509.19404346089141 548.30724067200208 0 0 0 0 550.78688915300336 758.24901153878091 0 758.24901153878091 842.82961795131268 0 0 0 0 266.94102055361509 883.82952092611595 0 883.82952092611595 1997.046518997493 0 0 0 0 274.42395039563417 899.73020492451906 0 899.73020492451906 1876.4469996055122 0 0 0 0 1.8790141824801196 4.6179718279318394 0 4.6179718279318394 -3.6645349916734204 0 0 0 0 188.58837932611641 672.05525012467115 0 672.05525012467115 2282.673350174271 0 0 0 0 134.11393075669912 206.6535509373789 0 206.6535509373789 1233.1857401398011 0 0 0 0 25.710408145176189 21.495622728056333 0 21.495622728056333 -37.594048510771245 0 0 0 0 -3.1760349626932509 22.002827453119806 0 22.002827453119806 2.3658352711908321 0 0 0 0 -364.48150139314384 263.75344165492788 0 263.75344165492788 1218.347370586649 0 0 0 0 692.24736638031573 707.91873535468403 0 707.91873535468403 417.90781059527944 0 0 0 0 -220.05142940826045 213.97618817335751 0 213.97618817335751 672.89549055551106 0 0 0 0 -650.99664375050997 8.2962940918296226 0 8.2962940918296226 865.86158940021414 0 0 0 0 220.42638119368348 153.5170835685276 0 153.5170835685276 124.98688944854075 0 0 0 0 -46.44964110552246 364.74618279511196 0 364.74618279511196 737.2002457692106 0 0 0 0 42.433336897235662 22.041622513733174 0 22.041622513733174 -17.164182629151995 0 0 0 0 16.303262241979297 32.455699987877111 0 32.455699987877111 -14.261864412727448 0 0 0 0 24.696655366074992 37.245394072873751 0 37.245394072873751 30.681066764518619 0 0 0 0 240.46265081657111 126.67180223593459 0 126.67180223593459 878.92407958536933 0 0 0 0 22.301896803263176 13.357506256821381 0 13.357506256821381 -16.802468027263814 0 0 0 0 2.0463916303326783 -0.41869891559221628 0 -0.41869891559221628 -6.726691192124747 0 0 0 0 1.2453568776373913 1.3803525955192555 0 1.3803525955192555 4.3921267583194208 0 0 0 0 34.53338618201451 32.891410332881151 0 32.891410332881151 18.783479317456084 0 0 0 0 -127.47008738884324 -211.15529688445531 0 -211.15529688445531 -354.5863976712717 0 0 0 0 -392.93678380128404 107.52155649826454 0 107.52155649826454 40.197444634934072 0 0 0 0 -187.26262519611737 -401.26913424893246 0 -401.26913424893246 1018.2334692614168 0 0 0 0 -4.2466034070829863 9.1733427426547394 0 9.1733427426547394 8.2295915671773798 0 0 0 0 167.00147734131315 194.19462414321606 0 194.19462414321606 -907.93640014334233 0 0 0 0 -272.48617823416862 -91.61211868168175 0 -91.61211868168175 931.71003220204693 0 0 0 0 -96.154977441379742 -164.40691350752604 0 -164.40691350752604 426.2519462545024 0 0 0 0 334.66271072301606 -636.40488569802255 0 -636.40488569802255 718.87692464797874 0 0 0 0 -270.37637314308813 598.51793775756232 0 598.51793775756232 -477.69454968454374 0 0 0 0 18.591147082902751 18.469799349655176 0 18.469799349655176 15.425406002705188 0 0 0 0 -264.85308578015611 628.97448741226617 0 628.97448741226617 -386.53572735057969 0 0 0 0 -257.10500373091782 452.34965590883075 0 452.34965590883075 -307.15993097656246 0 0 0 0 -358.4277441261147 582.91049886685505 0 582.91049886685505 -413.24901162760943 0 0 0 0 -255.41646920784842 526.39594940147072 0 526.39594940147072 -614.95444053520623 0 0 0 0 -669.82718772414955 31.111953246865596 0 31.111953246865596 -473.34377122258593 0 0 0 0 -354.05749971076148 393.74986444959359 0 393.74986444959359 -64.473565924112336 0 0 0 0 -520.91019075646182 301.42392825633578 0 301.42392825633578 35.110789278856828 0 0 0 0 -1079.8250477013316 577.35854264484442 0 577.35854264484442 -88.429370106197894 0 0 0 0 -140.93100828856223 525.09304924207572 0 525.09304924207572 -265.32393933656567 0 0 0 0 -307.89630209716415 208.55269181330368 0 208.55269181330368 22.962353754723154 0 0 0 0 -463.55983810455655 291.64357911104889 0 291.64357911104889 492.02029407602095 0 0 0 0 -302.24141868531296 45.618896416577627 0 45.618896416577627 506.6877990160574 0 0 0 0 -76.907349990673538 322.71648360987456 0 322.71648360987456 74.44550184088439 0 0 0 0 -448.98838553513633 196.46555764543882 0 196.46555764543882 366.11052838918113 0 0 0 0 -609.80258018296263 395.97578685644839 0 395.97578685644839 204.47945938498015 0 0 0 0 -505.86335472021165 98.21223871618713 0 98.21223871618713 156.14481426207931 0 0 0 0 -511.06498819655462 290.114666960264 0 290.114666960264 446.76112907237257 0 0 0 0 -226.19833984559955 183.68640987688559 0 183.68640987688559 332.18408776017895 0 0 0 0 -232.76287330997434 409.36374033999664 0 409.36374033999664 118.02528879104648 0 0 0 0 -250.83120628332836 328.07612945593428 0 328.07612945593428 54.910222507220169 0 0 0 0 -560.07515221175709 431.47801311851435 0 431.47801311851435 151.54163385808351 0 0 0 0 -32.487787940401176 156.5321116071209 0 156.5321116071209 -149.61609307131721 0 0 0 0 -66.272905020194955 55.703309170662266 0 55.703309170662266 -37.636786391628419 0 0 0 0 282.0540936258767 291.76768769646878 0 291.76768769646878 -172.52821687015239 0 0 0 0 211.5316723685155 -140.61579825212357 0 -140.61579825212357 55.285312578533194 0 0 0 0 -54.15415046472458 60.244223347905631 0 60.244223347905631 -37.699435110897866 0 0 0 0 69.916652783853351 275.51275203136902 0 275.51275203136902 -341.35835026117275 0 0 0 0 355.53210918146215 265.06603589961742 0 265.06603589961742 -448.1551919800695 0 0 0 0 40.864700270514732 -163.76764405782978 0 -163.76764405782978 -387.61025153973605 0 0 0 0 -66.210000668943394 208.9278247468028 0 208.9278247468028 -289.67450103624287 0 0 0 0 -48.005478581573698 256.58772275449883 0 256.58772275449883 -594.35583377321018 0 0 0 0 71.407247506649583 -26.044812861953687 0 -26.044812861953687 -706.81422578645288 0 0 0 0 -417.33724409107526 761.67244606054737 0 761.67244606054737 -977.69074516841101 0 0 0 0 -131.61488746395116 300.25409012703676 0 300.25409012703676 -267.75495941283589 0 0 0 0 -497.49806514690681 561.52373685712382 0 561.52373685712382 -144.31418872452923 0 0 0 0 -303.84793772760895 400.88504911826749 0 400.88504911826749 148.29074239746842 0 0 0 0 32.113820753012988 347.54092000574019 0 347.54092000574019 526.2379611059223 0 0 0 0 252.6263082254427 641.69418572236464 0 641.69418572236464 853.58521842823393 0 0 0 0 431.59122706587368 423.05310420382011 0 423.05310420382011 296.78826550328813 0 0 0 0 -2.9552857455946651 265.70831143074247 0 265.70831143074247 341.85463177417114 0 0 0 0 118.17712244553513 326.73426356629398 0 326.73426356629398 243.54637858098431 0 0 0 0 19.881788790335122 368.99419493249297 0 368.99419493249297 349.2651281566541 0 0 0 0 117.4284016917718 321.77029500413028 0 321.77029500413028 271.41320469422499 0 0 0 0 168.74821644522308 361.57992347682011 0 361.57992347682011 301.46675534498354 0 0 0 0 117.31313612988743 342.55765252319543 0 342.55765252319543 249.8455637452862 0 0 0 0 237.83592249203502 -84.6417997645367 0 -84.6417997645367 213.27569444320397 0 0 0 0 151.9901528955088 231.4804744135763 0 231.4804744135763 237.18180197309994 0 0 0 0 -29.552017721531698 34.541630561830118 0 34.541630561830118 -40.260837749477247 0 0 0 0 -1518.8406585972698 783.88789547936176 0 783.88789547936176 311.14815806996194 0 0 0 0 1309.7431544265419 -1438.6482230829715 0 -1438.6482230829715 -5972.5313957984326 0 0 0 0 -1912.0906725060486 833.37125940786791 0 833.37125940786791 387.38972185511375 0 0 0 0 -1707.2253634653462 1079.6085446003199 0 1079.6085446003199 146.99829444487114 0 0 0 0 332.39038444496691 193.56539083955431 0 193.56539083955431 208.68459652317688 0 0 0 0 -751.52158627373137 960.68414998063236 0 960.68414998063236 133.40236408705823 0 0 0 0 -428.89940887161356 801.4237791186024 0 801.4237791186024 193.59661210140621 0 0 0 0 -831.22746914663003 868.01002803831943 0 868.01002803831943 161.25329713479732 0 0 0 0 -908.54625601197768 1066.5957157563826 0 1066.5957157563826 -196.74483856394363 0 0 0 0 -387.41963388778095 478.64571115576837 0 478.64571115576837 -26.637498492258601 0 0 0 0 -257.23353003291413 609.60863657442678 0 609.60863657442678 61.603993212949717 0 0 0 0 -4488.6244631359004 -1535.1313781731005 0 -1535.1313781731005 1635.4967660074471 0 0 0 0 -29.336372210650211 16.707704431816239 0 16.707704431816239 -11.858798692644228 0 0 0 0 -130.13857115016435 681.48896471892658 0 681.48896471892658 -120.70753231778872 0 0 0 0 -3448.6206020934333 -1367.8935797592203 0 -1367.8935797592203 1068.371627952074 0 0 0 0 -19.167670553662646 18.233403577911446 0 18.233403577911446 -16.4622654547222 0 0 0 0 217.3252744354977 241.32807842718466 0 241.32807842718466 7.4647289547428954 0 0 0 0 287.59324278793247 354.46315501850768 0 354.46315501850768 -300.66152743258863 0 0 0 0 317.44333130706218 188.87772180401953 0 188.87772180401953 98.918868422391824 0 0 0 0 330.42830883880379 226.02690612990409 0 226.02690612990409 200.21204922394827 0 0 0 0 317.98375799381756 243.94818045847933 0 243.94818045847933 211.37410324192024 0 0 0 0 316.11026677949121 224.77817636664258 0 224.77817636664258 203.88953698644764 0 0 0 0 286.24708259885665 240.33712259089225 0 240.33712259089225 212.32905501688947 0 0 0 0 540.69241160500678 364.46442065796873 0 364.46442065796873 51.407463686882693 0 0 0 0 475.69369131842541 226.77459382836969 0 226.77459382836969 -232.98730739098391 0 0 0 0 418.87844003724604 598.00909302756918 0 598.00909302756918 -614.01062000710226 0 0 0 0 159.66096776932682 556.37627132979105 0 556.37627132979105 -101.14497980210217 0 0 0 0 470.18178346838977 718.38059099069505 0 718.38059099069505 -3497.3028084114339 0 0 0 0 170.94415342791513 851.22101310775884 0 851.22101310775884 -779.83610360199236 0 0 0 0 42.548936790510197 346.91021426784573 0 346.91021426784573 8.3692485200263036 0 0 0 0 -1180.9712554335065 -890.76172469111498 0 -890.76172469111498 -246.21025317662861 0 0 0 0 -1412.0699523252988 1045.6104097572243 0 1045.6104097572243 -228.66617797467188 0 0 0 0 -17.923777994488773 149.10001504051615 0 149.10001504051615 -90.196704645612044 0 0 0 0 -112.14808626150625 397.49432866834104 0 397.49432866834104 37.264910635582055 0 0 0 0 -44.058878745792754 644.49444821635097 0 644.49444821635097 -493.68824174610199 0 0 0 0 301.483866679735 297.68695376221331 0 297.68695376221331 -1374.6007650230313 0 0 0 0 3.3851070945249546 4.9115914500328017 0 4.9115914500328017 0.36987163760016983 0 0 0 0 41.458963493611009 342.76218143696678 0 342.76218143696678 -1115.5447061706582 0 0 0 0 17.522934289903787 154.74572037252801 0 154.74572037252801 -490.43529616455498 0 0 0 0 -179.10166095769091 110.97979560295789 0 110.97979560295789 -493.14767959820165 0 0 0 0 -7.419090290182794 324.37633316921711 0 324.37633316921711 -323.01380166092713 0 0 0 0 -9.6415386861335719 12.404871856662794 0 12.404871856662794 -586.23256093854798 0 0 0 0 160.69894476618356 318.17647637033951 0 318.17647637033951 -742.01933508957882 0 0 0 0 -110.06779187147185 252.89293882185302 0 252.89293882185302 -233.05418491464457 0 0 0 0 1.5026500126171243 17.470277885255229 0 17.470277885255229 -8.5893894565428823 0 0 0 0 170.65474208324304 84.886545768800715 0 84.886545768800715 -368.8185568657791 0 0 0 0 7.4556250508325945 8.0307420220779306 0 8.0307420220779306 1.5928573254223366 0 0 0 0 -241.90251321262258 166.40509600983933 0 166.40509600983933 -41.084079536398349 0 0 0 0 -20.604428226022989 20.080878626248222 0 20.080878626248222 5.4192249933368828 0 0 0 0 -227.18698835953637 573.15957882649673 0 573.15957882649673 -288.60051311150892 0 0 0 0 -391.07396390244793 65.739582662608882 0 65.739582662608882 581.35930534967338 0 0 0 0 -56.96891354221799 54.656730957086154 0 54.656730957086154 -47.378372102803866 0 0 0 0 -335.27745382875582 181.00786848212374 0 181.00786848212374 44.969925859993964 0 0 0 0 -171.3134688347036 600.94330693989104 0 600.94330693989104 -78.495439635189541 0 0 0 0 -166.24241632830672 -255.67686872099148 0 -255.67686872099148 -379.71468038590683 0 0 0 0 -16.721420718515944 5.7457061593660796 0 5.7457061593660796 10.717727857940673 0 0 0 0 -107.20798689612018 40.953904727179292 0 40.953904727179292 10.953937697862383 0 0 0 0 -113.01277553103228 -6.3524967981938971 0 -6.3524967981938971 -237.64777184552804 0 0 0 0 -209.39241837878217 90.491879337125283 0 90.491879337125283 -27.124572078388155 0 0 0 0 -273.67612736226874 -264.76970912639081 0 -264.76970912639081 75.203766987600829 0 0 0 0 244.6583790670993 -275.50748282503628 0 -275.50748282503628 142.92991580988746 0 0 0 0 -157.05793884241029 148.64278782781639 0 148.64278782781639 -291.58853710322001 0 0 0 0 309.33092763635796 -490.34193203707036 0 -490.34193203707036 837.65046641277149 0 0 0 0 -259.98785056337874 -192.61281774812232 0 -192.61281774812232 518.25310798567807 0 0 0 0 -144.59323955098807 15.604808895179303 0 15.604808895179303 363.1083574841432 0 0 0 0 -307.47225654194335 -11.801297342361067 0 -11.801297342361067 232.71206381193042 0 0 0 0 -477.11999479249062 107.2359241587983 0 107.2359241587983 458.18388581022009 0 0 0 0 -272.73166978301015 65.256060261785024 0 65.256060261785024 402.74764884305478 0 0 0 0 188.86984313827634 344.82822120082346 0 344.82822120082346 -53.586052529530207 0 0 0 0 68.563129833406492 -7.686690230189015 0 -7.686690230189015 -183.43407550574921 0 0 0 0 171.75752146371087 304.09181167610222 0 304.09181167610222 146.61012982876855 0 0 0 0 1090.13564602314 268.98621627897955 0 268.98621627897955 129.20011664968843 0 0 0 0 114.87784065135384 622.02877511791621 0 622.02877511791621 913.77726479053672 0 0 0 0 104.18970185017406 508.13275215518706 0 508.13275215518706 551.20713909089682 0 0 0 0 10.871538049075596 5.4528389816113219 0 5.4528389816113219 5.5020419662548932 0 0 0 0 -85.224807751888875 -19.192412935242828 0 -19.192412935242828 484.97962946741609 0 0 0 0 -48.754282310328563 150.49513597627811 0 150.49513597627811 1091.9777509826508 0 0 0 0 526.62032512159567 811.85775487401406 0 811.85775487401406 1294.2206668253202 0 0 0 0 1142.9572767364698 -338.37820995184666 0 -338.37820995184666 26.880770874588052 0 0 0 0 423.57872237952688 -148.60602685985032 0 -148.60602685985032 13.043714872634155 0 0 0 0 754.86791880089731 289.12447290960336 0 289.12447290960336 -276.62713844592508 0 0 0 0 275.03363252156032 8.3174704920456861 0 8.3174704920456861 -24.152815684254165 0 0 0 0 281.83309875651321 -1.4857502756276517 0 -1.4857502756276517 -132.58497683395399 0 0 0 0 -534.16136166947399 -0.18272801225248259 0 -0.18272801225248259 290.05403764007497 0 0 0 0 -484.37135342233523 123.1581513596102 0 123.1581513596102 433.85131769474538 0 0 0 0 -518.59483867678318 71.219713399776083 0 71.219713399776083 809.55271808980615 0 0 0 0 -294.76652405281857 350.08104416795686 0 350.08104416795686 -377.71660151846299 0 0 0 0 -430.85692361889232 231.83071372332051 0 231.83071372332051 278.91482267502579 0 0 0 0 2.40653584683605 75.010824796059751 0 75.010824796059751 258.55642464433186 0 0 0 0 -86.137854978551331 351.77838250574132 0 351.77838250574132 296.91062863588741 0 0 0 0 -132.85513467283454 375.39844172955782 0 375.39844172955782 363.07683218667444 0 0 0 0 -680.02333870318398 238.37298921598267 0 238.37298921598267 -35.812024821731029 0 0 0 0 -99.834465404543153 351.83436349488693 0 351.83436349488693 -127.63892044581007 0 0 0 0 43.628025891808647 379.70116044993665 0 379.70116044993665 -514.00128212978598 0 0 0 0 -656.05625008288916 724.7014535187991 0 724.7014535187991 -139.64071579257143 0 0 0 0 10.350458074449506 11.88057691727542 0 11.88057691727542 9.4027197502994113 0 0 0 0 -145.73091535236017 -174.27300393127371 0 -174.27300393127371 135.59014685226794 0 0 0 0 -237.76172570356721 596.84109250061738 0 596.84109250061738 -406.57183415693726 0 0 0 0 12.762585972579629 13.66894997805155 0 13.66894997805155 10.439317680123224 0 0 0 0 88.895584573525412 295.19745623421477 0 295.19745623421477 -553.65771654694981 0 0 0 0 336.24680519460526 563.69577575392032 0 563.69577575392032 -893.84564238361781 0 0 0 0 -238.57560158767046 41.627038782617092 0 41.627038782617092 427.01735769829247 0 0 0 0 -126.15232196649958 -35.417059322928253 0 -35.417059322928253 237.8995702057 0 0 0 0 4.2968268763548565 6.5027000157828496 0 6.5027000157828496 8.8281009674091138 0 0 0 0 -131.98845478583098 -45.546347867100849 0 -45.546347867100849 448.47339886589907 0 0 0 0 -87.937649420782691 204.72797521784378 0 204.72797521784378 588.1066276006095 0 0 0 0 284.18977222606918 201.41355921755166 0 201.41355921755166 -281.08787249989109 0 0 0 0 286.50284713324072 148.90141707534713 0 148.90141707534713 75.673588147750706 0 0 0 0 366.37962346235872 49.148642785046832 0 49.148642785046832 -105.50388185375778 0 0 0 0 20.312353566085221 283.34739636712766 0 283.34739636712766 -246.69705990732109 0 0 0 0 377.22220325036324 239.63083933950838 0 239.63083933950838 -399.27709291427163 0 0 0 0 -208.45805437994886 212.2040159049875 0 212.2040159049875 -172.47861253278097 0 0 0 0 6.3288697575682136 6.1169540108983611 0 6.1169540108983611 4.8096540613290131 0 0 0 0 1015.5473326262218 -31.539499459191575 0 -31.539499459191575 -412.21137573035958 0 0 0 0 -947.15233088538298 366.51020126379808 0 366.51020126379808 1199.0956899800585 0 0 0 0 415.7668005989251 328.72774689606649 0 328.72774689606649 -158.06964812471415 0 0 0 0 401.27831700630486 4.6655887481174432 0 4.6655887481174432 -200.36621357765398 0 0 0 0 470.9100256718375 376.28651646156504 0 376.28651646156504 -255.48646503468626 0 0 0 0 -30.351560936362254 30.993971477971343 0 30.993971477971343 -27.352456342727407 0 0 0 0 1.1007153621976613 49.91014554110734 0 49.91014554110734 -5.947234385239426 0 0 0 0 100.70485585366259 404.37646073704673 0 404.37646073704673 -83.238763752560772 0 0 0 0 214.43231523530631 799.44683333489957 0 799.44683333489957 -402.13437957299175 0 0 0 0 24.907887160326936 55.166924440665753 0 55.166924440665753 -21.59249662297043 0 0 0 0 1.1932682739352458 46.964092416070343 0 46.964092416070343 19.669498754330561 0 0 0 0 33.208559225586214 49.161781833194254 0 49.161781833194254 -29.536063877647393 0 0 0 0 18.566286502769799 61.581118408968905 0 61.581118408968905 14.441550985196955 0 0 0 0 40.992772683789752 32.409497128177762 0 32.409497128177762 2.6505404613873225 0 0 0 0 45.273122138547478 117.79588060926471 0 117.79588060926471 -46.496776164010953 0 0 0 0 18.062453691398332 67.298563261310846 0 67.298563261310846 -40.455068668394233 0 0 0 0 8.7902356831473298 46.256880089786137 0 46.256880089786137 -23.184394315790996 0 0 0 0 -19.153834691609987 38.127713658112981 0 38.127713658112981 -27.626208931620852 0 0 0 0 257.10592443499991 78.228717798567232 0 78.228717798567232 -63.013934801943833 0 0 0 0 18.600169923076365 27.744555010679349 0 27.744555010679349 3.848713042214456 0 0 0 0 -22.049958672068769 42.137329246997581 0 42.137329246997581 -40.523523339113922 0 0 0 0 -27.628223259438528 90.653161057092802 0 90.653161057092802 -25.086158054007683 0 0 0 0 124.73416630993597 339.87254280225898 0 339.87254280225898 232.19517015403835 0 0 0 0 15.886900490797416 57.695729175593442 0 57.695729175593442 95.717393394392275 0 0 0 0 36.657865031302208 115.50247387986747 0 115.50247387986747 33.553851263721299 0 0 0 0 -525.83388190454207 885.26028567773938 0 885.26028567773938 -826.46171457429591 0 0 0 0 -896.35572940242128 778.61297027615365 0 778.61297027615365 310.57131942792148 0 0 0 0 -477.80227177483903 673.07220120667625 0 673.07220120667625 99.906577629430103 0 0 0 0 -774.31392915982724 908.73787863721009 0 908.73787863721009 262.80923711752985 0 0 0 0 91.153364960075123 177.04096640183707 0 177.04096640183707 -64.055890717041621 0 0 0 0 2.913480019472388 3.8670959952105051 0 3.8670959952105051 5.6520304345256136 0 0 0 0 382.10004477361599 -140.17738642550648 0 -140.17738642550648 -39.104397475515725 0 0 0 0 409.33860438525153 77.400729452579981 0 77.400729452579981 -179.22649172793899 0 0 0 0 185.04314051643814 -47.350942178216428 0 -47.350942178216428 83.032688815612346 0 0 0 0 38.411667844076874 103.82374590346444 0 103.82374590346444 17.858634428015648 0 0 0 0 9.2607743345939184 15.848549528902986 0 15.848549528902986 12.679660020955339 0 0 0 0 97.632145627692807 11.141897432484257 0 11.141897432484257 -176.81675132867531 0 0 0 0 -89.614193152548978 96.081831786381372 0 96.081831786381372 26.763719087546633 0 0 0 0 61.69415111575654 -42.169934021505469 0 -42.169934021505469 0.42600212848628871 0 0 0 0 10.535498420193822 4.1163793480500885 0 4.1163793480500885 -1.788012373214201 0 0 0 0 71.707120918079454 51.479255858328543 0 51.479255858328543 -76.090704942442244 0 0 0 0 97.176321749459021 35.291055967638385 0 35.291055967638385 -65.845327793693286 0 0 0 0 40.794273371146119 88.83613130133017 0 88.83613130133017 -10.824928610774805 0 0 0 0 19.842536616979487 56.331186741015699 0 56.331186741015699 5.736202892367146 0 0 0 0 52.93846582871123 33.365570024503981 0 33.365570024503981 15.477237465613143 0 0 0 0 -45.758470641809254 40.926355811647227 0 40.926355811647227 3.0984132651501568 0 0 0 0 -7.9871475776308216 39.283216609110241 0 39.283216609110241 -19.925402678287355 0 0 0 0 -11.805001654924126 47.813132627023151 0 47.813132627023151 -20.583624116843566 0 0 0 0 1.9156632173112484 29.089149068103183 0 29.089149068103183 7.6718621358661778 0 0 0 0 13.619884052721318 34.585059526085388 0 34.585059526085388 -4.9887086756934877 0 0 0 0 -18.478406942798017 38.191900366801264 0 38.191900366801264 3.1816935526192651 0 0 0 0 -61.261183044742211 69.981586972004152 0 69.981586972004152 31.015420890180394 0 0 0 0 -77.10184093107091 59.699122824182268 0 59.699122824182268 35.997739081911277 0 0 0 0 -5.1668994529985639 3.1494907987774639 0 3.1494907987774639 1.2315764424923543 0 0 0 0 -27.036071052483749 28.883791732543614 0 28.883791732543614 52.61722001445014 0 0 0 0 18.599453895861565 34.775673160380833 0 34.775673160380833 4.9542749609474299 0 0 0 0 18.335373330232414 51.646135562560175 0 51.646135562560175 27.892282918095589 0 0 0 0 -72.168803218490211 74.654902810463682 0 74.654902810463682 30.596030609591253 0 0 0 0 -82.130739843480114 46.809141610930965 0 46.809141610930965 -9.1282696736889193 0 0 0 0 -0.16658256357968249 49.468075873950433 0 49.468075873950433 11.72361903854204 0 0 0 0 67.662154543899305 33.210013405298923 0 33.210013405298923 -27.495742056053132 0 0 0 0 -71.990732587357343 36.374720852498285 0 36.374720852498285 -36.568656688759802 0 0 0 0 18.041082821866439 44.04624136754137 0 44.04624136754137 -15.81673990006675 0 0 0 0 46.129565724433633 37.943638884476968 0 37.943638884476968 7.4323408323007243 0 0 0 0 35.022188629754964 57.269680723788042 0 57.269680723788042 -24.372327638353454 0 0 0 0 6.8248347047539539 8.4894902072791751 0 8.4894902072791751 0.32291169364802386 0 0 0 0 62.024278442859213 42.013233980422228 0 42.013233980422228 -40.236541426085751 0 0 0 0 69.079494129782688 74.368185979103146 0 74.368185979103146 12.244565522996709 0 0 0 0 46.799756454391172 101.67528319112898 0 101.67528319112898 56.365913318732055 0 0 0 0 36.681192963831563 40.536917083500157 0 40.536917083500157 32.203196792572271 0 0 0 0 27.049108213013824 78.963897756530059 0 78.963897756530059 -13.563476950977929 0 0 0 0 15.48446554588736 63.895038746180944 0 63.895038746180944 -32.898288343771128 0 0 0 0 -2.5400429710789467 54.719128655662644 0 54.719128655662644 -35.513315626099939 0 0 0 0 36.504359766979178 121.00024881978607 0 121.00024881978607 119.29242710849212 0 0 0 0 47.404724933629041 -7.6501887516205898 0 -7.6501887516205898 -201.97187229735573 0 0 0 0 -3.4560937018808886 -2.0614263968430464 0 -2.0614263968430464 2.3227652294959569 0 0 0 0 35.633963279928139 117.16832190947025 0 117.16832190947025 -63.224672216572799 0 0 0 0 60.215240922552766 65.806421118089929 0 65.806421118089929 -23.528729635712807 0 0 0 0 12.010536552676967 43.958784269154421 0 43.958784269154421 -27.968099026911659 0 0 0 0 57.798245813751691 61.974756789515141 0 61.974756789515141 -32.145253955648514 0 0 0 0 18.115763895188536 12.792564771637458 0 12.792564771637458 9.7048348042296197 0 0 0 0 -61.570575643439952 128.23790414656833 0 128.23790414656833 -69.263695750458282 0 0 0 0 0.7784568403440062 42.583054762202664 0 42.583054762202664 -34.929222168138949 0 0 0 0 -7.3191077412710115 0.64907805429155019 0 0.64907805429155019 -0.34635730306166579 0 0 0 0 5.9090955758656492 176.29680987352913 0 176.29680987352913 292.79621455607412 0 0 0 0 48.627820018118655 125.89579833551761 0 125.89579833551761 88.875249328120844 0 0 0 0 987.59440768115746 754.82233989788801 0 754.82233989788801 -244.23241639707703 0 0 0 0 3.8154796914841071 1.4092039879452187 0 1.4092039879452187 -0.72882294913540591 0 0 0 0 92.402601111723925 168.6978708726092 0 168.6978708726092 58.78795865016582 0 0 0 0 18.816236149817996 100.2268735089383 0 100.2268735089383 79.513659026008099 0 0 0 0 34.020690180674137 67.469951063416374 0 67.469951063416374 108.97021508941543 0 0 0 0 -53.546586050928454 176.30243427192909 0 176.30243427192909 -283.88786865689326 0 0 0 0 -16.601739279002402 18.39586113845391 0 18.39586113845391 6.7588162101277192 0 0 0 0 9.5607527941265289 -77.962288200084004 0 -77.962288200084004 -180.56544518860755 0 0 0 0 10.781802851529758 9.3197256402529263 0 9.3197256402529263 -2.5920815250935902 0 0 0 0 8.2929674786095848 53.015407445789776 0 53.015407445789776 31.256276172546904 0 0 0 0 14.247441134012661 81.581215779360718 0 81.581215779360718 51.162514980504056 0 0 0 0 -26.79997210683905 88.436880642607321 0 88.436880642607321 11.565390287374612 0 0 0 0 0.24042630832991563 132.54547626397107 0 132.54547626397107 83.181482642670744 0 0 0 0 48.226305067393696 83.427551711953129 0 83.427551711953129 9.0606258111706666 0 0 0 0 46.436749170468829 71.733450890198583 0 71.733450890198583 -41.855653943988727 0 0 0 0 41.755154545442565 133.85406336480264 0 133.85406336480264 43.340898272261256 0 0 0 0 -75.200110235131433 76.99096082833421 0 76.99096082833421 -20.33401668589795 0 0 0 0 35.370784646540415 112.8439309909445 0 112.8439309909445 135.71135895245243 0 0 0 0 -69.530806941180344 177.35013916372191 0 177.35013916372191 323.37347314483486 0 0 0 0 -144.90003248499852 66.919971682553296 0 66.919971682553296 260.51350338148768 0 0 0 0 84.549161746393111 -168.15287464247376 0 -168.15287464247376 456.56770171133394 0 0 0 0 292.72876728774281 312.11452219066996 0 312.11452219066996 227.58238793822238 0 0 0 0 182.98278666064289 193.45268527754524 0 193.45268527754524 26.846443573187571 0 0 0 0 283.40203954645222 30.192387045708529 0 30.192387045708529 -63.347924567307928 0 0 0 0 100.81035452959986 57.276999053727195 0 57.276999053727195 -66.799244396377617 0 0 0 0 -4.1367849510326948 7.5627586759307519 0 7.5627586759307519 -13.125313299989443 0 0 0 0 -291.33470795174435 554.1520587653431 0 554.1520587653431 374.46852491638856 0 0 0 0 -21.833847577099789 36.210390746377556 0 36.210390746377556 -27.410009007085478 0 0 0 0 2.6874575984111289 61.965660012661829 0 61.965660012661829 -19.934681341124815 0 0 0 0 445.00173672899109 -580.17199071034702 0 -580.17199071034702 1125.6065543280565 0 0 0 0 1109.1567373327707 801.26512185137108 0 801.26512185137108 -904.0127450490254 0 0 0 0 1264.9790803526921 408.87700710726494 0 408.87700710726494 -820.69746682830737 0 0 0 0 1.6132811293864506 60.126638499112232 0 60.126638499112232 3.9268625902186614 0 0 0 0 5.8091637872712454 74.388081267752568 0 74.388081267752568 -12.209879307978554 0 0 0 0 0.8316948798528756 73.147674202991766 0 73.147674202991766 -32.092311234258432 0 0 0 0 9.3532296145131113 70.909123914563679 0 70.909123914563679 -32.256832359169493 0 0 0 0 28.942101766848253 33.951646988337657 0 33.951646988337657 12.539232850622739 0 0 0 0 -0.1522901290882146 66.195096619245305 0 66.195096619245305 -60.569993328972487 0 0 0 0 -60.414169283481897 132.40582242084565 0 132.40582242084565 -55.116284106537933 0 0 0 0 85.132986311953573 54.021025968060712 0 54.021025968060712 -67.134573868199368 0 0 0 0 90.577789446950192 59.281222382793203 0 59.281222382793203 -74.654920837725513 0 0 0 0 44.085493840586423 102.53124620317976 0 102.53124620317976 -74.598793343786383 0 0 0 0 31.582577954778117 94.668210970979089 0 94.668210970979089 -46.754552791870083 0 0 0 0 7.8496414134551458 22.95117673439313 0 22.95117673439313 -68.789161600517502 0 0 0 0 34.205841670252994 103.61133371571486 0 103.61133371571486 -90.663482300937176 0 0 0 0 6.7570677023603736 20.453196301886067 0 20.453196301886067 -65.184009705564961 0 0 0 0 90.174758339944134 32.352169644789512 0 32.352169644789512 -50.110949963709572 0 0 0 0 89.818376791688365 60.607296327595122 0 60.607296327595122 -68.204229176626541 0 0 0 0 85.128976680629421 55.754927725472953 0 55.754927725472953 -55.502688644308364 0 0 0 0 -955.29938174936979 538.25672067588312 0 538.25672067588312 -215.42063127073925 0 0 0 0 -6.7864952936979535 156.04884841619423 0 156.04884841619423 -52.151084405873917 0 0 0 0 8.2864517088063323 25.416936751512935 0 25.416936751512935 41.543298555729848 0 0 0 0 117.0996050627582 83.142229978038813 0 83.142229978038813 -84.000657407355902 0 0 0 0 -1285.0098652721153 845.56945883758817 0 845.56945883758817 82.738541157086729 0 0 0 0 -95.008962188221631 27.93501695379382 0 27.93501695379382 -341.35268115175495 0 0 0 0 -1212.6550362997205 749.23222014366183 0 749.23222014366183 -437.1037086384531 0 0 0 0 -970.60134947314509 801.83577188302297 0 801.83577188302297 -684.05297879630234 0 0 0 0 215.93728912693587 218.78234785799395 0 218.78234785799395 -418.7644677562057 0 0 0 0 -0.78816662149360894 1.540928460334186 0 1.540928460334186 -2.2775899165961278 0 0 0 0 -1697.6643855406146 394.91691780317342 0 394.91691780317342 -123.86230345995864 0 0 0 0 1.3610643121076436 1.5316159516721939 0 1.5316159516721939 0.98138912608658302 0 0 0 0 5.1941926759761898 5.7488356281557458 0 5.7488356281557458 -12.333854067381935 0 0 0 0 187.39212474204396 0.68908544429723406 0 0.68908544429723406 -57.650630374257162 0 0 0 0 123.58344557414239 5.6810707788536092 0 5.6810707788536092 -36.500871664560691 0 0 0 0 133.30751606612375 50.250259606620602 0 50.250259606620602 -69.814338359661633 0 0 0 0 171.82575928358983 61.50975032457427 0 61.50975032457427 -48.653279453952564 0 0 0 0 131.55786221345261 42.100875045922294 0 42.100875045922294 -0.75042132370435866 0 0 0 0 166.76144119956734 54.672444707510294 0 54.672444707510294 -57.165534509232657 0 0 0 0 104.18421576855326 47.75913938692247 0 47.75913938692247 -43.506847935481346 0 0 0 0 115.08789433661514 65.759589572446203 0 65.759589572446203 -70.411547182986396 0 0 0 0 53.234368606776115 99.130746431532316 0 99.130746431532316 -54.97546255600173 0 0 0 0 58.145430966564163 122.13470817505731 0 122.13470817505731 -72.040660715720151 0 0 0 0 -24.903599340679648 99.571744886881788 0 99.571744886881788 -50.669053998251911 0 0 0 0 -38.190656583901728 140.83795114217719 0 140.83795114217719 -33.538163509540027 0 0 0 0 -56.678430669744557 151.3117452259612 0 151.3117452259612 25.627665438078111 0 0 0 0 108.90387610723701 158.22773176234477 0 158.22773176234477 -57.705603278816852 0 0 0 0 71.159610572540259 85.157017286397604 0 85.157017286397604 -36.484969256765908 0 0 0 0 -31.815983588210656 160.99483021951892 0 160.99483021951892 -0.22393830347573385 0 0 0 0 -152.09142105630963 125.90471081063879 0 125.90471081063879 42.266890809441975 0 0 0 0 -146.20174065817992 200.87772724125534 0 200.87772724125534 31.30682273072307 0 0 0 0 156.47896332413802 281.92521379758546 0 281.92521379758546 16.261477118556286 0 0 0 0 556.14778753273458 -50.700706182575232 0 -50.700706182575232 -62.334760595913394 0 0 0 0 -1221.4046032495935 752.12603424748522 0 752.12603424748522 -80.736664543917868 0 0 0 0 -979.67603692131252 9.7819445642508072 0 9.7819445642508072 101.79663239521324 0 0 0 0 -1.157405190215556 0.049557513115559004 0 0.049557513115559004 1.1568648969334276 0 0 0 0 -125.54212020044633 277.21215322738135 0 277.21215322738135 -196.96640282920271 0 0 0 0 -504.13577923355479 259.97784769551799 0 259.97784769551799 0.074365604596096091 0 0 0 0 -161.44039792043623 6.7023032939978293 0 6.7023032939978293 1.7067607839853736 0 0 0 0 -96.125729188857804 72.31606159517105 0 72.31606159517105 168.17991349444492 0 0 0 0 375.57849577467459 491.63123766543868 0 491.63123766543868 -130.80514531244989 0 0 0 0 -272.30864772433415 336.79029842314776 0 336.79029842314776 -43.303509577121076 0 0 0 0 190.37931344716344 -26.568246157432441 0 -26.568246157432441 6.7657494795994353 0 0 0 0 33.839472928520991 27.740784782654373 0 27.740784782654373 11.60485465351212 0 0 0 0 223.2516259777185 -98.554728898969188 0 -98.554728898969188 -50.002645877641044 0 0 0 0 -28.681653334017028 63.95341975503834 0 63.95341975503834 37.030727885612578 0 0 0 0 -0.47838185930231703 141.27025340273576 0 141.27025340273576 44.970185039768694 0 0 0 0 63.828534479456721 106.25106116322422 0 106.25106116322422 -25.0925071616075 0 0 0 0 -97.393360057820246 4.0211644472622083 0 4.0211644472622083 -89.547857772791758 0 0 0 0 -104.18177279087286 185.53254622467466 0 185.53254622467466 -81.185371329804184 0 0 0 0 15.699848456919426 187.29958134682965 0 187.29958134682965 -288.8325551181988 0 0 0 0 -67.870706869591231 49.001064776599378 0 49.001064776599378 -8.3684072204778204 0 0 0 0 633.67442269259482 16.454639044954092 0 16.454639044954092 -868.40152935797232 0 0 0 0 2.9662976243349917 1.8610072821437527 0 1.8610072821437527 0.4093401467057447 0 0 0 0 183.16642399226839 88.280597986224166 0 88.280597986224166 34.616678428137675 0 0 0 0 -676.86815566646692 -762.79960590293922 0 -762.79960590293922 247.91495293616754 0 0 0 0 -0.62482002673523596 1.9299393428840688 0 1.9299393428840688 2.3896564260901982 0 0 0 0 -125.19772561823629 88.576195203335374 0 88.576195203335374 -69.202630116141137 0 0 0 0 -209.99384233674573 115.71838236138865 0 115.71838236138865 -13.019326532070409 0 0 0 0 -69.012928797612403 145.48566713477339 0 145.48566713477339 -42.158616172731854 0 0 0 0 -45.973899883700142 113.02248708993466 0 113.02248708993466 -56.960048587236088 0 0 0 0 -82.592765851703007 88.279044010028883 0 88.279044010028883 -64.406133346979914 0 0 0 0 -147.8980658441651 149.45738844768493 0 149.45738844768493 -10.006368289905367 0 0 0 0 -169.96144612050193 99.307457526429062 0 99.307457526429062 -53.060847985936562 0 0 0 0 -410.57750013306941 102.84486749792268 0 102.84486749792268 22.268199320547865 0 0 0 0 392.25488462761132 -62.469735600228887 0 -62.469735600228887 -70.800810779197491 0 0 0 0 295.21224161135979 -10.962050739704864 0 -10.962050739704864 -26.688076626742259 0 0 0 0 -0.2004267053376374 0.027467496897912724 0 0.027467496897912724 1.1535272866879609 0 0 0 0 -242.36882344008336 174.23880764425849 0 174.23880764425849 -20.113711590209277 0 0 0 0 -149.68420935283211 74.005875124530576 0 74.005875124530576 -56.348710218118867 0 0 0 0 -394.95916599608609 152.44592597545852 0 152.44592597545852 0.13274998120323289 0 0 0 0 -0.66144288694201947 -1.8516488918977458 0 -1.8516488918977458 1.1793530412081736 0 0 0 0 518.66812135791952 -52.643760159295198 0 -52.643760159295198 5.9999534368107561 0 0 0 0 270.98219094581509 169.34999317426627 0 169.34999317426627 0.15396872010023799 0 0 0 0 262.30795805950765 48.044281487516855 0 48.044281487516855 -2.3737339697981952 0 0 0 0 109.15185030787507 131.15186358894061 0 131.15186358894061 46.621958377116243 0 0 0 0 45.730222080748717 195.47896614169804 0 195.47896614169804 0.046557493013096973 0 0 0 0 143.60914899872296 53.75469375015382 0 53.75469375015382 60.513756356049271 0 0 0 0 -107.14706381389988 92.961442947180331 0 92.961442947180331 86.69409328828624 0 0 0 0 2.2378634039680776 -1.3793531430101211 0 -1.3793531430101211 -2.9375437984110135 0 0 0 0 191.43065778914024 112.04816230590586 0 112.04816230590586 0.056175612800871022 0 0 0 0 20.201405632367823 112.0096119762311 0 112.0096119762311 86.367346771992288 0 0 0 0 116.37692490457994 112.53181279029377 0 112.53181279029377 25.209507138919435 0 0 0 0 -5.4572835762082832 95.368561068593408 0 95.368561068593408 -1.6293532245763345 0 0 0 0 11.861293238180224 150.20843292483187 0 150.20843292483187 15.10119084600592 0 0 0 0 141.13207141999555 164.81316875139055 0 164.81316875139055 23.261767568066716 0 0 0 0 2.0651013102086893 -0.80791898615058244 0 -0.80791898615058244 -3.769725215580479 0 0 0 0 92.473240130647355 97.318340587085004 0 97.318340587085004 68.516673378369887 0 0 0 0 202.75772638821945 12.101730802271049 0 12.101730802271049 -69.925932598722284 0 0 0 0 62.787281858734787 66.682026382433833 0 66.682026382433833 -71.164741374130244 0 0 0 0 60.242327961343108 92.609648609330179 0 92.609648609330179 -322.08204444541479 0 0 0 0 90.873773129659639 81.180934601652552 0 81.180934601652552 -94.291541439219145 0 0 0 0 31.522066301782615 121.25857313333836 0 121.25857313333836 30.046206499668187 0 0 0 0 32.108427671635582 93.711128461662156 0 93.711128461662156 -3.0779016951273661 0 0 0 0 26.571117364073871 93.564489643627894 0 93.564489643627894 19.784706327831373 0 0 0 0 -33.488861536490731 90.814160829388129 0 90.814160829388129 37.242986328419647 0 0 0 0 222.16952363782548 94.359090611131251 0 94.359090611131251 -90.314551801915513 0 0 0 0 6.6626036741799908 67.416051406937186 0 67.416051406937186 50.875013265947928 0 0 0 0 2.2270774615598015 -1.3404003528340525 0 -1.3404003528340525 -3.1333628304518015 0 0 0 0 80.429809203997138 72.256839822803158 0 72.256839822803158 50.938313879802081 0 0 0 0 25.560509636386996 107.96230062146788 0 107.96230062146788 60.846172983510769 0 0 0 0 51.603672364779413 129.99856189996535 0 129.99856189996535 76.105439082093653 0 0 0 0 123.40799421280462 106.58887267309183 0 106.58887267309183 46.008088845774182 0 0 0 0 137.03060454377555 87.087837485130876 0 87.087837485130876 45.773759301775044 0 0 0 0 104.85273552262151 136.59951196747897 0 136.59951196747897 0.073462980100885034 0 0 0 0 91.76854541373541 154.19613107724945 0 154.19613107724945 70.430809472280089 0 0 0 0 79.212965053302469 188.23010109445022 0 188.23010109445022 -0.0018855025700759143 0 0 0 0 86.480441430459905 232.06902416344383 0 232.06902416344383 104.0835308297319 0 0 0 0 29.255696376261767 161.62640660385659 0 161.62640660385659 174.1134054393915 0 0 0 0 42.932878918276401 139.93842073645646 0 139.93842073645646 67.032715039258619 0 0 0 0 90.657908831002715 249.92037621721101 0 249.92037621721101 0.16029464494353618 0 0 0 0 110.04077368956496 331.05614112859985 0 331.05614112859985 256.93666348701663 0 0 0 0 20.233253620367577 129.2933726490719 0 129.2933726490719 309.45496610361442 0 0 0 0 19.397035825844796 111.46766098824446 0 111.46766098824446 117.33901930153661 0 0 0 0 19.236621879754239 159.44557013933809 0 159.44557013933809 232.64682281400201 0 0 0 0 18.694366203510185 25.446273618577635 0 25.446273618577635 12.310295452432996 0 0 0 0 45.931205775639683 148.19168469437864 0 148.19168469437864 87.984014574190951 0 0 0 0 34.54023208032595 112.53431459440617 0 112.53431459440617 108.05241946029855 0 0 0 0 39.694611539915059 104.98715620362418 0 104.98715620362418 73.799704666096659 0 0 0 0 34.684947046873276 121.23911329282419 0 121.23911329282419 60.316675472480711 0 0 0 0 21.94251807188266 90.051777119515464 0 90.051777119515464 65.354927187276189 0 0 0 0 35.677577442867914 62.709343174821697 0 62.709343174821697 13.704064700126764 0 0 0 0 46.730596940979012 59.977598178054905 0 59.977598178054905 -38.330875310610281 0 0 0 0 35.234983894681136 73.683797835488804 0 73.683797835488804 103.37005928769941 0 0 0 0 79.854304496937402 82.153506928520073 0 82.153506928520073 -75.584480772551615 0 0 0 0 30.596375477620825 30.269684784276222 0 30.269684784276222 14.969359318420572 0 0 0 0 -87.814288016263163 -19.512460490121157 0 -19.512460490121157 -18.412036174238892 0 0 0 0 -58.60286890414136 -164.61870903900854 0 -164.61870903900854 -251.11667076373124 0 0 0 0 -47.331952656539215 76.96888503273658 0 76.96888503273658 186.31504865585885 0 0 0 0 1.8281480435745152 -0.26323908648382144 0 -0.26323908648382144 -0.5227701208103781 0 0 0 0 -247.86519176401998 257.65454243171916 0 257.65454243171916 -169.82364604362374 0 0 0 0 -235.70852552812357 264.32647391706996 0 264.32647391706996 -205.79758036346175 0 0 0 0 -95.015652838779488 165.04985314874648 0 165.04985314874648 -196.78978805932275 0 0 0 0 -546.54826197278453 443.6202882027319 0 443.6202882027319 -194.2143663399911 0 0 0 0 -381.25510037161803 285.01550083603433 0 285.01550083603433 -192.7721251923067 0 0 0 0 -271.9965963951181 109.98897332174056 0 109.98897332174056 -141.69802588305902 0 0 0 0 -374.14681008370826 324.05317329586978 0 324.05317329586978 -81.996824529436708 0 0 0 0 -408.85921751388196 149.06171030916448 0 149.06171030916448 -238.48549776311847 0 0 0 0 -530.47185526779504 432.10208590605907 0 432.10208590605907 -230.177437495513 0 0 0 0 -672.48095773850218 363.59779426020395 0 363.59779426020395 -256.82467416785948 0 0 0 0 -154.95500241815171 29.833988725520612 0 29.833988725520612 -136.21960364496772 0 0 0 0 -18.63925887052028 -57.135991086375725 0 -57.135991086375725 -105.53207576676505 0 0 0 0 -100.5654253669054 227.93912509822258 0 227.93912509822258 -69.933606176291505 0 0 0 0 -284.09164380867151 246.37357073964813 0 246.37357073964813 -166.19771463257166 0 0 0 0 -240.74840418238637 11.285778177628345 0 11.285778177628345 -103.23718320585613 0 0 0 0 -96.824664183601271 267.90321450162446 0 267.90321450162446 -249.13483527738572 0 0 0 0 -143.34839299162559 -37.001835864257373 0 -37.001835864257373 179.5173297613801 0 0 0 0 367.59699058199476 400.68677508822293 0 400.68677508822293 193.08827525114611 0 0 0 0 232.53560583721264 183.19735681518796 0 183.19735681518796 -87.263829350333253 0 0 0 0 95.857413918747625 -76.623225507202733 0 -76.623225507202733 -79.436445187791833 0 0 0 0 87.430579201107321 -164.14128775847348 0 -164.14128775847348 589.91244542325148 0 0 0 0 615.32920060487231 374.2914646435238 0 374.2914646435238 -116.21153652944986 0 0 0 0 601.22936294134706 -64.573471283933031 0 -64.573471283933031 -178.76800147152971 0 0 0 0 230.91756880149478 488.16137024849013 0 488.16137024849013 368.02720182941994 0 0 0 0 -49.84590920676419 100.19914127196535 0 100.19914127196535 467.98766470857663 0 0 0 0 1.9378398103263805 2.8620039870511746 0 2.8620039870511746 4.8019632309055851 0 0 0 0 724.84397859015007 -43.221036021270265 0 -43.221036021270265 -73.335678279821877 0 0 0 0 -1.6683274062961573 67.365141103473434 0 67.365141103473434 -16.349644117042772 0 0 0 0 -12.375760250200983 -2.5472931928816251 0 -2.5472931928816251 28.484744879249774 0 0 0 0 -109.10026614106027 26.742779905536736 0 26.742779905536736 32.340078136970988 0 0 0 0 16.750042170213419 41.058413659695361 0 41.058413659695361 19.891081048030173 0 0 0 0 -4.6347151789787198 3.404953058934268 0 3.404953058934268 0.53315860296646633 0 0 0 0 -17.078311288197199 31.251687498457812 0 31.251687498457812 -13.931286038774061 0 0 0 0 -30.439657260008971 25.856843963920255 0 25.856843963920255 -16.154843347176211 0 0 0 0 -74.727062499885506 60.457842652151157 0 60.457842652151157 -6.6706702816882171 0 0 0 0 -233.68448410097335 51.03582659195672 0 51.03582659195672 64.04107501488761 0 0 0 0 145.52458865728113 88.495554984787304 0 88.495554984787304 51.930735775487847 0 0 0 0 0.44528688562349217 -2.5111084814847118 0 -2.5111084814847118 -0.020100218916240919 0 0 0 0 218.55456038636657 190.99231773522388 0 190.99231773522388 132.90971887434716 0 0 0 0 9.4040826864802511 36.165921163723397 0 36.165921163723397 32.094146512114094 0 0 0 0 12.577919093135279 98.931748553361103 0 98.931748553361103 210.95036036407691 0 0 0 0 123.62187796886428 153.21090568653017 0 153.21090568653017 -136.26267888979055 0 0 0 0 115.91501649219572 247.16722043302434 0 247.16722043302434 -117.12200355928508 0 0 0 0 95.922113866428845 233.11271985703206 0 233.11271985703206 120.22064015830983 0 0 0 0 85.206511142845557 -132.34108638305042 0 -132.34108638305042 -36.0423589162383 0 0 0 0 231.17929599085619 300.45729618391488 0 300.45729618391488 -309.76835658466734 0 0 0 0 3.3024373092977726 -1.9278053409929043 0 -1.9278053409929043 -6.078129679144709 0 0 0 0 236.77145298826508 178.1024806832429 0 178.1024806832429 -119.73297011473915 0 0 0 0 289.2062453609833 226.23843254954409 0 226.23843254954409 -76.316516800230602 0 0 0 0 164.18755992501974 239.47568120926735 0 239.47568120926735 118.6156298092028 0 0 0 0 44.720486444450216 105.22540789461345 0 105.22540789461345 -32.226118152990239 0 0 0 0 69.034533180621679 27.222805622956145 0 27.222805622956145 -13.051175123463963 0 0 0 0 130.32226159915444 87.62214788293204 0 87.62214788293204 -154.84311085866648 0 0 0 0 40.180460589057475 -8.0370800192540628 0 -8.0370800192540628 -98.316583647640073 0 0 0 0 95.175314580526901 -9.4771475029192516 0 -9.4771475029192516 -154.12970636642422 0 0 0 0 60.082545161307422 27.336019278786722 0 27.336019278786722 -7.3447176812165935 0 0 0 0 144.34727440530696 66.140571286283375 0 66.140571286283375 -80.029028686578386 0 0 0 0 83.438859314428555 50.329554394054867 0 50.329554394054867 -69.523025650618365 0 0 0 0 70.168140324225533 115.84032545627269 0 115.84032545627269 -88.594383723961073 0 0 0 0 12.014760091980861 127.9381388600159 0 127.9381388600159 -53.673151527764276 0 0 0 0 34.9719503744127 40.614246342913248 0 40.614246342913248 -19.946799966004619 0 0 0 0 44.685924522082615 31.72673339163137 0 31.72673339163137 8.3879133171977145 0 0 0 0 42.976398243190488 -4.8386881969345268 0 -4.8386881969345268 -121.94083778460481 0 0 0 0 7.5071429034378525 6.8495442885946716 0 6.8495442885946716 4.4236722903574446 0 0 0 0 -141.11636045346677 -61.860066799774359 0 -61.860066799774359 -57.882513823526097 0 0 0 0 45.357343560848676 78.365088565074984 0 78.365088565074984 -4.0265533333295025 0 0 0 0 186.59775364048255 -257.81644304365182 0 -257.81644304365182 -591.57744836409984 0 0 0 0 171.3778289824113 394.8387172129369 0 394.8387172129369 -141.40915337760453 0 0 0 0 -62.403140489783254 -153.08214347229659 0 -153.08214347229659 -167.11685826133271 0 0 0 0 -24.093724666163325 259.8371020688428 0 259.8371020688428 -121.76605603136932 0 0 0 0 -56.572000976011623 71.371120006595447 0 71.371120006595447 -0.94566222522189491 0 0 0 0 -1.1622028550598884 2.2969258464103177 0 2.2969258464103177 0.56825734943646466 0 0 0 0 -1975.307920122912 682.19851941749948 0 682.19851941749948 -163.42212354132062 0 0 0 0 -1091.7778835520585 417.00272007274907 0 417.00272007274907 -383.22089322815009 0 0 0 0 -1.4649984995410961 3.7528108933027227 0 3.7528108933027227 2.4139351525496977 0 0 0 0 -1598.9722769456275 434.28432951836294 0 434.28432951836294 -2.93057950475486 0 0 0 0 -24.6971939959476 61.621603324994794 0 61.621603324994794 0.24535845772516041 0 0 0 0 8.6756759799093288 20.560872361158161 0 20.560872361158161 30.935492002481624 0 0 0 0 -0.065019869332900271 26.193124079065456 0 26.193124079065456 3.3584500736906193 0 0 0 0 -1696.0652162673105 731.11818313032563 0 731.11818313032563 -183.17621137754759 0 0 0 0 -1390.2671195061612 111.6403482253736 0 111.6403482253736 -23.974362561057205 0 0 0 0 2.0664213372301106 7.8574042917543352 0 7.8574042917543352 11.645975593711 0 0 0 0 -0.018207753237220459 26.193927283042285 0 26.193927283042285 3.3581177762862353 0 0 0 0 -906.39718039332365 1496.1354195815584 0 1496.1354195815584 5.5410006566089578 0 0 0 0 -1609.691996670048 849.35885417748068 0 849.35885417748068 836.1270397946937 0 0 0 0 -28.341718595533166 3887.288392894814 0 3887.288392894814 3799.2834244669066 0 0 0 0 -179.30572319039493 894.45834942199872 0 894.45834942199872 470.98634321062127 0 0 0 0 -2.2829279101655686 0.89089059684349081 0 0.89089059684349081 2.1243336666764776 0 0 0 0 -1704.0565801210141 829.31661780771356 0 829.31661780771356 0.27616865484742448 0 0 0 0 -1246.3051080622972 642.17599454242736 0 642.17599454242736 -466.91987322510249 0 0 0 0 -465.2640688555839 209.35754417331191 0 209.35754417331191 265.50710428304592 0 0 0 0 -443.81428551454155 564.62036847848503 0 564.62036847848503 -412.21031178354315 0 0 0 0 -720.5220848339377 -30.713645100266149 0 -30.713645100266149 -5.9453995839467098 0 0 0 0 -324.37866442174709 831.23613884302176 0 831.23613884302176 0.49387328968441579 0 0 0 0 -2225.584318722149 263.38315662134664 0 263.38315662134664 295.04048965411494 0 0 0 0 944.66196777112782 138.45625767832098 0 138.45625767832098 -366.35765864686982 0 0 0 0 -1.0303609213775502 2.5338538379579916 0 2.5338538379579916 1.7156601506360971 0 0 0 0 -0.13613790629863942 10.194842019603698 0 10.194842019603698 2.1238469601448742 0 0 0 0 -1586.5283983423387 295.69876402901809 0 295.69876402901809 722.77872755617136 0 0 0 0 -11.385323030197469 408.47633825606317 0 408.47633825606317 -223.59332286532299 0 0 0 0 -475.95631405029008 290.98740514013866 0 290.98740514013866 17.55556710336532 0 0 0 0 -1331.32517648867 508.33232334115564 0 508.33232334115564 64.880414597326308 0 0 0 0 -470.60885044228053 409.40388906076259 0 409.40388906076259 -175.57488596413168 0 0 0 0 -267.92097613574879 494.16167285357369 0 494.16167285357369 -153.69483503025549 0 0 0 0 -584.00914724419272 697.04293879061515 0 697.04293879061515 -90.908795295777963 0 0 0 0 -890.10648039718217 319.82262329035439 0 319.82262329035439 15.585110665593675 0 0 0 0 273.11568161517062 707.78050811863068 0 707.78050811863068 -566.83931256557116 0 0 0 0 0.42653104652586649 10.832712898619974 0 10.832712898619974 -1.2975925523650176 0 0 0 0 -502.09947385333362 712.00793986949429 0 712.00793986949429 -94.321004301891662 0 0 0 0 -218.18208112366847 456.27802121993591 0 456.27802121993591 -937.61832881098962 0 0 0 0 -306.93834039607009 1438.6742692040398 0 1438.6742692040398 -1770.5146754404632 0 0 0 0 -332.04264611485269 45.339917572397098 0 45.339917572397098 2143.6326415006915 0 0 0 0 2.221240331592071 8.4232844613439113 0 8.4232844613439113 4.0530319489314337 0 0 0 0 -507.92954136314347 1084.4723447279562 0 1084.4723447279562 412.29983599000843 0 0 0 0 -440.96157144488825 656.67725597872777 0 656.67725597872777 -140.41951245676319 0 0 0 0 -852.24812483965798 498.1737576198102 0 498.1737576198102 526.61962156844675 0 0 0 0 -1122.9466344052053 -116.74343273921113 0 -116.74343273921113 -305.27214575086327 0 0 0 0 -1235.8170165699848 525.51159829305834 0 525.51159829305834 -0.25151601391553413 0 0 0 0 -304.3127578732674 157.05310538325284 0 157.05310538325284 -65.843260483437916 0 0 0 0 0.75070679971395293 576.52908118987398 0 576.52908118987398 -0.07321567926555872 0 0 0 0 89.052577388993086 390.13602588917274 0 390.13602588917274 354.27659643994411 0 0 0 0 135.49177646203316 390.06315111432923 0 390.06315111432923 0.13414725699112751 0 0 0 0 -9.5432593231744249 192.95938815528643 0 192.95938815528643 842.42837554730795 0 0 0 0 42.439602696525981 363.4881214432753 0 363.4881214432753 350.3389361084437 0 0 0 0 -410.43903004814638 665.2814792281788 0 665.2814792281788 -671.9582989248629 0 0 0 0 8.7928962398511885 19.911288775527936 0 19.911288775527936 9.909489009588782 0 0 0 0 -317.90899897483177 449.87099713349744 0 449.87099713349744 -382.61663666896493 0 0 0 0 -462.28936353227436 526.82669022900518 0 526.82669022900518 -387.20124994788785 0 0 0 0 -549.46684977335281 602.00275145860905 0 602.00275145860905 -71.410032952262554 0 0 0 0 -560.54225210797449 543.40032022282685 0 543.40032022282685 -210.95234464162058 0 0 0 0 -595.04078452395333 444.87708205792296 0 444.87708205792296 -257.9419541517891 0 0 0 0 -499.36166735403822 515.84865409305166 0 515.84865409305166 -211.34734229142487 0 0 0 0 -691.42857343878131 557.71744307103654 0 557.71744307103654 -317.72591473418652 0 0 0 0 -590.70717856550618 528.06592872047622 0 528.06592872047622 -461.00020468170987 0 0 0 0 -558.07617262817803 536.55864310808829 0 536.55864310808829 -398.40909318680133 0 0 0 0 -581.72818308422575 655.09495952892757 0 655.09495952892757 -660.32364558780682 0 0 0 0 -550.73629313015044 593.76906683145899 0 593.76906683145899 -380.05889463397034 0 0 0 0 -259.74776330370514 609.60444836193346 0 609.60444836193346 -440.31225545684356 0 0 0 0 -467.5599625103132 447.3253547142449 0 447.3253547142449 -163.74378543411876 0 0 0 0 -462.2559139651712 613.34037840664678 0 613.34037840664678 -438.16987579030319 0 0 0 0 -448.01952423756302 672.31045057169104 0 672.31045057169104 -704.05770076194312 0 0 0 0 -323.39496486364806 549.88132444294752 0 549.88132444294752 -741.3360844526178 0 0 0 0 -354.26681786337576 682.09799334279523 0 682.09799334279523 -244.58205421843741 0 0 0 0 1205.7589621730876 562.44476050455705 0 562.44476050455705 -350.97408681266097 0 0 0 0 -191.98813113480355 278.10134361398559 0 278.10134361398559 36.397192090124008 0 0 0 0 -313.01531274731678 674.66888845844369 0 674.66888845844369 -325.10228756403376 0 0 0 0 -480.73487659378588 842.78005399621907 0 842.78005399621907 -41.880490408708283 0 0 0 0 -1096.1310055146514 466.55288707477939 0 466.55288707477939 -0.075702936039306223 0 0 0 0 -989.53728649603727 459.73699010059499 0 459.73699010059499 -106.00980628567049 0 0 0 0 -1089.165841613285 598.25491109953145 0 598.25491109953145 -268.54321410036937 0 0 0 0 -1080.4297240656597 663.37987175373564 0 663.37987175373564 -91.322006086627653 0 0 0 0 -1287.3446959307548 968.98833107768587 0 968.98833107768587 -238.66618712333729 0 0 0 0 -829.55698134499107 489.85113833520882 0 489.85113833520882 -342.36539440318302 0 0 0 0 -0.32253604975350214 3.8431688920485669 0 3.8431688920485669 -1.8023584669309116 0 0 0 0 -2217.048450181268 496.32526512898039 0 496.32526512898039 -27.307578852134611 0 0 0 0 -281.96647804265376 417.71738028901018 0 417.71738028901018 -320.62783215809759 0 0 0 0 -468.54026693599008 557.55848192493795 0 557.55848192493795 -377.00810996712244 0 0 0 0 -3.0211361094782774 4.2049490474528852 0 4.2049490474528852 15.139080026249005 0 0 0 0 24.626694303177828 47.752918979057881 0 47.752918979057881 73.436358956962351 0 0 0 0 -154.35262489147863 18.614727713968023 0 18.614727713968023 204.21857848578657 0 0 0 0 -375.15741558477021 469.86195057319128 0 469.86195057319128 -305.73366021380934 0 0 0 0 43.367857166042086 15.611528420551622 0 15.611528420551622 16.427516509014822 0 0 0 0 -46.126244540078915 105.81227795425002 0 105.81227795425002 10.896974581792165 0 0 0 0 -0.06193869691924192 109.54332285736746 0 109.54332285736746 -108.95300394830701 0 0 0 0 -54.898471492240787 -105.2485641462481 0 -105.2485641462481 426.95207656775892 0 0 0 0 4.0461047193057311 -2.0671052149110238 0 -2.0671052149110238 -3.5753241938322304 0 0 0 0 0.18646776149398647 141.41427908665719 0 141.41427908665719 163.71360110549722 0 0 0 0 -27.442645747629285 46.821922330767848 0 46.821922330767848 9.0356800554072834 0 0 0 0 -206.83051400176191 173.29026857904682 0 173.29026857904682 145.78186964347697 0 0 0 0 18.542646732741133 38.358751235474941 0 38.358751235474941 60.475074999309754 0 0 0 0 14.34849676017177 30.860569286010275 0 30.860569286010275 45.620876959165969 0 0 0 0 -112.89801919538149 115.52250926283159 0 115.52250926283159 15.757830191796529 0 0 0 0 -1490.0926367725478 876.54502464120014 0 876.54502464120014 -157.86785193355172 0 0 0 0 -54.961876659363043 121.09497968692449 0 121.09497968692449 -1.057525175738192 0 0 0 0 -0.031176569661544147 96.005487967010609 0 96.005487967010609 -22.673984622611897 0 0 0 0 -0.057004610542207956 183.02420926967534 0 183.02420926967534 12.167177740724583 0 0 0 0 -79.611581305332948 179.15192637917789 0 179.15192637917789 47.054545151950151 0 0 0 0 -53.976233929213777 161.99941028615012 0 161.99941028615012 22.565443858955405 0 0 0 0 -53.80896922611646 161.04054157835708 0 161.04054157835708 10.940805068137706 0 0 0 0 -0.047930373185271484 142.510094014358 0 142.510094014358 -4.2566265260902583 0 0 0 0 -52.837821310575237 151.7135068490752 0 151.7135068490752 10.505080180362711 0 0 0 0 -48.349463563878089 92.808132771420787 0 92.808132771420787 -39.995831599873782 0 0 0 0 -52.64781397068873 149.92741660041247 0 149.92741660041247 20.256831908271124 0 0 0 0 -84.120598061548662 133.23490746186872 0 133.23490746186872 47.921808541710561 0 0 0 0 -43.907710902829422 95.657198261145822 0 95.657198261145822 30.947610557937878 0 0 0 0 22.826331095730765 39.835748733529712 0 39.835748733529712 68.139287406189339 0 0 0 0 8.5627950800586632 26.254992563660579 0 26.254992563660579 33.163235086634302 0 0 0 0 -67.31376168123461 31.956233768292805 0 31.956233768292805 114.14479803676659 0 0 0 0 22.294963468739297 -7.3054483593514306 0 -7.3054483593514306 90.362476522032011 0 0 0 0 -62.642381557176122 150.37714665766543 0 150.37714665766543 128.69171335638384 0 0 0 0 -128.85297808173345 98.55167843282652 0 98.55167843282652 98.72628732121666 0 0 0 0 -120.78097594018618 150.21834076349842 0 150.21834076349842 49.36479357391363 0 0 0 0 19.699808432912079 58.514442475783426 0 58.514442475783426 105.04253743432346 0 0 0 0 -98.389703846311022 154.30942747563495 0 154.30942747563495 44.234512344104587 0 0 0 0 -87.627370732516283 172.90178809162899 0 172.90178809162899 41.63004859922512 0 0 0 0 -102.92799925350118 168.89989001330105 0 168.89989001330105 43.21737724248851 0 0 0 0 -102.62892918140278 166.92560130147467 0 166.92560130147467 48.089719923547818 0 0 0 0 -148.95740255741111 160.46483841717054 0 160.46483841717054 60.26875032389944 0 0 0 0 -114.28974343868322 195.97354149254534 0 195.97354149254534 -25.765552688396383 0 0 0 0 3.5214717691013107 27.977539447380252 0 27.977539447380252 22.470158190095383 0 0 0 0 -136.01714115747018 149.50519853002334 0 149.50519853002334 45.79868655334576 0 0 0 0 0.071835443028248847 75.347767320883577 0 75.347767320883577 12.520344877135358 0 0 0 0 -94.720442492936854 140.86373067589375 0 140.86373067589375 30.396794505475555 0 0 0 0 -31.924779198554461 84.290413242022623 0 84.290413242022623 43.384010748224682 0 0 0 0 36.285735863490061 56.647157470723471 0 56.647157470723471 36.945698838783017 0 0 0 0 0.51769073587985304 61.384895430945051 0 61.384895430945051 20.367833080682654 0 0 0 0 17.97061814161134 65.405384899393539 0 65.405384899393539 30.696954142680624 0 0 0 0 7.0677314231434138 69.602757280026708 0 69.602757280026708 68.265402720950078 0 0 0 0 15.935562170162484 51.383302584257166 0 51.383302584257166 -0.54476029893715605 0 0 0 0 24.068283351254649 74.363296315073967 0 74.363296315073967 47.035386967414524 0 0 0 0 23.462832578079542 72.663451606858871 0 72.663451606858871 44.118154294701526 0 0 0 0 21.532466692093294 73.360249806282809 0 73.360249806282809 48.40348700240429 0 0 0 0 22.791284932463896 75.577116305721574 0 75.577116305721574 49.712650398440019 0 0 0 0 1.828291188692674 60.020576656133926 0 60.020576656133926 51.990478138352046 0 0 0 0 9.9518021982512437 57.101783337144298 0 57.101783337144298 -0.11752879412961192 0 0 0 0 62.242056041766773 272.5192568225757 0 272.5192568225757 85.50680318409286 0 0 0 0 130.18208626608248 53.56941469591402 0 53.56941469591402 -85.13390424104 0 0 0 0 -0.69874854973390654 10.036968641175335 0 10.036968641175335 -10.280182843188868 0 0 0 0 145.69099610121339 91.195347444820072 0 91.195347444820072 -42.517259377840674 0 0 0 0 128.0008398970167 166.98152054965794 0 166.98152054965794 89.43172060555662 0 0 0 0 28.849350055825198 124.05998494851519 0 124.05998494851519 186.22869102121331 0 0 0 0 19.422661563323345 164.0020231132803 0 164.0020231132803 153.71043073982582 0 0 0 0 -18.072277871833649 110.38324169069529 0 110.38324169069529 67.924550163967069 0 0 0 0 8.0440744249499403 125.44243600999471 0 125.44243600999471 29.935569016623049 0 0 0 0 -18.170719580171863 118.50177354960761 0 118.50177354960761 120.07791071092652 0 0 0 0 7.9750635308878373 143.85543497952062 0 143.85543497952062 67.326405490399338 0 0 0 0 4.4154297584318556 121.25261236085498 0 121.25261236085498 66.028423730123905 0 0 0 0 -2.0657902167949942 -10.414990275428863 0 -10.414990275428863 365.12994499861088 0 0 0 0 16.248654604103649 99.845316766935866 0 99.845316766935866 191.50202078549773 0 0 0 0 -21.713451429779525 111.94332891012164 0 111.94332891012164 233.36035724097746 0 0 0 0 27.07285081394366 -45.838717867358355 0 -45.838717867358355 201.0054544052673 0 0 0 0 -385.41064887098037 658.79436491298111 0 658.79436491298111 -817.37976808040548 0 0 0 0 -467.05013043407962 573.49343905937349 0 573.49343905937349 -731.98567784234183 0 0 0 0 6.9216501669952208 15.582092531030909 0 15.582092531030909 11.08288795086284 0 0 0 0 95.09343553672079 86.869080548174679 0 86.869080548174679 300.818588941911 0 0 0 0 -1.5590763271320611 95.961155076132854 0 95.961155076132854 326.31396618418512 0 0 0 0 32.181518340112234 172.11293957913585 0 172.11293957913585 206.69228499356541 0 0 0 0 287.77271446975647 -72.330264584845281 0 -72.330264584845281 324.54438040661626 0 0 0 0 -82.048052279846161 18.190674544879585 0 18.190674544879585 447.72964159352705 0 0 0 0 -350.39446886989754 -127.3545724456053 0 -127.3545724456053 1260.994947445899 0 0 0 0 239.04865293589319 -208.76870957143183 0 -208.76870957143183 162.33174234148464 0 0 0 0 -509.8906349769386 1101.4001084909905 0 1101.4001084909905 -1414.6807464917292 0 0 0 0 -0.35508756232241012 7.1870456827132614 0 7.1870456827132614 6.1735562601133722 0 0 0 0 -439.06938430358059 604.51836354293482 0 604.51836354293482 -1161.8546617214161 0 0 0 0 -674.65732180942723 709.40374947372766 0 709.40374947372766 -646.79455815006804 0 0 0 0 -860.43865353111323 707.71338391955942 0 707.71338391955942 -501.10859061982774 0 0 0 0 -619.3905603470339 719.22867497723928 0 719.22867497723928 -889.29366585460957 0 0 0 0 -695.86647216665733 1050.9134653982546 0 1050.9134653982546 -791.10282795771855 0 0 0 0 -894.76756218975788 1146.8115202339104 0 1146.8115202339104 -434.52840071782703 0 0 0 0 -384.44865623714213 295.97893493972515 0 295.97893493972515 -492.88341080062673 0 0 0 0 109.20541668293299 221.92396030775853 0 221.92396030775853 -1003.0195557885745 0 0 0 0 -33.494601718202091 4.2198300148701549 0 4.2198300148701549 4.127426639032457 0 0 0 0 -206.25432781829295 624.35508698218473 0 624.35508698218473 -295.16875219836948 0 0 0 0 -13.881476331688418 5.4183090272144696 0 5.4183090272144696 -0.52557389462322135 0 0 0 0 4.9841427974170074 30.186851783902966 0 30.186851783902966 -27.375456564332126 0 0 0 0 -250.55193474752014 215.41355137930077 0 215.41355137930077 677.13599241357588 0 0 0 0 -433.80413800178212 597.03757252704236 0 597.03757252704236 867.99539806032408 0 0 0 0 -57.509145490137769 39.734916106876511 0 39.734916106876511 25.394879732257838 0 0 0 0 -268.37355283538636 24.01900700837723 0 24.01900700837723 -153.98471312975744 0 0 0 0 -155.66592685648357 117.60094312852016 0 117.60094312852016 22.029905329625763 0 0 0 0 21.323602107689382 62.027649824590391 0 62.027649824590391 43.827854609798123 0 0 0 0 -176.92201394613221 -59.11657702379307 0 -59.11657702379307 35.435933295986615 0 0 0 0 24.987292249366874 77.996624151885044 0 77.996624151885044 49.723527333087986 0 0 0 0 -16.8863093904246 3.2639518176394091 0 3.2639518176394091 14.975197797168562 0 0 0 0 -209.43666662447504 215.08961573877605 0 215.08961573877605 196.6100449753776 0 0 0 0 -249.68361564382212 -120.50004122154496 0 -120.50004122154496 -163.8485059157174 0 0 0 0 -445.99524893213129 -602.3738429463192 0 -602.3738429463192 -246.64703526897938 0 0 0 0 -267.27534496388398 350.72181493141397 0 350.72181493141397 142.57924012091644 0 0 0 0 -338.36386385794322 91.598293890270725 0 91.598293890270725 -17.288020942505682 0 0 0 0 25.887240446405485 82.657735894070356 0 82.657735894070356 55.860682253885898 0 0 0 0 42.650630402538809 100.60857098014822 0 100.60857098014822 50.995729711590684 0 0 0 0 -37.421157911855971 37.649084665052868 0 37.649084665052868 7.8963031967463451 0 0 0 0 -48.956564818356128 56.750359175701306 0 56.750359175701306 51.619812766672112 0 0 0 0 -51.964403071498964 43.86281697173763 0 43.86281697173763 43.704012174013769 0 0 0 0 -3.6534485291253702 18.792919713813433 0 18.792919713813433 53.240787547820474 0 0 0 0 -107.1765804502902 -413.00265379543271 0 -413.00265379543271 -76.629262607471901 0 0 0 0 -7.7322887761760768 -5.0231395946826893 0 -5.0231395946826893 7.3665504320323976 0 0 0 0 -736.65406254077971 625.36491744469458 0 625.36491744469458 534.40385432592302 0 0 0 0 -58.728948805506661 18.430385362447851 0 18.430385362447851 110.23729184283002 0 0 0 0 5.0724493787994334 15.206966165236423 0 15.206966165236423 39.772724056023776 0 0 0 0 16.728997918518871 -303.87795669853949 0 -303.87795669853949 998.71374620762072 0 0 0 0 -61.135923013061984 53.792022599758639 0 53.792022599758639 102.2230152520151 0 0 0 0 -73.696769146023144 32.989368413145712 0 32.989368413145712 103.05334442413732 0 0 0 0 -99.637767605905537 30.232217208791553 0 30.232217208791553 112.95044734193652 0 0 0 0 -64.673969414521707 36.310802669362602 0 36.310802669362602 59.075782682411955 0 0 0 0 -140.81581913310947 89.347938528859231 0 89.347938528859231 80.666692728545968 0 0 0 0 44.229193881251589 88.629086808393666 0 88.629086808393666 81.558492833425021 0 0 0 0 71.945831355114933 128.58233576683415 0 128.58233576683415 48.817600469054014 0 0 0 0 14.267008007786131 23.534501576323521 0 23.534501576323521 7.7351551940826653 0 0 0 0 -215.21450925168756 73.817843830496713 0 73.817843830496713 59.235950229209266 0 0 0 0 26.170618699846329 55.564367880900946 0 55.564367880900946 51.378867465248675 0 0 0 0 -127.13931037722796 78.459151948623912 0 78.459151948623912 57.706969856248179 0 0 0 0 -18.382338864321355 93.561656713834964 0 93.561656713834964 78.287609435939885 0 0 0 0 24.875545039107237 88.215260082867644 0 88.215260082867644 36.90598813345423 0 0 0 0 24.476579178430256 88.430053380521713 0 88.430053380521713 55.647138598113088 0 0 0 0 -15.987322806875795 43.512139104895368 0 43.512139104895368 16.253183664380458 0 0 0 0 43.245329943922115 84.936990544832952 0 84.936990544832952 30.326278480351903 0 0 0 0 19.68835101161676 74.910617829926196 0 74.910617829926196 45.380598041578196 0 0 0 0 30.632652358413907 82.01098892610753 0 82.01098892610753 44.789866284464551 0 0 0 0 16.759959959643311 80.311624973197468 0 80.311624973197468 40.430551806843141 0 0 0 0 -1.9155465090734651 55.521777220241347 0 55.521777220241347 29.745963818219025 0 0 0 0 -129.62044142661034 138.29623060939775 0 138.29623060939775 47.838986270917303 0 0 0 0 -149.02716111035261 149.85795806365786 0 149.85795806365786 51.436045043243212 0 0 0 0 -146.79530567472466 162.35876935697434 0 162.35876935697434 61.348249149290496 0 0 0 0 -124.10770083141688 176.33024107285019 0 176.33024107285019 68.140199216744804 0 0 0 0 -119.35840088645637 174.3174323837884 0 174.3174323837884 53.747859479815816 0 0 0 0 -196.90060527618334 167.02707687740258 0 167.02707687740258 75.571037759262254 0 0 0 0 -117.51010694046272 221.64228806021492 0 221.64228806021492 94.670084105964634 0 0 0 0 -163.0685419129004 130.98359515784068 0 130.98359515784068 84.450366516932263 0 0 0 0 -169.77942608937155 116.13676881607898 0 116.13676881607898 51.622060001709542 0 0 0 0 -193.65868967106871 101.64638702990578 0 101.64638702990578 56.504988174005121 0 0 0 0 -239.66646038270846 104.37382194778911 0 104.37382194778911 77.4553691683941 0 0 0 0 -6.5511945105861855 1.9906254896893358 0 1.9906254896893358 -0.14265187475052699 0 0 0 0 -341.81254895459278 51.665053697797703 0 51.665053697797703 39.951572607362323 0 0 0 0 -863.13829385314602 172.10110886584152 0 172.10110886584152 15.593212866806425 0 0 0 0 -81.667640696250601 106.62205833291955 0 106.62205833291955 -171.66109666003467 0 0 0 0 -353.02419201987868 290.71666112810237 0 290.71666112810237 26.716135834911256 0 0 0 0 -259.67621004047214 210.59579670172661 0 210.59579670172661 113.40924336202443 0 0 0 0 -150.33836956128653 198.16819026664962 0 198.16819026664962 64.380897954386455 0 0 0 0 -133.09916959273141 269.65391477458343 0 269.65391477458343 181.35975076517934 0 0 0 0 -39.513448140001856 27.438115306009422 0 27.438115306009422 101.62582187799126 0 0 0 0 -86.052354200583068 106.39198832361581 0 106.39198832361581 -29.703625417561852 0 0 0 0 -0.45810172179854902 2.8000877876888808 0 2.8000877876888808 2.827592396165187 0 0 0 0 0.072473836909921374 176.40544718957426 0 176.40544718957426 228.13781595777982 0 0 0 0 127.91970863594906 132.63775633094701 0 132.63775633094701 123.80483062427083 0 0 0 0 90.569447226785996 199.12161649748668 0 199.12161649748668 70.792852577105805 0 0 0 0 0.033962453082494903 211.04705026520605 0 211.04705026520605 27.42573809013993 0 0 0 0 -60.850696723762667 229.40635602457041 0 229.40635602457041 71.433198242282174 0 0 0 0 -82.758190939479391 199.30087753331281 0 199.30087753331281 53.205201853910694 0 0 0 0 -92.548928466479992 199.80967008575681 0 199.80967008575681 53.718755127778422 0 0 0 0 -62.660030862185522 200.80364161680336 0 200.80364161680336 41.800082433488569 0 0 0 0 -52.495175673684571 188.55693047327622 0 188.55693047327622 19.109463707151008 0 0 0 0 711.46391956276511 -337.89748802464101 0 -337.89748802464101 -2063.313720875085 0 0 0 0 -261.69575121095113 280.47406066044641 0 280.47406066044641 -59.649339862553461 0 0 0 0 946.32834159152117 769.58094850006455 0 769.58094850006455 -122.27956727250967 0 0 0 0 -5.2059690394081883 11.210415547311214 0 11.210415547311214 -15.174690205835532 0 0 0 0 684.93817541082535 252.08630002659447 0 252.08630002659447 184.11013243968773 0 0 0 0 556.08272619741183 -75.35279023786461 0 -75.35279023786461 260.49855871030013 0 0 0 0 283.30321284587262 -65.273639765626285 0 -65.273639765626285 299.76873259870626 0 0 0 0 53.630533582458156 330.9164096700988 0 330.9164096700988 123.73042624844311 0 0 0 0 56.028063820012903 113.38654056262749 0 113.38654056262749 -986.7842964001029 0 0 0 0 -1140.9810292347975 418.61836131505697 0 418.61836131505697 253.24549551902601 0 0 0 0 -721.24561129806534 1264.2300107752599 0 1264.2300107752599 -145.38615327444859 0 0 0 0 108.91715609937091 717.55125651776325 0 717.55125651776325 316.0464785598233 0 0 0 0 4.459843171510256 2.2017516539560233 0 2.2017516539560233 -13.288734477837522 0 0 0 0 -775.10815127602109 1086.3261939875447 0 1086.3261939875447 -827.83163009077543 0 0 0 0 29.212361704281648 60.662780812155688 0 60.662780812155688 -805.26921724734837 0 0 0 0 -126.61669980341685 1103.7184664096058 0 1103.7184664096058 -107.09530786641153 0 0 0 0 -148.28695178285125 1423.2082080494074 0 1423.2082080494074 -957.63413856897546 0 0 0 0 -1.6538839553577418 5.5774092515152631 0 5.5774092515152631 -9.1351733079972064 0 0 0 0 -444.72785275277056 729.6208978412651 0 729.6208978412651 -565.25983323022956 0 0 0 0 -74.566725701690302 -418.68047063300764 0 -418.68047063300764 -122.87002566205047 0 0 0 0 -0.98825915658449048 12.907915323662166 0 12.907915323662166 -1.9528552846737739 0 0 0 0 -19.370552099106135 89.461723888354754 0 89.461723888354754 -1.3154628938646056 0 0 0 0 11.367302638267574 16.376961755639059 0 16.376961755639059 -24.931412614387227 0 0 0 0 36.301180431408284 61.506460638032877 0 61.506460638032877 -25.640686230821302 0 0 0 0 -1.1634654845372019 20.913927635617213 0 20.913927635617213 -10.727429449102033 0 0 0 0 -3.0845010643997739 20.913020168090043 0 20.913020168090043 -7.0848281014186796 0 0 0 0 -3.0084676795602832 17.632655044586471 0 17.632655044586471 -9.2246987283003534 0 0 0 0 -12.068065782386384 43.909324972081322 0 43.909324972081322 -6.7035776022821665 0 0 0 0 -6.8703090443086694 35.309266465450492 0 35.309266465450492 -12.040248553268611 0 0 0 0 -10.941078018686795 14.784213986528329 0 14.784213986528329 -6.5567685591599627 0 0 0 0 186.9173865794437 78.213344431613223 0 78.213344431613223 18.720292907353723 0 0 0 0 3.643142729307101 12.865337788033422 0 12.865337788033422 6.42651523032265 0 0 0 0 226.94853584794328 39.168940440635197 0 39.168940440635197 -73.330024896160467 0 0 0 0 256.02615811660507 90.03775065420632 0 90.03775065420632 -41.351008918310981 0 0 0 0 217.94415557413595 129.57071149603871 0 129.57071149603871 37.653304559094977 0 0 0 0 746.70697822368675 227.44792450380555 0 227.44792450380555 -1504.1766300676973 0 0 0 0 59.967591170599917 550.81804070688668 0 550.81804070688668 331.40313921407505 0 0 0 0 28.466651007223845 669.85924939979304 0 669.85924939979304 -87.413773020947701 0 0 0 0 -4.0798185144230388 5.0688002919417556 0 5.0688002919417556 -5.3006009081337311 0 0 0 0 -107.68410970058176 121.02918880183279 0 121.02918880183279 -74.711023617695901 0 0 0 0 292.63071364349889 164.79359125126939 0 164.79359125126939 110.30852076565498 0 0 0 0 260.23023522041694 287.55311707419241 0 287.55311707419241 -327.41728462764877 0 0 0 0 -259.52983012541517 108.75457406159694 0 108.75457406159694 -401.64893481977197 0 0 0 0 -245.70279561362986 308.93677898666647 0 308.93677898666647 -428.39549292835545 0 0 0 0 -542.71467046988255 15.012690715793724 0 15.012690715793724 -718.95431088519399 0 0 0 0 87.123104166530538 22.160591168227256 0 22.160591168227256 -1216.4781721616964 0 0 0 0 68.19827109304606 437.64602418175855 0 437.64602418175855 -1069.010671420474 0 0 0 0 -810.61010965648165 520.9840051697247 0 520.9840051697247 -343.59042625365691 0 0 0 0 -715.99032297346275 561.23841684340368 0 561.23841684340368 -406.85090829231194 0 0 0 0 -598.10438142628846 230.70057937387173 0 230.70057937387173 -405.91795129014645 0 0 0 0 -517.89829060935881 338.4764840570715 0 338.4764840570715 -262.78035121807716 0 0 0 0 -878.50015483045718 345.20984390538797 0 345.20984390538797 -436.01681988099699 0 0 0 0 -903.29233628744259 325.46914297361218 0 325.46914297361218 -429.88222307867545 0 0 0 0 -1407.5152562973381 717.64401233288663 0 717.64401233288663 -428.35084475263284 0 0 0 0 -2190.2995101048728 115.68989781209166 0 115.68989781209166 -456.05300125529175 0 0 0 0 -1200.8441319466001 1327.2798780753874 0 1327.2798780753874 -1788.4586591554253 0 0 0 0 -12.083071798301745 1.3925571966523762 0 1.3925571966523762 -0.93263511706123836 0 0 0 0 -789.15256571441569 212.43079254404438 0 212.43079254404438 -1479.3014390087556 0 0 0 0 -792.11679305613325 186.09258078418839 0 186.09258078418839 -491.26689724458265 0 0 0 0 -1855.9521984413004 -216.62344895623391 0 -216.62344895623391 93.053438506656676 0 0 0 0 -1925.5086622090166 773.87841388327797 0 773.87841388327797 -257.68113303775317 0 0 0 0 -150.54756353108678 -240.10750275835017 0 -240.10750275835017 -416.31003608682659 0 0 0 0 103.53871525447175 -220.48597792736837 0 -220.48597792736837 -930.64606605604058 0 0 0 0 -234.67039711767575 164.08600611636211 0 164.08600611636211 -877.77455273038504 0 0 0 0 -180.28850318190234 8.437526141438866 0 8.437526141438866 -738.70074927134556 0 0 0 0 -299.78269204994285 123.43693915943732 0 123.43693915943732 -581.38560770974436 0 0 0 0 -253.92343773979519 345.33945656046126 0 345.33945656046126 -233.35119067876803 0 0 0 0 -100.28536616727069 19.799168088411534 0 19.799168088411534 288.09547843038308 0 0 0 0 613.51904576646484 723.00010615712381 0 723.00010615712381 214.30798249098007 0 0 0 0 -508.32070183894393 303.13464563760681 0 303.13464563760681 125.72803377702076 0 0 0 0 -475.01065864745033 98.065264813983049 0 98.065264813983049 418.8698745262227 0 0 0 0 -445.36796082589717 557.46968554942578 0 557.46968554942578 16.626824240243877 0 0 0 0 -442.11201443306345 683.33523552899715 0 683.33523552899715 616.68475544339526 0 0 0 0 -1353.0073988175864 195.25084457379126 0 195.25084457379126 103.0047655302551 0 0 0 0 -1344.4162262349701 260.89335912251181 0 260.89335912251181 206.14869431802072 0 0 0 0 -1132.7254575813276 248.02294340974913 0 248.02294340974913 70.821438098508224 0 0 0 0 -1141.2274857124939 318.72081841955514 0 318.72081841955514 175.53782484034309 0 0 0 0 -1104.3452932754153 250.13280049292007 0 250.13280049292007 -48.033766949200071 0 0 0 0 -1049.2718165450788 403.69869211247715 0 403.69869211247715 379.93635556771187 0 0 0 0 -1200.9728410255775 366.67259494501195 0 366.67259494501195 150.24192496948672 0 0 0 0 -1272.3284729436928 228.86668376521993 0 228.86668376521993 -66.144561146866181 0 0 0 0 -1275.7631548293866 223.42462270851684 0 223.42462270851684 112.97180396798649 0 0 0 0 338.54236045018115 -762.40180338386199 0 -762.40180338386199 -263.65926409012172 0 0 0 0 -2.3973378039913058 -0.61090941281391764 0 -0.61090941281391764 -0.6282583270633495 0 0 0 0 -1970.4529056155297 1161.3172467976328 0 1161.3172467976328 308.35174799359083 0 0 0 0 -1132.6539285134058 712.55008252116386 0 712.55008252116386 176.82048674643011 0 0 0 0 -1071.4948937724839 626.30974797200906 0 626.30974797200906 -481.70314937654621 0 0 0 0 -853.79958082448866 -155.31264832408851 0 -155.31264832408851 632.90372612127976 0 0 0 0 2.3724615986508439 7.1592684514859002 0 7.1592684514859002 15.288325617977279 0 0 0 0 -1105.0879237309491 834.87970809815306 0 834.87970809815306 993.81466224178075 0 0 0 0 709.75762098574342 266.76369758572037 0 266.76369758572037 470.31542701478611 0 0 0 0 -4.0345462488055261 4.3167019177957968 0 4.3167019177957968 -1.1856407275656693 0 0 0 0 -970.62261240722364 309.33589934002521 0 309.33589934002521 178.28490648973093 0 0 0 0 140.32006268835539 814.52635984584049 0 814.52635984584049 261.55413888472413 0 0 0 0 -200.03167600833694 1675.442891835195 0 1675.442891835195 1436.4769770973107 0 0 0 0 -47.027411767649596 36.385421941940933 0 36.385421941940933 -23.318949491864089 0 0 0 0 -260.38530738770351 -309.93127576457482 0 -309.93127576457482 -47.860807577762898 0 0 0 0 -88.039352838444756 280.49617318286982 0 280.49617318286982 356.72474245830381 0 0 0 0 -135.45160480413779 -99.817454364863352 0 -99.817454364863352 23.558376117631269 0 0 0 0 902.30066040343991 841.34388183490955 0 841.34388183490955 395.22114940082247 0 0 0 0 636.82455891776772 996.16261430081067 0 996.16261430081067 1091.3838612291729 0 0 0 0 -44.842957302316904 40.114297006888165 0 40.114297006888165 -31.700048811553842 0 0 0 0 463.37180374097079 223.1403468335775 0 223.1403468335775 335.26887545556247 0 0 0 0 549.12979708878993 705.76057014128264 0 705.76057014128264 753.5072595467791 0 0 0 0 563.22641646669217 520.6622648982011 0 520.6622648982011 515.55208258869243 0 0 0 0 568.14107220375809 312.49407467552737 0 312.49407467552737 158.50094043624995 0 0 0 0 420.53802309920138 348.42758280794078 0 348.42758280794078 594.02563527594612 0 0 0 0 527.88049592373864 299.79033776153665 0 299.79033776153665 612.11428669138695 0 0 0 0 462.9736216958554 560.8029691951233 0 560.8029691951233 523.19506894009828 0 0 0 0 -5.9839405344041268 9.307017458212556 0 9.307017458212556 -9.1570942269809734 0 0 0 0 -4.0273680743921147 -0.81452199590665941 0 -0.81452199590665941 10.792867561105112 0 0 0 0 292.36125576013001 763.33692062657792 0 763.33692062657792 1822.6849907978904 0 0 0 0 198.34998176622321 983.33035699909669 0 983.33035699909669 1658.3473993028019 0 0 0 0 -334.53404259728268 -337.33268779009813 0 -337.33268779009813 -126.99887911030964 0 0 0 0 -256.19221883499995 13.078012636193307 0 13.078012636193307 197.1915563470684 0 0 0 0 -276.71924659379874 206.84767561031913 0 206.84767561031913 632.03739218832743 0 0 0 0 -577.97388798941392 829.73541434270737 0 829.73541434270737 567.38264432857977 0 0 0 0 -213.34975377530645 211.65538178172937 0 211.65538178172937 953.96764588396763 0 0 0 0 -204.89262169134599 203.23012853999171 0 203.23012853999171 852.09621726942714 0 0 0 0 343.6190608565521 450.62556814675918 0 450.62556814675918 907.48715349548729 0 0 0 0 489.57503302882833 243.43422997138259 0 243.43422997138259 536.08473501424305 0 0 0 0 229.03298849659041 74.355084527574945 0 74.355084527574945 722.58789019328833 0 0 0 0 429.53753747075098 410.07588089209457 0 410.07588089209457 919.95446751188138 0 0 0 0 196.58310766503564 420.84524313674774 0 420.84524313674774 1127.0349902094458 0 0 0 0 516.98428478266578 731.22248885032604 0 731.22248885032604 929.57966416905401 0 0 0 0 463.69189571030438 243.28779325178766 0 243.28779325178766 1125.0494159053778 0 0 0 0 298.46644691482652 644.08284591970732 0 644.08284591970732 1601.9554959579255 0 0 0 0 997.63059120485559 1310.0508464314626 0 1310.0508464314626 1410.5951821980125 0 0 0 0 -2.722606394600092 5.1592632893740245 0 5.1592632893740245 1.1286497865190199 0 0 0 0 -36.661199119395746 36.361996823359959 0 36.361996823359959 -25.285123722224995 0 0 0 0 -16.520687217701592 -12.395917491759292 0 -12.395917491759292 78.037512215375727 0 0 0 0 -119.29120911078644 79.455585452236846 0 79.455585452236846 185.86856181666371 0 0 0 0 450.52949844952673 716.03917917072977 0 716.03917917072977 928.87973890063586 0 0 0 0 -211.9917751845569 55.351376368387719 0 55.351376368387719 212.208871408915 0 0 0 0 -207.75027426917222 0.37737477321934421 0 0.37737477321934421 415.83496122703218 0 0 0 0 127.37072057512705 -3.3427310413135274 0 -3.3427310413135274 39.828167332103476 0 0 0 0 -68.220374297782456 47.323685673781085 0 47.323685673781085 -11.582175641996969 0 0 0 0 228.30152901035581 941.77403096814487 0 941.77403096814487 89.335261611224269 0 0 0 0 -45.337555538396231 29.14992544424868 0 29.14992544424868 -2.2507995835955512 0 0 0 0 -15.306613000361159 0.13187490897325915 0 0.13187490897325915 53.094621771343526 0 0 0 0 -149.06468571282676 26.839485629858245 0 26.839485629858245 260.98385272762971 0 0 0 0 -60.277049066637119 -499.55546973083983 0 -499.55546973083983 19.661833085396211 0 0 0 0 449.08394621028856 -166.31986730408971 0 -166.31986730408971 56.385786378401463 0 0 0 0 -334.08683661342366 -269.73534620122518 0 -269.73534620122518 104.46723713933898 0 0 0 0 78.837700274547387 -618.36872983095236 0 -618.36872983095236 -570.48314487058815 0 0 0 0 76.758279683090223 -727.11499263156657 0 -727.11499263156657 363.79360827873461 0 0 0 0 -58.26802208529989 570.4182275878411 0 570.4182275878411 409.53698178639183 0 0 0 0 327.65293090278783 -378.93293770293462 0 -378.93293770293462 199.21061063090747 0 0 0 0 2.3410251185464466 -2.3584259793414759 0 -2.3584259793414759 20.198922832526449 0 0 0 0 -369.25914935550827 378.00795525942522 0 378.00795525942522 495.6920966372636 0 0 0 0 -302.24199241386668 65.965372574166395 0 65.965372574166395 293.15143993507081 0 0 0 0 204.97729938115299 239.09111176477745 0 239.09111176477745 337.58690595859662 0 0 0 0 -222.56768743309658 231.51829017176351 0 231.51829017176351 635.92987016872212 0 0 0 0 -10.072587419121191 -588.95874945929154 0 -588.95874945929154 288.483341717656 0 0 0 0 -1142.5150314772982 -633.47981428547791 0 -633.47981428547791 972.05748182690149 0 0 0 0 314.64084268885108 1344.6772382857289 0 1344.6772382857289 -583.49696073484665 0 0 0 0 -1590.7639728129143 34.497061960937572 0 34.497061960937572 -1409.1097190010305 0 0 0 0 -1718.6083204450479 2069.2830537936679 0 2069.2830537936679 -1503.5416554079097 0 0 0 0 -257.58580035813065 232.104943713377 0 232.104943713377 -806.62113160060107 0 0 0 0 626.37886569552211 210.98267844887596 0 210.98267844887596 -1283.1043840704369 0 0 0 0 65.297642843546782 293.23053396971591 0 293.23053396971591 -315.74377539317356 0 0 0 0 89.184019288401032 216.41755523672327 0 216.41755523672327 -595.13185926212464 0 0 0 0 199.888507911528 231.76674690782966 0 231.76674690782966 -288.42308046066319 0 0 0 0 793.19394170544547 -155.31197713058646 0 -155.31197713058646 -486.07932258836809 0 0 0 0 -2.482605900228279 3.4060481322772205 0 3.4060481322772205 -13.484800891459827 0 0 0 0 -1578.6646191637556 1890.1093871257472 0 1890.1093871257472 -2253.0679777639161 0 0 0 0 -1.4490801708977727 4.7896768868422441 0 4.7896768868422441 -6.4399024532060878 0 0 0 0 -1394.3671903575887 2221.093295630475 0 2221.093295630475 -1828.0389912606188 0 0 0 0 -1557.3376929831866 465.61130860810226 0 465.61130860810226 -297.08715382657101 0 0 0 0 -731.75932356283738 570.1945450082203 0 570.1945450082203 -357.49616525046076 0 0 0 0 111.68239417649966 766.67257643605262 0 766.67257643605262 -889.31791306828381 0 0 0 0 -308.59270673793799 1418.4652995883589 0 1418.4652995883589 -1851.7139861877404 0 0 0 0 259.58956748005585 679.33580557331879 0 679.33580557331879 -863.49028142707539 0 0 0 0 -501.38904033521976 98.65374605112811 0 98.65374605112811 388.92199171874381 0 0 0 0 -181.76877411018359 -119.65838721068576 0 -119.65838721068576 88.449266911862651 0 0 0 0 -112.59213266108463 307.71496193486655 0 307.71496193486655 496.33005379199312 0 0 0 0 -25.177575120975945 16.380097580832228 0 16.380097580832228 -12.153781478260072 0 0 0 0 -602.88810442120302 -552.27287067471843 0 -552.27287067471843 -59.162404498849355 0 0 0 0 7.9588562063672725 521.37702723208713 0 521.37702723208713 493.58132546808338 0 0 0 0 416.02612792949367 1011.7931935719262 0 1011.7931935719262 -1387.5215615719644 0 0 0 0 41.20238916350354 804.30130797244055 0 804.30130797244055 -1497.2899629729145 0 0 0 0 -7.5876275409371488 6.3502500522625098 0 6.3502500522625098 -5.4052231413776042 0 0 0 0 126.80679893428896 923.95870826532337 0 923.95870826532337 -849.41898527606099 0 0 0 0 -1115.4875569129581 608.60624744121014 0 608.60624744121014 1676.8700491802592 0 0 0 0 -22.182732945953973 15.38876521424362 0 15.38876521424362 -9.073530932427559 0 0 0 0 -1830.2258163323713 -248.154772903712 0 -248.154772903712 1924.7865813283461 0 0 0 0 115.12462112624416 1321.4416327270192 0 1321.4416327270192 -1091.6931844432547 0 0 0 0 -301.74756351058022 1174.9638036907781 0 1174.9638036907781 -1097.7912005406656 0 0 0 0 -1374.5896902983386 927.93137860925344 0 927.93137860925344 -513.73727161803981 0 0 0 0 48.885631308927259 2257.8273515265155 0 2257.8273515265155 -1098.3166837486497 0 0 0 0 -826.18929683880015 -447.57003565763625 0 -447.57003565763625 -1422.2184441723366 0 0 0 0 247.0770453082223 281.96368417245685 0 281.96368417245685 -930.91636077061776 0 0 0 0 -152.09111484509776 175.72793282497878 0 175.72793282497878 10.838975141916308 0 0 0 0 -847.53516251064138 -201.94629639771301 0 -201.94629639771301 -146.78119177004555 0 0 0 0 -452.24737091571296 542.57898746016872 0 542.57898746016872 -535.70798679017616 0 0 0 0 -527.8964815925865 541.20840635704008 0 541.20840635704008 -307.57619886065368 0 0 0 0 -278.39502056968922 304.0209931192876 0 304.0209931192876 2.5734572957153432 0 0 0 0 -262.50586477809702 187.14965021928947 0 187.14965021928947 -211.20420654888585 0 0 0 0 -352.42428855681646 4.2914541316131363 0 4.2914541316131363 259.44954045840132 0 0 0 0 -14.695464278724103 -180.8262821763492 0 -180.8262821763492 86.003548460168531 0 0 0 0 -54.53986902385077 530.27463087817887 0 530.27463087817887 -548.27552569517866 0 0 0 0 -691.68313448936533 751.31337524412811 0 751.31337524412811 -619.07363851585251 0 0 0 0 -378.11194645587238 231.10199187761464 0 231.10199187761464 -1107.297767558437 0 0 0 0 -475.64396630967167 382.86351699454099 0 382.86351699454099 -55.804408173498814 0 0 0 0 -264.40005472291523 561.53718516669687 0 561.53718516669687 -481.93177189440758 0 0 0 0 -107.76334300464077 294.33026300885103 0 294.33026300885103 -185.84971266625507 0 0 0 0 -91.007251896633534 661.68182643994805 0 661.68182643994805 -848.52147671878629 0 0 0 0 -106.32770398915454 400.92809452358051 0 400.92809452358051 -221.75324900150008 0 0 0 0 -231.16418700427312 376.69873225896299 0 376.69873225896299 -24.913260346278548 0 0 0 0 7.3131122474733274 265.27445607768459 0 265.27445607768459 -101.7500393728842 0 0 0 0 -118.30827888972999 362.41274332138164 0 362.41274332138164 69.507828559289919 0 0 0 0 -146.56703021631984 257.21440644680115 0 257.21440644680115 111.25418144346622 0 0 0 0 -202.76371640218713 184.1423966922157 0 184.1423966922157 2.4248026443437993 0 0 0 0 -239.46786814827647 233.36665718039148 0 233.36665718039148 165.95708276347432 0 0 0 0 -28.984012845801772 90.964833470570738 0 90.964833470570738 196.05206064284721 0 0 0 0 46.051686016086023 114.96894232457271 0 114.96894232457271 183.346976537221 0 0 0 0 -188.63135631493788 222.72557643916298 0 222.72557643916298 183.44285761362698 0 0 0 0 -81.582720920261636 131.05981700024131 0 131.05981700024131 313.48922394012334 0 0 0 0 -71.742305948202556 232.26244652767491 0 232.26244652767491 69.63143462514563 0 0 0 0 4.610198858230433 319.25032131624903 0 319.25032131624903 75.380947863428446 0 0 0 0 -58.161463802593062 263.77702584929648 0 263.77702584929648 98.576677664532326 0 0 0 0 -58.186918768769829 260.95117808124633 0 260.95117808124633 109.66428483295022 0 0 0 0 141.57999202203246 -325.15963776623994 0 -325.15963776623994 350.30858864451875 0 0 0 0 218.50755638694682 -85.310601406141359 0 -85.310601406141359 156.79474947362905 0 0 0 0 -138.14191739230591 16.749616251523548 0 16.749616251523548 168.02809594900464 0 0 0 0 -101.86934327400377 94.507866345527873 0 94.507866345527873 304.58076318571693 0 0 0 0 -2.7364151235451573 -81.451067175068602 0 -81.451067175068602 330.55705236825997 0 0 0 0 30.673180547751173 62.437482783693163 0 62.437482783693163 51.726601545827123 0 0 0 0 10.774028295934841 119.93543739180313 0 119.93543739180313 216.13461559204734 0 0 0 0 27.01197203261836 75.183042182513418 0 75.183042182513418 -3.4451924187815166 0 0 0 0 2.8297093623750698 112.91295163006271 0 112.91295163006271 41.621587528781674 0 0 0 0 -8.2711321608730941 153.93246360681769 0 153.93246360681769 -99.148464537945983 0 0 0 0 -2.3299609557553822 63.086920873956203 0 63.086920873956203 9.5548400745295474 0 0 0 0 2.5595971856964752 89.534713060409558 0 89.534713060409558 10.384225379106283 0 0 0 0 -14.450195311183052 88.923323432147299 0 88.923323432147299 35.895968516473658 0 0 0 0 2.1461995415286026 60.007611182034282 0 60.007611182034282 26.66940160191837 0 0 0 0 -10.058180031730444 101.26828062057029 0 101.26828062057029 53.299886281391082 0 0 0 0 -19.565674856755095 53.677756027121717 0 53.677756027121717 16.704243439134039 0 0 0 0 -7.889699020262924 54.686053759709466 0 54.686053759709466 17.992018019420357 0 0 0 0 28.61634235890233 63.481826381817157 0 63.481826381817157 10.445232309932209 0 0 0 0 4.6602324299892643 99.366653944955033 0 99.366653944955033 26.080208939689328 0 0 0 0 -27.091242756875545 57.689761039991481 0 57.689761039991481 27.853471882714075 0 0 0 0 -40.68640195749451 44.379623982456678 0 44.379623982456678 -9.7874061241842583 0 0 0 0 41.799333227016177 126.65283494085816 0 126.65283494085816 0.39988415201332828 0 0 0 0 -12.311453393590654 61.676283656196546 0 61.676283656196546 -31.188502349511335 0 0 0 0 40.285266424180008 135.74322702104109 0 135.74322702104109 -41.363618689923896 0 0 0 0 -17.429507844078586 63.054077250960887 0 63.054077250960887 12.225245677824692 0 0 0 0 -2.181475390458445 44.719660736500458 0 44.719660736500458 27.361262352620287 0 0 0 0 -23.971902675344609 77.693398310362682 0 77.693398310362682 -0.14428918452540529 0 0 0 0 -45.616477860967279 72.024657440539158 0 72.024657440539158 12.340074089318932 0 0 0 0 -14.601799159848269 91.342248705485645 0 91.342248705485645 -2.4648911584590678 0 0 0 0 -31.827579559460787 54.471152524328211 0 54.471152524328211 -1.3884100912975992 0 0 0 0 -56.020736094214953 54.934794809800223 0 54.934794809800223 44.932154044725849 0 0 0 0 4.5236974647195893 47.058232415827661 0 47.058232415827661 -2.9444763495048392 0 0 0 0 -21.411030127488075 32.607783480963889 0 32.607783480963889 -10.441077322093605 0 0 0 0 -38.560661543504864 34.380677690877519 0 34.380677690877519 15.192980840061992 0 0 0 0 -17.098614923430432 28.841009375420981 0 28.841009375420981 4.4530145300595905 0 0 0 0 -30.024859740385835 24.049629698214858 0 24.049629698214858 2.3883284565143339 0 0 0 0 -141.56175496627111 97.557558098123991 0 97.557558098123991 173.84972353180137 0 0 0 0 7.1689012634941776 31.953739330777257 0 31.953739330777257 -8.4046975984938257 0 0 0 0 7.7793191158707486 81.221133980172453 0 81.221133980172453 13.751817652442696 0 0 0 0 106.87866548795137 88.771016377206251 0 88.771016377206251 -8.9766507588064997 0 0 0 0 15.345442937148619 36.359017671289621 0 36.359017671289621 -37.779292040431756 0 0 0 0 23.040002880021348 56.371397129150864 0 56.371397129150864 -79.870694517419906 0 0 0 0 190.2814947683728 -62.660019052640564 0 -62.660019052640564 -84.758740237593884 0 0 0 0 -0.45272202811625561 4.7084851318023766 0 4.7084851318023766 -0.58934920699250393 0 0 0 0 428.58068851763528 121.9650428523164 0 121.9650428523164 -127.84566692529188 0 0 0 0 -275.67543475357525 304.6190817057286 0 304.6190817057286 66.096166984123556 0 0 0 0 110.87215738161831 485.42735676012671 0 485.42735676012671 74.199486650810286 0 0 0 0 45.678455129847862 305.94835517729371 0 305.94835517729371 -16.083546701709565 0 0 0 0 91.041828270957922 144.35563505623577 0 144.35563505623577 -126.52201091601682 0 0 0 0 118.54645348952545 185.88364462283607 0 185.88364462283607 -64.862010785102029 0 0 0 0 -10.366749366861768 175.78815512092115 0 175.78815512092115 -58.715881799857016 0 0 0 0 12.293052020773757 171.08347026194679 0 171.08347026194679 -59.501236469834112 0 0 0 0 -95.7295479234308 288.91992573760945 0 288.91992573760945 -10.074293647252489 0 0 0 0 -152.47568656499789 208.1646278326516 0 208.1646278326516 100.92033308684768 0 0 0 0 -137.42068363175349 255.20048704025976 0 255.20048704025976 -95.469247646600707 0 0 0 0 40.100897944474127 124.70439642906422 0 124.70439642906422 15.173692609736463 0 0 0 0 -96.738399943329568 120.76161761039111 0 120.76161761039111 233.9691931487032 0 0 0 0 -388.81678594803088 214.05975279708218 0 214.05975279708218 49.359333439715556 0 0 0 0 -285.75338586337239 125.31965815817239 0 125.31965815817239 -46.827788752314518 0 0 0 0 -211.44001670746366 233.10638458492031 0 233.10638458492031 34.788120754536067 0 0 0 0 -174.81679964984505 207.16366175685107 0 207.16366175685107 9.1343953864125069 0 0 0 0 -288.14019729896972 180.66777481153258 0 180.66777481153258 -44.670848893110815 0 0 0 0 -309.8159343369025 216.99574739796481 0 216.99574739796481 -24.334753927440033 0 0 0 0 -309.6942404605652 223.40969438377942 0 223.40969438377942 66.66383285853226 0 0 0 0 -293.10551906729233 168.13485512430634 0 168.13485512430634 -9.2608307221526047 0 0 0 0 -886.66560871044567 -12.272761818507206 0 -12.272761818507206 61.61976099437743 0 0 0 0 -18.530614158252064 29.25050747150155 0 29.25050747150155 -3.5382639424968545 0 0 0 0 -839.483998448497 22.376334041013251 0 22.376334041013251 -4.4266159745238838 0 0 0 0 -87.289693997303175 870.47498062706791 0 870.47498062706791 -1186.1790607494477 0 0 0 0 -2867.1984942923591 15.471242639316188 0 15.471242639316188 -3.3885950620751828 0 0 0 0 -10.639933646641936 7.76444082511793 0 7.76444082511793 -3.6110382956067895 0 0 0 0 -78.758322073117597 84.749891226343607 0 84.749891226343607 88.084214741116739 0 0 0 0 -127.95871826305256 -28.549328984654608 0 -28.549328984654608 -67.240316030729446 0 0 0 0 0.37675048121874255 27.538835384351252 0 27.538835384351252 31.778835925761143 0 0 0 0 -859.93304903453918 894.64084288032154 0 894.64084288032154 -529.9517974787741 0 0 0 0 -1587.7310245025164 -276.79793141567188 0 -276.79793141567188 -916.458470289057 0 0 0 0 -2069.7557797256304 1293.0835885349225 0 1293.0835885349225 -458.12774681155133 0 0 0 0 -871.97901600556361 848.36268627004756 0 848.36268627004756 -442.80035794638388 0 0 0 0 -570.2471570786729 605.92305301918532 0 605.92305301918532 -452.66678332551965 0 0 0 0 -1015.6960779877118 765.27259025309286 0 765.27259025309286 -486.89398212976812 0 0 0 0 -985.72696086376163 976.31786203573211 0 976.31786203573211 -518.96361645447178 0 0 0 0 -595.01333944696808 999.10111965951432 0 999.10111965951432 -587.94567489398469 0 0 0 0 -3012.3982336823392 447.52531889117745 0 447.52531889117745 218.83379238766793 0 0 0 0 -698.38365595842697 193.83008245793826 0 193.83008245793826 -169.73593426777188 0 0 0 0 -77.999818939089892 107.83258269590442 0 107.83258269590442 -30.214803059687256 0 0 0 0 -9.9950395905681404 22.979527833151195 0 22.979527833151195 -45.317060438058576 0 0 0 0 200.99742163192423 188.92357585932768 0 188.92357585932768 214.6713745756424 0 0 0 0 268.32037614095316 459.05917006033997 0 459.05917006033997 95.351870099191729 0 0 0 0 -1.290058168960968 352.80543843332998 0 352.80543843332998 44.918163773923879 0 0 0 0 236.1975698510214 278.71438197672978 0 278.71438197672978 -7.5261822722823126 0 0 0 0 -3.3096993412145821 110.23779535218455 0 110.23779535218455 -97.765794706880115 0 0 0 0 4.1777226008125581 320.20722949580522 0 320.20722949580522 104.58157603984 0 0 0 0 -30.624975837468114 54.08236036937393 0 54.08236036937393 -57.890889345630825 0 0 0 0 -61.077361370764265 303.4806540366335 0 303.4806540366335 -299.90762822845136 0 0 0 0 3.3083596829326183 13.76126989613627 0 13.76126989613627 -15.720364849607797 0 0 0 0 -101.38991596463893 195.92404467640881 0 195.92404467640881 -172.46633112448762 0 0 0 0 -74.904519742332923 103.83396217676272 0 103.83396217676272 -58.120054608545615 0 0 0 0 5.3464834422189753 18.913411103660785 0 18.913411103660785 5.8705125757260532 0 0 0 0 -94.447609381124494 101.97430109579727 0 101.97430109579727 -50.819365090741485 0 0 0 0 0.074830175333772786 3.9926584171516879 0 3.9926584171516879 10.796232225460699 0 0 0 0 -1.0688792466338271 3.0021522689447409 0 3.0021522689447409 12.067811176491745 0 0 0 0 -455.9784096388903 -312.76518050862251 0 -312.76518050862251 60.545699219495873 0 0 0 0 -395.8289189113857 -101.76039638741713 0 -101.76039638741713 162.04065547468781 0 0 0 0 99.620315626030788 -89.289492783667811 0 -89.289492783667811 -38.511404600983951 0 0 0 0 -208.53075425454881 -98.562763439091214 0 -98.562763439091214 25.357259645526938 0 0 0 0 -58.609890339153935 -483.94356851505404 0 -483.94356851505404 -452.72193185277865 0 0 0 0 -0.2181413289217744 -272.52839087389293 0 -272.52839087389293 -158.81819657867891 0 0 0 0 76.546466017425701 -7.1222364370332798 0 -7.1222364370332798 104.68155227709212 0 0 0 0 -47.472322224581148 -261.09613965977769 0 -261.09613965977769 -54.223686921613989 0 0 0 0 119.2826091106981 -51.943273044729722 0 -51.943273044729722 143.17789064604221 0 0 0 0 250.06267682529869 78.572927448927658 0 78.572927448927658 105.38791839279293 0 0 0 0 287.5001275948016 165.25631730892565 0 165.25631730892565 195.03095319145905 0 0 0 0 205.93885011448583 48.803562688772217 0 48.803562688772217 340.43569084674527 0 0 0 0 122.30723219087668 66.043673399695763 0 66.043673399695763 182.38971870522073 0 0 0 0 176.33115478162654 2.3889020852984686 0 2.3889020852984686 -27.964680087708985 0 0 0 0 59.34871899758582 5.1402527039317647 0 5.1402527039317647 125.05403622698941 0 0 0 0 20.772522004583152 -75.875661864874019 0 -75.875661864874019 -60.771578155196039 0 0 0 0 28.886752033926314 -17.051432146166917 0 -17.051432146166917 11.008659158524097 0 0 0 0 69.218318775965599 -62.222618614367093 0 -62.222618614367093 -62.172174407147395 0 0 0 0 -4.8828642085918545 -44.588966734971564 0 -44.588966734971564 -48.300728304406221 0 0 0 0 -0.046773986825428437 4.2492586431180825 0 4.2492586431180825 10.791030998545466 0 0 0 0 -6.0106060655380134 -52.468812469734985 0 -52.468812469734985 -78.90968080049106 0 0 0 0 -257.64104328284157 22.709904035898944 0 22.709904035898944 15.384163138442091 0 0 0 0 -136.44295881481958 17.817964864574606 0 17.817964864574606 -74.495584233911359 0 0 0 0 -16.390268535011273 -60.679199955484364 0 -60.679199955484364 -50.89294726101798 0 0 0 0 -0.67679692953078785 2.6402776566356181 0 2.6402776566356181 7.710545428416026 0 0 0 0 -6.8003736140672117 -2.7849373840253975 0 -2.7849373840253975 5.5204679217786179 0 0 0 0 -19.390179328387603 -55.639967697741668 0 -55.639967697741668 -24.964944288725746 0 0 0 0 22.614690223006619 37.043856333983967 0 37.043856333983967 -25.528525256100693 0 0 0 0 0.14161386388150277 -8.868235316422215 0 -8.868235316422215 -2.741983032785356 0 0 0 0 -75.063901125657139 57.489127541133712 0 57.489127541133712 -109.46289194661222 0 0 0 0 -17.410506596643245 3.6555709853710141 0 3.6555709853710141 -71.142301187122939 0 0 0 0 -9.4579316271556308 34.200567025472992 0 34.200567025472992 7.7617974962704466 0 0 0 0 -6.0157205988944042 -47.74869546550326 0 -47.74869546550326 -112.81038169511885 0 0 0 0 -21.109982788402704 -48.092565930694036 0 -48.092565930694036 -49.046052865458478 0 0 0 0 -132.16295985197939 -5.4035505968386133 0 -5.4035505968386133 -16.476624228625496 0 0 0 0 -91.62145958669862 122.90702582195354 0 122.90702582195354 1.4847556525055552 0 0 0 0 -119.13216451432163 86.285380242075917 0 86.285380242075917 -427.67342927101708 0 0 0 0 -114.93357866384031 47.389475236315775 0 47.389475236315775 -79.555122282359662 0 0 0 0 -396.83836507583328 -14.110980867768376 0 -14.110980867768376 -54.402770456705184 0 0 0 0 -352.63752752411528 359.09414514328682 0 359.09414514328682 -27.418165344744921 0 0 0 0 -30.188290851743659 186.22955801225908 0 186.22955801225908 138.44375830233912 0 0 0 0 -151.24362022295463 276.35018083659725 0 276.35018083659725 80.534900568360172 0 0 0 0 -76.453238713482278 94.051754395524767 0 94.051754395524767 27.877699039359868 0 0 0 0 -54.881105356485932 142.04457871656632 0 142.04457871656632 115.8706704022843 0 0 0 0 60.746158276248025 39.855038472021988 0 39.855038472021988 -11.328315348633623 0 0 0 0 34.700527791006607 38.847504102100174 0 38.847504102100174 38.016204944957281 0 0 0 0 80.474155270989286 140.17609502824416 0 140.17609502824416 115.86936964629706 0 0 0 0 73.559315637307009 177.10457814867732 0 177.10457814867732 259.64638271994772 0 0 0 0 177.91288626176538 59.560632176810032 0 59.560632176810032 24.987739317353771 0 0 0 0 240.43990821245825 242.63583058685617 0 242.63583058685617 280.18319782130675 0 0 0 0 -64.143819409859134 115.9836796909658 0 115.9836796909658 378.28043122188865 0 0 0 0 -10.218203271237144 271.46528077689709 0 271.46528077689709 266.13122010742518 0 0 0 0 3.5669645527668763 124.66282381604833 0 124.66282381604833 191.09807957525845 0 0 0 0 -53.691561356259626 310.1498190907605 0 310.1498190907605 19.266702919405361 0 0 0 0 -176.83231950190384 284.52792655601115 0 284.52792655601115 114.78758015378116 0 0 0 0 -56.18128890596563 291.15542933875986 0 291.15542933875986 51.316025366631948 0 0 0 0 -89.957101150183007 286.16518214897224 0 286.16518214897224 52.489656702995489 0 0 0 0 -71.154424087988446 278.27610364503926 0 278.27610364503926 -7.9407632452530379 0 0 0 0 10.55535635407432 127.87178333111842 0 127.87178333111842 59.769270206810688 0 0 0 0 120.29954303927661 291.98091235082393 0 291.98091235082393 -299.48504179711381 0 0 0 0 -27.277140568447066 196.51058906775143 0 196.51058906775143 -53.238738347292383 0 0 0 0 -99.627795661843265 260.99781217061263 0 260.99781217061263 -13.004782085867191 0 0 0 0 -82.362454616970354 376.60960530115153 0 376.60960530115153 298.15822082496015 0 0 0 0 56.393284098265639 92.220091658587734 0 92.220091658587734 94.237074129526832 0 0 0 0 -232.57169351815537 801.86464314253681 0 801.86464314253681 1389.7058596166171 0 0 0 0 321.04150397433841 143.50792151847418 0 143.50792151847418 -5.5389687897986732 0 0 0 0 219.57299579516257 355.78351561621457 0 355.78351561621457 -323.41661673894851 0 0 0 0 -143.34394296094979 571.27818512454905 0 571.27818512454905 -142.44056234663003 0 0 0 0 437.30063145961321 29.828538999077864 0 29.828538999077864 -614.50209830986569 0 0 0 0 37.545246787252836 -240.05432624252717 0 -240.05432624252717 -124.58038226753706 0 0 0 0 496.93780781959504 196.74666014426839 0 196.74666014426839 -152.56417099766259 0 0 0 0 55.890269338543717 96.125867625846155 0 96.125867625846155 108.02197418091396 0 0 0 0 637.69288225743367 42.778489053082012 0 42.778489053082012 -270.37725164663425 0 0 0 0 -257.93070582381188 351.66303489905476 0 351.66303489905476 41.080146107742621 0 0 0 0 -520.2800902567833 510.13618660892462 0 510.13618660892462 41.017559717154654 0 0 0 0 -270.08698855902185 199.92877939852406 0 199.92877939852406 53.966590371492202 0 0 0 0 -129.92937945597805 245.40837683446625 0 245.40837683446625 -17.639975889673224 0 0 0 0 43.854875050380059 100.83043840989851 0 100.83043840989851 121.572595484815 0 0 0 0 85.977644173923181 -10.578698655237531 0 -10.578698655237531 368.89337621215964 0 0 0 0 114.31126313001005 -44.974388714919769 0 -44.974388714919769 357.40671874405234 0 0 0 0 651.34423266809608 -327.61945891405048 0 -327.61945891405048 237.89637399130515 0 0 0 0 -700.74354575281905 322.0613768921412 0 322.0613768921412 140.29406329969788 0 0 0 0 27.12187066535418 56.031548616495279 0 56.031548616495279 78.173610684486135 0 0 0 0 -37.836510960420128 120.87330553484207 0 120.87330553484207 36.974070042411768 0 0 0 0 70.706236710633021 67.394822363323399 0 67.394822363323399 28.918333677447009 0 0 0 0 -280.07428745369543 292.761792789217 0 292.761792789217 -13.719799756472639 0 0 0 0 -306.47789524868131 299.36239132708215 0 299.36239132708215 439.04547596898192 0 0 0 0 -123.85345431224778 -131.79007785237627 0 -131.79007785237627 386.98736911491869 0 0 0 0 -217.12844020893681 112.46629198890514 0 112.46629198890514 73.852244315821736 0 0 0 0 -489.60256334032601 111.08941280382169 0 111.08941280382169 139.83264900775248 0 0 0 0 33.808199745189782 63.895267132156818 0 63.895267132156818 56.834068648924955 0 0 0 0 -423.82279550994281 24.076066936318966 0 24.076066936318966 202.71713145738249 0 0 0 0 -463.1208950485161 33.569422988817678 0 33.569422988817678 5.5660670977231348 0 0 0 0 6.4043207240291622 32.420489794343055 0 32.420489794343055 9.3319972358440353 0 0 0 0 118.36785176760168 -35.657014450371207 0 -35.657014450371207 -228.86073787216446 0 0 0 0 -391.50791582654347 154.79473961970871 0 154.79473961970871 87.600914851063862 0 0 0 0 -19.662004100981562 32.30812952431247 0 32.30812952431247 15.552187249586284 0 0 0 0 -469.77746534536709 124.59304039218114 0 124.59304039218114 191.14665220362122 0 0 0 0 -371.12888512163772 138.50264595653789 0 138.50264595653789 216.07103233427188 0 0 0 0 -55.276663609736829 24.061849831537124 0 24.061849831537124 9.917071840323878 0 0 0 0 -53.813167829066515 88.546180759272829 0 88.546180759272829 69.466074587522598 0 0 0 0 -22.625739821831417 31.272859481352036 0 31.272859481352036 -2.2095985093878046 0 0 0 0 6.4856035368648008 -21.535841186701873 0 -21.535841186701873 -47.877673649472854 0 0 0 0 28.174111226078821 74.336248336940116 0 74.336248336940116 -4.9063061643355468 0 0 0 0 2.9272028684790712 -98.87169280595208 0 -98.87169280595208 119.9007950220257 0 0 0 0 -25.569068171228878 18.139530153937148 0 18.139530153937148 13.094125303421325 0 0 0 0 -33.105204504783615 23.896857353793166 0 23.896857353793166 27.359620925162744 0 0 0 0 -8.3662408762897371 13.347292721656117 0 13.347292721656117 0.031093484368099666 0 0 0 0 -9.3148854113242123 25.241938710443719 0 25.241938710443719 0.97645493910385994 0 0 0 0 1.8789027275609129 17.465951880288003 0 17.465951880288003 -23.877174783197816 0 0 0 0 -26.262706749228528 4.8445454236862133 0 4.8445454236862133 5.1780532981720171 0 0 0 0 -4.7255958744474356 4.7894097252491861 0 4.7894097252491861 -2.7970326438554807 0 0 0 0 -9.4986103441333398 15.933782883985259 0 15.933782883985259 -14.585242654478861 0 0 0 0 -14.153106636974144 9.5085300870697829 0 9.5085300870697829 6.3449902219360634 0 0 0 0 2.3603865903904762 5.3554958529613117 0 5.3554958529613117 -8.4566634055949237 0 0 0 0 -2.7612630868679275 13.670606287233745 0 13.670606287233745 -3.8766214286915757 0 0 0 0 5.3715074450301472 13.872918382287025 0 13.872918382287025 -12.014660747536254 0 0 0 0 -1.5790503162425011 12.803347626242612 0 12.803347626242612 -9.2999227268983304 0 0 0 0 -5.0734325262601487 24.76564684794721 0 24.76564684794721 -3.8740600839860235 0 0 0 0 -3.9375942444967222 23.555136581065199 0 23.555136581065199 -4.334987762500532 0 0 0 0 39.293788743452751 57.888779533543129 0 57.888779533543129 47.331123658859724 0 0 0 0 -7.0220547184871975 19.742453291080892 0 19.742453291080892 4.5014066245166759 0 0 0 0 -2.9988172953284788 10.00834281123562 0 10.00834281123562 7.4404391845552738 0 0 0 0 -6.1602515294653131 17.605996988639163 0 17.605996988639163 -7.2088206039916258 0 0 0 0 -50.858748160833784 -1.0430114894970757 0 -1.0430114894970757 391.33321742939734 0 0 0 0 185.94440030049009 -58.000960974557529 0 -58.000960974557529 31.631876751753225 0 0 0 0 54.496234920618008 147.24205225291007 0 147.24205225291007 350.33243315203435 0 0 0 0 -3.4191972004256996 2.966853324161832 0 2.966853324161832 7.6984080650528028 0 0 0 0 288.71390253952995 143.69692264427795 0 143.69692264427795 97.519429815758485 0 0 0 0 -59.699777189467568 -14.753501571205561 0 -14.753501571205561 473.65424040198013 0 0 0 0 -75.456489632226294 15.570522692839404 0 15.570522692839404 422.55715267593769 0 0 0 0 -79.715011177904671 165.04687560859566 0 165.04687560859566 284.10354053952324 0 0 0 0 -12.851482907077298 231.22853087949625 0 231.22853087949625 589.92093459159514 0 0 0 0 12.968914573692018 131.89393468635535 0 131.89393468635535 558.63340138621425 0 0 0 0 162.30843786841433 169.94961997428254 0 169.94961997428254 504.8317644639319 0 0 0 0 448.35343319473031 128.44198646190489 0 128.44198646190489 506.13061335048405 0 0 0 0 191.33735166060796 338.44942444594926 0 338.44942444594926 784.16638915121439 0 0 0 0 -102.60432369199407 103.28835977351991 0 103.28835977351991 -108.58846792841723 0 0 0 0 9.0737909289746312 -141.89023309454205 0 -141.89023309454205 1003.4140379795908 0 0 0 0 6.1246223186062139 5.392400667152403 0 5.392400667152403 3.3942904873042963 0 0 0 0 4.7309240259148453 4.8178693224323865 0 4.8178693224323865 -2.0663540160267928 0 0 0 0 238.97352661660989 221.58234796687611 0 221.58234796687611 177.22266318759648 0 0 0 0 -44.134524068453175 4.8028221789895724 0 4.8028221789895724 274.00794217419752 0 0 0 0 8.8186031403020024 -129.98220705863059 0 -129.98220705863059 510.3701182880659 0 0 0 0 -0.92207027102648453 10.445338472613615 0 10.445338472613615 7.5991377674238194 0 0 0 0 -3.1528238536266144 22.957232549182663 0 22.957232549182663 -17.572842703542847 0 0 0 0 -9.8948371339938603 84.968006893890561 0 84.968006893890561 -46.23380286860629 0 0 0 0 11.271741595348118 8.7836506116195352 0 8.7836506116195352 -3.0477900465305936 0 0 0 0 109.424711374857 60.171561059923988 0 60.171561059923988 -78.132559401237813 0 0 0 0 10.091833104379418 12.517192207652712 0 12.517192207652712 3.8365633887770372 0 0 0 0 -0.67707184368424578 1.9332063486412778 0 1.9332063486412778 -2.2940306237971271 0 0 0 0 -11.98201739549711 -1.5233231380401051 0 -1.5233231380401051 0.33653404668244224 0 0 0 0 -13.682481525087496 37.735253923941855 0 37.735253923941855 68.07181411775673 0 0 0 0 -20.7709086308314 48.594206470756035 0 48.594206470756035 -97.507744753710426 0 0 0 0 -98.963691357872449 4.8814739972222014 0 4.8814739972222014 69.754268106698873 0 0 0 0 -22.037046333251055 42.844526983524702 0 42.844526983524702 -18.665212775820919 0 0 0 0 -30.452675751468632 23.64594798945609 0 23.64594798945609 -43.80195989767526 0 0 0 0 -26.285056874912698 67.737353024524054 0 67.737353024524054 35.151072605010995 0 0 0 0 34.121500341985666 -41.588602650891517 0 -41.588602650891517 42.172991560531955 0 0 0 0 -120.4592938964779 -8.9376424330512236 0 -8.9376424330512236 35.411331741732283 0 0 0 0 -6.1720948436122853 61.077409193352651 0 61.077409193352651 -34.260060072403576 0 0 0 0 -13.416250687674619 28.201326865935698 0 28.201326865935698 28.230589733753732 0 0 0 0 -11.206722132943469 26.721788033843666 0 26.721788033843666 -50.277749562104873 0 0 0 0 -168.2478514346476 -90.887109720400531 0 -90.887109720400531 122.86006494993489 0 0 0 0 -99.866064254165394 -111.77275172657392 0 -111.77275172657392 57.079128492720429 0 0 0 0 -142.77567272316082 9.2366184639322455 0 9.2366184639322455 22.450713431288023 0 0 0 0 -3.9863418917235549 -2.5274603218172373 0 -2.5274603218172373 -0.40805771018639003 0 0 0 0 18.581661268253811 137.66381601951798 0 137.66381601951798 -360.06440203917759 0 0 0 0 -97.569076986241271 -59.019246222482252 0 -59.019246222482252 69.55997264175312 0 0 0 0 -2.9497331722814124 -143.02000956558913 0 -143.02000956558913 -384.06513261488817 0 0 0 0 -210.77225215168437 278.71686525658333 0 278.71686525658333 30.02142111898138 0 0 0 0 -312.05664323929523 198.84833221635745 0 198.84833221635745 82.899436984269414 0 0 0 0 -56.388517762243282 -41.289477736834669 0 -41.289477736834669 -113.6759128428348 0 0 0 0 -36.029820147668943 -62.985906594869448 0 -62.985906594869448 60.326351160896593 0 0 0 0 -262.82544456416508 239.09303284315683 0 239.09303284315683 -340.16209838804934 0 0 0 0 1.6776446330623003 -156.03326266367549 0 -156.03326266367549 79.882600423308759 0 0 0 0 -186.87236946434132 -35.740060421019734 0 -35.740060421019734 499.9892764408869 0 0 0 0 -188.46586366451811 -7.3489356302306987 0 -7.3489356302306987 36.759302210884925 0 0 0 0 263.284080230369 1059.8514075293733 0 1059.8514075293733 522.61102368425782 0 0 0 0 150.99505725086783 545.27639236125287 0 545.27639236125287 -583.83454604801955 0 0 0 0 4.408294227375336 0.51650834254833278 0 0.51650834254833278 0.47771291983435304 0 0 0 0 -218.98273047004477 -3.2714868975017453 0 -3.2714868975017453 1990.9637809049709 0 0 0 0 -215.33213199823513 -56.018450719107932 0 -56.018450719107932 -18.130599444168183 0 0 0 0 -262.65962008683709 37.049975831472693 0 37.049975831472693 35.816414246979548 0 0 0 0 -201.60080748525797 15.443064494684222 0 15.443064494684222 1176.3544207049854 0 0 0 0 83.278389473867719 160.79849572647436 0 160.79849572647436 791.15551135212445 0 0 0 0 136.88029863761039 16.662213251816866 0 16.662213251816866 1176.122490039136 0 0 0 0 176.48935968878504 333.20617295450211 0 333.20617295450211 635.41169726678345 0 0 0 0 291.86583097942639 248.27199320190994 0 248.27199320190994 180.72578203998273 0 0 0 0 -0.49499718056977571 4.8783188644150925 0 4.8783188644150925 7.5312713109216389 0 0 0 0 561.4666333761852 467.0684743458296 0 467.0684743458296 1103.8556060148985 0 0 0 0 0.014310228419083353 4.0031769783758593 0 4.0031769783758593 10.9833836039179 0 0 0 0 -192.48802524193889 567.61060723737319 0 567.61060723737319 1838.6983704443555 0 0 0 0 215.3318549143587 291.1121659527671 0 291.1121659527671 651.22939170444442 0 0 0 0 452.55589682175196 331.02346415069042 0 331.02346415069042 -266.36547434781096 0 0 0 0 377.61539412238926 43.459625396004412 0 43.459625396004412 -827.81524423051451 0 0 0 0 606.36627700596 910.05994906994238 0 910.05994906994238 241.86729741934687 0 0 0 0 204.42968620013562 1086.3513604388572 0 1086.3513604388572 1012.0369822722932 0 0 0 0 -257.52710053789633 359.04010500998265 0 359.04010500998265 -271.71900375456971 0 0 0 0 -0.51893488813948352 316.40872838988525 0 316.40872838988525 -729.72583581424442 0 0 0 0 -183.57024302992795 348.85891611266015 0 348.85891611266015 -627.9240912895541 0 0 0 0 -471.23585979638301 235.96559349961217 0 235.96559349961217 42.319562684833727 0 0 0 0 -94.167678922618506 -109.95472434705619 0 -109.95472434705619 81.353281161931591 0 0 0 0 -170.31668073173205 188.86058797011447 0 188.86058797011447 -62.955246560326486 0 0 0 0 6.6437547210939556 3.7604153612825542 0 3.7604153612825542 2.4136283716618578 0 0 0 0 -39.05948403684306 195.60446132579455 0 195.60446132579455 -239.17174364437915 0 0 0 0 -114.8840213468211 109.36988701621431 0 109.36988701621431 31.057437886218395 0 0 0 0 -0.064171934747719206 128.01951150720106 0 128.01951150720106 -131.04129526046017 0 0 0 0 3.526327628194764 1.3122380115183034 0 1.3122380115183034 -1.3877625796797446 0 0 0 0 -61.779299235244252 63.680455100496602 0 63.680455100496602 11.06578647585593 0 0 0 0 -99.136334175753291 -96.547327701051472 0 -96.547327701051472 191.27770132623436 0 0 0 0 -0.5407532129123287 -61.27447858528808 0 -61.27447858528808 82.260021582580521 0 0 0 0 15.215704249203554 -18.456474351492943 0 -18.456474351492943 -110.9631066050797 0 0 0 0 14.13830941927813 86.511103475674403 0 86.511103475674403 -56.807566540948756 0 0 0 0 31.267714868852636 -20.373566267582646 0 -20.373566267582646 11.829675660353359 0 0 0 0 -31.705108321242733 43.000272732089798 0 43.000272732089798 23.663444200205504 0 0 0 0 13.922875136442599 42.010207519964752 0 42.010207519964752 -47.288168470737219 0 0 0 0 -7.6700537771248491 71.353453589473247 0 71.353453589473247 -52.657957131134026 0 0 0 0 -26.919965650373342 67.369429408098995 0 67.369429408098995 -66.711729854374425 0 0 0 0 -40.372273268047138 1.8557330793901201 0 1.8557330793901201 -125.68620209433175 0 0 0 0 -45.748942416510545 59.854104186764744 0 59.854104186764744 -56.111323285285835 0 0 0 0 -32.437808724469505 69.757039182673907 0 69.757039182673907 -49.378313699682622 0 0 0 0 -34.340247195534175 59.620580800448806 0 59.620580800448806 -57.524323544339495 0 0 0 0 -70.486133340134984 60.859173022907271 0 60.859173022907271 -25.379400825127959 0 0 0 0 -41.100086583872326 74.817931808907815 0 74.817931808907815 -46.355065690353513 0 0 0 0 -60.594229479727801 80.398376147564704 0 80.398376147564704 -47.654962474425702 0 0 0 0 -36.498826440154517 65.065465152333672 0 65.065465152333672 -53.538705338229192 0 0 0 0 -40.347311327117495 63.570961484891086 0 63.570961484891086 -25.666335467109093 0 0 0 0 -21.004021151391498 7.7999954860090384 0 7.7999954860090384 12.374176146073296 0 0 0 0 -3.0745295259039267 22.349671787823354 0 22.349671787823354 -155.56458478953573 0 0 0 0 94.542489471772569 -144.92878181824472 0 -144.92878181824472 -137.21699356222871 0 0 0 0 27.747258899355074 -24.651728723303677 0 -24.651728723303677 9.1734516132773933 0 0 0 0 8.8021646954178436 13.002362156996256 0 13.002362156996256 2.8754569738875091 0 0 0 0 -33.849441782374925 118.78387980088974 0 118.78387980088974 102.886771396923 0 0 0 0 32.200641351490049 293.38778364990753 0 293.38778364990753 75.217527143205871 0 0 0 0 -9.6577791413015461 21.792991812050971 0 21.792991812050971 -30.195429020818793 0 0 0 0 39.618815646928851 75.954386022494532 0 75.954386022494532 32.185938564761273 0 0 0 0 6.8713925638439832 139.55099944716858 0 139.55099944716858 204.75565868439242 0 0 0 0 154.95548173347925 148.45776850468883 0 148.45776850468883 -62.766755802924308 0 0 0 0 -5.7133875098066369 28.898469509786125 0 28.898469509786125 -26.272656086933946 0 0 0 0 -30.286970079265302 95.132412835959713 0 95.132412835959713 202.66664551213034 0 0 0 0 -303.12033727564267 -17.313501577566058 0 -17.313501577566058 114.38281013535266 0 0 0 0 213.71170151542174 63.104828255814937 0 63.104828255814937 -245.45033921779759 0 0 0 0 -96.197036728844978 116.57215769840332 0 116.57215769840332 -90.229899715926877 0 0 0 0 -29.37287220012513 -49.834863196027982 0 -49.834863196027982 -53.688118100420979 0 0 0 0 -144.94714271769044 49.917285778409678 0 49.917285778409678 -16.325244554122037 0 0 0 0 0.43448217243177112 2.2938180681084646 0 2.2938180681084646 -2.5811883793098929 0 0 0 0 58.427476323326118 -35.120296313009021 0 -35.120296313009021 -183.07321290795335 0 0 0 0 -71.196636929089436 11.265028635909403 0 11.265028635909403 -10.306997406645678 0 0 0 0 -87.734714471298503 69.515272476190148 0 69.515272476190148 -28.044024905160768 0 0 0 0 -2.7592968585377093 -13.491832987216185 0 -13.491832987216185 -9.4823639735477627 0 0 0 0 3.0755995905773545 3.6052824295855856 0 3.6052824295855856 -6.7687588723661634 0 0 0 0 -1.5079063312150538 7.435950966188102 0 7.435950966188102 -10.603932598169195 0 0 0 0 16.717602101078796 -0.0033223331556939684 0 -0.0033223331556939684 -5.05990280774067 0 0 0 0 0.7475524050340141 7.4573105246215761 0 7.4573105246215761 -5.6210103395037194 0 0 0 0 -34.109539150464116 35.266710873613192 0 35.266710873613192 -20.012262019790796 0 0 0 0 -28.564148867066251 36.206066135760921 0 36.206066135760921 -23.635560945127509 0 0 0 0 41.70537398615852 59.900083902428378 0 59.900083902428378 -34.208464674640709 0 0 0 0 -30.271777204467071 30.736901151739403 0 30.736901151739403 -37.28800150943789 0 0 0 0 26.018248669173261 15.018225720319847 0 15.018225720319847 -4.9228682312427381 0 0 0 0 2.2842370158560925 0.48750529327844561 0 0.48750529327844561 -2.069025258618737 0 0 0 0 19.015203819872113 -14.196860123085116 0 -14.196860123085116 3.7548978107806761 0 0 0 0 63.110302042390686 26.316600895661395 0 26.316600895661395 23.128560273828043 0 0 0 0 -12.751856342161773 5.8579108208450634 0 5.8579108208450634 -11.989548459438083 0 0 0 0 90.837274274526862 68.309587228777673 0 68.309587228777673 15.69995562571421 0 0 0 0 103.71737316899817 81.819881078143226 0 81.819881078143226 -15.552889982274792 0 0 0 0 9.7564506152676529 13.337038750895687 0 13.337038750895687 -1.8163171282894979 0 0 0 0 111.89052872930188 67.66133837389134 0 67.66133837389134 -57.181049205584713 0 0 0 0 23.243278688460123 21.026262378742558 0 21.026262378742558 -79.898466326711059 0 0 0 0 -404.300743127038 38.678197025164991 0 38.678197025164991 82.467667923647241 0 0 0 0 38.403923319230671 -97.785543716358006 0 -97.785543716358006 -114.6568429789495 0 0 0 0 -94.792575854808092 80.885444328072481 0 80.885444328072481 69.461144948816582 0 0 0 0 0.92011741733199415 1.9391723111064607 0 1.9391723111064607 -3.3301566945017811 0 0 0 0 39.797000994671293 42.650866856716718 0 42.650866856716718 31.266947421373445 0 0 0 0 -34.096602373814676 89.305810382428717 0 89.305810382428717 18.837532282297616 0 0 0 0 -32.000705824539182 61.580617445812095 0 61.580617445812095 20.272042553986466 0 0 0 0 12.210000849008793 14.640759392303153 0 14.640759392303153 185.78018983724678 0 0 0 0 34.618853511143243 112.92472677603178 0 112.92472677603178 166.84968582217152 0 0 0 0 -46.165137249350664 13.486483838254799 0 13.486483838254799 45.927159833407131 0 0 0 0 -91.926258930179756 133.22142820872477 0 133.22142820872477 75.152883572056226 0 0 0 0 -2.0957473073503934 63.112318545034213 0 63.112318545034213 119.94894766868492 0 0 0 0 -4.3796631916193292 80.911159986891107 0 80.911159986891107 130.42734567688763 0 0 0 0 13.147551689507964 96.317804602566696 0 96.317804602566696 -219.62388016378668 0 0 0 0 -2.977385888560093 82.737861598748736 0 82.737861598748736 -287.61024302234318 0 0 0 0 -96.907671783439582 135.73004605552751 0 135.73004605552751 -14.936106524426805 0 0 0 0 -172.90717063677766 289.83426653276564 0 289.83426653276564 -341.53639989968042 0 0 0 0 -138.11193912143244 104.51719620660997 0 104.51719620660997 -212.9943595251907 0 0 0 0 -37.76144767243386 330.6439270348103 0 330.6439270348103 -760.21892307364283 0 0 0 0 -0.5144283407357193 2.4746146882677778 0 2.4746146882677778 -0.0045463711335900214 0 0 0 0 10.277633169860565 380.11576664071805 0 380.11576664071805 -377.09784791866196 0 0 0 0 -64.163491322084155 490.90871566404974 0 490.90871566404974 -458.60818995153249 0 0 0 0 -348.46000094477495 825.04031832683495 0 825.04031832683495 -490.76453200503602 0 0 0 0 36.561490196610976 437.58910522178343 0 437.58910522178343 -1185.9344039787238 0 0 0 0 -847.54382585175335 -430.28592426406396 0 -430.28592426406396 -2326.1823111615136 0 0 0 0 -537.09851970190357 402.26452445753716 0 402.26452445753716 -821.80573271418689 0 0 0 0 -4.2994157797897401 2.4491341479348492 0 2.4491341479348492 -0.31632019409961232 0 0 0 0 -1443.8357883338758 1173.773557475613 0 1173.773557475613 -750.05893018283359 0 0 0 0 -451.41189104897785 485.1230256250916 0 485.1230256250916 -278.13263964833823 0 0 0 0 -1645.5907402989251 -91.640065424997061 0 -91.640065424997061 -91.502558713387771 0 0 0 0 -10.782828063373643 8.5819677015222169 0 8.5819677015222169 -5.8686440888731628 0 0 0 0 -239.61612924702058 -124.67259009560757 0 -124.67259009560757 -91.873843404896434 0 0 0 0 606.14776516797428 1044.6486169754123 0 1044.6486169754123 -1962.5605113822485 0 0 0 0 767.69383121610008 522.35962698082096 0 522.35962698082096 -1374.4781193722072 0 0 0 0 -488.51140776186367 1451.1510180250589 0 1451.1510180250589 -1433.850167661489 0 0 0 0 177.45237456012546 1346.0379610280984 0 1346.0379610280984 -1664.6670828568067 0 0 0 0 77.379642778076231 349.08079475507679 0 349.08079475507679 -531.97369813687146 0 0 0 0 -3.3423505925409813 1.7597097737266409 0 1.7597097737266409 -1.1161168115056785 0 0 0 0 -191.68019803843345 270.10785473336091 0 270.10785473336091 -344.4752701744037 0 0 0 0 -26.675920072884765 225.51063692819957 0 225.51063692819957 -762.86998490659437 0 0 0 0 -195.16295375229674 125.29485323732411 0 125.29485323732411 -313.61220348499592 0 0 0 0 -52.956602246733382 91.346313699255916 0 91.346313699255916 -307.44814340364326 0 0 0 0 43.795992503524758 117.77288449630328 0 117.77288449630328 -91.199353648982651 0 0 0 0 -182.74215384403215 167.41145949246663 0 167.41145949246663 -101.10777844293398 0 0 0 0 30.205890859971987 118.70002013910221 0 118.70002013910221 -75.743908395264498 0 0 0 0 0.48413278482621536 255.57626450720954 0 255.57626450720954 -352.95442500207753 0 0 0 0 210.14983774779103 149.56654174291168 0 149.56654174291168 -422.32384889539162 0 0 0 0 188.08052919812326 331.98395760766516 0 331.98395760766516 -1902.4062908348515 0 0 0 0 -10.522328235364 10.928671579693287 0 10.928671579693287 -3.8296245689867767 0 0 0 0 -647.34756681382714 434.59894580695709 0 434.59894580695709 -102.27503990260934 0 0 0 0 -491.59406731203489 1121.283023425603 0 1121.283023425603 -1474.1230507020359 0 0 0 0 -1100.493415215431 366.12944194921852 0 366.12944194921852 -662.52849832818629 0 0 0 0 -96.367898816482921 667.13033536025569 0 667.13033536025569 -1011.6852144840291 0 0 0 0 -222.29141397072817 1063.1563407011606 0 1063.1563407011606 -1140.571446214225 0 0 0 0 297.04213671080652 1408.9172675299321 0 1408.9172675299321 -1641.383309744522 0 0 0 0 74.116254093503812 395.31782668877838 0 395.31782668877838 -462.15608170016731 0 0 0 0 465.17082076257793 674.90878494687036 0 674.90878494687036 -1264.0870115779342 0 0 0 0 230.49032704817364 563.44391499654216 0 563.44391499654216 407.54764048010259 0 0 0 0 508.89829045841907 264.98185902986143 0 264.98185902986143 -288.89734068105145 0 0 0 0 287.37467710109195 227.64869914466854 0 227.64869914466854 14.103796621217668 0 0 0 0 157.55494348381762 514.12797104238041 0 514.12797104238041 -391.95151097992198 0 0 0 0 287.48633269185666 497.10909406662137 0 497.10909406662137 201.93903638974206 0 0 0 0 412.56861858715274 528.0831610914662 0 528.0831610914662 415.09348930908516 0 0 0 0 453.7314821294276 365.76878031315124 0 365.76878031315124 304.41252407526918 0 0 0 0 470.81393606797792 788.86550618008494 0 788.86550618008494 448.8409253313398 0 0 0 0 675.58321231248556 816.78719455367332 0 816.78719455367332 407.11901780443213 0 0 0 0 -66.17077716300264 86.809756674837104 0 86.809756674837104 236.92705899520274 0 0 0 0 125.26658406294882 118.58992177566881 0 118.58992177566881 229.71210878259808 0 0 0 0 201.77704931868357 272.3018541783826 0 272.3018541783826 46.335856203118283 0 0 0 0 227.62471694481792 240.28435942726588 0 240.28435942726588 278.24922631983554 0 0 0 0 477.52070465774159 329.41346155977652 0 329.41346155977652 285.10708538921085 0 0 0 0 159.18431677606713 225.88825000382715 0 225.88825000382715 277.70812280247833 0 0 0 0 -14.073378637374844 144.04977312639903 0 144.04977312639903 270.67754090360125 0 0 0 0 -48.887702970212558 181.51145748663134 0 181.51145748663134 24.587027189469268 0 0 0 0 59.249480643542483 97.949679655375689 0 97.949679655375689 92.151506948190786 0 0 0 0 -223.45658064939198 151.39665949804237 0 151.39665949804237 83.996848321993866 0 0 0 0 40.057851741774357 190.15983967597163 0 190.15983967597163 -248.14134926524252 0 0 0 0 -477.08539926307276 432.7190218228825 0 432.7190218228825 -312.43911032259393 0 0 0 0 9.2274471917771734 682.02473811640675 0 682.02473811640675 -1012.9870383009243 0 0 0 0 -211.70927610328363 137.24613198707516 0 137.24613198707516 -323.512843294493 0 0 0 0 -613.84850218254724 543.16737394452321 0 543.16737394452321 -601.14309265077918 0 0 0 0 -399.22725073163747 41.669869387750168 0 41.669869387750168 -289.56128419605193 0 0 0 0 -383.41524782701163 151.04551203715027 0 151.04551203715027 -152.57660456983467 0 0 0 0 -249.76254963612882 -162.49668493517129 0 -162.49668493517129 119.138238842188 0 0 0 0 -374.20736478865729 194.65298684691811 0 194.65298684691811 -109.10559622139044 0 0 0 0 -111.086563912977 6.0196507633378928 0 6.0196507633378928 100.74004685087544 0 0 0 0 -92.775304438720923 -43.165748923314595 0 -43.165748923314595 19.941545667427221 0 0 0 0 -46.097561929404037 -107.10439516724034 0 -107.10439516724034 24.825842961941703 0 0 0 0 -45.988694711595599 -172.02093584960068 0 -172.02093584960068 86.676190978312889 0 0 0 0 92.177233358437661 -77.052333855651909 0 -77.052333855651909 67.966329731551923 0 0 0 0 92.649954942928161 -118.27135172642772 0 -118.27135172642772 101.39256979365177 0 0 0 0 2.3691125310142525 -49.907674340208359 0 -49.907674340208359 128.16733129630995 0 0 0 0 83.158083278947743 33.883863241573522 0 33.883863241573522 184.10534295419347 0 0 0 0 145.04153966621379 51.56359194823267 0 51.56359194823267 11.06565374840784 0 0 0 0 -0.95384162000308237 4.1022258971532892 0 4.1022258971532892 -5.6210229087951733 0 0 0 0 295.07532343258208 -167.0259492889578 0 -167.0259492889578 -35.368113529275888 0 0 0 0 96.477845506131416 -76.676419361605298 0 -76.676419361605298 -30.264998792993147 0 0 0 0 103.61387921407004 -101.25573037355991 0 -101.25573037355991 54.137383164945163 0 0 0 0 101.02071872715169 -60.062394967310922 0 -60.062394967310922 -1.4378485041243039 0 0 0 0 -0.21562061501850391 224.77287211289428 0 224.77287211289428 81.603334822082616 0 0 0 0 111.14258787406288 -377.03118277453905 0 -377.03118277453905 114.44190882174416 0 0 0 0 -254.18553908621834 -194.51979236859142 0 -194.51979236859142 404.99291778676343 0 0 0 0 -297.45079647260718 366.18227175069114 0 366.18227175069114 93.498093607147894 0 0 0 0 0.85413596165651251 457.5509925693579 0 457.5509925693579 -1548.2509074576974 0 0 0 0 239.87575062790711 -149.23267238058406 0 -149.23267238058406 -220.67789547249731 0 0 0 0 -1.1004307548415326 4.0613801931102387 0 4.0613801931102387 -3.6733515106655616 0 0 0 0 -63.599158686047303 594.53124686071624 0 594.53124686071624 -857.44956548236041 0 0 0 0 -205.12719595871022 430.44590192617329 0 430.44590192617329 -1010.4314673084255 0 0 0 0 11.978162224884727 534.54039726942392 0 534.54039726942392 -1967.4724523351665 0 0 0 0 -637.38647369924001 15.189484378780435 0 15.189484378780435 -1127.4583010807 0 0 0 0 -267.6947097893426 401.99999574044523 0 401.99999574044523 -622.3215589154612 0 0 0 0 -223.77140385194798 883.01049487444789 0 883.01049487444789 -1810.5542077640939 0 0 0 0 -206.32051148061873 716.19161808677109 0 716.19161808677109 -1333.81809958948 0 0 0 0 -57.467759136125096 740.98613215772821 0 740.98613215772821 -267.05088196801444 0 0 0 0 51.669701765880745 650.3435688418549 0 650.3435688418549 -456.79823687522003 0 0 0 0 -839.6149259311569 611.61466409802028 0 611.61466409802028 62.019899476359569 0 0 0 0 -543.87416348912757 -463.86669263793829 0 -463.86669263793829 -500.84956042178237 0 0 0 0 -189.62655683153935 204.43823244190935 0 204.43823244190935 193.69386633769318 0 0 0 0 -86.96369528590003 238.90155700380092 0 238.90155700380092 149.56415261346638 0 0 0 0 -102.78345928995896 288.45404015431041 0 288.45404015431041 34.257258782647114 0 0 0 0 -17.450403037889544 13.62778854899031 0 13.62778854899031 -12.315611438330329 0 0 0 0 222.80126121551075 328.75716813490362 0 328.75716813490362 -314.20075097695644 0 0 0 0 259.68662382742696 -159.83256526598234 0 -159.83256526598234 -1474.3593065864607 0 0 0 0 -1294.2299145920824 723.76262499194399 0 723.76262499194399 -1047.1864973778247 0 0 0 0 -1572.9387565596435 413.57841666678951 0 413.57841666678951 98.848112734694951 0 0 0 0 -1391.04296073148 -1012.1785216262006 0 -1012.1785216262006 -757.70027334639599 0 0 0 0 -2505.7361018841912 -194.83651106581601 0 -194.83651106581601 1453.3028415992303 0 0 0 0 888.63222714415315 1342.2277674278994 0 1342.2277674278994 -1376.9017606023951 0 0 0 0 103.58014497992554 1111.3916347320082 0 1111.3916347320082 887.51553883614542 0 0 0 0 -214.52093123090526 -28.687235675488409 0 -28.687235675488409 652.68315540721915 0 0 0 0 390.83290159415628 695.27472918798412 0 695.27472918798412 279.33041823522217 0 0 0 0 2.8254758557122273 6.8055085564603672 0 6.8055085564603672 16.457267987461663 0 0 0 0 -1264.8152980994855 66.593175064526804 0 66.593175064526804 343.70535972866492 0 0 0 0 -851.09142344302381 1069.810565062784 0 1069.810565062784 1509.8315742329289 0 0 0 0 -648.28064469418121 220.19467536199932 0 220.19467536199932 62.13895551078167 0 0 0 0 -660.96973383741852 519.39601139727938 0 519.39601139727938 348.33094219813938 0 0 0 0 -6.4750112669592568 23.051939081247411 0 23.051939081247411 45.927136731864096 0 0 0 0 -527.44752490499377 134.16553348801608 0 134.16553348801608 115.53105577488714 0 0 0 0 -39.744609274831419 165.46637066670974 0 165.46637066670974 77.988691027498135 0 0 0 0 -1084.3933930753483 -280.79330747976201 0 -280.79330747976201 258.80946867494094 0 0 0 0 -22.941536928212969 32.669813434626363 0 32.669813434626363 -13.93049154966188 0 0 0 0 -52.709133692907926 21.825083660598466 0 21.825083660598466 88.836786220093927 0 0 0 0 150.6213075616979 192.19996495691521 0 192.19996495691521 -120.75418572863919 0 0 0 0 -1559.6998027989575 -369.0711302913096 0 -369.0711302913096 -70.532833050561749 0 0 0 0 -9.8026279335152395 6.7812757826197014 0 6.7812757826197014 -6.7611055330273047 0 0 0 0 706.71552621465526 -139.83216357662059 0 -139.83216357662059 -294.97175433642042 0 0 0 0 -715.61587541827248 472.74985084597301 0 472.74985084597301 817.51115834491065 0 0 0 0 712.32112843556388 647.0022056583839 0 647.0022056583839 110.38917860952643 0 0 0 0 581.70623106865969 39.007041985772958 0 39.007041985772958 -58.36055258176566 0 0 0 0 192.66754654965916 -129.55489617792773 0 -129.55489617792773 100.36013440660849 0 0 0 0 7.9224477253266201 6.8656762268181915 0 6.8656762268181915 -5.0045529471718595 0 0 0 0 -36.541004731945577 -106.16911045147936 0 -106.16911045147936 862.00208454096719 0 0 0 0 -53.404389095238002 596.04380496909289 0 596.04380496909289 9.3434676025426597 0 0 0 0 -452.87224646351387 402.0501668040306 0 402.0501668040306 834.86882897819964 0 0 0 0 -122.3875553629623 147.83103562491306 0 147.83103562491306 111.26052130880998 0 0 0 0 20.087001529947884 183.34045800266722 0 183.34045800266722 72.218225773623999 0 0 0 0 -52.617477396623144 176.65226963749774 0 176.65226963749774 -62.026815257529961 0 0 0 0 -8.5364694046674003 13.823055127518536 0 13.823055127518536 8.932143189376248 0 0 0 0 1.0499716467238613 246.89854828560419 0 246.89854828560419 589.3491129413178 0 0 0 0 273.57529776092269 109.49514881344658 0 109.49514881344658 -75.834181603942852 0 0 0 0 169.57423842688331 265.12328920496225 0 265.12328920496225 -10.965026340829354 0 0 0 0 185.33503306721923 316.0636333511502 0 316.0636333511502 -184.49839527016593 0 0 0 0 333.38869741066446 349.7063597771521 0 349.7063597771521 -245.04439020052996 0 0 0 0 -139.9120725170942 201.09585630889342 0 201.09585630889342 -12.70447842463841 0 0 0 0 93.897461782209575 314.21734966078657 0 314.21734966078657 -235.06170512040626 0 0 0 0 0.68636378821143751 48.405279921874751 0 48.405279921874751 21.194067809973532 0 0 0 0 327.61379836587003 -31.08898271146245 0 -31.08898271146245 10.368102787921089 0 0 0 0 -46.727655577432955 60.219623966862791 0 60.219623966862791 15.673084045625231 0 0 0 0 -56.696073409068049 94.08185686042998 0 94.08185686042998 17.372056772874203 0 0 0 0 3.3033398143452359 98.173296782071702 0 98.173296782071702 9.2125955580595473 0 0 0 0 36.708753883098012 15.318799584089334 0 15.318799584089334 1.8323233605306726 0 0 0 0 -2.8728298819402198 39.539362415359079 0 39.539362415359079 46.724132737141801 0 0 0 0 -94.294468306936324 124.42653900742698 0 124.42653900742698 38.06113130287531 0 0 0 0 44.2449112368231 95.952500344359123 0 95.952500344359123 29.41870795037903 0 0 0 0 -56.535074232451734 133.77650126202479 0 133.77650126202479 -40.385011501897679 0 0 0 0 -24.904858479494578 178.16143279030985 0 178.16143279030985 -54.693544096414371 0 0 0 0 109.66227791053097 123.88992060550481 0 123.88992060550481 -43.562129876239851 0 0 0 0 53.322879632671025 101.81108865595466 0 101.81108865595466 25.518021742605256 0 0 0 0 -172.50834423198285 -45.327801360625926 0 -45.327801360625926 -13.889835489935649 0 0 0 0 -73.790558826054621 122.24550604120395 0 122.24550604120395 21.001166035010101 0 0 0 0 -4.4526491743163206 206.46975783145353 0 206.46975783145353 -111.92023497757145 0 0 0 0 67.127630731980389 -138.55280058602085 0 -138.55280058602085 212.43708709231578 0 0 0 0 62.347631454389727 47.908455181072327 0 47.908455181072327 43.755839341558676 0 0 0 0 181.40826808336715 692.48775393666801 0 692.48775393666801 -810.0353308187041 0 0 0 0 278.85479614714859 179.33004077095393 0 179.33004077095393 -520.00230744948931 0 0 0 0 420.07145006256178 -407.32315834989095 0 -407.32315834989095 70.156795070379303 0 0 0 0 945.93101039870817 -82.301218799930211 0 -82.301218799930211 -477.46220586130494 0 0 0 0 92.54714534153149 94.494162443162779 0 94.494162443162779 -16.951785737413502 0 0 0 0 -38.932851853693137 542.43566570439725 0 542.43566570439725 364.21620203554085 0 0 0 0 -10.945352066628402 -463.7833476620508 0 -463.7833476620508 443.54279252914694 0 0 0 0 102.57707021622628 350.53732416817365 0 350.53732416817365 510.06555191224106 0 0 0 0 9.5855742822903096 4.0514527806331451 0 4.0514527806331451 4.5724350370672937 0 0 0 0 22.637725430809951 135.5226328566323 0 135.5226328566323 -145.4626168706036 0 0 0 0 270.87540975025604 19.700539894812209 0 19.700539894812209 -106.28111926427664 0 0 0 0 470.40892578812782 -45.937144288415482 0 -45.937144288415482 -198.09170510565457 0 0 0 0 92.978227397719223 96.631695453304161 0 96.631695453304161 -23.293675897271534 0 0 0 0 19.497533895533707 118.82175762300722 0 118.82175762300722 -60.98951298954762 0 0 0 0 -44.041536045391695 193.9285818440012 0 193.9285818440012 -110.63059804457544 0 0 0 0 -53.025971052862587 168.14541234498142 0 168.14541234498142 -37.21072199568016 0 0 0 0 44.618202884318407 80.021053612348155 0 80.021053612348155 39.263144143802897 0 0 0 0 -73.04014867611113 87.71400144848144 0 87.71400144848144 141.97856454469593 0 0 0 0 204.07569434316247 -42.573223938851413 0 -42.573223938851413 -57.648904429821869 0 0 0 0 51.879541908651277 78.880602044761332 0 78.880602044761332 49.380103413428039 0 0 0 0 143.70782201905968 -191.55082313445837 0 -191.55082313445837 211.28318522106474 0 0 0 0 101.78943932780385 198.52759321026022 0 198.52759321026022 -174.50315294874986 0 0 0 0 30.802542602192261 51.317051166292821 0 51.317051166292821 177.19300438013414 0 0 0 0 -167.50209994320176 109.50668043194275 0 109.50668043194275 -195.6038770233838 0 0 0 0 217.16495118212333 313.85113253130066 0 313.85113253130066 -1031.6552120002477 0 0 0 0 -277.81742091595152 315.17084383133613 0 315.17084383133613 586.53838531332985 0 0 0 0 1.4844516173267266 0.051377079508114321 0 0.051377079508114321 -0.84978072681103534 0 0 0 0 -106.92108845114126 440.84707739641271 0 440.84707739641271 -80.92921497565203 0 0 0 0 36.11028506304865 140.20758517631828 0 140.20758517631828 -46.855700897902352 0 0 0 0 52.066252924439581 98.706864972276989 0 98.706864972276989 -8.3479321276969696 0 0 0 0 42.13420630042674 313.2112655574731 0 313.2112655574731 -76.843143495194795 0 0 0 0 265.97841250623605 112.80786696425457 0 112.80786696425457 -44.601402404981854 0 0 0 0 287.37949938653765 267.45739566261329 0 267.45739566261329 -43.649395024201112 0 0 0 0 42.441395733386003 32.4233845439785 0 32.4233845439785 -15.34466147059296 0 0 0 0 -141.43691907157336 159.83957709985816 0 159.83957709985816 -60.043372850378546 0 0 0 0 -0.74998453330044867 67.415208304350017 0 67.415208304350017 -70.275692860133859 0 0 0 0 -57.224453129652829 247.30418470547011 0 247.30418470547011 181.12111034209192 0 0 0 0 -102.86796910656994 70.14987005632338 0 70.14987005632338 88.540487677820352 0 0 0 0 -124.72125574391976 68.773097742062419 0 68.773097742062419 432.26082796137052 0 0 0 0 4.8505315323851619 -0.25637860452735595 0 -0.25637860452735595 -4.6252363566823327 0 0 0 0 -37.837643447732717 76.479795943126476 0 76.479795943126476 -72.169137675438833 0 0 0 0 12.60935373533087 24.66553735331717 0 24.66553735331717 -1.9411083023385762 0 0 0 0 -38.423059449403809 73.005014540837237 0 73.005014540837237 -29.263399509921783 0 0 0 0 -37.23869419628177 80.72462046300862 0 80.72462046300862 -8.2863252527804079 0 0 0 0 -145.85255518202393 123.04522386237932 0 123.04522386237932 23.506679082208393 0 0 0 0 -10.638935126670532 11.372190714318432 0 11.372190714318432 -4.7439092557269511 0 0 0 0 49.978673856371984 65.116980786888007 0 65.116980786888007 21.360099890310089 0 0 0 0 -21.189173613274761 119.82556619884053 0 119.82556619884053 -60.699352056406497 0 0 0 0 3.5023214586981339 88.89779962974535 0 88.89779962974535 -54.111322368032233 0 0 0 0 -36.44497575693822 85.866713335021359 0 85.866713335021359 -54.34119115989597 0 0 0 0 -34.301274608486501 61.053083314232886 0 61.053083314232886 -29.779911177843431 0 0 0 0 -31.01360676219285 43.735338067759066 0 43.735338067759066 -36.095350974272009 0 0 0 0 -14.760429679246499 140.46542062009996 0 140.46542062009996 53.756781388157833 0 0 0 0 10.175679924466536 28.052867390768526 0 28.052867390768526 3.8264301100664397 0 0 0 0 -29.139576965726974 51.690833393780167 0 51.690833393780167 213.56322528133751 0 0 0 0 -1307.7158372528247 863.13573702416988 0 863.13573702416988 -636.01594063060929 0 0 0 0 -319.24079387645907 -80.057205824518405 0 -80.057205824518405 176.22713548378846 0 0 0 0 72.042680415142968 -262.89155428845675 0 -262.89155428845675 -75.671845923121367 0 0 0 0 59.268124724127119 461.33217668441648 0 461.33217668441648 -171.28670239964049 0 0 0 0 -883.37036439889926 -395.91344811849251 0 -395.91344811849251 -381.55713979718723 0 0 0 0 -532.16274250672359 -46.868959700943833 0 -46.868959700943833 188.81984518790841 0 0 0 0 -28.462005803950888 208.57790926055645 0 208.57790926055645 -85.794800132456203 0 0 0 0 -120.70546217873471 201.36981965866539 0 201.36981965866539 681.2834978983301 0 0 0 0 -37.591738752653328 -62.71263247619504 0 -62.71263247619504 538.06663045334972 0 0 0 0 10.62823012770842 2.9333392652360502 0 2.9333392652360502 1.7378783664510777 0 0 0 0 -823.00874302238662 938.748737515632 0 938.748737515632 605.4693786440871 0 0 0 0 -296.50770062265201 813.78116263740446 0 813.78116263740446 -170.683779286461 0 0 0 0 -312.21416075746129 577.69010713707564 0 577.69010713707564 176.33755789938664 0 0 0 0 -17.923853365808824 -0.94839925605699449 0 -0.94839925605699449 26.091584865540952 0 0 0 0 5.4384514733974356 37.306928011689024 0 37.306928011689024 54.921667583872591 0 0 0 0 10.042519760609395 22.522940667231694 0 22.522940667231694 10.757869869605056 0 0 0 0 -34.037820608657057 548.65112799109556 0 548.65112799109556 763.85444442237986 0 0 0 0 76.61585982680117 119.86226635994899 0 119.86226635994899 1233.1245661097314 0 0 0 0 -1196.5447272168058 466.82812906908794 0 466.82812906908794 -150.46039546795146 0 0 0 0 3.7045075613682741 0.14926428450674933 0 0.14926428450674933 2.2961697849644285 0 0 0 0 -313.10262906052412 752.66729387902024 0 752.66729387902024 242.8498850942795 0 0 0 0 -293.05000849701901 478.98242742607874 0 478.98242742607874 1017.6417468303043 0 0 0 0 118.41806030492444 385.56336829691645 0 385.56336829691645 226.990599478489 0 0 0 0 84.140831157574212 406.90274607508258 0 406.90274607508258 785.02753179501951 0 0 0 0 -13.461897502755164 205.06353447742435 0 205.06353447742435 61.388723112923799 0 0 0 0 -106.02799779663474 157.96235059783885 0 157.96235059783885 456.229151952341 0 0 0 0 -199.16506542706338 153.85829309444318 0 153.85829309444318 632.07785400647936 0 0 0 0 -14.566092912391468 132.73721677249989 0 132.73721677249989 -230.29015420934184 0 0 0 0 -149.76417088261223 349.39954886997293 0 349.39954886997293 820.87607635634413 0 0 0 0 -41.2318938536514 6.7831523220923273 0 6.7831523220923273 -0.60964342228771162 0 0 0 0 -27.218126246552856 299.6257828455964 0 299.6257828455964 361.9461684541111 0 0 0 0 -57.274567804097074 15.80663085196079 0 15.80663085196079 -2.643838603320817 0 0 0 0 8.1534862120388425 34.444080869180198 0 34.444080869180198 -145.99176518543891 0 0 0 0 -17.252661985845521 -1.0514918647506413 0 -1.0514918647506413 0.76075282873044525 0 0 0 0 -517.09669949063755 1014.7644632872031 0 1014.7644632872031 -1591.3959466880988 0 0 0 0 -1805.0689813294957 687.94194174247559 0 687.94194174247559 176.85005348933305 0 0 0 0 -265.87958281814645 330.54737989718092 0 330.54737989718092 -67.507879147545395 0 0 0 0 -283.00676087200554 269.56029566482084 0 269.56029566482084 328.23764101916532 0 0 0 0 181.30519035889301 169.42946137710715 0 169.42946137710715 34.055744253499142 0 0 0 0 -894.10816297255224 -186.87594178229665 0 -186.87594178229665 1023.5789898299008 0 0 0 0 -1499.4950368368536 520.0246915185453 0 520.0246915185453 257.28573780981969 0 0 0 0 -482.82534440130985 262.19343658018806 0 262.19343658018806 -305.22607837319811 0 0 0 0 -894.15719489128242 -31.478463216302771 0 -31.478463216302771 377.13613435953903 0 0 0 0 -818.44905013852986 -195.79200907328413 0 -195.79200907328413 -87.822817004067474 0 0 0 0 -827.16971474283491 -147.90172282712047 0 -147.90172282712047 425.17001019570307 0 0 0 0 -444.39987187719817 -173.37916526955269 0 -173.37916526955269 -425.17514207168642 0 0 0 0 -106.56643690732744 -53.877122471825714 0 -53.877122471825714 -192.13244404955003 0 0 0 0 -350.28065597276145 27.598845707136206 0 27.598845707136206 -132.44839311087344 0 0 0 0 -436.17873106587649 113.87250817897984 0 113.87250817897984 116.8927310574727 0 0 0 0 113.20269903645385 200.48222382039694 0 200.48222382039694 118.14333080715915 0 0 0 0 -115.62536308768904 131.70646687382396 0 131.70646687382396 134.67836418322486 0 0 0 0 -392.94152601725364 1.1509151542268228 0 1.1509151542268228 -84.802309787595732 0 0 0 0 88.51110003143549 226.04175758406564 0 226.04175758406564 -71.797560728082317 0 0 0 0 -54.612689308283734 71.275761283533939 0 71.275761283533939 -214.62735273186172 0 0 0 0 24.334627906771857 217.07821494600103 0 217.07821494600103 -180.69422314347321 0 0 0 0 -240.60853638001572 199.34831916754592 0 199.34831916754592 -283.7665748288091 0 0 0 0 -63.292939361075696 223.83280540198939 0 223.83280540198939 -396.94760458568271 0 0 0 0 4.8318122125601803 117.02191191683869 0 117.02191191683869 -452.36869022147584 0 0 0 0 -153.79635843419965 177.49259544436791 0 177.49259544436791 -78.372072613241471 0 0 0 0 -140.90801433026354 238.28534127335479 0 238.28534127335479 -226.64552112275851 0 0 0 0 -61.58821670521138 140.85416011509915 0 140.85416011509915 -225.75376589838197 0 0 0 0 -50.120691106800223 167.5500116675139 0 167.5500116675139 -300.99829517347825 0 0 0 0 -340.70671895042869 504.18209175267566 0 504.18209175267566 -688.54953226548241 0 0 0 0 -674.68528422390955 520.92736876805066 0 520.92736876805066 365.43611051549669 0 0 0 0 -506.03604320564773 475.97534952488422 0 475.97534952488422 201.81406105520364 0 0 0 0 -556.43150354775571 52.120055796165616 0 52.120055796165616 144.48676305800836 0 0 0 0 -744.75031482569648 206.07751010763968 0 206.07751010763968 38.666843067250738 0 0 0 0 -694.36429198002588 412.16478636110696 0 412.16478636110696 521.09714767261175 0 0 0 0 -460.96607983662398 -24.974609650889761 0 -24.974609650889761 -146.57675539805587 0 0 0 0 -132.86705970456387 99.170142960539124 0 99.170142960539124 -46.927660721061329 0 0 0 0 -6.2043401489166428 7.6453634418698186 0 7.6453634418698186 -4.3937720658580588 0 0 0 0 -111.48700741418725 70.026638236711733 0 70.026638236711733 -9.2913752220265451 0 0 0 0 -63.336404900791649 51.532106197222546 0 51.532106197222546 -34.092306814919411 0 0 0 0 123.10190630985744 77.168808194912344 0 77.168808194912344 20.37261305510674 0 0 0 0 111.52808167462354 139.19429316565765 0 139.19429316565765 81.652023278536944 0 0 0 0 105.21615455222491 145.31131985925458 0 145.31131985925458 76.403563771117661 0 0 0 0 29.343718677424476 38.937436778487609 0 38.937436778487609 -186.85323571726076 0 0 0 0 51.73414752172539 32.449130405307187 0 32.449130405307187 -237.26783076679385 0 0 0 0 14.025869090276444 3.844323413359291 0 3.844323413359291 -9.6203474164289453 0 0 0 0 48.071064590803871 19.564694932155362 0 19.564694932155362 -212.27167574526902 0 0 0 0 32.973899666302458 57.908986756242513 0 57.908986756242513 -85.627472996674328 0 0 0 0 13.442500160323107 182.59904076512976 0 182.59904076512976 11.028151894266557 0 0 0 0 172.38785799096604 264.67981573131442 0 264.67981573131442 -283.20575267826644 0 0 0 0 211.67339598341641 170.58330591122831 0 170.58330591122831 -198.92372665108633 0 0 0 0 214.26901497031213 -85.068342111451784 0 -85.068342111451784 -249.78764907105597 0 0 0 0 235.52573612768902 -136.40955686174857 0 -136.40955686174857 94.393080203444697 0 0 0 0 560.91897399013396 54.778263712389162 0 54.778263712389162 -227.15710173775551 0 0 0 0 412.05761018085468 451.12517459063383 0 451.12517459063383 172.7637918923283 0 0 0 0 -319.33070576508908 -237.45817714992336 0 -237.45817714992336 201.46137435623677 0 0 0 0 15.971183603390392 13.164018447894847 0 13.164018447894847 -12.318127823551748 0 0 0 0 124.05065945162642 71.11450752122073 0 71.11450752122073 -254.48623014866462 0 0 0 0 302.82666134368628 -62.877010429532675 0 -62.877010429532675 -531.64354527799151 0 0 0 0 258.14073062439275 -257.69110966720291 0 -257.69110966720291 709.52688760233286 0 0 0 0 285.61492811803328 -385.85755963844167 0 -385.85755963844167 -426.70554698260094 0 0 0 0 853.31112704469706 583.41492086929429 0 583.41492086929429 -205.85737117944518 0 0 0 0 769.77177962785936 327.2544470720386 0 327.2544470720386 -987.6543997611916 0 0 0 0 -97.629106744396267 91.956010597350542 0 91.956010597350542 -13.464234274511909 0 0 0 0 -17.564367050735896 17.797364766553869 0 17.797364766553869 10.902567856848066 0 0 0 0 647.30866348042036 444.4751579893491 0 444.4751579893491 168.61193655469833 0 0 0 0 965.80432247792487 736.78293921274599 0 736.78293921274599 409.28824094886659 0 0 0 0 1252.7049980089068 -231.95907564273512 0 -231.95907564273512 91.081177350530197 0 0 0 0 9.3970142853626442 12.270510389110939 0 12.270510389110939 -17.350028576735884 0 0 0 0 1308.2320702588622 -69.493156876484136 0 -69.493156876484136 174.03127768287231 0 0 0 0 992.09818525012088 379.27884435896158 0 379.27884435896158 -455.64807604400266 0 0 0 0 -23.009579411246349 48.612099200048263 0 48.612099200048263 -59.483154282919514 0 0 0 0 -14.006457695912104 57.266415741004039 0 57.266415741004039 -101.23516119434044 0 0 0 0 -167.88144321971049 338.99814017770768 0 338.99814017770768 212.37352807979551 0 0 0 0 -341.26735639045364 720.97324812583247 0 720.97324812583247 -401.61679388837001 0 0 0 0 763.79841440458767 81.922154478684206 0 81.922154478684206 -40.988098177745997 0 0 0 0 -23.840062357557628 43.149632642506987 0 43.149632642506987 -35.089954428567388 0 0 0 0 258.35818308086164 334.36984485012181 0 334.36984485012181 155.57600178356734 0 0 0 0 -252.3391543267644 5.0698905257295337 0 5.0698905257295337 -34.98629329168034 0 0 0 0 67.854466314020101 255.76902007186254 0 255.76902007186254 141.67379551994964 0 0 0 0 -219.48486724929899 -112.83426702060206 0 -112.83426702060206 168.17713130594711 0 0 0 0 -176.19398715034185 76.78378856134259 0 76.78378856134259 279.02314375904825 0 0 0 0 378.42019328847528 711.23919068500891 0 711.23919068500891 758.76957913686965 0 0 0 0 -72.740964682627236 258.69470485303987 0 258.69470485303987 572.29926641092516 0 0 0 0 393.25219408226258 95.471838100084824 0 95.471838100084824 214.75240924379432 0 0 0 0 345.20012961746397 58.643881018191678 0 58.643881018191678 -143.57722087758248 0 0 0 0 -48.237051999472897 92.201106666993837 0 92.201106666993837 -136.83626766308407 0 0 0 0 215.99614644797111 233.91651574872139 0 233.91651574872139 3.6346711360038171 0 0 0 0 290.38982537102856 358.25675592136895 0 358.25675592136895 84.765494870405746 0 0 0 0 -46.694542401844956 -228.36794561187298 0 -228.36794561187298 -424.24856379159064 0 0 0 0 -1.8932561091426976 -1.128765827335485 0 -1.128765827335485 5.0331445157947527 0 0 0 0 -213.92967946065255 41.640529420801158 0 41.640529420801158 132.10599079361418 0 0 0 0 934.90753991882957 889.3227480621108 0 889.3227480621108 631.24258340738879 0 0 0 0 365.29226671981451 426.9075778888614 0 426.9075778888614 1010.9012984457968 0 0 0 0 -370.23490166552801 -401.49918529588786 0 -401.49918529588786 1253.9919540079645 0 0 0 0 351.41247630119324 570.59754624690322 0 570.59754624690322 -266.95740572348291 0 0 0 0 -167.38191893249677 -596.67154337505553 0 -596.67154337505553 166.6721890556073 0 0 0 0 -8.8062234298498936 -2.4849891371080872 0 -2.4849891371080872 13.642139725870155 0 0 0 0 234.93229847263137 17.893843230384846 0 17.893843230384846 79.561070622165062 0 0 0 0 -1.0629172673895937 6.7688032751037071 0 6.7688032751037071 2.8050596392551412 0 0 0 0 930.2833540677675 449.33767546379386 0 449.33767546379386 346.69340886638292 0 0 0 0 74.152323576563049 -319.0207449133901 0 -319.0207449133901 481.01468927884889 0 0 0 0 -74.20741187895328 235.14158458963766 0 235.14158458963766 94.558881267890683 0 0 0 0 -161.81396876675717 267.2011990071469 0 267.2011990071469 625.14106712017383 0 0 0 0 -459.377700454148 -613.52358098983677 0 -613.52358098983677 -670.37622933737839 0 0 0 0 2.7807631044664163 9.9268049628104933 0 9.9268049628104933 -4.8508469475529896 0 0 0 0 -453.16272384568447 376.87280078183272 0 376.87280078183272 -45.872844516168698 0 0 0 0 360.44847391551593 -90.145566726210745 0 -90.145566726210745 -343.33461873110718 0 0 0 0 289.66274544229964 597.61596717858902 0 597.61596717858902 -39.070432095897559 0 0 0 0 451.64881442306796 530.06941631289465 0 530.06941631289465 341.46383369795785 0 0 0 0 385.12790588417556 886.11843602131285 0 886.11843602131285 677.3077332790017 0 0 0 0 -4.0994488437427208 677.27205515101741 0 677.27205515101741 294.39556406876545 0 0 0 0 257.53537017050257 299.10034996107424 0 299.10034996107424 -685.85650854315645 0 0 0 0 293.90954643877922 132.55056639056056 0 132.55056639056056 -170.28392689284374 0 0 0 0 327.46759743516122 400.72042606012985 0 400.72042606012985 306.38466523071111 0 0 0 0 484.83839907872607 613.35523782507971 0 613.35523782507971 399.29760823173046 0 0 0 0 226.12763392234046 339.89544610616758 0 339.89544610616758 557.76096362208591 0 0 0 0 291.98785962749389 163.56675854429523 0 163.56675854429523 -38.350916469389631 0 0 0 0 372.95308066181315 398.5298426479103 0 398.5298426479103 267.1127069396789 0 0 0 0 552.6209136791731 1132.9905968118985 0 1132.9905968118985 1008.208184311978 0 0 0 0 776.47167816322326 807.62765066067323 0 807.62765066067323 632.12759562712017 0 0 0 0 120.07995883640251 169.532941076528 0 169.532941076528 -110.01641094394517 0 0 0 0 644.0734058728558 543.35281041337657 0 543.35281041337657 875.50164796141689 0 0 0 0 526.29865041375888 733.50289820553553 0 733.50289820553553 599.97609883167388 0 0 0 0 -13.954895881359441 6.5624316456945309 0 6.5624316456945309 6.7423619843332716 0 0 0 0 479.81406729449373 540.78351666533695 0 540.78351666533695 1040.6142277334652 0 0 0 0 460.57742832531585 629.64230168558254 0 629.64230168558254 921.98422736548582 0 0 0 0 710.45061023841481 503.3609032840078 0 503.3609032840078 402.14304619967038 0 0 0 0 -228.36608548118966 -19.491963596840947 0 -19.491963596840947 158.16979169749334 0 0 0 0 456.67247754640994 753.99864348943652 0 753.99864348943652 1025.4876185105798 0 0 0 0 -15.523768121684299 -2.5573668812419328 0 -2.5573668812419328 18.136048719641451 0 0 0 0 470.75933521649131 645.33998263787271 0 645.33998263787271 724.02197825933058 0 0 0 0 -195.47052512074879 35.473346633270467 0 35.473346633270467 70.316926972416695 0 0 0 0 -56.933041772193974 32.102279500603345 0 32.102279500603345 66.148449736107978 0 0 0 0 85.686967559391633 110.61670932143807 0 110.61670932143807 38.775100327638938 0 0 0 0 -154.3815802126046 232.26827573942671 0 232.26827573942671 6.5982419462579855 0 0 0 0 -68.112443077939133 144.13128241959936 0 144.13128241959936 38.49015889752809 0 0 0 0 -2.6434119778059539 50.138600423146045 0 50.138600423146045 8.3783217748646166 0 0 0 0 -9.1450267886466463 31.977641279913996 0 31.977641279913996 -10.516602824410597 0 0 0 0 2.7973472869716716 23.311003113423439 0 23.311003113423439 45.223251639121372 0 0 0 0 19.140724094111988 14.589045526586126 0 14.589045526586126 11.469666506619767 0 0 0 0 25.954768532167236 20.749290936778692 0 20.749290936778692 -55.991655624363602 0 0 0 0 -31.658116005586635 16.794533679118103 0 16.794533679118103 261.52150615194023 0 0 0 0 288.20412168036273 135.4756241631643 0 135.4756241631643 -56.901392987176223 0 0 0 0 2.6875657838462388 5.652545705820387 0 5.652545705820387 -23.862601308229664 0 0 0 0 160.30067579977913 184.96489732130067 0 184.96489732130067 7.6650120613135186 0 0 0 0 130.01129222589952 59.163126229298882 0 59.163126229298882 12.208520823863182 0 0 0 0 25.414513743467978 60.027842387873079 0 60.027842387873079 12.212084558018432 0 0 0 0 91.863586395382299 -1.499879312553162 0 -1.499879312553162 -49.722562734097664 0 0 0 0 73.537811311161931 143.41151251142992 0 143.41151251142992 -19.260266852101267 0 0 0 0 35.305412182286091 86.746462096327377 0 86.746462096327377 -29.4472112061095 0 0 0 0 0.51627826155163348 32.748730510104906 0 32.748730510104906 169.58488952916923 0 0 0 0 -1.7276072194508743 75.876935191766279 0 75.876935191766279 33.567266627145727 0 0 0 0 -12.326175778502641 72.006578383049714 0 72.006578383049714 35.839472906759781 0 0 0 0 -29.840716598539075 57.373495159447771 0 57.373495159447771 74.294083926421081 0 0 0 0 28.081235735216353 40.410650345776865 0 40.410650345776865 25.457054693918558 0 0 0 0 13.901095647808688 108.9698219572565 0 108.9698219572565 64.655988145896117 0 0 0 0 19.177049047408246 64.722883575019381 0 64.722883575019381 30.342199764528903 0 0 0 0 24.726775932831515 70.885868383129491 0 70.885868383129491 1.9357489168523898 0 0 0 0 8.3507806090053869 67.826348832134869 0 67.826348832134869 25.716277956691883 0 0 0 0 3.9784764126252412 58.117453839313384 0 58.117453839313384 39.125918476580409 0 0 0 0 -77.186599613240503 51.483040470280081 0 51.483040470280081 90.306195219424382 0 0 0 0 -43.360962225535332 106.38136701768963 0 106.38136701768963 37.430141184711829 0 0 0 0 -13.910002244137104 87.078362431504502 0 87.078362431504502 46.31351361128327 0 0 0 0 65.776413122675876 139.16586629872836 0 139.16586629872836 5.1923302866161976 0 0 0 0 29.828904494956774 66.475062604503734 0 66.475062604503734 44.194095832988836 0 0 0 0 0.10778281294187764 124.07062469296216 0 124.07062469296216 2.6907406211994385 0 0 0 0 -115.46225485106334 171.10719839690637 0 171.10719839690637 11.004708164851763 0 0 0 0 65.020627787809644 113.9000128977641 0 113.9000128977641 48.842863034948095 0 0 0 0 40.50395469825807 70.23860143146797 0 70.23860143146797 39.915495186320513 0 0 0 0 32.269744003260712 53.491063279259834 0 53.491063279259834 26.431236171869386 0 0 0 0 74.177268679911322 131.16850948156662 0 131.16850948156662 81.320618321638904 0 0 0 0 0.64884972618891812 54.634311379082284 0 54.634311379082284 41.594649283327925 0 0 0 0 21.918461903471325 59.590516601858326 0 59.590516601858326 22.455085849282113 0 0 0 0 13.207500462499983 98.930441957053844 0 98.930441957053844 57.876093624712695 0 0 0 0 30.788840459066034 27.967664097944681 0 27.967664097944681 29.823449376682106 0 0 0 0 510.5072022072236 80.692861176610677 0 80.692861176610677 -73.483798597852001 0 0 0 0 -569.07885431540126 320.09596537671678 0 320.09596537671678 21.885898585234827 0 0 0 0 -190.77590628564212 167.61492154087682 0 167.61492154087682 13.444871302599495 0 0 0 0 -188.02679240076577 474.67263174815889 0 474.67263174815889 -126.82932849301142 0 0 0 0 -433.10166133786697 185.17021615417616 0 185.17021615417616 -185.34824531406775 0 0 0 0 -357.10412499737868 491.27149246423505 0 491.27149246423505 45.202220259641763 0 0 0 0 -9.7625909262251582 66.855388219462839 0 66.855388219462839 55.864667859279294 0 0 0 0 351.75185426936514 -6.1258887760413927 0 -6.1258887760413927 360.75753978844295 0 0 0 0 -30.042634029817105 93.0145550563104 0 93.0145550563104 72.995937737435796 0 0 0 0 -28.179181172494282 73.589350613317947 0 73.589350613317947 81.325446922099218 0 0 0 0 35.941205657902174 134.54668478524445 0 134.54668478524445 140.29843469628395 0 0 0 0 -116.67508692957927 176.5082253338378 0 176.5082253338378 296.54218198957869 0 0 0 0 37.353104392190289 207.73257394179609 0 207.73257394179609 128.26420035011415 0 0 0 0 -41.04980359741603 175.17322393171389 0 175.17322393171389 201.54009205770308 0 0 0 0 61.074395050723979 125.69395176798162 0 125.69395176798162 58.57031871412255 0 0 0 0 29.507936163456776 235.69869732831319 0 235.69869732831319 165.33521586145798 0 0 0 0 99.719508929036238 218.83107776632642 0 218.83107776632642 32.962130532225274 0 0 0 0 97.559373251342549 200.45954386145343 0 200.45954386145343 124.75742393944529 0 0 0 0 -17.686472005577258 15.476399728346895 0 15.476399728346895 -9.5983669392358308 0 0 0 0 109.59322205295757 56.023926311318064 0 56.023926311318064 -32.548296123497266 0 0 0 0 169.92688335994535 144.731252329173 0 144.731252329173 -30.713613871942925 0 0 0 0 92.231002650303708 206.79701988353554 0 206.79701988353554 83.510560163285845 0 0 0 0 133.99851020615642 110.50564835956538 0 110.50564835956538 19.920642735014553 0 0 0 0 63.352769406898005 131.27755342239107 0 131.27755342239107 28.851905166618963 0 0 0 0 95.556174293596996 196.88607075804975 0 196.88607075804975 -105.95280105300844 0 0 0 0 228.19454468703771 174.74939462853945 0 174.74939462853945 -115.5492000266895 0 0 0 0 -98.625924668647713 318.28864382319443 0 318.28864382319443 -158.91260122790845 0 0 0 0 15.484494868323964 338.27196063665724 0 338.27196063665724 -161.28216936883837 0 0 0 0 496.24184034190694 493.77577248936723 0 493.77577248936723 -205.70846139913192 0 0 0 0 1084.8063327056589 273.36698233858624 0 273.36698233858624 -263.43822401613784 0 0 0 0 318.29090868227649 187.08122605267999 0 187.08122605267999 -267.44206603238126 0 0 0 0 23.657887344967094 55.426484444171365 0 55.426484444171365 -70.758728076958505 0 0 0 0 447.4413189691204 53.60736769423238 0 53.60736769423238 -192.11016995320824 0 0 0 0 228.2134618219643 120.07122674399216 0 120.07122674399216 -212.25014833388559 0 0 0 0 202.86840613443201 126.64444910513521 0 126.64444910513521 -205.09596407298523 0 0 0 0 78.743811073032703 -32.589128867544787 0 -32.589128867544787 -173.93645335522888 0 0 0 0 226.52458635728908 87.881223267966561 0 87.881223267966561 -392.44866783830366 0 0 0 0 106.70845306814954 239.35305428010543 0 239.35305428010543 -88.526253621428623 0 0 0 0 1.3510579059475276 139.47711097882348 0 139.47711097882348 -13.346249617885405 0 0 0 0 111.23984546068459 -124.73592265559273 0 -124.73592265559273 356.66066871043768 0 0 0 0 -353.31358597834151 714.65124377181201 0 714.65124377181201 496.70725864642918 0 0 0 0 -10.320220260012352 5.9444375731584351 0 5.9444375731584351 0.80634105702424108 0 0 0 0 103.92272625292571 348.02903303367748 0 348.02903303367748 -676.18266293439228 0 0 0 0 59.959675690016411 -77.081739968947659 0 -77.081739968947659 245.26409221919585 0 0 0 0 74.270368452015987 -125.40574747657899 0 -125.40574747657899 -546.34402651807613 0 0 0 0 269.71250085920497 377.10856771826406 0 377.10856771826406 561.04529198366072 0 0 0 0 61.577247693443859 3.2227906802353345 0 3.2227906802353345 -3.2607642079685064 0 0 0 0 167.22911820290028 387.72135045636969 0 387.72135045636969 639.77422446626406 0 0 0 0 198.5080505841006 19.864737671699913 0 19.864737671699913 -56.736360368748137 0 0 0 0 -72.965808896498856 108.17302449348244 0 108.17302449348244 97.262872179009719 0 0 0 0 314.89477845945294 324.62221444237548 0 324.62221444237548 384.91073765870533 0 0 0 0 208.46737469025175 456.2026491791039 0 456.2026491791039 1065.2438430532311 0 0 0 0 450.07156012820997 -131.99047510568198 0 -131.99047510568198 -131.81364295454841 0 0 0 0 506.67351102344037 1027.3385132304647 0 1027.3385132304647 1520.6506190229738 0 0 0 0 18.607406489670382 -5.3996920706117635 0 -5.3996920706117635 2.7425080299699118 0 0 0 0 676.22978632010927 1030.3273036306327 0 1030.3273036306327 319.65137095132377 0 0 0 0 -623.5322160067517 339.65168153398554 0 339.65168153398554 1247.9250872861958 0 0 0 0 385.35994265697082 -537.23108834997038 0 -537.23108834997038 615.10464778600726 0 0 0 0 650.08988423298797 189.92767619297956 0 189.92767619297956 215.78362694603857 0 0 0 0 1390.3248891425901 391.05730110900913 0 391.05730110900913 354.02469996905711 0 0 0 0 9.3464768216435914 145.59095200819138 0 145.59095200819138 512.55926688917316 0 0 0 0 192.74581113113345 -346.20322999635755 0 -346.20322999635755 315.339587340859 0 0 0 0 -387.79528773377547 201.37270642169688 0 201.37270642169688 213.02378521006904 0 0 0 0 -71.014408026190722 284.81967690385568 0 284.81967690385568 234.6193044541651 0 0 0 0 -112.40391716819431 -219.11008769501132 0 -219.11008769501132 302.38362424333172 0 0 0 0 -349.80575763687102 -138.33074221895185 0 -138.33074221895185 53.094899173447629 0 0 0 0 295.11965795475408 402.86831516201346 0 402.86831516201346 -68.305507875883052 0 0 0 0 -76.148555100480735 -152.50922801388515 0 -152.50922801388515 -68.429274583546373 0 0 0 0 210.13401266718029 469.65216699256052 0 469.65216699256052 310.8016990742035 0 0 0 0 261.97828109628608 359.17942240116827 0 359.17942240116827 401.42786730516673 0 0 0 0 207.37373000974185 529.74272214989469 0 529.74272214989469 239.58344529622991 0 0 0 0 311.30021349962772 288.35985705239727 0 288.35985705239727 134.2216702300866 0 0 0 0 107.99816765260039 105.23666800479987 0 105.23666800479987 502.92127128291395 0 0 0 0 337.24919067635346 516.57515836648236 0 516.57515836648236 282.20591515825072 0 0 0 0 593.36443889424845 601.45163927170506 0 601.45163927170506 491.00784985771315 0 0 0 0 341.26294143262521 405.72000559958224 0 405.72000559958224 353.93784480486647 0 0 0 0 633.52764499239856 494.96607424176182 0 494.96607424176182 578.901829899929 0 0 0 0 -0.62366742944256259 3.260085158135368 0 3.260085158135368 0.78080094389515153 0 0 0 0 -11.373573439672327 254.78215280495715 0 254.78215280495715 1094.3989757413729 0 0 0 0 512.58087725731457 349.65425929412595 0 349.65425929412595 -854.28450261219223 0 0 0 0 147.20797561720246 117.2647428599812 0 117.2647428599812 482.16347109251365 0 0 0 0 214.49791167486546 587.19951403706364 0 587.19951403706364 -30.713285312522203 0 0 0 0 312.25672479249624 347.60364949649374 0 347.60364949649374 -92.24230064342737 0 0 0 0 156.4226045391988 268.26129357195623 0 268.26129357195623 246.60615171137397 0 0 0 0 158.2556437903113 287.02295948870028 0 287.02295948870028 428.59871004000888 0 0 0 0 179.42869311835966 138.28201769330371 0 138.28201769330371 270.61680279807297 0 0 0 0 185.47995956311934 253.04754903562116 0 253.04754903562116 252.32178881004438 0 0 0 0 198.7028430911887 276.85120814087713 0 276.85120814087713 161.37974068064068 0 0 0 0 225.46188251794956 335.72045520373376 0 335.72045520373376 231.76035468132068 0 0 0 0 150.3668314783572 424.48765033834297 0 424.48765033834297 392.3030033641603 0 0 0 0 84.018599813621449 324.81850485236782 0 324.81850485236782 248.06376362490482 0 0 0 0 229.04835925559746 198.07722279755671 0 198.07722279755671 82.361923090751588 0 0 0 0 80.141094065962989 237.6531724920049 0 237.6531724920049 259.68450005903287 0 0 0 0 -4.1043654602450745 14.910716711648334 0 14.910716711648334 23.677718875477552 0 0 0 0 368.39993740244245 303.46486360639301 0 303.46486360639301 153.80247679298645 0 0 0 0 906.53405886691689 388.91876630326078 0 388.91876630326078 -141.86234429980686 0 0 0 0 -65.093701802664839 -16.095284577984131 0 -16.095284577984131 9.4819872728020016 0 0 0 0 -1695.7352972729416 338.19206252859499 0 338.19206252859499 495.72979545583075 0 0 0 0 -634.13846811616531 528.66032431650819 0 528.66032431650819 -168.55634467794152 0 0 0 0 -1566.8337792747552 -608.37523838130801 0 -608.37523838130801 568.80522599274991 0 0 0 0 -1970.6046843970944 -143.698364736043 0 -143.698364736043 836.14362135040574 0 0 0 0 -696.33934034708363 -141.6414867243584 0 -141.6414867243584 669.51395952701569 0 0 0 0 -690.18694887706079 -556.92304006763879 0 -556.92304006763879 -196.8641990645915 0 0 0 0 -572.33905184613104 -209.15399451247504 0 -209.15399451247504 449.70853607576282 0 0 0 0 -580.63061696150544 -166.50018998105952 0 -166.50018998105952 418.34170938879834 0 0 0 0 -0.56178581544980011 7.3665749371642093 0 7.3665749371642093 10.075360853575773 0 0 0 0 -38.160183073895503 149.38786791845911 0 149.38786791845911 153.83134040965115 0 0 0 0 1289.4996557037048 -100.58235047495691 0 -100.58235047495691 481.16524501648382 0 0 0 0 -328.76849085987851 221.4649314974904 0 221.4649314974904 479.22240037264055 0 0 0 0 1671.9269949118598 980.2938796019962 0 980.2938796019962 -2512.4725590473972 0 0 0 0 148.3448000693752 40.803761681059314 0 40.803761681059314 -27.367033487767912 0 0 0 0 -54.943358651067683 -58.905999459755549 0 -58.905999459755549 2550.254090195398 0 0 0 0 201.52017382154008 273.64633992928248 0 273.64633992928248 44.983204881711572 0 0 0 0 121.28993574726337 275.63806222677704 0 275.63806222677704 184.50938470999972 0 0 0 0 -45.136252282791133 144.80744163031517 0 144.80744163031517 172.77229420755202 0 0 0 0 213.77080910622317 233.68816596790202 0 233.68816596790202 171.85427605621953 0 0 0 0 280.9566343628394 283.26064265621972 0 283.26064265621972 164.84441191638325 0 0 0 0 -100.83307018205232 359.79962853483084 0 359.79962853483084 150.62366701810242 0 0 0 0 -795.90185191352066 -102.1080503468329 0 -102.1080503468329 467.95715678342094 0 0 0 0 -849.19348421043833 368.64944419242966 0 368.64944419242966 723.15044704827596 0 0 0 0 -461.88833469784731 -39.069152479802142 0 -39.069152479802142 209.67258348820906 0 0 0 0 -452.9030250173455 36.974456172785722 0 36.974456172785722 446.51809569710167 0 0 0 0 -297.03107398109569 304.10469955454755 0 304.10469955454755 -11.953082371983328 0 0 0 0 -25.24328581901176 30.351261859146462 0 30.351261859146462 39.440199863898073 0 0 0 0 -167.47528115816749 205.17392809341254 0 205.17392809341254 -84.08698295490467 0 0 0 0 -135.93404167728295 103.56808621479286 0 103.56808621479286 -380.17770514487347 0 0 0 0 73.885162940248847 243.67823014687747 0 243.67823014687747 -212.0631882105954 0 0 0 0 -144.67247295094421 155.76218096414232 0 155.76218096414232 176.53162146161776 0 0 0 0 18.097764617658925 117.70819610921609 0 117.70819610921609 62.498665952732324 0 0 0 0 -4.541810712114966 77.599629838587134 0 77.599629838587134 28.494477446161909 0 0 0 0 97.462520574859809 228.95098181387993 0 228.95098181387993 203.77527482746518 0 0 0 0 167.48240337044263 197.14801316165631 0 197.14801316165631 230.2897869101871 0 0 0 0 382.93935849705304 245.65460446216275 0 245.65460446216275 169.00666842926512 0 0 0 0 151.96804210981645 341.04659945014919 0 341.04659945014919 24.048732899516835 0 0 0 0 111.42193684081307 121.06278158403784 0 121.06278158403784 29.253045496245633 0 0 0 0 -80.143290963373147 215.50073105302363 0 215.50073105302363 415.20297150517217 0 0 0 0 162.59313353653124 411.32708637498672 0 411.32708637498672 536.71103992469762 0 0 0 0 247.25920393347042 35.350392164444202 0 35.350392164444202 -580.64113664364595 0 0 0 0 3.4820136601230729 -1.3060102039825381 0 -1.3060102039825381 1.3764259929518445 0 0 0 0 283.41602010409406 332.31009272275514 0 332.31009272275514 276.59902009995494 0 0 0 0 231.23774105269695 303.05214969624649 0 303.05214969624649 281.96371486072712 0 0 0 0 404.45394490374019 445.39467143483489 0 445.39467143483489 299.44448459788691 0 0 0 0 255.45727862598142 264.20472672680444 0 264.20472672680444 172.48178461082352 0 0 0 0 255.48977431684762 309.45610468206178 0 309.45610468206178 267.3302044885495 0 0 0 0 227.73034050173737 285.65809131703463 0 285.65809131703463 285.08894227182464 0 0 0 0 218.93765165962395 236.8889885449662 0 236.8889885449662 189.981279521955 0 0 0 0 247.59077193942358 232.40525864666688 0 232.40525864666688 186.78141324528042 0 0 0 0 235.94433999934699 195.28440392612356 0 195.28440392612356 96.523846945139667 0 0 0 0 245.65505474091333 274.55759990505248 0 274.55759990505248 163.68069336442932 0 0 0 0 153.88901645930309 222.07200941974043 0 222.07200941974043 191.67260654891834 0 0 0 0 176.40525196700764 197.03624546995979 0 197.03624546995979 127.11190547095612 0 0 0 0 60.017586443907931 140.52339487002973 0 140.52339487002973 358.59770190864583 0 0 0 0 213.20034207412027 267.34149974442278 0 267.34149974442278 226.04846794160039 0 0 0 0 56.042865792944212 53.197112494975954 0 53.197112494975954 159.79841573874319 0 0 0 0 29.546940423315391 -89.865300301848038 0 -89.865300301848038 -619.49612000722846 0 0 0 0 99.117705156153534 265.17300452525069 0 265.17300452525069 506.04409370151188 0 0 0 0 28.555428100604331 68.101602402735807 0 68.101602402735807 -216.39891580180119 0 0 0 0 50.862526777047151 87.3013714353674 0 87.3013714353674 -105.09379424769577 0 0 0 0 -176.69857805902029 24.433960839303836 0 24.433960839303836 46.502589167408587 0 0 0 0 -195.18731805502648 59.765093646325113 0 59.765093646325113 74.450259290526446 0 0 0 0 2.7374793590422257 3.9463376136908224 0 3.9463376136908224 5.901673574296467 0 0 0 0 956.97622729086652 -101.00774815607292 0 -101.00774815607292 7.4429039347014623 0 0 0 0 71.018668116758874 45.756884421019393 0 45.756884421019393 3.1547644265875121 0 0 0 0 704.35464590183619 481.7338717691091 0 481.7338717691091 -244.64338186911118 0 0 0 0 55.537891181933531 65.029505255404246 0 65.029505255404246 21.46940082909305 0 0 0 0 9.7605671354535701 86.949171133306606 0 86.949171133306606 30.283268781983029 0 0 0 0 -134.07845589132921 -89.122616571552498 0 -89.122616571552498 -317.47986511939962 0 0 0 0 -272.17660968968812 -130.54375258833534 0 -130.54375258833534 435.85591673306772 0 0 0 0 6.6924239301638409 176.43617903618633 0 176.43617903618633 41.441519108600914 0 0 0 0 -7.1139600478393135 86.062421563781456 0 86.062421563781456 -24.314018685979192 0 0 0 0 -154.36781172012525 49.334636563671665 0 49.334636563671665 90.413883730805537 0 0 0 0 13.372633414754091 112.04924869440947 0 112.04924869440947 -11.776821737871302 0 0 0 0 0.57063545608647814 50.191501751738073 0 50.191501751738073 2.9553972651466598 0 0 0 0 -148.25574276829866 129.55939186027535 0 129.55939186027535 -56.687867635162547 0 0 0 0 160.30377710003086 520.04167712583148 0 520.04167712583148 -127.48205968771799 0 0 0 0 85.361538922756154 476.51917336278711 0 476.51917336278711 456.01570266668887 0 0 0 0 89.885509166436691 84.397587140923548 0 84.397587140923548 33.253376692842309 0 0 0 0 -130.74013256156013 128.24921152256593 0 128.24921152256593 -161.10517016147787 0 0 0 0 156.1002908011028 214.63903281979856 0 214.63903281979856 -196.75044455606985 0 0 0 0 9.2362288800488699 31.256342440426394 0 31.256342440426394 -92.221041429095408 0 0 0 0 80.148139521794292 140.9734114848834 0 140.9734114848834 -105.72782015314806 0 0 0 0 7.1419235001339985 231.73483594720892 0 231.73483594720892 -107.00404831655032 0 0 0 0 -2.3987922946389517 177.98082247463026 0 177.98082247463026 -78.834497591240506 0 0 0 0 29.677343772771565 -176.09146882234199 0 -176.09146882234199 79.977289824630134 0 0 0 0 256.2874599954157 203.48301898655973 0 203.48301898655973 -298.9205909443117 0 0 0 0 9.4108887334865585 12.853376589105444 0 12.853376589105444 16.546082374101786 0 0 0 0 -56.714096233012242 -136.25067385711736 0 -136.25067385711736 57.468056571418856 0 0 0 0 79.716685657564511 59.003872795782002 0 59.003872795782002 40.970597832143866 0 0 0 0 237.15808344420657 225.51453300529101 0 225.51453300529101 -317.65199706763087 0 0 0 0 224.74313122931198 503.71681838657969 0 503.71681838657969 579.68464024656714 0 0 0 0 463.09603165758381 534.08992368056352 0 534.08992368056352 -181.95533739090024 0 0 0 0 2.0392592546068471 2.6012349931087471 0 2.6012349931087471 1.8972286531612212 0 0 0 0 313.09258006529126 233.25699004742091 0 233.25699004742091 -489.41707260663679 0 0 0 0 147.80942754583157 261.22972605504037 0 261.22972605504037 907.639616375076 0 0 0 0 150.98983980515914 281.1589988157757 0 281.1589988157757 -307.10035379902547 0 0 0 0 -101.80561578467314 140.17703738148339 0 140.17703738148339 -239.04063343717644 0 0 0 0 -139.04444202125029 198.2618178344045 0 198.2618178344045 -194.49027154061332 0 0 0 0 -126.41342938373418 261.31204428814817 0 261.31204428814817 -282.37231831410099 0 0 0 0 -91.925704911598586 -137.41926155871624 0 -137.41926155871624 165.0712633470248 0 0 0 0 128.74309921829672 -0.89102980909137841 0 -0.89102980909137841 37.174880123639014 0 0 0 0 7.1857976143632527 4.3158274243880612 0 4.3158274243880612 4.2628361074116583 0 0 0 0 14.596990571168135 2.0652139839585288 0 2.0652139839585288 93.443426126217673 0 0 0 0 -426.29126899182666 -11.770437589915673 0 -11.770437589915673 126.31028205816983 0 0 0 0 -141.01887545127829 138.80687560713341 0 138.80687560713341 -170.66889166816691 0 0 0 0 -112.60296305872907 92.728551030799281 0 92.728551030799281 99.429303424360114 0 0 0 0 -3.0164712613464388 23.40866721855437 0 23.40866721855437 -6.9637981716683299 0 0 0 0 -298.58888398023191 69.586755463740701 0 69.586755463740701 -110.61926206999487 0 0 0 0 -330.66431132769503 288.13203331188924 0 288.13203331188924 -109.87439744765288 0 0 0 0 -154.01431296671581 243.63388754715561 0 243.63388754715561 -159.87466641945502 0 0 0 0 81.877918814539953 304.85556908987201 0 304.85556908987201 -309.60355277058989 0 0 0 0 -103.7975898460445 415.16429005795362 0 415.16429005795362 -255.10014801577199 0 0 0 0 156.86863798675404 406.62780612067581 0 406.62780612067581 -295.08802419877429 0 0 0 0 110.06580691552517 354.07427435162026 0 354.07427435162026 -257.60684464894621 0 0 0 0 -261.98113096847737 609.05937545546476 0 609.05937545546476 -248.47454828432819 0 0 0 0 109.16948218617108 385.76769748217339 0 385.76769748217339 -260.90626324391496 0 0 0 0 11.925533044075564 286.94892566865747 0 286.94892566865747 -311.56851412204105 0 0 0 0 -447.22576671539719 253.72812748837168 0 253.72812748837168 -112.8698940747563 0 0 0 0 -485.70991070888522 261.38343178511059 0 261.38343178511059 -28.940650114389427 0 0 0 0 -630.77696147000097 146.33009661343021 0 146.33009661343021 -58.428151098589296 0 0 0 0 -1684.5182044189169 272.79033421947315 0 272.79033421947315 -24.097559293161339 0 0 0 0 -641.69432626981506 882.9198873893929 0 882.9198873893929 -618.26814668988663 0 0 0 0 107.19316591567258 -211.96474076561572 0 -211.96474076561572 -787.31170099296287 0 0 0 0 -1.1469760552064976 3.5765744993361324 0 3.5765744993361324 -21.760226967766982 0 0 0 0 -1397.7339343129897 257.13294680142644 0 257.13294680142644 706.11331335272371 0 0 0 0 -883.20068635818279 -545.07246345766907 0 -545.07246345766907 270.05837158480426 0 0 0 0 -99.19841754969093 -67.121777201977238 0 -67.121777201977238 601.24626815151532 0 0 0 0 306.52119188894358 -50.961237931773212 0 -50.961237931773212 96.45507776796876 0 0 0 0 89.541745705995709 490.59970523280572 0 490.59970523280572 213.17177978682594 0 0 0 0 68.066299199995228 243.2937414909029 0 243.2937414909029 -158.07671710021896 0 0 0 0 224.37094787045555 278.89606661051903 0 278.89606661051903 -329.08711799034791 0 0 0 0 42.306233136254832 291.70192715482699 0 291.70192715482699 -137.52682324922353 0 0 0 0 -7.9977753339003357 169.45495215436677 0 169.45495215436677 7.8379581694607623 0 0 0 0 -162.36437822121297 286.44578712824296 0 286.44578712824296 -16.290003646507103 0 0 0 0 120.62758148140892 181.68739831444691 0 181.68739831444691 -115.59266901118826 0 0 0 0 130.29820699396805 209.32969693658379 0 209.32969693658379 -56.325114910374396 0 0 0 0 203.42841882759603 -8.0783441087187384 0 -8.0783441087187384 -79.228903374447327 0 0 0 0 393.98532191744016 148.9473263722175 0 148.9473263722175 -125.672838972916 0 0 0 0 -5.0957061237795855 12.773803401261585 0 12.773803401261585 -60.754764774266192 0 0 0 0 244.3912284151279 175.90527493176842 0 175.90527493176842 -437.39121483656345 0 0 0 0 486.87665500385992 353.97222726107611 0 353.97222726107611 -390.00850521944812 0 0 0 0 351.08871992907916 248.9905612469156 0 248.9905612469156 -411.66104571061078 0 0 0 0 483.23755342887671 430.29388476932581 0 430.29388476932581 -1327.8611360171417 0 0 0 0 434.1536911818539 -177.90709219694054 0 -177.90709219694054 -661.84218258409237 0 0 0 0 -464.40644971158508 1119.7645549125773 0 1119.7645549125773 -425.71355412631237 0 0 0 0 294.53223619541677 364.50032599948463 0 364.50032599948463 323.17487407468616 0 0 0 0 320.99488043500412 917.96420995263588 0 917.96420995263588 176.29129980043217 0 0 0 0 393.59773242726442 511.23237305742805 0 511.23237305742805 -440.0336199871017 0 0 0 0 315.39845161009634 536.76567081361645 0 536.76567081361645 54.8093004564289 0 0 0 0 157.67014934883059 369.67869814835285 0 369.67869814835285 -162.84922256878053 0 0 0 0 99.522723661406417 311.07779017520079 0 311.07779017520079 95.102314048723201 0 0 0 0 62.474801127091268 203.40245802707796 0 203.40245802707796 -212.42572338087484 0 0 0 0 230.25333501543901 375.73225304418156 0 375.73225304418156 -228.19933339589625 0 0 0 0 208.06673931317346 294.07965819826495 0 294.07965819826495 -329.34430768324819 0 0 0 0 297.60664044850841 394.06458661017768 0 394.06458661017768 -225.88692682902911 0 0 0 0 -157.09816902351122 434.37171122225118 0 434.37171122225118 -236.08655826171525 0 0 0 0 96.194492597407816 263.16024420067697 0 263.16024420067697 -347.11565217901079 0 0 0 0 15.209054829038905 310.31911267526448 0 310.31911267526448 -342.07981670723439 0 0 0 0 -28.662736867091162 147.18940265681249 0 147.18940265681249 -4.3650073899771087 0 0 0 0 16.009113503890603 5.3299838144521345 0 5.3299838144521345 -335.37925821339013 0 0 0 0 136.57081626953459 -220.40850334578136 0 -220.40850334578136 86.027744426202844 0 0 0 0 326.0310152249649 33.707471143701696 0 33.707471143701696 -644.88149776727369 0 0 0 0 -1270.05328605063 298.26191201993061 0 298.26191201993061 30.739087621059298 0 0 0 0 5.2546656167100956 -0.84371843769363863 0 -0.84371843769363863 -13.136227404418065 0 0 0 0 54.476621319253354 570.03662379155867 0 570.03662379155867 -892.40928710127992 0 0 0 0 -232.00440787286243 602.0549425925492 0 602.0549425925492 -737.41686724196916 0 0 0 0 29.620460342084698 215.038970335263 0 215.038970335263 -205.66386527277973 0 0 0 0 -46.078180364179303 144.52377267198563 0 144.52377267198563 -225.10752767739177 0 0 0 0 -515.82919957234844 -176.53915467025945 0 -176.53915467025945 -431.93718836564949 0 0 0 0 -127.64668901421101 311.55859994405182 0 311.55859994405182 -155.1523654345001 0 0 0 0 -809.31850888503868 607.69643723611807 0 607.69643723611807 -282.92452606301958 0 0 0 0 -344.76961277741248 283.63432287467003 0 283.63432287467003 8.6362612936645746 0 0 0 0 -77.894132217145852 168.74326327417657 0 168.74326327417657 36.793256726896288 0 0 0 0 -167.50920262289765 -36.894877432059729 0 -36.894877432059729 -103.75867671040032 0 0 0 0 2.9991115337143128 83.662250221335853 0 83.662250221335853 -31.06920447765151 0 0 0 0 182.11371731930376 29.424416291156376 0 29.424416291156376 -17.140630125330063 0 0 0 0 66.478913699766736 60.154086619742372 0 60.154086619742372 43.367845031184885 0 0 0 0 126.41516191623668 145.13732471716503 0 145.13732471716503 177.44193168883794 0 0 0 0 -103.1458579451205 207.17874899179151 0 207.17874899179151 165.7591649084643 0 0 0 0 72.729386868662459 -21.862400062018423 0 -21.862400062018423 191.20704821057734 0 0 0 0 25.920322335927377 3.6626755634103461 0 3.6626755634103461 -27.277142534706769 0 0 0 0 48.023555701942392 64.096154781598983 0 64.096154781598983 32.752808308347213 0 0 0 0 36.719389661055175 46.137830388837756 0 46.137830388837756 -156.03380638756425 0 0 0 0 18.132066114532865 55.471790679266761 0 55.471790679266761 -49.621400740025763 0 0 0 0 135.57222412840201 224.24102911034061 0 224.24102911034061 -424.03270760371379 0 0 0 0 93.04801341478742 -76.166868139014696 0 -76.166868139014696 103.34276989620048 0 0 0 0 77.646381717748682 -3.9783612952028307 0 -3.9783612952028307 2.8994264302891679 0 0 0 0 75.233089708752232 -26.62680772843305 0 -26.62680772843305 17.335061099220184 0 0 0 0 39.589735037446189 -61.875084205837993 0 -61.875084205837993 -12.005257730634185 0 0 0 0 140.00984984387105 -29.624615338725562 0 -29.624615338725562 -97.262839865667047 0 0 0 0 173.42454292351977 45.931090806698194 0 45.931090806698194 -4.2665383298663073 0 0 0 0 102.83104329086927 31.097606100061967 0 31.097606100061967 51.691601950195036 0 0 0 0 150.23655400078133 64.859480071507278 0 64.859480071507278 -3.8352825857509742 0 0 0 0 44.201932325712193 53.619984213537322 0 53.619984213537322 -31.671420420969724 0 0 0 0 25.840753643177578 39.664767710788993 0 39.664767710788993 -7.5191127310681622 0 0 0 0 133.73598300904996 67.767522498659673 0 67.767522498659673 7.1347772155204439 0 0 0 0 38.047564618143554 27.892490928625492 0 27.892490928625492 -23.893672553710445 0 0 0 0 5.3142174321683129 48.835519436085285 0 48.835519436085285 3.7073590367624547 0 0 0 0 170.82347232145469 188.08379760657994 0 188.08379760657994 94.369332203699742 0 0 0 0 221.65347705790998 258.52943166435745 0 258.52943166435745 127.25875355771859 0 0 0 0 320.14831000257982 159.60593680645979 0 159.60593680645979 -67.955743984381115 0 0 0 0 -30.223826191922328 48.748155745159195 0 48.748155745159195 -37.920316885871955 0 0 0 0 -6.2104636059237706 12.566124132753842 0 12.566124132753842 0.017482562079919717 0 0 0 0 87.810957318801229 164.64915556172491 0 164.64915556172491 145.57409618864767 0 0 0 0 127.34978779343692 300.18997601578667 0 300.18997601578667 153.62318360088102 0 0 0 0 185.8872505812833 -37.709516829323547 0 -37.709516829323547 -108.53420148891746 0 0 0 0 -41.95203748347808 48.675164507340696 0 48.675164507340696 -57.508949676906923 0 0 0 0 258.28040417799639 492.19301168571656 0 492.19301168571656 -143.14513933606213 0 0 0 0 284.41158397262188 413.78238263761887 0 413.78238263761887 -226.40519730626715 0 0 0 0 -43.362650718803735 50.284551793104328 0 50.284551793104328 -49.481817744346074 0 0 0 0 105.23918339244847 110.76130554526753 0 110.76130554526753 -12.537584124409477 0 0 0 0 -3.4748563062603353 245.36703837863024 0 245.36703837863024 184.04169787634237 0 0 0 0 -145.43190955793762 157.34956307986431 0 157.34956307986431 -35.563777262985241 0 0 0 0 -18.232574131987349 170.81644439148658 0 170.81644439148658 -34.150508985316264 0 0 0 0 -34.514238013454815 131.65686798700517 0 131.65686798700517 111.05102829996031 0 0 0 0 -111.81791438347136 172.6297810110409 0 172.6297810110409 124.2884172993945 0 0 0 0 -69.746396237060253 306.89119471499725 0 306.89119471499725 -8.8835645000217482 0 0 0 0 -89.587303379768855 38.924994052104012 0 38.924994052104012 166.8018525797379 0 0 0 0 32.019962060134276 58.88473873890689 0 58.88473873890689 148.64084287529113 0 0 0 0 7.6678770576836541 122.01579656339163 0 122.01579656339163 171.72260632300458 0 0 0 0 -35.08847747524851 80.001700523789623 0 80.001700523789623 197.5880007013493 0 0 0 0 53.395795703210752 162.0093933318276 0 162.0093933318276 152.57258469246153 0 0 0 0 23.614362734966562 122.50016231727204 0 122.50016231727204 147.89134320884477 0 0 0 0 -18.105702146611293 199.57295300714031 0 199.57295300714031 160.60986834594223 0 0 0 0 -34.758829259707454 107.57854693461741 0 107.57854693461741 167.56098112722975 0 0 0 0 8.8117155564775373 3.5674433147626985 0 3.5674433147626985 2.6228799068074409 0 0 0 0 -191.38830723185674 -413.71177283572615 0 -413.71177283572615 1270.695319196584 0 0 0 0 -388.63958222522706 263.9933440454588 0 263.9933440454588 1031.8485121305712 0 0 0 0 -223.1613201107175 286.50894766748388 0 286.50894766748388 456.69934818460024 0 0 0 0 225.80659796253894 0.72277170079178177 0 0.72277170079178177 326.7548208307453 0 0 0 0 9.4470883096873877 -167.97063345686183 0 -167.97063345686183 171.75853143522545 0 0 0 0 -67.479904183159306 -78.155455663911198 0 -78.155455663911198 516.40762089229247 0 0 0 0 26.196999484977624 13.948150128540462 0 13.948150128540462 8.9778982287613189 0 0 0 0 -16.082333006794215 -16.605289078848728 0 -16.605289078848728 202.74156320645852 0 0 0 0 41.356382701851544 -48.235529405952548 0 -48.235529405952548 219.97357299992291 0 0 0 0 -18.485573468744406 -109.30951155012008 0 -109.30951155012008 110.61477598851707 0 0 0 0 -140.80072920565544 -163.67703444666222 0 -163.67703444666222 146.93632750018151 0 0 0 0 -35.858202885476203 -229.11871399217262 0 -229.11871399217262 19.500841170418425 0 0 0 0 347.57434557523811 -165.21717048659775 0 -165.21717048659775 -96.397409657562093 0 0 0 0 -53.90791554536554 -242.99957452264061 0 -242.99957452264061 -26.246995107743714 0 0 0 0 -200.67811604642338 -300.72402710454367 0 -300.72402710454367 -44.627756738642347 0 0 0 0 47.404779913583667 26.40753968043127 0 26.40753968043127 8.2234762964045558 0 0 0 0 24.587284686262137 45.277506929276569 0 45.277506929276569 202.72809641283129 0 0 0 0 85.449803988070926 66.106142170974636 0 66.106142170974636 125.78666113669169 0 0 0 0 85.367944504803745 53.576234131716774 0 53.576234131716774 9.8801361070436542 0 0 0 0 131.60610281566187 -35.011006626788003 0 -35.011006626788003 27.894656970696815 0 0 0 0 144.58159699837415 -96.931505856555304 0 -96.931505856555304 113.38338991289493 0 0 0 0 256.96948689075725 9.677260182583268 0 9.677260182583268 23.330541903545964 0 0 0 0 219.58122860806179 10.467077348341263 0 10.467077348341263 -91.148871200057329 0 0 0 0 231.4259318386612 -10.398960057544173 0 -10.398960057544173 8.4085081875018659 0 0 0 0 17.072329095897146 2.3335772691712009 0 2.3335772691712009 10.036501698620384 0 0 0 0 89.057287851261208 8.9291027617255168 0 8.9291027617255168 16.390272876604286 0 0 0 0 77.367457482156169 -140.52833224264396 0 -140.52833224264396 -103.54047552329575 0 0 0 0 148.46253865601466 65.333029483786049 0 65.333029483786049 27.995660767468507 0 0 0 0 750.10679865081329 222.93839650563314 0 222.93839650563314 -83.788063120855441 0 0 0 0 -3.9296389857334901 0.1593822751779328 0 0.1593822751779328 6.7208821693462255 0 0 0 0 387.666359072864 67.316893086743221 0 67.316893086743221 -277.64371818517975 0 0 0 0 327.13463735891855 -27.974717485361907 0 -27.974717485361907 -53.104966466198675 0 0 0 0 283.61514246582374 17.586026614015282 0 17.586026614015282 -96.756100659731601 0 0 0 0 311.22848550729395 34.663817056611151 0 34.663817056611151 -94.764211282410542 0 0 0 0 -184.98982457808597 69.553998056893761 0 69.553998056893761 -358.02027944488145 0 0 0 0 -682.69730991206052 -4.7375373325758119 0 -4.7375373325758119 -245.29889145406196 0 0 0 0 486.23261695567089 -270.03488241243303 0 -270.03488241243303 -271.41639705670241 0 0 0 0 -1.2070685397338821 292.60020276643263 0 292.60020276643263 -176.63758326699281 0 0 0 0 -751.38562065203587 380.722950561365 0 380.722950561365 -427.98579430102836 0 0 0 0 -77.518464599550498 22.182800203358056 0 22.182800203358056 -960.71100893410039 0 0 0 0 -884.37145602598503 489.34994003276461 0 489.34994003276461 -177.7734447729963 0 0 0 0 -1037.2088204656684 951.82313677378261 0 951.82313677378261 -1491.211550341839 0 0 0 0 -300.16559339020023 440.27556971763988 0 440.27556971763988 846.07989011547761 0 0 0 0 2.5839059532479212 -6.2978113842430048 0 -6.2978113842430048 -0.53152936590549205 0 0 0 0 -1204.7837336159428 291.07880266362918 0 291.07880266362918 388.61302678135689 0 0 0 0 -341.3915138241864 690.77422424127508 0 690.77422424127508 -441.1249410834007 0 0 0 0 229.32616659942869 197.91267468892693 0 197.91267468892693 -97.307970239628048 0 0 0 0 192.1856969867149 388.53604811304467 0 388.53604811304467 -294.72029415296606 0 0 0 0 217.99165396102399 258.18744236863404 0 258.18744236863404 118.54015213508683 0 0 0 0 10.644842580704761 4.1882358685985821 0 4.1882358685985821 5.6698562473115732 0 0 0 0 115.09177926385746 219.86548388819938 0 219.86548388819938 282.52136455970322 0 0 0 0 140.32314079947537 150.48651430776226 0 150.48651430776226 131.37917324892624 0 0 0 0 32.725858464040165 162.39386817387162 0 162.39386817387162 58.465526689775288 0 0 0 0 135.52137230926019 142.11209057866654 0 142.11209057866654 -32.555245232739253 0 0 0 0 129.64038640547631 51.971370477332911 0 51.971370477332911 1.8587606389904279 0 0 0 0 13.27521408341706 58.383348872522859 0 58.383348872522859 37.252344839677193 0 0 0 0 136.27287081494433 102.77175671679652 0 102.77175671679652 -52.70833633159782 0 0 0 0 137.88342189200557 161.37843599961707 0 161.37843599961707 191.4823225284199 0 0 0 0 419.84166548916255 158.30710185895441 0 158.30710185895441 -18.211739801292424 0 0 0 0 251.57321348601545 184.6820374175586 0 184.6820374175586 -18.526982916204929 0 0 0 0 126.51483420677687 111.71495211804722 0 111.71495211804722 -50.880002656616853 0 0 0 0 147.39096688737501 51.569622663196881 0 51.569622663196881 -26.17118454536423 0 0 0 0 247.12061510853528 52.6311766580111 0 52.6311766580111 -183.59708488202159 0 0 0 0 288.36140702922694 -13.702922755680447 0 -13.702922755680447 -10.593021238077199 0 0 0 0 32.458329898557281 11.459149522430835 0 11.459149522430835 -64.623722393420962 0 0 0 0 197.31836664511502 87.584675457124831 0 87.584675457124831 -91.188583219700377 0 0 0 0 38.788921963343 38.081949132481668 0 38.081949132481668 -44.080954791650584 0 0 0 0 64.753148281328322 73.859357812292728 0 73.859357812292728 -66.936310274622883 0 0 0 0 37.127517315502416 44.012033403694403 0 44.012033403694403 17.137130829619409 0 0 0 0 50.775240171474593 58.626406257811155 0 58.626406257811155 -14.347006542495418 0 0 0 0 -156.37161366627697 49.111968923669338 0 49.111968923669338 75.390952391528117 0 0 0 0 687.80007599349483 137.15282390282664 0 137.15282390282664 -24.973686773882946 0 0 0 0 169.63903773402126 -64.775755161048437 0 -64.775755161048437 39.973851916016429 0 0 0 0 3.467048319345194 2.1319860226428631 0 2.1319860226428631 7.1015997150884687 0 0 0 0 455.91890394387246 -17.635719145461735 0 -17.635719145461735 -23.417253881401848 0 0 0 0 -286.9651704828284 -23.149362458170799 0 -23.149362458170799 294.4346408888814 0 0 0 0 -358.07886628647248 283.19117399568131 0 283.19117399568131 -16.988689828526731 0 0 0 0 -254.81897510762064 6.1189658599178074 0 6.1189658599178074 266.45728478944511 0 0 0 0 47.674183438163269 49.343167040741733 0 49.343167040741733 38.907738766731427 0 0 0 0 32.769410641096712 23.607857005077541 0 23.607857005077541 8.346944807152795 0 0 0 0 -88.058548392517878 124.75380141953065 0 124.75380141953065 65.015929852008412 0 0 0 0 -23.641715847186788 453.09033739975166 0 453.09033739975166 -447.65484073896368 0 0 0 0 141.29152213340421 90.901821082341485 0 90.901821082341485 -174.48280401353259 0 0 0 0 361.87894340236198 -69.2842485771871 0 -69.2842485771871 -168.52076751072309 0 0 0 0 -6.9261974622404523 568.90131785026097 0 568.90131785026097 216.43420773778053 0 0 0 0 86.360363651506759 -20.67727322197652 0 -20.67727322197652 -74.363378859219665 0 0 0 0 82.942797044554027 14.115919118492457 0 14.115919118492457 -70.947707319317942 0 0 0 0 -116.47300059566692 24.149521454501823 0 24.149521454501823 186.39601273935114 0 0 0 0 -3.4831144616714598 50.359674516454263 0 50.359674516454263 -5.7584102831625898 0 0 0 0 72.632424372950481 -50.027807812733954 0 -50.027807812733954 353.31637983588007 0 0 0 0 415.96583745383396 348.18494527983057 0 348.18494527983057 284.51952171925223 0 0 0 0 
</DataArray>
<DataArray type="Float64" Name="cross_section_updated" format="ascii">
1 1 1 1 1 1 1 1 0.0090970938322989438 1 0.010159301042498757 1 1 0.010275924398871178 1 0.0043897927624255498 1 1 1 0.008140496497743361 1 1 1 1 1 1 1 1 1 1 1 1 1 1 1 1 1 1 1 0.01079797077517998 1 1 0.0092976047742645597 1 1 0.0092259253411815303 1 1 1 0.013596383980460217 1 1 1 0.011214183456563491 1 1 1 1 0.011361389162258165 1 1 1 1 1 1 1 1 1 0.0049430011117843446 1 1 1 0.007517364258068978 0.011865690551519668 1 1 1 1 0.0071423493047119979 1 1 1 0.0095478614629526167 0.0085333847109832633 1 1 1 0.0097553022959159744 1 1 0.009413670300438352 1 1 1 1 1 1 1 0.0098525857203905047 1 1 1 1 1 1 1 1 0.0097733729180128018 1 1 1 1 1 0.0071641049333805058 1 0.0077584462691610949 1 1 0.0066023610040862064 1 1 1 1 1 1 1 1 1 0.01246282569584916 1 1 1 1 1 1 1 1 1 1 1 1 1 1 1 1 1 1 1 1 0.010145935319298884 1 1 1 1 1 1 1 1 1 1 1 0.010035427580183323 1 1 1 1 1 1 0.01022107191305948 1 1 1 0.010399499750820815 1 1 1 1 0.0080491127624222631 1 1 1 1 1 1 1 0.00922024663173341 1 1 1 1 1 1 1 1 1 1 1 1 1 1 1 1 1 1 0.008454444627013509 1 1 1 1 1 1 1 1 1 1 1 1 1 0.012400060459544539 1 1 1 1 1 1 1 1 0.0057044309422768884 1 0.01005220610019647 0.0084655463211808675 0.0069872584201838908 1 1 0.0041241635764231385 1 1 1 0.010411037231093019 1 1 1 1 1 1 1 1 1 1 0.013438311028699981 1 1 1 1 0.014161035325757347 1 1 1 0.022799598724714067 1 1 1 1 1 0.00032013297410093608 1 1 1 1 0.0093067737788777548 0.017330790835233471 0.0060957910497912576 0.015949500397329432 1 1 1 0.008273296647899114 1 1 1 0.0098055907016731114 1 0.008199990886124912 1 1 1 1 1 0.010035494969548964 1 0.010288004892098496 1 0.013308153591199537 0.0036082818246210013 1 0.0078038741670201292 1 1 1 1 1 0.011709160853639915 1 1 0.008405844183133053 1 1 1 1 1 1 1 1 1 1 1 0.01077968967082182 1 1 1 1 0.017570437213873372 0.012587167919446696 1 1 1 1 1 0.0096726023026388643 1 0.012343318767117431 1 1 1 1 1 1 1 1 1 1 1 0.010371575326884049 1 1 1 1 0.0081564720088769162 1 1 1 1 1 1 1 1 1 1 1 1 0.010887791797467537 1 1 1 1 1 1 1 1 0.0051872554472916655 1 1 1 1 0.0072864108813292527 1 1 1 1 1 0.010158067431853816 1 1 0.010539675664305248 1 1 1 1 1 1 1 1 0.0074224102742905512 1 1 1 1 1 1 1 1 1 1 1 1 1 1 0.012552268846297484 1 1 1 1 1 1 1 1 1 1 1 0.0020477729739883481 1 0.0088825302047097071 0.011615312886848722 1 1 1 1 0.010010087690634127 1 0.0087530496807677466 1 0.0077695566500541307 1 0.0042660932139508001 1 1 1 1 1 1 1 1 1 1 1 0.010757732154742357 1 1 1 1 0.0094310618820908979 1 1 1 1 1 1 1 1 1 1 1 1 1 1 1 1 1 1 1 1 1 1 1 1 1 1 1 1 1 0.0073891103117983206 1 1 1 1 1 1 1 1 1 1 1 1 1 0.014410722898788871 1 0.015762946938689897 1 1 1 1 1 1 1 1 1 1 1 1 1 1 1 1 1 1 1 0.015043712429433923 1 1 1 1 0.02087593959049245 1 0.012843610117218948 0.01376801873243727 1 1 1 1 1 1 1 1 1 1 1 1 1 1 1 1 0.0032660833652782481 1 0.010016927389866565 1 1 0.0028222090281905601 1 1 0.010532322782781316 1 1 1 0.010003005246002988 0.0070064800713253751 1 1 1 0.004889411017538238 1 1 0.005197742739717251 1 0.01141669525979315 1 0.010710761916224908 1 0.010058906355683302 1 1 0.0097736875368962545 1 1 1 0.0096198467234175303 0.0099923672903444363 1 1 1 1 1 1 1 1 1 1 1 1 0.0098661683108031591 1 1 1 1 1 1 1 1 1 1 1 1 1 0.0065345254276207056 1 0.01062884741662639 0.0098603463534057186 1 1 1 1 1 1 1 1 1 0.0046031653105050238 1 1 1 0.004234802694823965 1 1 1 1 1 1 1 1 1 1 1 1 1 1 1 1 1 1 1 1 1 1 1 1 1 0.010691574005249191 1 0.00055575929822508294 0.0096511800674478638 1 1 1 0.0010878600601956917 1 1 1 1 1 1 1 1 1 0.0063707824397043721 1 1 0.004988636185479095 1 1 1 1 1 1 1 1 1 1 1 0.0061394975522114405 1 1 0.0064952341518362449 1 1 1 1 0.010473827234292802 1 1 1 1 0.009956175579021502 1 0.0095596309474727387 1 1 1 1 1 1 1 1 0.0097372944815218992 1 1 1 1 1 1 0.0092365319105708818 1 0.0099044879063294559 1 1 1 0.011486264644420874 1 1 1 1 1 0.011011596360038938 1 1 1 1 0.010382889342319297 1 1 1 1 1 1 1 1 1 1 1 1 1 1 0.01131147114887765 1 1 1 1 1 1 1 1 1 1 1 1 1 1 1 1 1 1 0.0090323189033376973 1 1 1 1 1 0.0097508113575945216 1 1 1 1 1 1 1 1 1 1 1 0.0088453159707986909 1 1 1 1 1 0.0077717234829711226 1 1 1 1 1 1 0.0068056713933060276 1 1 1 0.005623609637790016 0.01354449918096127 1 1 1 1 1 1 1 0.0088134112738422823 0.01024242281702425 1 1 1 1 0.0070866074386034192 1 1 1 1 0.0087445478876318379 1 1 1 0.0090201554756150215 1 1 1 1 1 1 1 1 1 1 1 1 1 1 1 1 0.014552036355627851 0.0043342086869936729 1 1 1 1 0.0099662183699009005 1 1 1 1 0.013889372861753041 1 0.011103317551972101 1 1 1 1 1 1 1 1 1 1 1 1 1 1 1 1 1 1 1 1 1 1 1 1 1 1 1 1 1 1 1 1 1 1 1 1 1 1 1 1 1 1 1 1 1 1 1 1 0.01584517542329901 1 1 1 1 1 1 0.01274497476560553 1 1 1 1 1 1 1 1 1 0.01089028601290673 1 1 1 1 1 1 0.015605668472443678 1 1 1 1 1 1 1 1 1 1 1 1 1 1 0.0065165502337667883 1 1 1 1 1 1 1 1 1 1 1 1 1 1 1 1 1 1 1 1 1 1 1 1 1 1 1 1 1 1 1 0.0087929501501757684 1 1 1 1 1 1 1 1 1 1 1 1 1 1 1 1 0.0089325587756650011 1 1 1 1 1 1 0.0067485801541550539 1 1 1 1 1 1 1 1 1 0.0099353272896231734 1 1 1 1 1 1 1 1 1 1 1 1 1 1 1 1 1 1 1 1 0.0091481559552524256 1 1 0.0023566403707996342 1 0.0054628106399054344 1 1 1 -3.0421904925748144e-10 1 0.010802862269650527 1 1 0.0029230952535167706 1 1 1 1 1 1 1 1 1 1 1 1 1 1 1 1 1 0.013813546184831608 1 0.00013824514585569769 1 1 1 1 0.0083233514524931329 1 0.0010595460353081398 1 1 1 0.0090894538119036875 1 1 1 1 1 1 1 1 1 1 1 1 1 1 1 1 1 1 1 1 1 1 1 1 1 1 1 1 1 1 1 1 1 1 1 1 1 1 1 1 1 1 1 1 1 1 1 1 0.0025110713641004895 1 1 0.0061224905231997365 1 1 0.0098630781342888777 1 1 1 0.00036410946403373987 1 1 1 1 1 1 1.4365696271445572e-09 1 1 1 1 1 1 1 1 1 1 1 1 1 1 1 0.024461307226105712 1 0.010626321867300562 0.015487316617945619 1 1 0.0098443266156426883 1 0.011275162474804638 1 1 1 1 0.0097648126466386691 1 1 1 1 1 1 1 0.018168213611781843 1 1 0.0099075386001819463 1 0.020044333812934759 1 0.0048100724229897711 1 1 1 1 1 1 1 1 1 1 1 1 1 1 0.018402980479239651 0.010531794834543085 1 0.0096769949307167341 1 1 1 1 0.019532992959761578 1 1 1 1 1 1 1 1 1 1 1 1 1 1 0.009562882027505562 1 1 1 1 1 1 1 1 1 1 1 1 1 1 1 0.0099365262965172979 1 1 1 1 1 1 0.0097178253823990424 1 1 1 1 1 1 1 1 1 1 0.020704264893518634 0.0090852440967477723 1 1 1 1 1 1 1 1 1 1 1 1 1 0.0097459923909026525 1 1 1 1 1 1 1 1 1 1 1 1 1 1 1 1 1 1 0.0099009357457961328 1 1 1 1 1 1 0.0058929392958399635 1 1 1 0.010115856670816997 1 1 1 1 1 1 1 1 1 1 1 1 1 0.010165984913452058 1 1 0.0079570623634808175 1 0.0098104209868010404 1 1 1 1 1 1 1 1 1 1 1 1 1 1 1 1 0.010003332987643778 1 1 1 0.007388277428932593 1 1 1 1 1 1 0.0053275774317794213 1 1 1 1 1 1 1 1 1 1 1 0.0071590571346499734 1 1 1 1 0.010611497973062704 1 1 1 1 1 1 1 1 1 1 1 1 1 1 1 0.010185609231976244 1 1 1 0.0072240495777840721 0.010627801026442054 1 1 1 1 0.014572521313732672 1 1 1 1 0.0054972132113273037 1 1 0.0032568555102821615 1 1 1 0.010616588792646471 0.0040448027433444486 1 1 1 1 1 1 0.010080236347150074 1 1 1 1 0.01269171886942063 1 1 1 0.016359994996608736 1 1 1 1 1 1 1 1 1 1 1 1 1 1 1 1 1 1 1 1 1 1 1 1 1 1 1 1 1 1 1 1 1 0.018517714333626759 1 1 1 1 1 1 1 1 1 1 1 1 1 1 1 1 1 1 1 1 0.010772442209519522 1 1 0.0099973699705332899 1 1 1 1 1 1 1 1 1 1 1 1 1 1 1 1 0.010277926344465633 1 1 1 1 1 1 0.0041284233199121324 1 1 0.005542205647044109 1 1 1 1 1 1 1 0.010175366699137557 0.021406738639745695 1 0.019654230829479889 1 1 0.0051534720658362333 1 1 1 0.010002582940774557 1 1 1 1 1 1 1 0.017419982036726532 1 1 1 1 0.013477838795002329 1 0.01353321159510751 1 1 0.0045833645738001926 0.016587921877924117 1 0.0048297586725635742 0.020125297065600324 1 0.021567980411431174 1 1 1 0.0043500574407550592 1 0.017377138545368521 1 0.0086547271978416433 1 1 1 1 0.02047332525781554 0.0078064210505891475 1 1 0.0084331697602418668 0.010169731382225509 0.010925295480103412 1 1 1 1 1 1 0.011635911967098764 1 1 0.0052721553303183384 1 1 0.0098984109055516873 1 1 1 1 0.010343592409534282 1 1 1 1 1 0.018227546885563564 1 1 0.01461919311017414 0.0062847243703282769 1 1 0.012455846468619532 1 1 1 1 1 0.010355920743565266 1 1 1 0.010406988985590773 1 1 1 1 1 1 0.011845106086196884 1 1 0.0068843110931126675 1 1 0.011890485134563672 1 1 1 1 1 1 1 1 1 1 1 1 0.009963703700097892 1 1 1 1 1 1 1 1 1 1 1 1 1 1 1 1 1 0.0090607209848037381 1 1 1 1 1 1 1 1 1 1 1 1 1 1 1 1 1 1 1 1 1 0.014937596658535592 1 1 0.013991307961443678 1 1 1 1 1 1 1 1 1 1 1 0.0082256246311601718 1 1 1 1 1 1 1 1 1 1 1 0.014879188504816994 1 1 1 1 1 1 1 1 1 0.017548003494370461 1 1 0.0069206323776230937 0.015991751074891578 1 1 1 1 1 0.0060469479779610858 1 1 1 1 1 1 1 1 0.0098781481111220124 1 1 1 1 1 1 1 1 1 1 1 1 1 1 0.012336119343546444 1 1 1 1 1 1 1 0.010285621310400631 1 1 1 1 1 -4.3385406161763895e-09 1 1 0.024083718535735241 0.0023673631459836218 1 1 1 1 1 0.0072932947569844166 1 1 1 0.0085972080925010713 1 1 1 1 1 1 1 1 1 1 1 1 1 1 1 1 1 1 1 1 1 1 1 1 1 1 1 1 1 1 1 1 1 1 0.0093252880874194546 1 1 1 0.0097442703214122624 1 1 0.0076861981769462276 1 1 1 1 0.0090889900844451383 1 1 1 1 1 1 0.0095810177660072132 1 1 1 1 1 1 1 1 0.0098541241375824928 1 1 1 1 0.0099566813300803192 1 1 1 1 1 1 1 1 0.010575060536563131 0.0061115445778593177 1 1 1 1 1 1 1 1 1 1 0.008290130125020681 1 1 0.010690122519301959 1 1 1 1 1 1 1 1 1 1 1 1 1 1 1 1 1 1 1 1 1 1 1 1 1 1 1 1 1 1 1 1 1 1 1 1 1 1 1 1 1 1 1 1 1 1 1 1 1 1 1 1 1 1 1 1 1 1 1 1 1 1 1 1 1 1 1 1 1 1 1 1 1 1 1 0.0081446994045032139 1 1 1 1 1 1 1 0.010071108191305252 1 0.018536508358689259 0.010516197832805101 1 1 1 1 1 1 1 1 1 1 1 1 1 1 1 1 1 1 1 1 1 0.020624267429163432 1 1 1 0.010870321054866823 1 1 1 1 1 1 1 1 1 0.022320073659277934 1 1 1 1 1 1 1 1 1 1 1 1 1 1 1 1 1 1 1 1 1 1 1 1 1 1 1 1 1 1 1 1 1 1 1 1 1 0.013515954786415121 1 1 1 1 1 1 1 1 0.010775972509163576 1 1 1 1 1 1 1 1 1 1 1 1 1 1 1 1 1 1 1 0.0094236221035887691 1 1 1 1 1 0.010011573544181904 1 1 0.008660981363996385 1 0.0093177479987074097 1 1 1 1 1 1 1 1 1 1 1 0.012651427691475856 1 1 1 1 1 0.0095574497903027078 1 1 1 0.011120873830886691 0.016773522329886249 1 0.011834638474881386 1 1 0.014729787621787199 1 1 1 1 1 1 1 1 1 0.0099701823909691609 1 1 1 1 1 1 1 1 1 1 0.010841045944359921 1 1 0.024794787908674523 1 1 1 1 1 0.025940353366743125 1 1 1 1 1 1 1 1 1 1 1 1 1 0.007730914152764664 1 1 1 1 1 1 1 1 1 1 1 1 1 1 1 0.0057198142348836457 1 1 1 1 1 1 1 1 1 1 1 0.012330351248675864 1 1 1 1 1 1 1 1 1 0.0057602600200067841 1 1 1 1 1 1 1 1 0.0081851451896263385 1 1 1 1 1 1 1 1 1 1 1 1 1 0.01214861536380327 1 1 1 0.010757276998010396 1 1 1 1 1 1 1 1 1 1 1 1 0.005348120927071081 1 1 0.010648099745442001 1 1 1 1 1 1 1 0.0058342666937778176 0.0061733984953740682 1 0.0036894387607098508 0.0075158233249706455 1 1 1 1 1 1 1 1 0.0086295624857697737 1 1 0.0061035106793042937 1 1 1 0.0088317284234116829 0.013325727741735299 1 1 1 1 -4.8178046474153802e-09 1 -4.2632712715998111e-09 0.010868504468666811 1 1 1 1 1 1 1 1 1 1 1 1 1 1 1 1 1 1 0.016537933275399673 0.0076967733523437918 1 0.0046385306284173443 1 0.0065104663550375856 1 1 1 1 1 1 1 1 1 1 0.010714772014876653 0.0063711333041616205 1 1 1 0.0054069355959818974 0.01001377943635429 1 1 0.012953769874853797 0.010310100758468846 1 1 0.012137215327974755 1 0.015239715677131838 1 1 1 1 1 1 0.012514014113985956 1 1 1 1 0.0036829515830277947 1 1 1 0.0077667551562796214 1 1 1 1 1 1 1 1 1 1 1 1 1 1 1 1 1 1 1 1 1 0.0099819726678988321 1 1 0.010043123890363985 1 1 1 1 1 1 1 1 1 1 1 1 1 1 1 1 1 1 1 1 1 1 1 1 1 1 1 1 1 1 0.011802758040341355 0.0062385101979945835 1 0.011835389739243855 1 1 1 1 1 0.0087146622599980159 1 1 1 1 1 1 1 1 1 0.010939012882882999 1 1 1 1 0.01139562815565337 1 1 1 1 0.010520785563166851 1 1 1 1 0.010589634751568227 1 1 1 1 0.010319623093957156 1 1 1 1 1 1 0.011226426661431128 1 1 1 1 1 1 1 1 1 1 1 1 1 1 1 1 1 1 1 1 1 1 1 1 1 1 1 0.010270011657611055 1 1 1 1 1 1 1 1 1 1 1 1 1 1 1 1 1 1 1 1 1 1 0.010421460030056347 1 1 1 1 1 1 1 1 1 1 1 1 1 1 1 1 1 1 1 1 1 1 1 1 1 1 1 1 1 1 1 1 1 1 1 1 1 1 1 1 1 1 1 1 1 1 1 1 1 1 1 1 1 0.0061555834446803438 1 1 1 1 1 1 1 1 1 1 1 1 1 1 1 1 0.00933255282312501 1 1 1 1 1 1 1 0.012015275757231596 1 1 1 1 1 1 1 1 1 1 0.004724561617010908 1 1 1 0.0079872610299847446 1 1 1 1 0.011558712538319561 1 1 1 1 1 0.0099642646696916151 1 1 1 1 1 1 1 1 1 1 0.012848909378160148 1 1 0.0099903527109994009 1 1 1 1 1 1 1 1 1 1 1 1 1 1 1 1 1 1 1 1 1 1 1 1 1 1 1 1 1 1 1 1 1 1 1 1 1 1 1 1 1 1 1 1 1 1 1 1 1 1 1 1 1 1 1 1 0.0065780000939998154 1 1 1 1 1 1 1 1 1 1 1 1 1 1 1 1 1 1 1 1 1 1 1 1 1 1 1 1 1 1 1 0.005747620101493477 1 1 1 1 1 1 1 1 1 1 1 0.0047758033694706836 1 0.0099626230839544028 0.0099847433252638861 0.0099599358432528803 1 0.0097764570342228144 1 1 1 1 0.0058176452444397876 0.009472394228552547 1 1 1 1 1 1 0.0078186197706549207 1 0.010076305327022951 1 1 1 0.0072037386490054374 1 1 1 1 1 1 1 1 1 1 1 0.008871266867385489 1 1 1 0.0096537785219438337 1 1 1 1 1 0.0092037878487767431 1 1 1 1 1 0.0080729450118108212 1 1 1 1 1 1 1 1 1 0.010765241316389399 1 1 0.01277227632111212 1 1 1 1 1 1 0.0094686745855139288 1 1 1 1 1 1 0.010226156470364293 1 1 1 1 1 1 1 1 1 1 1 1 1 0.010372091789663179 1 1 1 1 1 1 1 1 1 1 1 1 1 1 1 1 1 1 1 1 1 1 1 1 1 1 1 1 1 1 1 0.013602322752679497 1 1 1 1 1 1 1 1 1 1 1 1 1 1 1 1 1 1 1 1 1 1 0.0048421293544149398 0.0053653734070836286 1 1 1 1 1 1 1 0.003848389617327171 1 0.012611344852499803 1 1 1 1 1 1 1 0.0099994492940950058 0.0043874213672576955 1 0.012980946358143904 1 1 0.010400201903865043 1 0.0072519935003623193 0.012836830717883843 1 1 0.0098051812732297024 1 1 1 1 1 0.0090662505095092591 1 1 0.004700026751731555 1 0.0091297237980499726 1 1 0.0054248266783669015 1 1 1 1 0.018358339190567723 1 1 1 0.01009165294189851 1 0.018261475405155457 1 1 1 1 0.016836868001153166 1 1 1 1 1 1 1 1 1 1 0.0090309086230414906 1 0.010470872992432503 1 1 1 0.010141688509982469 1 0.0078545504474917018 1 1 1 1 1 1 1 1 1 1 1 1 1 0.011490680638321815 1 0.014341787197330536 1 1 1 1 1 1 1 1 1 1 1 1 1 1 1 1 1 1 0.010005560491997183 1 1 1 0.0080407407137400005 1 1 0.012172843725793414 1 1 0.011516059489621526 1 1 1 1 1 1 1 1 1 1 1 1 1 0.01062236674192505 1 1 1 1 1 1 1 1 1 1 1 0.01106157716877834 1 1 1 1 1 1 0.014127742689118879 1 1 0.013688481986767892 1 1 1 1 1 1 1 1 1 1 1 1 1 1 1 1 1 1 -2.2784579570278574e-09 1 1 1 0.00091538090445364428 1 1 1 1 0.0024704911092624637 1 1 1 1 1 1 1 1 1 1 1 1 1 1 1 1 1 1 1 1 1 0.01107910660349946 1 1 1 1 0.013097277778034353 1 1 1 1 0.0088146555034092008 1 0.011966834876201822 1 -3.5905270787811583e-09 1 1 0.0092170088340136694 1 1 1 1 1 1 1 1 1 1 1 1 1 0.0085912178561130606 1 1 1 1 1 1 1 1 0.0061929846995794485 1 1 1 1 1 1 1 1 1 1 1 1 1 1 1 1 1 1 1 1 1 1 1 1 1 1 1 1 1 1 0.0044191041817683227 1 1 0.014252868633826996 1 1 1 1 0.0080472085247728295 0.013885708436875414 1 1 0.0060037151026498051 1 0.0075317660211611653 1 1 0.010526729564116155 1 1 0.0099243624589157864 1 1 1 1 1 1 1 1 0.010943007605404551 1 1 1 1 1 1 1 1 1 1 1 1 1 1 1 1 1 1 1 1 1 1 0.014956157711811944 1 1 1 0.0075246780721311309 1 0.014533236283377944 1 1 1 1 1 1 0.002745387902482372 1 1 1 1 0.0094384466042840755 1 1 1 0.0091690513287956896 1 1 1 1 1 1 1 1 1 1 1 1 1 1 0.0040336307760110088 1 1 1 1 1 1 0.0061097473257419564 1 0.008243230497993222 1 1 1 1 1 1 0.0099598051046274234 1 1 1 1 1 1 1 1 1 1 1 1 1 0.0082699271831452037 1 1 1 1 1 1 1 1 1 1 1 0.01088787296601631 1 1 1 1 1 0.011138254757592005 1 1 0.01081825332760976 1 1 1 1 0.010139713295940829 1 1 1 1 1 1 1 1 1 1 1 1 1 1 1 1 1 1 1 1 1 1 1 1 1 0.010491697012252825 1 1 0.0099972227378252662 0.015014698432757476 1 1 0.0095521794713168042 0.0048859095543463266 1 0.0036573792715508119 0.011899035722932648 0.0074168838091765808 1 1 1 0.0081296892416004209 0.0068029874759325207 1 1 1 0.011649796532593638 0.010397877197295487 1 1 1 1 0.0068592820241619099 0.0098565815879786446 0.0076086521941851476 1 0.015266739429413832 1 0.0062658075850368852 1 1 0.022643320632628451 1 1 1 1 0.013404873146572746 1 1 1 1 0.0099354724585686768 0.010418278709806016 1 1 1 1 1 1 1 1 1 1 1 1 1 1 1 1 1 1 1 0.0038077638266173081 1 1 1 0.013817474409213434 0.010147098954683416 0.013094846062167273 1 1 1 1 1 1 1 0.0056554016949883906 1 1 1 1 0.012525922772371412 0.010164434417481952 1 1 0.0074813528184372938 1 1 1 1 1 1 1 1 1 1 0.010049279190774401 1 0.012087156942509957 1 1 0.01112811540097389 1 0.012214535863409374 1 1 1 1 0.011729108357102362 1 1 1 0.012384476954966757 1 0.011315544241340365 1 1 0.010955340592999945 1 1 1 0.0073937006763190403 0.0099980581795225624 0.010009515160949681 1 0.0087654858264561829 1 0.0073815906524152524 1 0.01005767295550771 0.0066408233533044297 0.01166956135370726 1 1 1 1 1 1 1 0.010669821432525855 1 1 1 1 1 1 1 1 1 1 1 1 1 1 1 1 1 1 1 1 1 1 1 1 1 0.0094788362306088576 1 1 1 1 1 1 0.0086169010031996781 0.026796463489548186 1 1 0.004233588613297222 0.02519431144242535 1 1 1 1 1 1 1 1 1 0.023307911458970397 1 1 1 1 1 1 1 1 1 1 1 1 1 0.0061906278355828327 1 1 1 1 1 1 1 1 1 1 1 1 1 1 1 1 1 0.010643284215504367 1 0.024213512096538187 1 1 1 0.0085826520208024653 1 0.01222096599776438 1 0.00081567526605992591 0.014011875782856932 1 0.0029620466893905354 1 1 1 1 1 0.0093298994675711355 1 1 1 1 1 1 0.023695299089847278 1 1 1 1 1 1 0.018223483583477029 1 1 0.021433752841090337 1 1 1 1 1 1 1 1 1 1 1 1 1 1 1 1 1 0.01326389678749746 1 1 1 1 1 1 1 1 1 1 1 1 1 0.0099385780042761662 1 1 1 1 0.0097346757841678885 1 1 1 1 0.0098384636639392564 1 1 1 1 1 1 1 1 1 1 1 1 1 1 1 1 1 1 0.010043026609633403 1 1 1 1 1 1 1 1 1 1 1 1 1 1 1 1 1 1 1 1 0.0097858237089630332 1 1 1 1 1 1 1 1 1 1 1 1 1 1 0.0098551785478351861 1 1 1 1 1 1 1 1 1 1 1 1 1 1 1 1 1 1 0.010280360492350857 1 1 1 1 1 1 1 1 1 1 1 0.0095445523337952254 1 1 1 1 1 0.0094339819437991093 1 0.0095104349226662541 1 1 1 1 1 1 1 0.0098103565742924184 1 1 1 1 1 1 1 1 1 0.010347056448240577 1 0.01007850192421985 1 1 1 1 1 1 0.0099750285774604514 1 1 1 1 1 1 1 1 1 1 1 1 1 1 1 0.010524037295499097 1 1 1 1 1 1 1 1 1 1 1 1 0.0025232995799277444 1 1 1 1 1 1 1 1 1 1 1 -5.4098387922141278e-09 0.01054560289803614 1 1 1 0.00080958633954384546 1 0.024229519553362722 1 1 1 0.023738380114535974 1 1 1 1 0.012117071060133398 1 0.0099313177231374755 1 1 0.013815789085633761 1 1 1 1 0.0098693929690421185 1 1 1 1 1 1 0.010851079158684763 1 1 1 0.008848916675613161 1 0.011347984194983778 1 1 1 1 1 1 1 1 1 1 1 1 1 1 1 0.0079710310116629102 1 1 1 1 0.010861178609520392 1 1 1 1 1 1 1 1 1 0.014109560858813649 1 1 1 1 1 1 1 1 1 1 1 1 1 1 1 1 1 1 1 1 0.0042760160004599312 0.0016580851311424408 1 1 1 1 1 1 1 1 1 1 1 1 1 1 0.0066756512726280776 0.00049701823989988653 1 1 2.0402406662282935e-05 1 1 1 1 1 0.0089219163913159816 1 1 1 1 1 1 1 1 1 1 1 1 1 1 1 1 1 1 1 1 1 1 1 1 1 1 1 1 1 1 1 1 1 1 1 1 1 1 1 1 1 1 1 1 1 1 1 0.0099754306175057345 1 0.0094937902479954317 1 1 1 1 1 1 1 1 1 1 1 1 1 1 1 1 1 0.011154373918759029 1 1 1 1 1 1 1 1 1 1 1 1 0.010023684271583337 1 0.012076565335809678 1 0.012993109266316284 1 1 1 0.0090120875412186899 1 0.0079676357303321982 1 0.009963338590339257 1 1 1 1 1 1 1 1 1 1 1 1 1 1 1 1 1 0.01415231087184351 0.0052548544191333771 1 0.012100289736640645 1 1 1 1 1 0.0096442807369289188 1 1 0.019304402053983916 0.0054001417593151132 0.0035756038978844024 1 0.0098946165713356977 1 1 1 1 3.5474732179574531e-09 0.024081045956392898 1 1 1 1 1 0.0079717791531946774 1 0.0096317306325352705 1 1 1 1 1 1 1 1 1 1 1 0.009951189985155498 1 1 0.01097233165314293 1 1 1 1 1 1 0.010852183159588283 1 1 1 0.023177340128840915 1 1 1 1 1 0.026289229278509366 1 0.010898692291214521 1 1 1 1 0.011681117854314469 1 1 1 1 1 0.010463494909027156 0.010534226581922383 1 1 0.010240173397440187 1 1 1 1 1 1 1 1 1 0.010262732823022577 1 1 1 0.025406144306768498 1 1 0.02643923473221093 1 1 1 1 1 1 1 1 1 1 1 1 1 1 1 1 1 0.010002701302811445 1 0.023390533949204886 1 1 1 1 1 1 1 1 1 1 1 0.013690933511886445 1 1 0.010663720668507726 1 0.0094028348122549843 1 1 1 1 1 1 1 1 1 1 1 1 1 0.011333928015523338 1 1 1 1 1 1 1 1 1 1 1 1 1 1 0.0094039556331217619 1 0.013140213105981215 1 1 1 1 1 1 1 1 1 1 1 1 1 0.0049517322557090064 0.012812230892256601 1 1 1 1 0.013228667284164764 1 1 1 1 1 1 1 0.013506233409320414 1 1 0.010006862185313076 1 1 0.0098139907371650216 1 1 1 1 0.0028246570974685761 1 1 1 1 1 0.017012108240717611 1 1 0.016205970959085804 1 1 1 0.0033889385677128708 1 1 1 1 1 1 1 1 1 1 1 1 1 0.011385068256350946 1 1 1 0.011394323758951889 1 1 1 1 1 1 1 0.0094907173195525781 1 1 1 1 1 1 1 1 1 1 1 0.010418609192435271 1 1 1 1 1 1 1 1 1 1 1 1 1 1 1 1 1 0.0099713644678203969 1 1 1 1 0.0061406578787169819 1 1 1 0.011526443652481237 1 1 1 1 1 0.010559984588565576 1 1 1 0.0087307601139651608 1 1 1 1 1 1 1 1 0.003570817531718385 1 1 1 1 1 1 1 1 1 1 0.0057904816999958669 1 1 0.012425446849884805 1 1 0.019426059931841079 1 1 1 1 1 1 1 1 1 1 1 1 1 1 1 1 1 1 1 1 0.01782096230852109 1 1 0.012293698941055963 1 1 0.013278728284551313 1 1 1 1 1 1 1 1 1 1 1 1 1 1 1 0.0100348957143608 1 1 1 1 1 1 0.010180283080861899 1 1 1 1 1 1 0.0076185806022001992 1 1 0.010971558471563834 1 1 1 1 1 1 1 1 1 1 1 0.0099564713238151428 1 1 1 1 1 1 1 1 1 1 1 1 1 1 1 1 1 1 1 0.0099380752459046554 1 1 0.010308184343180284 1 1 1 1 1 1 1 1 0.0092035849999787603 1 1 1 1 1 1 1 1 1 1 1 1 1 1 1 1 1 1 1 1 1 1 1 1 1 1 1 1 1 1 1 1 1 1 1 1 1 1 1 1 1 0.0097280422784039762 1 0.012818586109971084 1 1 0.013001531512649154 1 1 1 1 0.013962359738444795 1 1 1 0.014215788510998062 1 1 1 1 1 1 1 1 0.0099280850753917533 0.023982653153757569 1 1 0.0045607313766989968 1 1 1 1 1 1 1 1 1 1 0.021223440572925634 1 0.010165612550508529 1 1 1 1 1 0.0094661841221262699 1 1 1 1 0.0098047056624814017 1 1 1 1 1 1 0.0025532645587860378 1 1 0.014841101744190883 1 1 0.0023124489111254129 1 1 0.010802941064250228 1 1 1 1 1 1 1 0.0098671967141427536 1 1 1 0.004097453201586063 1 1 1 1 1 0.0041737313331587887 1 1 1 0.010069097410100352 1 1 1 1 1 1 1 0.010720905935404222 1 1 1 1 1 1 0.0074145135922327465 1 1 1 1 1 1 1 1 1 1 1 1 0.017543248653414452 1 1 0.013418043295602391 1 1 1 1 1 1 1 1 1 1 1 1 1 1 1 0.010024149820282005 1 1 0.016217311023088939 1 1 1 1 0.016707891104043731 1 1 1 0.012982034162722991 1 1 1 1 1 1 1 1 1 1 1 0.01000207100305615 1 1 0.0074677299363154403 1 1 1 0.010616689514215266 1 1 1 0.0099591783706621528 1 1 1 1 1 0.0096506382765760203 1 1 1 0.0091113836717383219 1 1 1 1 1 1 1 1 1 1 1 1 1 1 1 1 1 1 1 1 1 1 1 0.0017607067488112915 1 0.010200034641775654 1 1 1 1 1 1 1 1 1 1 1 1 1 0.0037501580148169081 1 1 1 0.015910256698227633 1 1 1 0.016589376184211434 1 1 1 1 1 1 0.010198164633340757 1 1 1 1 1 0.016922115245223093 1 1 1 1 1 1 1 1 0.01546283726746784 1 0.011560640226378028 1 1 1 1 1 1 1 1 0.022303057843544243 1 1 0.01254206329644067 1 1 1 1 1 1 1 1 0.010012332394218816 1 1 0.011430674807837056 1 1 1 1 1 1 1 1 1 1 1 1 1 1 1 1 1 1 1 1 1 1 1 1 0.0095911290913801295 1 0.009392457868273231 1 1 1 0.010005491358590784 1 1 1 0.012274472867534178 1 0.012475830460332561 0.010617078847138275 1 1 1 1 1 1 1 1 1 1 1 0.0092935629284030541 1 1 1 1 1 1 1 0.0097266031368403935 1 1 1 1 0.009959092329310729 1 1 1 1 1 1 1 1 1 1 1 0.0099607438309722955 1 1 1 1 1 0.010000743641716454 1 1 1 1 1 1 0.012374344507652884 1 1 1 1 1 0.012191621140948888 1 1 1 1 0.010070081917337402 1 0.015087904384089443 1 0.013406741379411426 0.013572385700776329 1 0.0097684583920353563 1 1 0.0099295925084575756 1 1 1 1 1 1 1 0.010197853470180668 1 1 0.010989154913225435 1 1 1 1 1 1 0.0086668108295299851 1 1 1 1 0.0086371854829143131 1 1 0.010054584592223897 1 1 1 1 1 1 1 1 1 1 1 0.01272802956887341 1 0.0076045428056053781 1 1 1 1 1 1 1 0.0095089153550839845 1 1 1 1 1 1 1 1 1 1 1 1 1 1 1 1 1 0.010058358366362404 1 1 1 1 0.0072255218876320654 1 1 1 1 1 1 1 1 1 1 1 1 1 1 1 1 1 1 1 1 1 1 1 1 1 1 1 1 1 1 1 1 1 1 1 1 1 1 1 1 1 1 1 0.023332083032294323 1 1 1 1 1 1 1 1 1 1 1 1 1 1 0.013578509890565344 1 1 1 0.0050114417655762571 1 1 1 1 1 1 1 1 1 0.010000091913609245 1 1 0.011214400146904039 1 1 1 1 1 1 1 1 0.011702339144157066 1 1 1 1 1 1 0.015771261495462686 1 1 1 1 1 1 1 1 1 1 1 1 1 1 1 1 1 1 1 1 1 0.012653782665275613 1 1 0.0086485571181087236 1 1 1 1 1 1 1 1 0.010101823003748341 1 0.007942757012985309 1 0.0077507056423889911 0.0096361080726955935 1 1 1 1 1 1 1 1 1 1 1 1 1 1 1 1 1 1 1 1 1 1 1 1 1 1 1 1 1 1 1 1 1 1 0.010083321044615182 1 1 1 1 1 1 1 0.010596754584991 1 1 1 1 1 1 1 1 0.0095390362668439522 1 0.0077253508882428844 1 1 1 1 1 1 1 1 1 1 1 1 1 1 1 1 1 1 1 1 1 1 1 1 1 1 1 1 1 1 1 1 1 1 0.011018752575259151 1 1 1 1 1 0.012659460071409678 1 1 1 1 1 1 0.0097875642565381019 1 1 1 1 1 1 0.0099550348500303254 1 1 1 1 1 1 1 1 1 1 1 1 1 1 1 0.010006965673203503 1 1 0.0075069005456404672 1 1 1 1 0.010014740130681894 1 1 0.010007774457478384 1 1 1 1 1 1 1 1 1 1 1 1 1 1 1 1 1 1 1 1 1 1 1 1 1 1 1 1 1 0.010561447495703162 1 0.011503238571858291 1 1 1 1 1 1 1 1 1 1 1 1 1 1 1 1 1 1 1 1 1 1 1 1 1 1 1 1 1 1 1 1 1 0.012625964764554352 1 0.012176897562350819 1 1 1 1 1 1 1 0.0030918221659119883 1 1 0.0045472665177178542 1 1 1 1 1 1 0.0088730843926881908 1 1 1 1 1 1 1 1 1 1 1 1 1 1 1 1 1 1 1 1 1 1 1 1 1 1 1 1 1 0.0029743550442008597 1 1 1 1 1 1 1 0.0053375055804007771 1 1 1 1 0.0064780397488320048 1 0.001003178912073046 1 1 1 1 1 1 1 0.01000202130634479 1 1 0.0012686928210076977 1 1 1 1 1 1 1 1 1 1 1 1 0.010432361551690035 1 1 1 1 1 1 1 1 1 0.0021895220706729026 1 1 0.0012657381517559053 1 1 1 1 1 -6.3741337477316029e-09 1 1 1 0.0099012107713635118 1 1 1 1 1 1 1 1 1 1 1 0.0096700972975927117 1 1 1 1 1 1 5.4979642899986858e-09 1 1 1 1 1 0.0038327533479210183 1 1 1 1 1 1 0.0078777346192811324 1 1 1 1 0.0094989211537955427 1 1 1 1 0.0085583007443282982 1 1 0.010818598871256033 1 1 1 1 3.7890042679489776e-06 1 0.00038860458208265017 1 1 1 1 0.013347518004631961 1 1 0.0071008569052181218 0.0055992179114318121 1 -1.0655983135807179e-09 1 0.011332573852879824 0.012585794279299891 1 0.010187195861644013 1 1 0.0099778513098119359 1 1 0.015628890753362889 1 1 1 1 1 1 0.007918088943863217 1 1 1 1 1 1 0.0080442802952839249 1 1 1 0.0091687423771389387 1 1 1 1 0.011326766197621308 1 1 0.0094718233534097362 1 1 1 1 1 1 1 1 1 1 1 1 1 1 1 1 1 1 0.013757457345990412 1 0.015288409603800549 1 1 1 0.010507064889331126 1 1 1 1 1 1 1 1 1 1 1 1 1 1 1 0.0091449475671905277 0.015367695260868381 1 1 1 1 0.017467483620126078 1 1 1 1 1 1 0.0097612673848222441 0.0063286738290670806 1 1 1 0.010140663342665959 1 1 1 1 1 1 0.0096342337479067338 1 1 1 1 1 1 1 1 1 1 1 1 1 1 1 0.009042551025718229 1 1 1 1 0.0094198969970681074 0.0076647355679885214 1 0.015053345740479205 1 1 0.0086935849532478876 1 0.0093082348738795177 1 1 1 1 1 0.015659856242438031 1 1 1 1 1 1 1 1 1 0.0099964264823041143 1 1 0.0062404134841260034 1 1 0.014017614511044931 1 0.009993367968010201 1 0.0071823782074750923 1 1 1 1 1 1 1 1 1 1 1 1 1 1 1 1 1 1 1 1 1 1 1 1 1 1 1 1 1 1 1 1 1 1 1 1 1 0.0099330710260436966 0.014978891767947023 1 1 1 1 1 0.0095906167829315058 1 1 0.017941456322589318 1 1 1 0.0089398720739325491 0.012957029818172556 1 1 1 1 1 1 1 0.013436889129397098 0.012572769026443543 1 0.0098754732002358514 1 1 1 1 1 0.010671568045672281 1 1 1 0.012002613625459992 0.0098872178256230112 1 1 1 1 1 0.012678393179760165 0.010275730757473045 1 1 1 1 1 1 0.014544426422290495 1 1 1 1 1 1 1 1 1 1 0.014977068342608601 1 1 0.010034380377323533 1 1 1 1 1 1 1 1 1 1 1 1 1 1 1 1 1 1 1 1 1 1 1 1 0.011028463790618207 1 1 1 1 1 1 1 0.013060800536956076 0.010092001396097481 1 1 1 1 0.014109869563550472 1 0.012426294086635946 1 1 1 1 1 1 1 1 1 1 1 1 1 1 1 1 1 1 1 1 1 0.0096617293327994347 1 1 1 1 1 0.0099875282612448772 1 1 1 1 1 1 1 1 1 1 1 1 1 1 0.010572822108692016 1 1 1 1 1 1 1 1 1 1 1 1 1 1 1 0.0096751698031013814 1 1 1 0.010243105487942224 1 0.0037217376238722543 1 1 1 1 1 1 1 1 1 1 1 0.0079380074650033279 1 0.0096939183779955491 1 1 1 1 1 1 1 0.0096981543179212263 1 1 1 1 1 1 1 1 1 1 1 1 1 1 1 1 1 1 1 1 1 1 1 1 1 1 1 1 1 1 1 1 1 1 1 1 0.01092382364530578 1 1 0.013173214412291731 1 1 1 1 1 0.0095225347865100906 1 1 1 1 1 1 1 1 1 1 1 1 1 1 1 0.015863244529168853 1 0.017699484620767106 1 0.0088463487179050553 1 1 1 0.0091838721700316043 1 1 1 0.014722013719635352 1 0.0099942935010697443 1 1 1 1 1 1 1 1 1 1 0.0097760159007219474 1 1 1 0.0084560425243098581 1 1 0.0096831419553358757 1 1 1 1 0.0054971106906238892 1 1 1 1 1 1 1 1 1 1 0.011773275571461539 1 1 1 0.011263584606187907 0.015202625861657099 0.01315543937017178 1 1 1 1 1 1 0.011914050685362868 1 1 1 1 1 1 0.0034873974130135432 1 1 0.002816030337608467 1 1 1 1 1 1 0.0075273963083171448 0.0084160280122232926 1 1 1 1 1 1 1 1 1 1 0.016716843567979693 1 1 1 1 1 1 0.010205944012013565 1 1 1 1 1 0.012978823040827415 0.010550226515266136 0.01192972137722075 1 1 1 1 0.0099964937174544591 1 1 0.0081667215122820901 1 1 1 1 0.0080124370374276555 1 1 1 1 0.011485321475594489 1 0.0050980835710777708 1 0.013168095650912861 0.01015389934400519 1 1 1 1 1 1 1 1 1 1 1 1 1 1 1 1 1 1 1 1 1 1 1 1 1 1 0.011640393842108836 1 1 1 1 1 0.014187470285619595 0.003172081962809388 1 0.0093503610679587946 1 1 1 1 1 1 1 1 1 1 1 1 0.0091455983317402494 1 1 1 1 1 1 1 1 0.0086681331182503485 1 1 1 1 1 1 1 1 1 1 1 1 1 1 1 0.0078052357295067126 0.0039020028747059985 1 1 1 1 1 1 1 1 1 1 1 1 1 1 0.0061438128060783588 0.0081164062891802505 1 1 1 1 1 1 1 1 1 1 1 1 1 1 1 1 0.0012043061382403693 1 1 1 1 1 0.0088398524661731041 1 1 1 1 1 1 1 1 1 1 1 1 1 1 1 1 1 1 0.0087623100463316925 1 1 1 1 1 1 1 1 0.0090793066582174151 1 1 1 1 1 1 0.013858296235076943 1 1 1 1 1 1 1 1 1 1 1 1 1 1 1 1 1 1 1 1 1 1 1 1 1.9036103457437115e-09 1 1 1 1 1 1 1 1 1 1 1 1 1 0.014173135013970065 1 1 1 0.012130870797127574 1 0.0089258781040564145 1 1 1 1 0.010147430536650107 1 1 0.01803143124904702 1 1 1 1 1 1 1 1 1 1 1 1 1 1 1 1 1 1 1 1 0.01035101794712092 1 1 1 1 1 1 1 1 1 1 1 1 1 1 1 1 1 1 0.011019289421403823 1 1 1 1 1 1 1 1 0.010126114208214833 0.011828386146571826 1 1 1 1 1 1 1 1 1 1 1 1 1 1 1 1 1 1 1 1 1 1 1 0.0080203747057269199 1 1 1 1 1 1 1 0.011143823593330016 1 1 1 1 1 1 1 1 1 1 1 1 1 1 0.01025647653993958 1 1 1 1 1 1 1 1 1 1 1 1 1 1 0.0095464817772613585 1 1 1 1 1 1 1 1 1 1 0.0087439875945865882 0.0083253944290820579 0.011223636852125187 1 1 1 1 1 1 1 1 1 1 1 1 1 1 0.0098923914387153162 1 1 1 1 1 1 1 1 1 1 1 1 1 1 1 1 1 1 1 1 1 1 1 1 1 1 0.010767680895701291 1 1 1 1 1 0.010078131388437779 1 1 1 1 0.010063897176141472 1 1 0.010142930208431648 1 1 1 1 1 1 1 1 1 1 1 1 1 1 1 1 1 1 1 1 1 1 1 1 1 1 1 1 1 0.008846917191836591 1 0.0067574160401145458 1 1 1 1 1 1 1 1 1 1 1 1 0.0098521481892524902 1 1 1 1 1 1 1 1 1 0.0050878670131714251 1 1 1 1 1 1 1 1 1 1 1 1 1 1 1 1 1 1 1 1 1 1 1 1 1 1 1 1 0.0076478409155019411 1 1 0.0061496964183150662 1 1 1 1 1 1 0.009201531371864323 1 1 1 1 0.0036702539624798858 1 1 0.009494033037493653 1 1 0.012306027254178838 1 1 1 1 1 1 1 0.0098554907533841378 1 1 0.019238395626275502 0.017778579750344393 1 1 1 1 0.013569210168122646 1 1 1 0.013560554542181389 1 1 1 1 1 1 0.013832320860574007 1 1 1 1 1 1 1 1 1 0.009955900953090362 1 1 1 0.016293542252746828 1 0.0039187868331121006 1 1 1 1 1 1 1 1 1 1 1 1 0.0099157627058965355 1 0.014798447266361106 1 1 1 0.0061358353015296702 1 1 0.010087475905634892 0.012899660661278423 1 1 0.0062754161741763893 0.006357995405932247 1 1 1 0.0084175194783914341 0.0078339680250000491 1 0.014975271267689862 1 0.005821043316609752 1 1 0.0065691610083912326 0.0035377152187850598 1 1 1 1 1 1 1 1 1 1 1 1 1 1 1 1 1 1 1 1 0.0036687624763638745 0.010098995815350981 1 0.0099695975520804857 1 1 1 1 1 1 1 1 1 1 1 1 1 1 1 1 1 1.7049416080328061e-09 1 1 0.0095282962625796164 1 1 1 1 1 1 1 1 0.0048591768692345105 1 1 1 1 1 1 1 1 1 1 1 1 1 1 1 1 1 1 0.0090370996309628287 1 1 1 0.012265411997488335 1 1 1 1 1 1 0.0094260394958659219 0.012082553850717791 1 1 0.0076396166639294671 1 1 1 1 1 1 1 1 1 1 1 1 1 1 0.0043789901463942797 1 1 1 1 1 1 1 1 1 1 1 1 1 1 1 1 1 1 1 0.0073805242839017869 1 1 1 1 1 1 1 1 0.0083401264278630764 1 1 1 1 1 1 1 1 1 1 1 1 1 1 1 1 1 1 1 1 1 1 0.014369255297672395 1 1 1 1 0.011150788149081027 1 1 0.0040630470396033746 1 1 1 1 1 0.0056970240377281316 1 1 0.0061404106885587836 1 1 0.0068983629101859213 1 1 1 1 1 1 1 1 0.0082587033523031234 1 1 1 1 1 0.0047768421531622206 1 1 1 1 1 6.6012483760508056e-10 1 1 0.023281609791509443 1 1 0.020923624378049028 1 1 1 1 1 1 1 1 1 1 1 0.008075721245887707 0.0055360582983102827 1 1 0.006430519608526801 1 0.0047131091565859509 1 1 1 1 1 1 1 0.0033767613931630705 1 1 0.0086158720754055396 1 1 1 1 1 1 1 1 1 1 1 1 1 1 1 1 1 1 1 1 1 1 1 1 1 1 1 1 1 1 1 1 1 1 1 1 1 1 1 1 1 1 1 1 1 1 1 1 1 0.0077214107651890438 1 1 1 1 0.015656756289232049 0.0098111631147238393 1 1 1 0.01871299670611222 1 1 1 0.0032251075796085483 0.0052437597901406549 1 1 1 1 1 1 1 1 1 1 1 1 1 1 0.01291674372038696 1 1 1 1 0.010026697156904862 1 0.0071164131521109023 1 1 1 1 1 0.0091122437001042687 1 1 1 1 0.008977616811193561 1 1 1 0.010817746727231084 1 1 0.0099708233324100615 1 0.0099703607602645017 1 0.012633769153649603 1 1 1 1 1 1 1 1 1 1 1 1 1 1 1 1 1 1 1 1 1 0.0057478977528578577 0.01295020294588977 1 0.0027716619616817983 1 1 1 0.0051180089283599673 1 1 1 1 1 0.0018856778029371114 1 1 1 6.9177426287314603e-10 1 1 1 1 1 1 1 1 1 1 1 1 1 1 1 0.0093052214584197629 1 1 0.0084182217980917282 1 1 1 1 1 1 1 1 1 1.1686099570668018e-09 1 1 1 1 0.0082146894637294843 1 1 1 1 1 1 1 1 1 1 1 2.6213185441714693e-09 1 1 1 1 1 1 1 1 1 1 1 1 1 1 1 0.008177217730181232 1 1 1 1 1 1 1 1 1 1 1 0.0093877616780314501 1 1 1 1 1 1 1 1 1 1 1 1 1 1 1 1 1 1 1 1 1 1 0.011446783868107324 1 1 1 0.010891666110994305 1 1 1 0.0074390114547372224 1 1 1 0.0086023400515358277 1 1 1 1 1 1 1 1 1 1 4.5133098959537765e-09 1 0.00044442544137594103 1 1 1 0.013947566712478279 1 1 1 1 1 1 0.0088366714032013932 1 1 1 1 1 1 1 1 1 1 1 1 1 1 1 1 1 1 1 1 1 1 1 1 0.0071342110044507346 1 1 1 1 1 1 1 1 1 1 1 1 1 1 1 0.010124139753864281 1 1 1 1 1 1 1 1 1 1 1 1 1 1 1 1 1 1 1 1 1 1 1 1 1 1 1 1 1 1 1 1 0.0095850380258179282 1 1 0.010592860557041395 1 1 0.0077392115491544816 1 1 1 1 1 1 1 0.010140155782930954 1 1 1 1 1 1 1 0.010441173592122106 1 1 1 1 1 1 1 1 1 1 1 1 1 1 1 0.010800121299596406 1 1 0.010358947707474302 1 1 1 1 1 1 1 1 1 1 1 1 1 1 1 1 1 1 1 1 1 1 1 1 1 1 1 1 1 1 1 1 1 1 0.0084335093734373145 1 1 0.0092074993934832122 1 1 1 1 1 1 1 1 1 1 1 1 1 1 1 1 1 1 1 1 1 1 1 1 1 1 1 1 1 1 1 1 1 1 1 1 1 1 1 1 1 1 1 0.010313048788264488 1 0.014152460912847588 0.010122283949353359 1 1 0.011443337034878973 1 1 1 1 1 1 1 1 0.008153220702026457 1 1 1 1 1 1 1 1 1 1 1 1 1 1 1 1 1 1 1 1 1 1 1 1 1 1 1 1 1 1 1 1 1 1 1 1 1 1 1 1 0.0087482060889423861 1 1 1 0.0095215039684640283 1 1 1 0.011151455393654006 1 1 1 1 1 1 1 1 0.0047073506276941682 1 0.012191047344378009 1 1 1 1 1 1 1 1 1 1 0.0075833157658364465 0.011038860907617111 1 1 1 1 1 1 1 1 1 0.0091433728749479824 1 1 1 0.0088205270028112476 1 1 1 0.0052752605847121194 1 1 1 1 0.0086099652307028082 1 1 1 0.0064224404052569285 0.0089759049869291146 0.01519445190194884 1 1 0.008461437598636528 1 1 0.018040451689433482 1 1 0.015785931258027179 1 1 1 1 0.0090060719508128668 1 1 1 0.0052036874155723216 1 1 1 0.0029935301019584862 1 1 1 1 1 1 1 1 1 1 1 1 1 1 0.0094741667726511158 1 1 0.011206186577729343 1 1 1 1 1 1 1 1 1 1 0.0081671086872727588 0.012898308843006755 1 1 1 1 0.0094806772307039246 1 1 1 1 1 1 1 1 1 1 1 1 1 1 1 1 1 1 1 1 1 1 1 1 1 1 1 1 1 1 1 1 1 1 0.018334069964189924 1 0.0099878638740157292 1 1 1 0.018274172947269778 1 1 0.010474692780570574 1 1 1 1 0.015367769458916207 1 1 0.011733598386157359 1 1 1 0.011228410586477111 1 0.0066846153016665195 1 1 1 1 1 1 1 1 1 1 0.012473786256126709 1 1 1 1 1 1 1 1 1 1 1 1 0.0012518163357683066 1 1 1 1 1 1 1 1 1 1 0.0060100756976184328 1 1 1 0.0061127541909167995 1 1 1 1 1 1 1 1 1 1 1 1 1 1 1 1 1 1 1 1 1 1 1 1 1 1 1 1 1 1 1 1 1 1 1 1 1 1 1 1 1 1 1 1 1 1 1 1 1 1 1 1 1 1 1 1 1 1 1 1 1 1 1 1 1 1 0.0087924256325642228 1 1 1 1 1 1 1 1 1 1 1 0.0055038766019644692 0.0097655914491231385 1 1 1 0.0059441371235398974 1 1 1 1 1 0.010120954598911137 1 1 1 0.0048804177465913891 1 1 1 1 0.011804520029953549 1 0.0096808111597055085 1 1 1 1 1 1 1 1 1 0.0097367585425822446 1 1 1 1 1 1 1 1 1 0.0098915101593682418 1 1 1 1 1 1 0.018136425345395057 1 1 1 1 1 1 1 1 1 1 1 0.0082771829088567322 1 1 1 0.0081517590189023811 1 1 1 1 1 1 1 1 1 1 1 1 1 1 1 1 1 1 1 1 1 1 1 1 1 0.015763810992590943 1 1 1 0.019937430862152355 1 1 1 1 1 0.0042235527296351529 1 1 1 0.0080303232309313754 1 1 1 1 0.011000874816643913 1 1 1 1 1 1 0.012417109258746339 1 1 1 1 1 1 5.4053837968137675e-10 0.010148261100811934 1 1 1 1 1 1 1 1 1 1 1 1 1 1 4.7003897371555858e-09 1 1 1 0.010236885979727361 1 0.002815578071616899 1 0.010091203868753021 1 1 1 1 1 1 1 1 1 1 1 1 0.017665864666936537 1 1 1 1 0.0055454244710054102 1 0.010016639275553166 1 1 1 1 1 1 1 0.010375953998915558 1 1 1 1 1 1 1 0.017631083811702305 1 1 -2.522569902095595e-09 0.010131094232657435 1 1 1 1 0.0096634831704942165 1 1 1 1 1 1 1 0.0070679869768097365 1 1 1 1 1 1 1 1 1 1 1 1 1 0.008906423645884667 1 1 1 1 1 1 1 1 1 0.0096333857571970216 1 0.016595591998092778 1 1 1 1 1 0.011966587930354329 1 1 1 1 1 1 1 1 1 1 1 1 1 1 1 1 1 1 1 1 1 1 1 1 1 1 1 1 1 1 1 1 1 1 1 1 1 1 1 1 1 1 1 1 1 1 1 1 1 1 1 0.0067769055347929458 1 1 1 1 1 0.0066810545362104377 1 0.0094888436614635335 1 1 1 1 1 1 1 0.0077849258385684766 1 0.0066778611509302199 1 1 1 1 1 1 1 1 1 1 1 1 0.0073556291987194738 1 0.0050284773488607909 1 1 1 1 1 1 1 1 1 1 1 1 1 1 1 1 1 1 1 0.0099089835636412896 1 1 1 1 0.0099671244580169932 1 0.0043398937095562168 1 1 1 0.0087208011932521298 1 1 1 1 1 1 1 1 1 1 1 1 1 1 1 1 1 1 1 0.0096112235478633679 1 1 1 1 1 1 1 1 0.0069273960896252158 1 1 1 0.0083541345797440367 1 1 1 1 1 1 1 1 1 1 1 1 0.0093260487443236739 1 1 1 1 1 0.0076393331998048063 1 1 1 1 1 1 1 1 1 0.0078993102542048339 1 0.0091379720457746578 1 1 1 1 1 1 1 1 1 1 0.010418435147353376 1 1 1 1 1 1 1 1 1 1 1 1 1 1 0.011399884778932452 1 1 1 1 1 1 1 0.012574673982225414 1 1 1 1 1 1 1 1 1 1 1 1 1 1 1 1 1 1 1 1 1 1 1 1 1 1 1 1 1 1 0.01024463361765586 1 0.009926875089954372 1 1 1 1 1 1 1 1 1 1 1 1 0.0093388875471558074 1 1 1 1 1 1 0.0083978702928565359 0.010502142026446483 1 1 1 1 1 1 1 1 1 1 1 1 0.010050637834587159 1 1 1 1 1 1 1 1 1 1 1 1 1 1 1 1 1 1 1 1 1 1 1 1 1 1 1 1 1 1 1 1 1 1 1 1 1 1 1 1 1 1 1 1 1 1 1 1 1 1 1 1 1 1 1 1 1 0.010460062063845119 1 1 1 1 1 0.0096031789425532268 1 1 0.0099157868524851131 1 1 1 1 0.010635354850493758 1 1 1 1 1 0.0097648544328784656 1 1 0.010046155902815504 1 1 1 1 1 0.011989789073999686 1 0.0091542735154103647 1 1 1 1 1 1 1 1 1 1 1 1 1 1 1 1 1 1 1 1 1 1 1 1 1 0.010069686550911054 1 1 1 0.010369493216186611 0.012865378591803686 1 1 1 1 1 1 0.014157645495746447 1 1 1 1 1 1 1 1 1 1 1 1 1 1 1 0.013906154707710942 1 1 1 1 1 1 0.010593220249295855 1 1 0.011007126410325488 1 1 1 1 1 1 1 0.010179311908920324 1 1 1 1 0.014798274839811443 1 1 1 1 1 1 1 0.009930774237063747 1 0.0099676658144451924 1 1 1 1 1 1 1 0.011002079401971688 1 1 1 0.012068143162700936 1 1 1 1 1 1 1 1 1 1 1 1 1 1 1 0.0093134528087987431 1 4.6383292207075044e-09 1 1 1 -4.7819708510902018e-09 1 1 1 0.010157330263506197 1 1 0.0097399347043687079 1 1 1 1 1 1 0.0086053038518853452 1 1 1 1 1 1 1 1 1 1 1 1 1 1 1 0.0050452408286033312 1 1 1 1 1 1 0.0053664624042044848 1 1 1 1 1 0.011440276037054858 1 1 1 1 1 1 1 1 0.014189179703094523 1 1 1 1 0.016977781836247936 1 1 1 0.010803214568080951 1 1 0.008592759310257287 1 1 0.0094433301186283066 1 1 0.003554401746584647 1 0.010042116910222108 1 0.0024585867235205096 1 1 1 1 1 0.010482644784062082 1 1 1 1 1 1 1 1 1 0.0051078766419655405 1 1 1 1 1 1 0.0057707254601793954 1 1 1 1 0.010016417195539036 1 0.012230098089526156 1 1 0.0095386587865202849 1 1 1 1 0.005514484518336922 0.0093145498051877343 1 1 1 0.006368182100372783 1 0.010366982586268825 1 1 0.0078365261055006914 1 0.010022435234530957 0.010515808426048578 1 1 1 1 1 1 1 1 1 0.010288089029143636 1 1 1 0.0079768057910495193 1 1 1 1 1 1 0.01253958618976358 0.0092136154164023463 1 1 0.012488972016126599 0.0099825336475410243 0.010074549015419106 0.015814277146376503 1 1 1 0.0091340150287860418 1 1 1 1 1 0.013306402352511364 1 1 1 1 1 1 1 1 1 1 1 1 1 1 1 1 1 1 1 1 1 1 2.8083810859697023e-05 1 1 5.3498737558055343e-10 1 1 1 1 1 1 1 1 1 1 1 1 1 1 1 1 1 1 1 1 1 0.0031437175617202717 1 1 1 1 1 1 1 1 1 1 1 1 0.0060903514725662716 1 1 0.0066150190895419084 1 1 1 1 1 1 1 1 1 1 1 1 1 1 1 1 1 1 1 1 0.010449051900634214 1 1 1 1 1 1 1 0.010544329616019366 1 0.010925014199076261 1 0.0081390995553325598 1 1 -4.966416167206944e-11 1 1 1 0.0097415401088328732 0.00039907326511211608 1 1 1 1 1 1 1 1 1 1 1 1 1 1 1 1 1 0.011420483451421779 1 1 1 1 1 1 1 1 1 1 1 1 1 1 1 1 1 1 1 1 0.0121303433160132 1 1 0.012460123707077846 1 1 1 1 0.01133983561660558 1 1 1 1 1 1 1 1 0.011132994959145595 1 1 1 1 1 0.0043559891405168111 1 1 1 1 1 1 1 0.015859242427322427 1 1 1 0.0040152934225788431 1 0.013988574120777952 0.0026535257012950189 1 1 1 1 1 1 1 1 1 0.010836307083740017 1 1 1 1 0.012677793349525318 1 1 1 0.009877931730532169 1 1 1 1 0.017174973413343415 1 1 1 0.013153623018499812 1 0.0054916106565074604 1 1 0.010002759386472718 1 0.0109387169575045 1 1 1 0.011790482206344786 1 1 1 1 1 0.0098519607015388061 1 1 1 1 1 1 1 1 1 0.0099448068477646992 1 1 1 1 0.012681418709280416 1 1 0.0092721171592124174 1 1 1 0.0099940864879502281 1 1 1 1 0.0076884277218735794 1 0.0098634580086908591 0.013784006144225577 1 1 1 1 1 1 1 1 1 1 1 1 1 1 1 0.0099053009817216178 1 0.0041265992816269387 1 1 1 1 1 1 1 1 0.01549059765847547 1 1 1 1 1 1 0.0032766611216512101 1 0.0037269508241769347 1 1 1 1 1 0.015527757039763383 1 1 1 1 1 1 0.0096874445546897697 1 0.0099698575244172652 0.0096168560891077282 1 1 1 1 1 1 1 1 1 1 1 1 1 1 1 1 1 1 1 1 1 1 0.010069910085625827 1 1 1 1 1 1 1 1 1 1 1 1 1 1 1 1 1 0.010117534121181104 1 1 0.01027699717049331 1 1 1 1 1 1 1 1 1 1 0.010111699473969206 1 1 1 0.010044137942451743 1 1 1 1 1 1 1 0.009903961876954373 1 1 1 1 1 1 0.0097887624069497234 1 1 1 1 1 1 1 1 1 1 1 0.009884694690110267 1 1 1 1 1 1 1 1 1 1 1 1 1 1 1 1 0.01311970894517438 1 1 1 1 1 1 1 1 1 0.014491030815364904 1 1 1 0.010183276551570891 1 1 1 1 1 1 1 1 1 1 1 1 1 1 1 1 1 1 1 1 1 1 1 1 1 0.010648784242738935 1 1 1 1 1 0.010019531439579572 0.0058070791248682543 1 1 1 1 0.010022137137222824 1 1 1 1 1 1 1 1 0.010166913586295736 1 1 1 1 0.015426997308972748 1 1 1 0.014591556043591459 1 1 1 1 1 0.015830343352740951 1 0.010456412313257689 1 1 1 1 1 1 1 0.010133730724457311 1 1 0.010363516783104217 1 1 0.014165487144582418 1 1 1 0.011561252161058104 1 1 1 1 1 0.010229730938048558 1 1 1 1 1 1 1 1 0.010206027192779792 0.010355455957132963 1 1 1 1 1 1 1 1 1 0.010024337747201267 1 1 1 1 0.010663431600130363 1 1 1 1 1 1 1 1 1 1 1 1 0.01190011869615506 1 1 1 1 1 1 1 1 1 1 1 1 1 1 1 1 1 1 1 1 1 1 1 1 1 1 1 0.0098748702725505455 1 1 1 0.010372037811427792 0.019868206302855879 1 1 1 1 1 1 0.010097975071618102 1 1 1 0.018042442586421022 0.016196886816472536 1 1 1 1 1 1 1 1 1 1 1 1 1 1 0.018864297654866441 0.013381490458699824 1 1 1 1 1 0.023288613760745494 1 1 1 1 1 1 0.0099794317217380413 1 1 1 1 0.017382393379991281 0.009223852689700246 1 1 0.010885071870926279 1 1 1 1 1 1 1 1 0.0099242198592164425 1 1 1 1 1 1 1 1 1 1 1 1 1 1 1 0.011992857492231371 1 1 1 1 1 1 1 1 0.010651845411790862 1 1 1 1 1 1 1 1 0.0066105650596755237 1 0.01007630317001715 1 1 1 0.0037458981480314735 1 1 0.018585024415289281 1 1 0.010958444600617323 1 1 1 1 1 1 1 0.0052740580968436493 1 1 0.015672227959610076 1 0.0099055986643339731 1 1 0.014517996950140449 1 1 1 1 1 1 0.023486289230885787 1 0.0087282022999390987 1 0.018457849597182524 1 1 1 1 0.0060608490919402055 1 1 1 1 1 1 1 1 1 1 1 1 1 1 1 1 0.0095326799393837883 1 1 1 1 1 1 1 1 1 0.010224140590718354 1 1 1 1 1 1 1 1 1 1 1 1 0.0077692467838077969 1 1 1 1 1 1 1 1 0.0086541240738838773 1 1 1 1 0.0088251401805714905 1 1 0.011096471337304206 1 1 1 0.0087292325278346614 1 0.0081281609433353427 1 1 0.0077914559371091638 1 0.011786796104002229 1 1 1 1 1 1 0.0091523736633129307 1 1 1 1 1 1 1 1 1 1 1 1 1 1 1 1 1 0.0087779100405472529 1 1 1 1 1 1 1 1 1 1 1 1 1 1 1 1 1 1 1 1 1 1 1 1 1 1 0.0098378426840150888 1 1 1 1 0.011846089982457069 1 1 0.0093587311104903342 1 1 1 0.0026559254254635636 1 1 1 1 1 0.0021571829223927738 1 1 1 1 1 1 1 0.0083028377137266407 0.010183827606297657 1 1 1 1 1 1 1 1 1 1 1 1 1 1 1 1 1 0.010079340542995176 0.0032710498727106588 0.017873587934007562 1 1 1 1 1 0.0006691066595828736 1 0.0042146927547115527 0.015301558048222556 1 1 1 1 1 1 1 1 0.012033192975660086 1 1 1 1 1 1 1 1 1 1 1 1 1 1 1 0.0088571912366570468 1 0.009076182280737824 1 1 1 1 1 1 1 1 1 0.0063780479082799352 1 1 1 1 0.0087104346070058444 1 1 0.0067705001119692867 1 1 1 1 1 1 1 1 1 1 1 1 1 1 1 1 1 1 1 1 1 1 1 1 1 1 1 1 1 1 1 1 1 1 1 1 1 1 1 1 1 1 0.020202411450916946 1 1 1 1 0.0081860438583768388 1 1 0.010706900329417726 1 0.01139232295877776 1 0.015406254832201764 1 1 0.0036404645995923961 1 0.0071733654683714728 1 0.0067059870776698272 0.015532714118981966 1 1 1 0.0071017249860298257 1 1 0.0054264126510684407 0.0062732302880924868 1 0.0071243925944153488 1 0.013201665564894053 1 1 1 1 1 0.009979132342492111 1 1 1 1 1 1 1 1 1 1 1 1 1 1 1 1 1 1 1 1 1 1 0.0063430203734383961 1 1 1 0.0086564420556787466 1 1 0.014228438391236681 1 1 1 1 1 1 1 1 1 1 1 0.0045369526849074887 1 1 1 1 1 1 -2.1377016996837472e-09 1 0.0099506143169769013 1 1 0.011415622603660178 1 1 0.01113443897918758 1 1 1 1 1 1 1 1 1 1 1 1 1 1 1 1 1 1 1 1 1 1 1 1 0.010710558590211555 1 1 1 1 1 1 1 1 1 1 1 1 1 1 1 1 1 1 1 1 1 1 1 1 1 1 1 1 1 1 1 1 1 1 1 1 1 1 0.024982205079019021 1 1 1 1 1 1 1 0.026442528632700777 1 1 1 1 1 0.027794748944625206 1 1 1 1 0.020480784425169443 1 0.0177947979643472 1 1 1 1 1 0.019573323141666078 1 1 0.0098227725152836495 1 1 0.0081459750690237587 1 1 0.006401205347685443 1 0.0079009505126634849 1 1 1 0.0088055818207382688 1 0.0093187427064260475 1 0.0069372178537865908 1 0.01006757542950526 1 0.008635370190375441 0.010092831816988508 0.0097946814631737558 1 1 1 1 1 1 0.010356659702239208 1 1 1 1 0.0105622092874516 1 1 1 1 1 1 1 1 1 1 1 0.010893180704806001 0.010524508003303033 1 1 1 0.010572254107038916 1 1 0.01110251555721966 1 0.011843419944408348 0.010058213727559481 0.0087947282628590903 1 1 1 1 1 1 1 1 1 1 1 1 1 1 0.0095885014658089046 1 1 1 1 1 1 1 1 1 1 1 1 1 0.010435651215993241 1 1 1 1 1 1 1 1 0.010648728531963511 1 1 1 1 1 1 1 1 1 1 1 1 1 1 0.010812255895567419 1 1 1 0.010219639679122303 1 1 1 1 1 1 1 1 1 1 1 1 1 1 1 1 1 1 1 1 1 1 1 0.011858668970913967 1 1 0.0060205203930544689 1 1 1 0.0057083368630311063 1 1 1 1 1 1 0.0096510228393099536 1 1 1 1 0.010053730002642262 1 0.0096248405944897742 0.010555449630937954 1 1 1 1 0.012873374858778501 0.01000843359255235 1 1 1 1 1 0.0091708257479030629 1 1 1 1 1 0.0097213924410406577 0.017801435852287363 1 1 1 1 1 1 1 1 1 1 1 1 1 1 0.010088687525170163 1 1 1 1 1 1 0.0097373384522822584 1 1 1 0.0083829109210362025 1 1 1 1 1 1 0.0097807312963022822 1 1 1 1 1 1 1 1 1 1 0.0081509700130197732 1 1 1 1 1 1 1 1 1 1 1 1 1 1 1 1 1 1 1 1 1 1 1 1 1 1 1 1 1 1 1 1 1 1 1 1 1 1 1 1 1 1 1 1 1 0.0093086108838214172 1 1 1 1 1 1 1 1 1 1 0.0094981334584698877 1 1 1 1 1 1 1 1 1 1 1 1 1 1 0.0072098245798704157 1 1 1 1 1 1 1 1 1 1 0.011875470835566049 1 1 1 1 0.015339227304936292 1 1 1 0.0051856166958575423 1 1 1 0.0085731487709828566 1 1 1 1 1 0.010901868096879602 1 1 1 1 1 1 0.010079797145410673 1 1 1 1 1 1 1 0.015029202838435443 1 0.0035260733819514334 1 1 0.0099718435503681011 0.016651576858391859 1 1 1 1 1 0.019530878514060823 1 1 1 1 0.020181174257143282 1 1 1 1 0.015795626522059882 1 1 1 0.011122337871472526 1 1 1 0.015382899198649689 1 1 1 0.022041552780326903 1 1 0.022766521504910722 1 1 1 1 1 1 0.010132080369190194 1 1 0.016336570139537775 1 1 1 0.0076808664960398738 1 1 1 1 1 0.010095778337912784 1 0.01302599139210683 1 -4.6609237953562643e-10 1 0.010269216595641025 0.020233061183047359 1 1 1 0.00081126391171754478 0.0022889048979277821 1 0.013515483153682653 1 1 1 1 1 1 1 1 1 1 0.010928429299807521 1 1 1 0.010213100277819735 1 0.012091507196702034 1 1 1 0.010368954710289082 1 1 1 1 1 1 1 1 1 0.0057669114556192468 1 0.003901208785915199 1 0.0083617544327070636 1 1 1 1 1 1 1 1 1 1 1 1 1 1 1 1 1 1 1 1 1 1 1 1 1 1 1 1 1 1 1 1 1 1 1 1 0.0097311243436233232 1 0.001464300870335191 1 1 1 1 1 0.011094260231119275 1 0.0028999870504553948 1 1 1 1 1 1 1 1 0.0087713171669937702 1 1 1 1 1 1 1 0.010036674747177149 1 1 1 0.010227344314052915 1 1 0.0019052237699060184 1 1 1 1 0.0044504904450404538 1 1 1 1 1 1 1 1 1 1 1 1 1 0.010223365854695091 1 1 1 1 1 1 0.010340590422438636 1 0.010356247226344404 1 1 1 1 1 0.0099241349386816457 1 1 1 1 1 1 1 1 1 1 1 1 1 1 1 1 1 1 0.010220441857570236 1 1 1 1 1 0.010162893332724701 1 1 1 1 1 1 1 1 1 0.012949991619128749 1 1 1 0.0076866554282051698 1 1 1 1 1 1 1 1 0.010879529515659256 1 0.016081168976809588 1 0.017492967209533417 1 0.012114319680698586 1 0.010153535113544308 1 1 1 0.0166217711061242 1 1 1 0.013520072120220866 1 1 0.015883968410916896 1 0.01899684902745763 0.012794694147441879 1 1 1 1 1 1 0.013007852379077424 1 0.020137681758643795 1 1 1 1 1 1 1 1 1 0.007207565435240473 1 1 1 1 1 1 1 1 1 1 1 1 1 1 1 1 1 1 1 1 1 1 0.0090599576118277209 1 1 1 1 0.015914086676147091 1 1 1 1 1 1 1 0.011985678072637647 1 1 1 1 1 1 1 1 1 1 1 1 1 1 1 1 1 1 1 1 1 1 0.010004235939925695 1 1 1 1 1 1 1 1 1 1 1 1 1 1 1 0.012264535527153122 1 1 0.010185750323271478 1 1 1 1 1 1 1 1 0.010956880999506365 0.019474474603864193 1 1 1 1 1 1 1 0.021446807026269422 1 1 1 1 1 1 1 1 0.0094031824961602253 1 1 1 1 0.011940112693387024 1 1 1 1 1 0.026598358675307063 1 1 1 0.010396399516566804 1 1 1 1 1 1 1 1 1 1 1 1 1 1 1 1 1 1 1 1 1 0.010837704087790478 1 0.018922556974309397 1 0.015511296655813075 0.010919311616446579 1 1 1 0.0045782516383674702 1 1 0.010024297294873039 1 1 1 0.024553207270031813 1 1 -3.9385548607218102e-09 1 1 1 1 1 0.012607046452111753 1 0.021878312555696281 1 1 1 0.010406298248664313 1 1 1 1 1 1 1 1 0.011002619643386998 1 1 1 1 0.011468137005305322 1 1 1 1 1 1 1 1 1 1 1 1 1 1 1 1 0.0077641044364600148 1 1 1 1 1 1 1 1 1 1 1 1 1 1 0.0036525553623157278 1 1 1 1 1 1 1 1 1 1 1 1 1 1 1 1 1 1 1 1 1 1 1 1 0.0092244184904201609 1 1 1 1 1 1 1 1 1 1 1 1 0.020946171266677732 1 1 1 0.010090376040664003 0.019562375765266763 1 0.0050510419500684259 1 1 1 1 1 1 1 1 1 0.017187696386909403 1 1 0.0068901664283085862 0.010382332737088093 1 1 1 0.0019924117334240224 0.010004731362105883 1 1 1 1 1 1 0.00064989601981946948 1 1 1 1 1 1 1 1 1 1 1 1 1 1 1 0.01104334032270856 1 1 1 1 1 1 0.013388072402274031 1 1 1 1 1 1 1 1 0.016068539863489058 1 1 1 1 1 1 1 1 0.010997869024784876 1 1 1 1 0.010344446112126954 1 1 1 1 1 1 1 1 1 1 1 1 1 0.010262498960962547 1 1 1 1 1 0.011061744560821245 1 1 1 1 0.022929971648670451 0.013739094962680406 1 1 1 1 1 0.024705243203133179 1 1 0.0039223722071305249 1 1 1 0.015761167893702143 0.015039178888264901 1 1 1 0.010753654541059253 1 1 1 1 0.018489367097481422 0.014314443354565932 1 1 1 1 1 1 1 1 0.0094361178290772018 1 1 
</DataArray>
</CellData>
</Piece>
</UnstructuredGrid>
</VTKFile>
